<?xml version="1.0"?>
<VTKFile type="UnstructuredGrid" version="0.1" byte_order="LittleEndian">
<UnstructuredGrid>
<Piece NumberOfPoints="30881" NumberOfCells="10862">
<Points>
<DataArray type="Float64" NumberOfComponents="3" format="ascii">
-0.49999999999999828 -0.48677703703187492 0 -0.5 -0.5 0 -0.48129281494584059 -0.49338851851593718 0 -0.5 -0.5 0 -0.48129281494584059 -0.49338851851593718 0 -0.46258562989168328 -0.5 0 -0.49999999999999828 -0.48677703703187492 0 -0.48129281494584059 -0.49338851851593718 0 -0.49999999999999828 -0.48677703703187492 0 -0.4824545428279598 -0.47451624516148783 0 -0.48129281494584059 -0.49338851851593718 0 -0.49999999999999828 -0.48677703703187492 0 -0.4824545428279598 -0.47451624516148783 0 -0.5 -0.46599539173150673 0 -0.4824545428279598 -0.47451624516148783 0 -0.46853075243710779 -0.48354990242643758 0 -0.46411508256092049 -0.46598235294430129 0 -0.4824545428279598 -0.47451624516148783 0 -0.48129281494584059 -0.49338851851593718 0 -0.46853075243710779 -0.48354990242643758 0 -0.48129281494584059 -0.49338851851593718 0 -0.46258562989168328 -0.5 0 -0.48129281494584059 -0.49338851851593718 0 -0.46258562989168328 -0.5 0 -0.46853075243710779 -0.48354990242643758 0 -0.46258562989168328 -0.5 0 -0.46853075243710779 -0.48354990242643758 0 -0.45147378687733691 -0.48362213557840178 0 -0.46853075243710779 -0.48354990242643758 0 -0.45147378687733691 -0.48362213557840178 0 -0.46411508256092049 -0.46598235294430129 0 -0.4457251648104853 -0.47020164095208389 0 -0.45147378687733691 -0.48362213557840178 0 -0.46411508256092049 -0.46598235294430129 0 -0.4457251648104853 -0.47020164095208389 0 -0.45147378687733691 -0.48362213557840178 0 -0.43513446131126993 -0.48199891714758791 0 -0.45147378687733691 -0.48362213557840178 0 -0.43275163025255442 -0.5 0 -0.43513446131126993 -0.48199891714758791 0 -0.46258562989168328 -0.5 0 -0.45147378687733691 -0.48362213557840178 0 -0.43275163025255442 -0.5 0 -0.4467190029717853 -0.45478934699519452 0 -0.4422915115958943 -0.43555510214664611 0 -0.43246707723660932 -0.44794326854796312 0 -0.4457251648104853 -0.47020164095208389 0 -0.4467190029717853 -0.45478934699519452 0 -0.46411508256092049 -0.46598235294430129 0 -0.4457251648104853 -0.47020164095208389 0 -0.4467190029717853 -0.45478934699519452 0 -0.43016578207734568 -0.46313500011938619 0 -0.4467190029717853 -0.45478934699519452 0 -0.46411508256092049 -0.46598235294430129 0 -0.47114575579794699 -0.4403844242888923 0 -0.4467190029717853 -0.45478934699519452 0 -0.47114575579794699 -0.4403844242888923 0 -0.4422915115958943 -0.43555510214664611 0 -0.47114575579794699 -0.4403844242888923 0 -0.4422915115958943 -0.43555510214664611 0 -0.46411508256092049 -0.46598235294430129 0 -0.47114575579794699 -0.4403844242888923 0 -0.48354307623736548 -0.45841843211146538 0 -0.4824545428279598 -0.47451624516148783 0 -0.46411508256092049 -0.46598235294430129 0 -0.48354307623736548 -0.45841843211146538 0 -0.4824545428279598 -0.47451624516148783 0 -0.48354307623736548 -0.45841843211146538 0 -0.5 -0.46599539173150673 0 -0.48354307623736548 -0.45841843211146538 0 -0.5 -0.46599539173150673 0 -0.49999999999999972 -0.44521374643113848 0 -0.47114575579794699 -0.4403844242888923 0 -0.49999999999999972 -0.44521374643113848 0 -0.47114575579794699 -0.4403844242888923 0 -0.49999999999999972 -0.44521374643113848 0 -0.48704432221743971 -0.42935617662229603 0 -0.47114575579794699 -0.4403844242888923 0 -0.48354307623736548 -0.45841843211146538 0 -0.49999999999999972 -0.44521374643113848 0 -0.49999999999999972 -0.44521374643113848 0 -0.48704432221743971 -0.42935617662229603 0 -0.5 -0.41591957503128979 0 -0.48704432221743971 -0.42935617662229603 0 -0.5 -0.41591957503128979 0 -0.47703153307181151 -0.41590696073786332 0 -0.5 -0.41591957503128979 0 -0.47703153307181151 -0.41590696073786332 0 -0.48817838912021821 -0.4022119694541284 0 -0.47114575579794699 -0.4403844242888923 0 -0.48704432221743971 -0.42935617662229603 0 -0.47703153307181151 -0.41590696073786332 0 -0.5 -0.38662540363144121 0 -0.47568202340906118 -0.39039593841591919 0 -0.4947615751445838 -0.37332156409002909 0 -0.47568202340906118 -0.39039593841591919 0 -0.4947615751445838 -0.37332156409002909 0 -0.5 -0.38662540363144121 0 -0.48817838912021821 -0.4022119694541284 0 -0.47568202340906118 -0.39039593841591919 0 -0.5 -0.41591957503128979 0 -0.5 -0.38662540363144121 0 -0.48817838912021821 -0.4022119694541284 0 -0.47703153307181151 -0.41590696073786332 0 -0.48817838912021821 -0.4022119694541284 0 -0.47568202340906118 -0.39039593841591919 0 -0.47703153307181151 -0.41590696073786332 0 -0.47568202340906118 -0.39039593841591919 0 -0.45660247167353862 -0.40747031274180939 0 -0.47568202340906118 -0.39039593841591919 0 -0.48030931097003587 -0.37191064435083931 0 -0.46669490250066459 -0.37481721741951951 0 -0.47568202340906118 -0.39039593841591919 0 -0.4947615751445838 -0.37332156409002909 0 -0.48030931097003587 -0.37191064435083931 0 -0.45332061783919553 -0.38729481725706361 0 -0.46669490250066459 -0.37481721741951951 0 -0.45095991715087752 -0.36968037302039969 0 -0.47568202340906118 -0.39039593841591919 0 -0.45332061783919553 -0.38729481725706361 0 -0.46669490250066459 -0.37481721741951951 0 -0.47568202340906118 -0.39039593841591919 0 -0.45660247167353862 -0.40747031274180939 0 -0.47568202340906118 -0.39039593841591919 0 -0.45332061783919553 -0.38729481725706361 0 -0.45660247167353862 -0.40747031274180939 0 -0.44332653075004852 -0.401690115615219 0 -0.44646247228389868 -0.41654464256061052 0 -0.42870657106664078 -0.39987574649354879 0 -0.45332061783919553 -0.38729481725706361 0 -0.44332653075004852 -0.401690115615219 0 -0.43479631603355468 -0.39077639303142497 0 -0.45332061783919553 -0.38729481725706361 0 -0.44332653075004852 -0.401690115615219 0 -0.45660247167353862 -0.40747031274180939 0 -0.45332061783919553 -0.38729481725706361 0 -0.43421362475025049 -0.37527491429266319 0 -0.43479631603355468 -0.39077639303142497 0 -0.45332061783919553 -0.38729481725706361 0 -0.43421362475025049 -0.37527491429266319 0 -0.45095991715087752 -0.36968037302039969 0 -0.47114575579794699 -0.4403844242888923 0 -0.45663439814062529 -0.42533932462455271 0 -0.4422915115958943 -0.43555510214664611 0 -0.47114575579794699 -0.4403844242888923 0 -0.47703153307181151 -0.41590696073786332 0 -0.45663439814062529 -0.42533932462455271 0 -0.45663439814062529 -0.42533932462455271 0 -0.45660247167353862 -0.40747031274180939 0 -0.44646247228389868 -0.41654464256061052 0 -0.47703153307181151 -0.41590696073786332 0 -0.45663439814062529 -0.42533932462455271 0 -0.45660247167353862 -0.40747031274180939 0 -0.44332653075004852 -0.401690115615219 0 -0.45660247167353862 -0.40747031274180939 0 -0.44646247228389868 -0.41654464256061052 0 -0.45660247167353862 -0.40747031274180939 0 -0.44646247228389868 -0.41654464256061052 0 -0.44646247228389868 -0.41654464256061052 0 -0.4375229199380159 -0.42454468706769971 0 -0.45663439814062529 -0.42533932462455271 0 -0.4375229199380159 -0.42454468706769971 0 -0.4422915115958943 -0.43555510214664611 0 -0.45663439814062529 -0.42533932462455271 0 -0.44646247228389868 -0.41654464256061052 0 -0.4375229199380159 -0.42454468706769971 0 -0.4375229199380159 -0.42454468706769971 0 -0.4422915115958943 -0.43555510214664611 0 -0.43077617074680319 -0.43406335077952207 0 -0.43077617074680319 -0.43406335077952207 0 -0.42550232634077589 -0.42345940056268039 0 -0.41950844772475421 -0.43888456563633732 0 -0.4375229199380159 -0.42454468706769971 0 -0.43077617074680319 -0.43406335077952207 0 -0.42550232634077589 -0.42345940056268039 0 -0.44646247228389868 -0.41654464256061052 0 -0.41657232816672918 -0.41306671883907142 0 -0.42870657106664078 -0.39987574649354879 0 -0.44646247228389868 -0.41654464256061052 0 -0.4375229199380159 -0.42454468706769971 0 -0.42550232634077589 -0.42345940056268039 0 -0.44646247228389868 -0.41654464256061052 0 -0.42550232634077589 -0.42345940056268039 0 -0.41657232816672918 -0.41306671883907142 0 -0.44646247228389868 -0.41654464256061052 0 -0.41657232816672918 -0.41306671883907142 0 -0.42550232634077589 -0.42345940056268039 0 -0.41657232816672918 -0.41306671883907142 0 -0.41333489101611293 -0.42699700567040988 0 -0.41657232816672918 -0.41306671883907142 0 -0.41333489101611293 -0.42699700567040988 0 -0.39893236021425188 -0.42931692235905211 0 -0.41333489101611293 -0.42699700567040988 0 -0.39893236021425188 -0.42931692235905211 0 -0.41950844772475421 -0.43888456563633732 0 -0.42550232634077589 -0.42345940056268039 0 -0.41333489101611293 -0.42699700567040988 0 -0.41950844772475421 -0.43888456563633732 0 -0.43421362475025049 -0.37527491429266319 0 -0.42478231784314502 -0.38643128255249681 0 -0.41656514696884139 -0.37636588688318029 0 -0.43421362475025049 -0.37527491429266319 0 -0.42478231784314502 -0.38643128255249681 0 -0.43479631603355468 -0.39077639303142497 0 -0.42478231784314502 -0.38643128255249681 0 -0.43479631603355468 -0.39077639303142497 0 -0.42870657106664078 -0.39987574649354879 0 -0.44332653075004852 -0.401690115615219 0 -0.43479631603355468 -0.39077639303142497 0 -0.42870657106664078 -0.39987574649354879 0 -0.41657232816672918 -0.41306671883907142 0 -0.40962993039643741 -0.3898634720616666 0 -0.3946356370269814 -0.39577424904278191 0 -0.42478231784314502 -0.38643128255249681 0 -0.42870657106664078 -0.39987574649354879 0 -0.40962993039643741 -0.3898634720616666 0 -0.41657232816672918 -0.41306671883907142 0 -0.42870657106664078 -0.39987574649354879 0 -0.40962993039643741 -0.3898634720616666 0 -0.42478231784314502 -0.38643128255249681 0 -0.40962993039643741 -0.3898634720616666 0 -0.41656514696884139 -0.37636588688318029 0 -0.40962993039643741 -0.3898634720616666 0 -0.41656514696884139 -0.37636588688318029 0 -0.40465459864295228 -0.37650109000307358 0 -0.39431275766669582 -0.38061373190328529 0 -0.40465459864295228 -0.37650109000307358 0 -0.3968495855878465 -0.36923685638487008 0 -0.40962993039643741 -0.3898634720616666 0 -0.39431275766669582 -0.38061373190328529 0 -0.40465459864295228 -0.37650109000307358 0 -0.40962993039643741 -0.3898634720616666 0 -0.39431275766669582 -0.38061373190328529 0 -0.3946356370269814 -0.39577424904278191 0 -0.3946356370269814 -0.39577424904278191 0 -0.38704143117499401 -0.40999023144455299 0 -0.37464038230528551 -0.396492613407532 0 -0.3946356370269814 -0.39577424904278191 0 -0.37522403377147279 -0.38060127254172499 0 -0.37464038230528551 -0.396492613407532 0 -0.39431275766669582 -0.38061373190328529 0 -0.3946356370269814 -0.39577424904278191 0 -0.37522403377147279 -0.38060127254172499 0 -0.39431275766669582 -0.38061373190328529 0 -0.37522403377147279 -0.38060127254172499 0 -0.38569326772338258 -0.37053454129240582 0 -0.41657232816672918 -0.41306671883907142 0 -0.39893236021425188 -0.42931692235905211 0 -0.38704143117499401 -0.40999023144455299 0 -0.41657232816672918 -0.41306671883907142 0 -0.3946356370269814 -0.39577424904278191 0 -0.38704143117499401 -0.40999023144455299 0 -0.41657232816672918 -0.41306671883907142 0 -0.38704143117499401 -0.40999023144455299 0 -0.38704143117499401 -0.40999023144455299 0 -0.38131756488089769 -0.42670085612339947 0 -0.36377437909963828 -0.41972983174959272 0 -0.38131756488089769 -0.42670085612339947 0 -0.38339996822118783 -0.44368928783448319 0 -0.36866352395763108 -0.4313760290561211 0 -0.39893236021425188 -0.42931692235905211 0 -0.38131756488089769 -0.42670085612339947 0 -0.38339996822118783 -0.44368928783448319 0 -0.39893236021425188 -0.42931692235905211 0 -0.38704143117499401 -0.40999023144455299 0 -0.38131756488089769 -0.42670085612339947 0 -0.38339996822118783 -0.44368928783448319 0 -0.40446438048225181 -0.45117017211807442 0 -0.3895931593355052 -0.46351353191466821 0 -0.39893236021425188 -0.42931692235905211 0 -0.38339996822118783 -0.44368928783448319 0 -0.40446438048225181 -0.45117017211807442 0 -0.40446438048225181 -0.45117017211807442 0 -0.3895931593355052 -0.46351353191466821 0 -0.40280611050484572 -0.47090640128894168 0 -0.38339996822118783 -0.44368928783448319 0 -0.3895931593355052 -0.46351353191466821 0 -0.37415472949075129 -0.45946062715310632 0 -0.3895931593355052 -0.46351353191466821 0 -0.38039451612360919 -0.47713749807852829 0 -0.37415472949075129 -0.45946062715310632 0 -0.38039451612360919 -0.47713749807852829 0 -0.39198476482648659 -0.49312537606366408 0 -0.39366244928105898 -0.47747566409097131 0 -0.3895931593355052 -0.46351353191466821 0 -0.38039451612360919 -0.47713749807852829 0 -0.39366244928105898 -0.47747566409097131 0 -0.39198476482648659 -0.49312537606366408 0 -0.37055643484088358 -0.49425936316784103 0 -0.39198476482648659 -0.49312537606366408 0 -0.40291763061342539 -0.5 0 -0.37308363097429631 -0.50000000000000244 0 -0.39198476482648659 -0.49312537606366408 0 -0.37055643484088358 -0.49425936316784103 0 -0.37308363097429631 -0.50000000000000244 0 -0.38039451612360919 -0.47713749807852829 0 -0.39198476482648659 -0.49312537606366408 0 -0.37055643484088358 -0.49425936316784103 0 -0.39198476482648659 -0.49312537606366408 0 -0.41341309481208982 -0.49199138895948757 0 -0.39198476482648659 -0.49312537606366408 0 -0.39366244928105898 -0.47747566409097131 0 -0.40353369561484831 -0.48269551310905429 0 -0.39198476482648659 -0.49312537606366408 0 -0.40291763061342539 -0.5 0 -0.41341309481208982 -0.49199138895948757 0 -0.39198476482648659 -0.49312537606366408 0 -0.40353369561484831 -0.48269551310905429 0 -0.41341309481208982 -0.49199138895948757 0 -0.3895931593355052 -0.46351353191466821 0 -0.39366244928105898 -0.47747566409097131 0 -0.40280611050484572 -0.47090640128894168 0 -0.39366244928105898 -0.47747566409097131 0 -0.40353369561484831 -0.48269551310905429 0 -0.40280611050484572 -0.47090640128894168 0 -0.40280611050484572 -0.47090640128894168 0 -0.41792735015940108 -0.47619959015896091 0 -0.41524515795200517 -0.46243146669528151 0 -0.40353369561484831 -0.48269551310905429 0 -0.41792735015940108 -0.47619959015896091 0 -0.41341309481208982 -0.49199138895948757 0 -0.40353369561484831 -0.48269551310905429 0 -0.40280611050484572 -0.47090640128894168 0 -0.41792735015940108 -0.47619959015896091 0 -0.41792735015940108 -0.47619959015896091 0 -0.41341309481208982 -0.49199138895948757 0 -0.42480663413382869 -0.48754747406650911 0 -0.40291763061342539 -0.5 0 -0.41341309481208982 -0.49199138895948757 0 -0.43275163025255442 -0.5 0 -0.41341309481208982 -0.49199138895948757 0 -0.42480663413382869 -0.48754747406650911 0 -0.43275163025255442 -0.5 0 -0.42480663413382869 -0.48754747406650911 0 -0.43275163025255442 -0.5 0 -0.43513446131126993 -0.48199891714758791 0 -0.4457251648104853 -0.47020164095208389 0 -0.43513446131126993 -0.48199891714758791 0 -0.43016578207734568 -0.46313500011938619 0 -0.41792735015940108 -0.47619959015896091 0 -0.43513446131126993 -0.48199891714758791 0 -0.43016578207734568 -0.46313500011938619 0 -0.41792735015940108 -0.47619959015896091 0 -0.42480663413382869 -0.48754747406650911 0 -0.43513446131126993 -0.48199891714758791 0 -0.4467190029717853 -0.45478934699519452 0 -0.43016578207734568 -0.46313500011938619 0 -0.43246707723660932 -0.44794326854796312 0 -0.43016578207734568 -0.46313500011938619 0 -0.42051073979218989 -0.45215097324273301 0 -0.41524515795200517 -0.46243146669528151 0 -0.43016578207734568 -0.46313500011938619 0 -0.43246707723660932 -0.44794326854796312 0 -0.42051073979218989 -0.45215097324273301 0 -0.4422915115958943 -0.43555510214664611 0 -0.43077617074680319 -0.43406335077952207 0 -0.43246707723660932 -0.44794326854796312 0 -0.43077617074680319 -0.43406335077952207 0 -0.43246707723660932 -0.44794326854796312 0 -0.41950844772475421 -0.43888456563633732 0 -0.43246707723660932 -0.44794326854796312 0 -0.42051073979218989 -0.45215097324273301 0 -0.41950844772475421 -0.43888456563633732 0 -0.39893236021425188 -0.42931692235905211 0 -0.40446438048225181 -0.45117017211807442 0 -0.41950844772475421 -0.43888456563633732 0 -0.40446438048225181 -0.45117017211807442 0 -0.42051073979218989 -0.45215097324273301 0 -0.41950844772475421 -0.43888456563633732 0 -0.40446438048225181 -0.45117017211807442 0 -0.42051073979218989 -0.45215097324273301 0 -0.41524515795200517 -0.46243146669528151 0 -0.40446438048225181 -0.45117017211807442 0 -0.40280611050484572 -0.47090640128894168 0 -0.41524515795200517 -0.46243146669528151 0 -0.41792735015940108 -0.47619959015896091 0 -0.43016578207734568 -0.46313500011938619 0 -0.41524515795200517 -0.46243146669528151 0 -0.45018232007011222 -0.256765034028549 0 -0.429874989515865 -0.26165756953837482 0 -0.43598079583492633 -0.24721882136819351 0 -0.45018232007011222 -0.256765034028549 0 -0.43765198640052377 -0.27443700488157741 0 -0.429874989515865 -0.26165756953837482 0 -0.45018232007011222 -0.256765034028549 0 -0.43598079583492633 -0.24721882136819351 0 -0.45139902778349827 -0.24711062934306771 0 -0.45018232007011222 -0.256765034028549 0 -0.43765198640052377 -0.27443700488157741 0 -0.46196722525855399 -0.27174391220054139 0 -0.43765198640052377 -0.27443700488157741 0 -0.46196722525855399 -0.27174391220054139 0 -0.4476129789611048 -0.29283803371489903 0 -0.46196722525855399 -0.27174391220054139 0 -0.48050148842732221 -0.25523221810557922 0 -0.46267023581878858 -0.24817136713935201 0 -0.45018232007011222 -0.256765034028549 0 -0.46196722525855399 -0.27174391220054139 0 -0.46267023581878858 -0.24817136713935201 0 -0.45018232007011222 -0.256765034028549 0 -0.46267023581878858 -0.24817136713935201 0 -0.45139902778349827 -0.24711062934306771 0 -0.48050148842732221 -0.25523221810557922 0 -0.5 -0.26944871803204617 0 -0.5 -0.2401545466321974 0 -0.48050148842732221 -0.25523221810557922 0 -0.5 -0.26944871803204617 0 -0.48245797385404121 -0.28063059353633901 0 -0.46196722525855399 -0.27174391220054139 0 -0.48050148842732221 -0.25523221810557922 0 -0.48245797385404121 -0.28063059353633901 0 -0.46196722525855399 -0.27174391220054139 0 -0.48245797385404121 -0.28063059353633901 0 -0.46937090116945868 -0.29821258941183898 0 -0.48245797385404121 -0.28063059353633901 0 -0.5 -0.29874288943189498 0 -0.46937090116945868 -0.29821258941183898 0 -0.5 -0.26944871803204617 0 -0.48245797385404121 -0.28063059353633901 0 -0.5 -0.29874288943189498 0 -0.5 -0.29874288943189498 0 -0.46937090116945868 -0.29821258941183898 0 -0.47623524987602139 -0.32201367690444971 0 -0.46937090116945868 -0.29821258941183898 0 -0.4476129789611048 -0.29283803371489903 0 -0.45018982867155483 -0.32180400573951162 0 -0.46196722525855399 -0.27174391220054139 0 -0.46937090116945868 -0.29821258941183898 0 -0.4476129789611048 -0.29283803371489903 0 -0.43765198640052377 -0.27443700488157741 0 -0.4476129789611048 -0.29283803371489903 0 -0.43236213870239748 -0.29002705800971151 0 -0.4476129789611048 -0.29283803371489903 0 -0.45018982867155483 -0.32180400573951162 0 -0.4314578060398388 -0.3048790663939604 0 -0.45018982867155483 -0.32180400573951162 0 -0.4314578060398388 -0.3048790663939604 0 -0.45018982867155483 -0.32180400573951162 0 -0.46157657978994598 -0.34139555482026068 0 -0.43521386225128428 -0.33802231259611382 0 -0.46157657978994598 -0.34139555482026068 0 -0.43521386225128428 -0.33802231259611382 0 -0.45018982867155483 -0.32180400573951162 0 -0.46157657978994598 -0.34139555482026068 0 -0.47623524987602139 -0.32201367690444971 0 -0.46937090116945868 -0.29821258941183898 0 -0.45018982867155483 -0.32180400573951162 0 -0.47623524987602139 -0.32201367690444971 0 -0.5 -0.29874288943189498 0 -0.47623524987602139 -0.32201367690444971 0 -0.5 -0.32803706083174372 0 -0.47623524987602139 -0.32201367690444971 0 -0.5 -0.32803706083174372 0 -0.48561656391384522 -0.34384835974822991 0 -0.5 -0.32803706083174372 0 -0.5 -0.35733123223159241 0 -0.48561656391384522 -0.34384835974822991 0 -0.46157657978994598 -0.34139555482026068 0 -0.47623524987602139 -0.32201367690444971 0 -0.48561656391384522 -0.34384835974822991 0 -0.46157657978994598 -0.34139555482026068 0 -0.47568148196104371 -0.35852722048879659 0 -0.48561656391384522 -0.34384835974822991 0 -0.47568148196104371 -0.35852722048879659 0 -0.48561656391384522 -0.34384835974822991 0 -0.48768886795130861 -0.36141736908419309 0 -0.5 -0.35733123223159241 0 -0.48561656391384522 -0.34384835974822991 0 -0.48768886795130861 -0.36141736908419309 0 -0.5 -0.35733123223159241 0 -0.4947615751445838 -0.37332156409002909 0 -0.48768886795130861 -0.36141736908419309 0 -0.5 -0.38662540363144121 0 -0.5 -0.35733123223159241 0 -0.4947615751445838 -0.37332156409002909 0 -0.4947615751445838 -0.37332156409002909 0 -0.48768886795130861 -0.36141736908419309 0 -0.48030931097003587 -0.37191064435083931 0 -0.47568148196104371 -0.35852722048879659 0 -0.48030931097003587 -0.37191064435083931 0 -0.46669490250066459 -0.37481721741951951 0 -0.47568148196104371 -0.35852722048879659 0 -0.48768886795130861 -0.36141736908419309 0 -0.48030931097003587 -0.37191064435083931 0 -0.46669490250066459 -0.37481721741951951 0 -0.45985290530711531 -0.35919053618658509 0 -0.45095991715087752 -0.36968037302039969 0 -0.47568148196104371 -0.35852722048879659 0 -0.46669490250066459 -0.37481721741951951 0 -0.45985290530711531 -0.35919053618658509 0 -0.46157657978994598 -0.34139555482026068 0 -0.47568148196104371 -0.35852722048879659 0 -0.45985290530711531 -0.35919053618658509 0 -0.46157657978994598 -0.34139555482026068 0 -0.45985290530711531 -0.35919053618658509 0 -0.44091292170358748 -0.35617636658334351 0 -0.46157657978994598 -0.34139555482026068 0 -0.44091292170358748 -0.35617636658334351 0 -0.43521386225128428 -0.33802231259611382 0 -0.43421362475025049 -0.37527491429266319 0 -0.44091292170358748 -0.35617636658334351 0 -0.45095991715087752 -0.36968037302039969 0 -0.45985290530711531 -0.35919053618658509 0 -0.44091292170358748 -0.35617636658334351 0 -0.45095991715087752 -0.36968037302039969 0 -0.43421362475025049 -0.37527491429266319 0 -0.41656514696884139 -0.37636588688318029 0 -0.42218579342164808 -0.36334977441807748 0 -0.43421362475025049 -0.37527491429266319 0 -0.44091292170358748 -0.35617636658334351 0 -0.42218579342164808 -0.36334977441807748 0 -0.44091292170358748 -0.35617636658334351 0 -0.42218579342164808 -0.36334977441807748 0 -0.42066840753926321 -0.34864312644900147 0 -0.44091292170358748 -0.35617636658334351 0 -0.42066840753926321 -0.34864312644900147 0 -0.43521386225128428 -0.33802231259611382 0 -0.42218579342164808 -0.36334977441807748 0 -0.42066840753926321 -0.34864312644900147 0 -0.40690054455725883 -0.35815659477868023 0 -0.40690054455725883 -0.35815659477868023 0 -0.40885114471262263 -0.334649070371968 0 -0.42066840753926321 -0.34864312644900147 0 -0.40690054455725883 -0.35815659477868023 0 -0.40885114471262263 -0.334649070371968 0 -0.42218579342164808 -0.36334977441807748 0 -0.40690054455725883 -0.35815659477868023 0 -0.40625971269279348 -0.36587953617857771 0 -0.40690054455725883 -0.35815659477868023 0 -0.40625971269279348 -0.36587953617857771 0 -0.41656514696884139 -0.37636588688318029 0 -0.42218579342164808 -0.36334977441807748 0 -0.40625971269279348 -0.36587953617857771 0 -0.42218579342164808 -0.36334977441807748 0 -0.40690054455725883 -0.35815659477868023 0 -0.41656514696884139 -0.37636588688318029 0 -0.40465459864295228 -0.37650109000307358 0 -0.40625971269279348 -0.36587953617857771 0 -0.40465459864295228 -0.37650109000307358 0 -0.40625971269279348 -0.36587953617857771 0 -0.3968495855878465 -0.36923685638487008 0 -0.40690054455725883 -0.35815659477868023 0 -0.40029228617445223 -0.36350286704594809 0 -0.3911593018599101 -0.36073848084166482 0 -0.40625971269279348 -0.36587953617857771 0 -0.40029228617445223 -0.36350286704594809 0 -0.3968495855878465 -0.36923685638487008 0 -0.40690054455725883 -0.35815659477868023 0 -0.40625971269279348 -0.36587953617857771 0 -0.40029228617445223 -0.36350286704594809 0 -0.3911593018599101 -0.36073848084166482 0 -0.3968495855878465 -0.36923685638487008 0 -0.38569326772338258 -0.37053454129240582 0 -0.40029228617445223 -0.36350286704594809 0 -0.3911593018599101 -0.36073848084166482 0 -0.3968495855878465 -0.36923685638487008 0 -0.39431275766669582 -0.38061373190328529 0 -0.3968495855878465 -0.36923685638487008 0 -0.38569326772338258 -0.37053454129240582 0 -0.3911593018599101 -0.36073848084166482 0 -0.38569326772338258 -0.37053454129240582 0 -0.37568472164775779 -0.36524225821647011 0 -0.37522403377147279 -0.38060127254172499 0 -0.38569326772338258 -0.37053454129240582 0 -0.37568472164775779 -0.36524225821647011 0 -0.3911593018599101 -0.36073848084166482 0 -0.37568472164775779 -0.36524225821647011 0 -0.38024887903539811 -0.3491016629308506 0 -0.40690054455725883 -0.35815659477868023 0 -0.3911593018599101 -0.36073848084166482 0 -0.38024887903539811 -0.3491016629308506 0 -0.40690054455725883 -0.35815659477868023 0 -0.38024887903539811 -0.3491016629308506 0 -0.39533213247953691 -0.34338662223350158 0 -0.40690054455725883 -0.35815659477868023 0 -0.39533213247953691 -0.34338662223350158 0 -0.40885114471262263 -0.334649070371968 0 -0.40690054455725883 -0.35815659477868023 0 -0.38024887903539811 -0.3491016629308506 0 -0.39533213247953691 -0.34338662223350158 0 -0.38532796161286798 -0.33163916085250739 0 -0.40885114471262263 -0.334649070371968 0 -0.38532796161286798 -0.33163916085250739 0 -0.40885114471262263 -0.334649070371968 0 -0.38024887903539811 -0.3491016629308506 0 -0.39533213247953691 -0.34338662223350158 0 -0.38532796161286798 -0.33163916085250739 0 -0.38024887903539811 -0.3491016629308506 0 -0.38532796161286798 -0.33163916085250739 0 -0.37024470816872912 -0.33735420154985679 0 -0.38532796161286798 -0.33163916085250739 0 -0.37601492727600683 -0.3197696392392384 0 -0.39293033406270472 -0.31505081143976649 0 -0.37601492727600683 -0.3197696392392384 0 -0.39293033406270472 -0.31505081143976649 0 -0.37651642550459341 -0.307078797330949 0 -0.38532796161286798 -0.33163916085250739 0 -0.39293033406270472 -0.31505081143976649 0 -0.40885114471262263 -0.334649070371968 0 -0.39293033406270472 -0.31505081143976649 0 -0.40885114471262263 -0.334649070371968 0 -0.41078846406037228 -0.3113015987101887 0 -0.40885114471262263 -0.334649070371968 0 -0.42554877913925399 -0.3223331804902434 0 -0.41078846406037228 -0.3113015987101887 0 -0.40885114471262263 -0.334649070371968 0 -0.41078846406037228 -0.3113015987101887 0 -0.42066840753926321 -0.34864312644900147 0 -0.40885114471262263 -0.334649070371968 0 -0.43521386225128428 -0.33802231259611382 0 -0.40885114471262263 -0.334649070371968 0 -0.43521386225128428 -0.33802231259611382 0 -0.40885114471262263 -0.334649070371968 0 -0.43521386225128428 -0.33802231259611382 0 -0.42554877913925399 -0.3223331804902434 0 -0.42554877913925399 -0.3223331804902434 0 -0.4314578060398388 -0.3048790663939604 0 -0.41078846406037228 -0.3113015987101887 0 -0.45018982867155483 -0.32180400573951162 0 -0.43521386225128428 -0.33802231259611382 0 -0.42554877913925399 -0.3223331804902434 0 -0.45018982867155483 -0.32180400573951162 0 -0.42554877913925399 -0.3223331804902434 0 -0.4314578060398388 -0.3048790663939604 0 -0.4476129789611048 -0.29283803371489903 0 -0.4314578060398388 -0.3048790663939604 0 -0.43236213870239748 -0.29002705800971151 0 -0.4314578060398388 -0.3048790663939604 0 -0.43236213870239748 -0.29002705800971151 0 -0.41272578340812272 -0.2879541270484095 0 -0.4314578060398388 -0.3048790663939604 0 -0.41272578340812272 -0.2879541270484095 0 -0.43765198640052377 -0.27443700488157741 0 -0.43236213870239748 -0.29002705800971151 0 -0.41272578340812272 -0.2879541270484095 0 -0.4314578060398388 -0.3048790663939604 0 -0.41272578340812272 -0.2879541270484095 0 -0.41078846406037228 -0.3113015987101887 0 -0.41272578340812272 -0.2879541270484095 0 -0.41078846406037228 -0.3113015987101887 0 -0.41272578340812272 -0.2879541270484095 0 -0.41078846406037228 -0.3113015987101887 0 -0.39233272698174793 -0.29435547039456872 0 -0.39293033406270472 -0.31505081143976649 0 -0.41078846406037228 -0.3113015987101887 0 -0.39233272698174793 -0.29435547039456872 0 -0.39293033406270472 -0.31505081143976649 0 -0.37651642550459341 -0.307078797330949 0 -0.39233272698174793 -0.29435547039456872 0 -0.39233272698174793 -0.29435547039456872 0 -0.39278725088820249 -0.26993907014966689 0 -0.37040839911066209 -0.28171057629616708 0 -0.37651642550459341 -0.307078797330949 0 -0.39233272698174793 -0.29435547039456872 0 -0.37040839911066209 -0.28171057629616708 0 -0.41272578340812272 -0.2879541270484095 0 -0.39233272698174793 -0.29435547039456872 0 -0.39278725088820249 -0.26993907014966689 0 -0.41272578340812272 -0.2879541270484095 0 -0.39278725088820249 -0.26993907014966689 0 -0.39278725088820249 -0.26993907014966689 0 -0.37040839911066209 -0.28171057629616708 0 -0.39278725088820249 -0.26993907014966689 0 -0.37533687834285862 -0.25417213976024849 0 -0.37040839911066209 -0.28171057629616708 0 -0.39278725088820249 -0.26993907014966689 0 -0.37533687834285862 -0.25417213976024849 0 -0.39826986996263802 -0.25360934065352753 0 -0.39278725088820249 -0.26993907014966689 0 -0.37533687834285862 -0.25417213976024849 0 -0.39278725088820249 -0.26993907014966689 0 -0.39826986996263802 -0.25360934065352753 0 -0.41519883225968468 -0.25815034790020708 0 -0.39278725088820249 -0.26993907014966689 0 -0.41519883225968468 -0.25815034790020708 0 -0.39826986996263802 -0.25360934065352753 0 -0.41519883225968468 -0.25815034790020708 0 -0.41615383063077721 -0.2466412503256647 0 -0.41519883225968468 -0.25815034790020708 0 -0.41615383063077721 -0.2466412503256647 0 -0.41272578340812272 -0.2879541270484095 0 -0.41519883225968468 -0.25815034790020708 0 -0.41272578340812272 -0.2879541270484095 0 -0.41519883225968468 -0.25815034790020708 0 -0.429874989515865 -0.26165756953837482 0 -0.41272578340812272 -0.2879541270484095 0 -0.39278725088820249 -0.26993907014966689 0 -0.41519883225968468 -0.25815034790020708 0 -0.43765198640052377 -0.27443700488157741 0 -0.41272578340812272 -0.2879541270484095 0 -0.429874989515865 -0.26165756953837482 0 -0.41519883225968468 -0.25815034790020708 0 -0.43598079583492633 -0.24721882136819351 0 -0.41519883225968468 -0.25815034790020708 0 -0.429874989515865 -0.26165756953837482 0 -0.43598079583492633 -0.24721882136819351 0 -0.41519883225968468 -0.25815034790020708 0 -0.43598079583492633 -0.24721882136819351 0 -0.41615383063077721 -0.2466412503256647 0 -0.31968345090478489 -0.25798973640781447 0 -0.33623326073948312 -0.25365348176558788 0 -0.32213598881581812 -0.2442700999577708 0 -0.31968345090478489 -0.25798973640781447 0 -0.31319680135340772 -0.27337899374224139 0 -0.30564385326437488 -0.26015983685037081 0 -0.31968345090478489 -0.25798973640781447 0 -0.31319680135340772 -0.27337899374224139 0 -0.33256675641106698 -0.27199424518209242 0 -0.31319680135340772 -0.27337899374224139 0 -0.33256675641106698 -0.27199424518209242 0 -0.3219330120753135 -0.28752383142540722 0 -0.33256675641106698 -0.27199424518209242 0 -0.33623326073948312 -0.25365348176558788 0 -0.35329637777243872 -0.26495799818728782 0 -0.31968345090478489 -0.25798973640781447 0 -0.33256675641106698 -0.27199424518209242 0 -0.33623326073948312 -0.25365348176558788 0 -0.33623326073948312 -0.25365348176558788 0 -0.35329637777243872 -0.26495799818728782 0 -0.35305879752332059 -0.24486073726717009 0 -0.37533687834285862 -0.25417213976024849 0 -0.35329637777243872 -0.26495799818728782 0 -0.35305879752332059 -0.24486073726717009 0 -0.37533687834285862 -0.25417213976024849 0 -0.35329637777243872 -0.26495799818728782 0 -0.37040839911066209 -0.28171057629616708 0 -0.35329637777243872 -0.26495799818728782 0 -0.34802954733312141 -0.29348208244266671 0 -0.37040839911066209 -0.28171057629616708 0 -0.33256675641106698 -0.27199424518209242 0 -0.35329637777243872 -0.26495799818728782 0 -0.34802954733312141 -0.29348208244266671 0 -0.34802954733312141 -0.29348208244266671 0 -0.37040839911066209 -0.28171057629616708 0 -0.37651642550459341 -0.307078797330949 0 -0.37040839911066209 -0.28171057629616708 0 -0.36249180620921062 -0.30132401124355712 0 -0.34802954733312141 -0.29348208244266671 0 -0.37040839911066209 -0.28171057629616708 0 -0.36249180620921062 -0.30132401124355712 0 -0.37651642550459341 -0.307078797330949 0 -0.36249180620921062 -0.30132401124355712 0 -0.36514172279026702 -0.314674684486903 0 -0.36249180620921062 -0.30132401124355712 0 -0.35217384865543538 -0.31302074178168637 0 -0.36514172279026702 -0.314674684486903 0 -0.34802954733312141 -0.29348208244266671 0 -0.33894022777705518 -0.31261958861733652 0 -0.35217384865543538 -0.31302074178168637 0 -0.34802954733312141 -0.29348208244266671 0 -0.36249180620921062 -0.30132401124355712 0 -0.35217384865543538 -0.31302074178168637 0 -0.34802954733312141 -0.29348208244266671 0 -0.32565069555558063 -0.30525358858916618 0 -0.33894022777705518 -0.31261958861733652 0 -0.34802954733312141 -0.29348208244266671 0 -0.32565069555558063 -0.30525358858916618 0 -0.32565069555558063 -0.30525358858916618 0 -0.32940773276489932 -0.31652548782855527 0 -0.33894022777705518 -0.31261958861733652 0 -0.33256675641106698 -0.27199424518209242 0 -0.34802954733312141 -0.29348208244266671 0 -0.3219330120753135 -0.28752383142540722 0 -0.34802954733312141 -0.29348208244266671 0 -0.3219330120753135 -0.28752383142540722 0 -0.32565069555558063 -0.30525358858916618 0 -0.3219330120753135 -0.28752383142540722 0 -0.31228269981280887 -0.29918463989613459 0 -0.30483638085835207 -0.28788342401786787 0 -0.31319680135340772 -0.27337899374224139 0 -0.3219330120753135 -0.28752383142540722 0 -0.30483638085835207 -0.28788342401786787 0 -0.32565069555558063 -0.30525358858916618 0 -0.30327184377803978 -0.31702509473566581 0 -0.31228269981280887 -0.29918463989613459 0 -0.3219330120753135 -0.28752383142540722 0 -0.32565069555558063 -0.30525358858916618 0 -0.31228269981280887 -0.29918463989613459 0 -0.32565069555558063 -0.30525358858916618 0 -0.30327184377803978 -0.31702509473566581 0 -0.31475841231360341 -0.32260943229412947 0 -0.32694554799167658 -0.33099179923519167 0 -0.33828159541335823 -0.32561934181358893 0 -0.32565069555558063 -0.30525358858916618 0 -0.31475841231360341 -0.32260943229412947 0 -0.30327184377803978 -0.31702509473566581 0 -0.31475841231360341 -0.32260943229412947 0 -0.33828159541335823 -0.32561934181358893 0 -0.32940773276489932 -0.31652548782855527 0 -0.32565069555558063 -0.30525358858916618 0 -0.31475841231360341 -0.32260943229412947 0 -0.32940773276489932 -0.31652548782855527 0 -0.31475841231360341 -0.32260943229412947 0 -0.33828159541335823 -0.32561934181358893 0 -0.31475841231360341 -0.32260943229412947 0 -0.31372637242327511 -0.33497634201883658 0 -0.32694554799167658 -0.33099179923519167 0 -0.32694554799167658 -0.33099179923519167 0 -0.32737612656656928 -0.35021722948502532 0 -0.3170311031704231 -0.34491623006635341 0 -0.31372637242327511 -0.33497634201883658 0 -0.32694554799167658 -0.33099179923519167 0 -0.3170311031704231 -0.34491623006635341 0 -0.31372637242327511 -0.33497634201883658 0 -0.3170311031704231 -0.34491623006635341 0 -0.30849554643820359 -0.34481279163420842 0 -0.32694554799167658 -0.33099179923519167 0 -0.33828159541335823 -0.32561934181358893 0 -0.35359721351353718 -0.34004673108302108 0 -0.32694554799167658 -0.33099179923519167 0 -0.35359721351353718 -0.34004673108302108 0 -0.33765025977867152 -0.34480892108230998 0 -0.32694554799167658 -0.33099179923519167 0 -0.35359721351353718 -0.34004673108302108 0 -0.32694554799167658 -0.33099179923519167 0 -0.33765025977867152 -0.34480892108230998 0 -0.32737612656656928 -0.35021722948502532 0 -0.33828159541335823 -0.32561934181358893 0 -0.32940773276489932 -0.31652548782855527 0 -0.33894022777705518 -0.31261958861733652 0 -0.33828159541335823 -0.32561934181358893 0 -0.33894022777705518 -0.31261958861733652 0 -0.35217384865543538 -0.31302074178168637 0 -0.33828159541335823 -0.32561934181358893 0 -0.3618047785131131 -0.32862925133304821 0 -0.33828159541335823 -0.32561934181358893 0 -0.35217384865543538 -0.31302074178168637 0 -0.3618047785131131 -0.32862925133304821 0 -0.38532796161286798 -0.33163916085250739 0 -0.37601492727600683 -0.3197696392392384 0 -0.3618047785131131 -0.32862925133304821 0 -0.35217384865543538 -0.31302074178168637 0 -0.36514172279026702 -0.314674684486903 0 -0.3618047785131131 -0.32862925133304821 0 -0.37601492727600683 -0.3197696392392384 0 -0.36514172279026702 -0.314674684486903 0 -0.3618047785131131 -0.32862925133304821 0 -0.37601492727600683 -0.3197696392392384 0 -0.37651642550459341 -0.307078797330949 0 -0.36514172279026702 -0.314674684486903 0 -0.38532796161286798 -0.33163916085250739 0 -0.37024470816872912 -0.33735420154985679 0 -0.3618047785131131 -0.32862925133304821 0 -0.37024470816872912 -0.33735420154985679 0 -0.3618047785131131 -0.32862925133304821 0 -0.35359721351353718 -0.34004673108302108 0 -0.38532796161286798 -0.33163916085250739 0 -0.3618047785131131 -0.32862925133304821 0 -0.38024887903539811 -0.3491016629308506 0 -0.37024470816872912 -0.33735420154985679 0 -0.35359721351353718 -0.34004673108302108 0 -0.33828159541335823 -0.32561934181358893 0 -0.3618047785131131 -0.32862925133304821 0 -0.35359721351353718 -0.34004673108302108 0 -0.35359721351353718 -0.34004673108302108 0 -0.36247207576052709 -0.35740109745143939 0 -0.34268215104290278 -0.35797992452600158 0 -0.35359721351353718 -0.34004673108302108 0 -0.34268215104290278 -0.35797992452600158 0 -0.33765025977867152 -0.34480892108230998 0 -0.37568472164775779 -0.36524225821647011 0 -0.38024887903539811 -0.3491016629308506 0 -0.36247207576052709 -0.35740109745143939 0 -0.38024887903539811 -0.3491016629308506 0 -0.35359721351353718 -0.34004673108302108 0 -0.36247207576052709 -0.35740109745143939 0 -0.38024887903539811 -0.3491016629308506 0 -0.35359721351353718 -0.34004673108302108 0 -0.37522403377147279 -0.38060127254172499 0 -0.37568472164775779 -0.36524225821647011 0 -0.35964608014779109 -0.37334112637938882 0 -0.37568472164775779 -0.36524225821647011 0 -0.36247207576052709 -0.35740109745143939 0 -0.35964608014779109 -0.37334112637938882 0 -0.36247207576052709 -0.35740109745143939 0 -0.35964608014779109 -0.37334112637938882 0 -0.34268215104290278 -0.35797992452600158 0 -0.35964608014779109 -0.37334112637938882 0 -0.34268215104290278 -0.35797992452600158 0 -0.34254000635277743 -0.38197763020755832 0 -0.34268215104290278 -0.35797992452600158 0 -0.32737612656656928 -0.35021722948502532 0 -0.32270418411731933 -0.37181077970513959 0 -0.34268215104290278 -0.35797992452600158 0 -0.32270418411731933 -0.37181077970513959 0 -0.34254000635277743 -0.38197763020755832 0 -0.34268215104290278 -0.35797992452600158 0 -0.34254000635277743 -0.38197763020755832 0 -0.34268215104290278 -0.35797992452600158 0 -0.33765025977867152 -0.34480892108230998 0 -0.32737612656656928 -0.35021722948502532 0 -0.32737612656656928 -0.35021722948502532 0 -0.31662274924076123 -0.35606216629487569 0 -0.32270418411731933 -0.37181077970513959 0 -0.32737612656656928 -0.35021722948502532 0 -0.3170311031704231 -0.34491623006635341 0 -0.31662274924076123 -0.35606216629487569 0 -0.3170311031704231 -0.34491623006635341 0 -0.31662274924076123 -0.35606216629487569 0 -0.30902027636205309 -0.35243705172998302 0 -0.31662274924076123 -0.35606216629487569 0 -0.32270418411731933 -0.37181077970513959 0 -0.30796050174877349 -0.36016317053514468 0 -0.32270418411731933 -0.37181077970513959 0 -0.29719619905707523 -0.36594012765828582 0 -0.30796050174877349 -0.36016317053514468 0 -0.32270418411731933 -0.37181077970513959 0 -0.29719619905707523 -0.36594012765828582 0 -0.3103864423796594 -0.37828470113645102 0 -0.32270418411731933 -0.37181077970513959 0 -0.29719619905707523 -0.36594012765828582 0 -0.29719619905707523 -0.36594012765828582 0 -0.29943295026653399 -0.35953932364306618 0 -0.30796050174877349 -0.36016317053514468 0 -0.29719619905707523 -0.36594012765828582 0 -0.29584447723995128 -0.37444813956539807 0 -0.3103864423796594 -0.37828470113645102 0 -0.31662274924076123 -0.35606216629487569 0 -0.30796050174877349 -0.36016317053514468 0 -0.30902027636205309 -0.35243705172998302 0 -0.30796050174877349 -0.36016317053514468 0 -0.30902027636205309 -0.35243705172998302 0 -0.30278665144889838 -0.35518957417951802 0 -0.3170311031704231 -0.34491623006635341 0 -0.30902027636205309 -0.35243705172998302 0 -0.30849554643820359 -0.34481279163420842 0 -0.30902027636205309 -0.35243705172998302 0 -0.30849554643820359 -0.34481279163420842 0 -0.30076474035813339 -0.34759465108555682 0 -0.30849554643820359 -0.34481279163420842 0 -0.30076474035813339 -0.34759465108555682 0 -0.30398917998114899 -0.33934800480643368 0 -0.30902027636205309 -0.35243705172998302 0 -0.30076474035813339 -0.34759465108555682 0 -0.30278665144889838 -0.35518957417951802 0 -0.29943295026653399 -0.35953932364306618 0 -0.30796050174877349 -0.36016317053514468 0 -0.30278665144889838 -0.35518957417951802 0 -0.30076474035813339 -0.34759465108555682 0 -0.30278665144889838 -0.35518957417951802 0 -0.29719830368448108 -0.35301728683459582 0 -0.29943295026653399 -0.35953932364306618 0 -0.30278665144889838 -0.35518957417951802 0 -0.29719830368448108 -0.35301728683459582 0 -0.29943295026653399 -0.35953932364306618 0 -0.29719830368448108 -0.35301728683459582 0 -0.29016743694869812 -0.35649807524262711 0 -0.29016743694869812 -0.35649807524262711 0 -0.28284547851944208 -0.35047845284871731 0 -0.27168821399683141 -0.36006947561143121 0 -0.29719830368448108 -0.35301728683459582 0 -0.29016743694869812 -0.35649807524262711 0 -0.2925915294609488 -0.34919256188026188 0 -0.2925915294609488 -0.34919256188026188 0 -0.28611540962297188 -0.3426453659285974 0 -0.29619358151489988 -0.34015641309103278 0 -0.30076474035813339 -0.34759465108555682 0 -0.29719830368448108 -0.35301728683459582 0 -0.2925915294609488 -0.34919256188026188 0 -0.30076474035813339 -0.34759465108555682 0 -0.2925915294609488 -0.34919256188026188 0 -0.29619358151489988 -0.34015641309103278 0 -0.2925915294609488 -0.34919256188026188 0 -0.28284547851944208 -0.35047845284871731 0 -0.28611540962297188 -0.3426453659285974 0 -0.28284547851944208 -0.35047845284871731 0 -0.27676447355633299 -0.3457480812413124 0 -0.28611540962297188 -0.3426453659285974 0 -0.29016743694869812 -0.35649807524262711 0 -0.2925915294609488 -0.34919256188026188 0 -0.28284547851944208 -0.35047845284871731 0 -0.29202770366946113 -0.36668513997228358 0 -0.27168821399683141 -0.36006947561143121 0 -0.28307956849111848 -0.3828068929804474 0 -0.29719619905707523 -0.36594012765828582 0 -0.27168821399683141 -0.36006947561143121 0 -0.29202770366946113 -0.36668513997228358 0 -0.28307956849111848 -0.3828068929804474 0 -0.29202770366946113 -0.36668513997228358 0 -0.29584447723995128 -0.37444813956539807 0 -0.28307956849111848 -0.3828068929804474 0 -0.29719619905707523 -0.36594012765828582 0 -0.29016743694869812 -0.35649807524262711 0 -0.27168821399683141 -0.36006947561143121 0 -0.29719619905707523 -0.36594012765828582 0 -0.29202770366946113 -0.36668513997228358 0 -0.27168821399683141 -0.36006947561143121 0 -0.29719619905707523 -0.36594012765828582 0 -0.29943295026653399 -0.35953932364306618 0 -0.29016743694869812 -0.35649807524262711 0 -0.29719619905707523 -0.36594012765828582 0 -0.29202770366946113 -0.36668513997228358 0 -0.29584447723995128 -0.37444813956539807 0 -0.27168821399683141 -0.36006947561143121 0 -0.28307956849111848 -0.3828068929804474 0 -0.27168821399683141 -0.36006947561143121 0 -0.28307956849111848 -0.3828068929804474 0 -0.26050234447883253 -0.38027693877573482 0 -0.27168821399683141 -0.36006947561143121 0 -0.25721723303835431 -0.36623646057876708 0 -0.26050234447883253 -0.38027693877573482 0 -0.27168821399683141 -0.36006947561143121 0 -0.25721723303835431 -0.36623646057876708 0 -0.24850069890613241 -0.35473287875334369 0 -0.25721723303835431 -0.36623646057876708 0 -0.24817767477162081 -0.36986654917455902 0 -0.24850069890613241 -0.35473287875334369 0 -0.25721723303835431 -0.36623646057876708 0 -0.26050234447883253 -0.38027693877573482 0 -0.24817767477162081 -0.36986654917455902 0 -0.27168821399683141 -0.36006947561143121 0 -0.25445926970156468 -0.34270101061729968 0 -0.24850069890613241 -0.35473287875334369 0 -0.27168821399683141 -0.36006947561143121 0 -0.26120815563270988 -0.3391510272218049 0 -0.25445926970156468 -0.34270101061729968 0 -0.27168821399683141 -0.36006947561143121 0 -0.24850069890613241 -0.35473287875334369 0 -0.27168821399683141 -0.36006947561143121 0 -0.27676447355633299 -0.3457480812413124 0 -0.26120815563270988 -0.3391510272218049 0 -0.27168821399683141 -0.36006947561143121 0 -0.26120815563270988 -0.3391510272218049 0 -0.28284547851944208 -0.35047845284871731 0 -0.27168821399683141 -0.36006947561143121 0 -0.27676447355633299 -0.3457480812413124 0 -0.27676447355633299 -0.3457480812413124 0 -0.27858368134566353 -0.33798527866036399 0 -0.28611540962297188 -0.3426453659285974 0 -0.27676447355633299 -0.3457480812413124 0 -0.27858368134566353 -0.33798527866036399 0 -0.26120815563270988 -0.3391510272218049 0 -0.28089299200049878 -0.32879660088216478 0 -0.26120815563270988 -0.3391510272218049 0 -0.28089299200049878 -0.32879660088216478 0 -0.26120815563270988 -0.3391510272218049 0 -0.26730676106940449 -0.32685643845792262 0 -0.27858368134566353 -0.33798527866036399 0 -0.28089299200049878 -0.32879660088216478 0 -0.26120815563270988 -0.3391510272218049 0 -0.26120815563270988 -0.3391510272218049 0 -0.26057751607960811 -0.32279583566460812 0 -0.26730676106940449 -0.32685643845792262 0 -0.26120815563270988 -0.3391510272218049 0 -0.25273748935779161 -0.32224337373924072 0 -0.26120815563270988 -0.3391510272218049 0 -0.25207330520806498 -0.33378255792528982 0 -0.25273748935779161 -0.32224337373924072 0 -0.26120815563270988 -0.3391510272218049 0 -0.25445926970156468 -0.34270101061729968 0 -0.25207330520806498 -0.33378255792528982 0 -0.25445926970156468 -0.34270101061729968 0 -0.2460450098649074 -0.33743905859998191 0 -0.26120815563270988 -0.3391510272218049 0 -0.25207330520806498 -0.33378255792528982 0 -0.25445926970156468 -0.34270101061729968 0 -0.25273748935779161 -0.32224337373924072 0 -0.26050456352867191 -0.3149367065078193 0 -0.24426682308287331 -0.30533572025667649 0 -0.26120815563270988 -0.3391510272218049 0 -0.25273748935779161 -0.32224337373924072 0 -0.26057751607960811 -0.32279583566460812 0 -0.26057751607960811 -0.32279583566460812 0 -0.26050456352867191 -0.3149367065078193 0 -0.26730676106940449 -0.32685643845792262 0 -0.25273748935779161 -0.32224337373924072 0 -0.26057751607960811 -0.32279583566460812 0 -0.26050456352867191 -0.3149367065078193 0 -0.28089299200049878 -0.32879660088216478 0 -0.26050456352867191 -0.3149367065078193 0 -0.27445713665833338 -0.31633796571173628 0 -0.28089299200049878 -0.32879660088216478 0 -0.26050456352867191 -0.3149367065078193 0 -0.26050456352867191 -0.3149367065078193 0 -0.27445713665833338 -0.31633796571173628 0 -0.26793999894844561 -0.31004618489902153 0 -0.28089299200049878 -0.32879660088216478 0 -0.26050456352867191 -0.3149367065078193 0 -0.26730676106940449 -0.32685643845792262 0 -0.28089299200049878 -0.32879660088216478 0 -0.27445713665833338 -0.31633796571173628 0 -0.28125105682705043 -0.31976055402590231 0 -0.27445713665833338 -0.31633796571173628 0 -0.28252008875028978 -0.31254235777143202 0 -0.28125105682705043 -0.31976055402590231 0 -0.28252008875028978 -0.31254235777143202 0 -0.28823329624350208 -0.31711313423980658 0 -0.29327146190654751 -0.30876504511160502 0 -0.28089299200049878 -0.32879660088216478 0 -0.28823329624350208 -0.31711313423980658 0 -0.30327184377803978 -0.31702509473566581 0 -0.28089299200049878 -0.32879660088216478 0 -0.29457520052377689 -0.33013191680287202 0 -0.30327184377803978 -0.31702509473566581 0 -0.28089299200049878 -0.32879660088216478 0 -0.30327184377803978 -0.31702509473566581 0 -0.28252008875028978 -0.31254235777143202 0 -0.28125105682705043 -0.31976055402590231 0 -0.28823329624350208 -0.31711313423980658 0 -0.28823329624350208 -0.31711313423980658 0 -0.30327184377803978 -0.31702509473566581 0 -0.29327146190654751 -0.30876504511160502 0 -0.28089299200049878 -0.32879660088216478 0 -0.28125105682705043 -0.31976055402590231 0 -0.28823329624350208 -0.31711313423980658 0 -0.28089299200049878 -0.32879660088216478 0 -0.28793737591580382 -0.33358531802794061 0 -0.27858368134566353 -0.33798527866036399 0 -0.28089299200049878 -0.32879660088216478 0 -0.28793737591580382 -0.33358531802794061 0 -0.28089299200049878 -0.32879660088216478 0 -0.28793737591580382 -0.33358531802794061 0 -0.29457520052377689 -0.33013191680287202 0 -0.27858368134566353 -0.33798527866036399 0 -0.28793737591580382 -0.33358531802794061 0 -0.28611540962297188 -0.3426453659285974 0 -0.28793737591580382 -0.33358531802794061 0 -0.28611540962297188 -0.3426453659285974 0 -0.29619358151489988 -0.34015641309103278 0 -0.28793737591580382 -0.33358531802794061 0 -0.29619358151489988 -0.34015641309103278 0 -0.29457520052377689 -0.33013191680287202 0 -0.29619358151489988 -0.34015641309103278 0 -0.29457520052377689 -0.33013191680287202 0 -0.30458020940964259 -0.3310961572775562 0 -0.30076474035813339 -0.34759465108555682 0 -0.29619358151489988 -0.34015641309103278 0 -0.30398917998114899 -0.33934800480643368 0 -0.29619358151489988 -0.34015641309103278 0 -0.30458020940964259 -0.3310961572775562 0 -0.30398917998114899 -0.33934800480643368 0 -0.31372637242327511 -0.33497634201883658 0 -0.30849554643820359 -0.34481279163420842 0 -0.30398917998114899 -0.33934800480643368 0 -0.31475841231360341 -0.32260943229412947 0 -0.31372637242327511 -0.33497634201883658 0 -0.30458020940964259 -0.3310961572775562 0 -0.31372637242327511 -0.33497634201883658 0 -0.30458020940964259 -0.3310961572775562 0 -0.30398917998114899 -0.33934800480643368 0 -0.31475841231360341 -0.32260943229412947 0 -0.30458020940964259 -0.3310961572775562 0 -0.30327184377803978 -0.31702509473566581 0 -0.29457520052377689 -0.33013191680287202 0 -0.30458020940964259 -0.3310961572775562 0 -0.30327184377803978 -0.31702509473566581 0 -0.30327184377803978 -0.31702509473566581 0 -0.30068554560480582 -0.30112982209441241 0 -0.31228269981280887 -0.29918463989613459 0 -0.30327184377803978 -0.31702509473566581 0 -0.30068554560480582 -0.30112982209441241 0 -0.29327146190654751 -0.30876504511160502 0 -0.30068554560480582 -0.30112982209441241 0 -0.30483638085835207 -0.28788342401786787 0 -0.28888361246081401 -0.29493054457851903 0 -0.30068554560480582 -0.30112982209441241 0 -0.31228269981280887 -0.29918463989613459 0 -0.30483638085835207 -0.28788342401786787 0 -0.28888361246081401 -0.29493054457851903 0 -0.28078806465599399 -0.28300047521785149 0 -0.29451735460655398 -0.27472288856989607 0 -0.30483638085835207 -0.28788342401786787 0 -0.28888361246081401 -0.29493054457851903 0 -0.29451735460655398 -0.27472288856989607 0 -0.28888361246081401 -0.29493054457851903 0 -0.28295382644196537 -0.3038897035906043 0 -0.27388309143310768 -0.29511411685975181 0 -0.28888361246081401 -0.29493054457851903 0 -0.28295382644196537 -0.3038897035906043 0 -0.29327146190654751 -0.30876504511160502 0 -0.30068554560480582 -0.30112982209441241 0 -0.28888361246081401 -0.29493054457851903 0 -0.29327146190654751 -0.30876504511160502 0 -0.28252008875028978 -0.31254235777143202 0 -0.28295382644196537 -0.3038897035906043 0 -0.29327146190654751 -0.30876504511160502 0 -0.27445713665833338 -0.31633796571173628 0 -0.28252008875028978 -0.31254235777143202 0 -0.27524002690986649 -0.30828041126704497 0 -0.28252008875028978 -0.31254235777143202 0 -0.28295382644196537 -0.3038897035906043 0 -0.27524002690986649 -0.30828041126704497 0 -0.28295382644196537 -0.3038897035906043 0 -0.27524002690986649 -0.30828041126704497 0 -0.27388309143310768 -0.29511411685975181 0 -0.26808679199009749 -0.30362992927208171 0 -0.26252268864995981 -0.29761987486456531 0 -0.27388309143310768 -0.29511411685975181 0 -0.27524002690986649 -0.30828041126704497 0 -0.26808679199009749 -0.30362992927208171 0 -0.27388309143310768 -0.29511411685975181 0 -0.27445713665833338 -0.31633796571173628 0 -0.27524002690986649 -0.30828041126704497 0 -0.26793999894844561 -0.31004618489902153 0 -0.27524002690986649 -0.30828041126704497 0 -0.26808679199009749 -0.30362992927208171 0 -0.26793999894844561 -0.31004618489902153 0 -0.26808679199009749 -0.30362992927208171 0 -0.26793999894844561 -0.31004618489902153 0 -0.26278193746552841 -0.30551063084933561 0 -0.26050456352867191 -0.3149367065078193 0 -0.25485564421046719 -0.30132045870319019 0 -0.24011613505684479 -0.30107681213347393 0 -0.26050456352867191 -0.3149367065078193 0 -0.24011613505684479 -0.30107681213347393 0 -0.26050456352867191 -0.3149367065078193 0 -0.26278193746552841 -0.30551063084933561 0 -0.25485564421046719 -0.30132045870319019 0 -0.26050456352867191 -0.3149367065078193 0 -0.26793999894844561 -0.31004618489902153 0 -0.26278193746552841 -0.30551063084933561 0 -0.26278193746552841 -0.30551063084933561 0 -0.26252268864995981 -0.29761987486456531 0 -0.25485564421046719 -0.30132045870319019 0 -0.26252268864995981 -0.29761987486456531 0 -0.25485564421046719 -0.30132045870319019 0 -0.2567143935458242 -0.29223768812186002 0 -0.26808679199009749 -0.30362992927208171 0 -0.26278193746552841 -0.30551063084933561 0 -0.26252268864995981 -0.29761987486456531 0 -0.25608276685525683 -0.28295324223861612 0 -0.2567143935458242 -0.29223768812186002 0 -0.24732420154209239 -0.29033586459568173 0 -0.25485564421046719 -0.30132045870319019 0 -0.2567143935458242 -0.29223768812186002 0 -0.24732420154209239 -0.29033586459568173 0 -0.26252268864995981 -0.29761987486456531 0 -0.2567143935458242 -0.29223768812186002 0 -0.26350989061834318 -0.28909490770035701 0 -0.25608276685525683 -0.28295324223861612 0 -0.26350989061834318 -0.28909490770035701 0 -0.26907982973782107 -0.2804670883869903 0 -0.25608276685525683 -0.28295324223861612 0 -0.2567143935458242 -0.29223768812186002 0 -0.26350989061834318 -0.28909490770035701 0 -0.26350989061834318 -0.28909490770035701 0 -0.27388309143310768 -0.29511411685975181 0 -0.26907982973782107 -0.2804670883869903 0 -0.26252268864995981 -0.29761987486456531 0 -0.26350989061834318 -0.28909490770035701 0 -0.27388309143310768 -0.29511411685975181 0 -0.28888361246081401 -0.29493054457851903 0 -0.27388309143310768 -0.29511411685975181 0 -0.28078806465599399 -0.28300047521785149 0 -0.27388309143310768 -0.29511411685975181 0 -0.28078806465599399 -0.28300047521785149 0 -0.26907982973782107 -0.2804670883869903 0 -0.27772768471542669 -0.26767482265106679 0 -0.26907982973782107 -0.2804670883869903 0 -0.25958550566062261 -0.27102626557679149 0 -0.28078806465599399 -0.28300047521785149 0 -0.27772768471542669 -0.26767482265106679 0 -0.26907982973782107 -0.2804670883869903 0 -0.25608276685525683 -0.28295324223861612 0 -0.26907982973782107 -0.2804670883869903 0 -0.25958550566062261 -0.27102626557679149 0 -0.25608276685525683 -0.28295324223861612 0 -0.25958550566062261 -0.27102626557679149 0 -0.2444485511135471 -0.27534046621033159 0 -0.26398002587916253 -0.25656090854441049 0 -0.24465976002352091 -0.25387891845332877 0 -0.25992972331208369 -0.2410680052130979 0 -0.25958550566062261 -0.27102626557679149 0 -0.26398002587916253 -0.25656090854441049 0 -0.24465976002352091 -0.25387891845332877 0 -0.27772768471542669 -0.26767482265106679 0 -0.26398002587916253 -0.25656090854441049 0 -0.27722523139620658 -0.24922189107985179 0 -0.27772768471542669 -0.26767482265106679 0 -0.25958550566062261 -0.27102626557679149 0 -0.26398002587916253 -0.25656090854441049 0 -0.27772768471542669 -0.26767482265106679 0 -0.29131753467172561 -0.25675805269722002 0 -0.27722523139620658 -0.24922189107985179 0 -0.28078806465599399 -0.28300047521785149 0 -0.27772768471542669 -0.26767482265106679 0 -0.29451735460655398 -0.27472288856989607 0 -0.27772768471542669 -0.26767482265106679 0 -0.29131753467172561 -0.25675805269722002 0 -0.29451735460655398 -0.27472288856989607 0 -0.31319680135340772 -0.27337899374224139 0 -0.29451735460655398 -0.27472288856989607 0 -0.30564385326437488 -0.26015983685037081 0 -0.31319680135340772 -0.27337899374224139 0 -0.30483638085835207 -0.28788342401786787 0 -0.29451735460655398 -0.27472288856989607 0 -0.29131753467172561 -0.25675805269722002 0 -0.29451735460655398 -0.27472288856989607 0 -0.30564385326437488 -0.26015983685037081 0 -0.29131753467172561 -0.25675805269722002 0 -0.30564385326437488 -0.26015983685037081 0 -0.30769212114973271 -0.24578220261295139 0 -0.31968345090478489 -0.25798973640781447 0 -0.30564385326437488 -0.26015983685037081 0 -0.30769212114973271 -0.24578220261295139 0 -0.34207866423036198 -0.45986413066326443 0 -0.33141508850449702 -0.45187214799378478 0 -0.32594289259428999 -0.46085836632795257 0 -0.34207866423036198 -0.45986413066326443 0 -0.32594289259428999 -0.46085836632795257 0 -0.33264581849560632 -0.47431014716802089 0 -0.34207866423036198 -0.45986413066326443 0 -0.34225571697252682 -0.42997304157067162 0 -0.34207866423036198 -0.45986413066326443 0 -0.33358626016413989 -0.44229992863572659 0 -0.33141508850449702 -0.45187214799378478 0 -0.34207866423036198 -0.45986413066326443 0 -0.33358626016413989 -0.44229992863572659 0 -0.34225571697252682 -0.42997304157067162 0 -0.33358626016413989 -0.44229992863572659 0 -0.33141508850449702 -0.45187214799378478 0 -0.32300139100864811 -0.44723989508536771 0 -0.33358626016413989 -0.44229992863572659 0 -0.32300139100864811 -0.44723989508536771 0 -0.32413493920603592 -0.43586432580396972 0 -0.32300139100864811 -0.44723989508536771 0 -0.31385630152515048 -0.44199725430357722 0 -0.32413493920603592 -0.43586432580396972 0 -0.32300139100864811 -0.44723989508536771 0 -0.31385630152515048 -0.44199725430357722 0 -0.31044958537109257 -0.45255960714027171 0 -0.32594289259428999 -0.46085836632795257 0 -0.31333683559556219 -0.46686726284272168 0 -0.31044958537109257 -0.45255960714027171 0 -0.32594289259428999 -0.46085836632795257 0 -0.31333683559556219 -0.46686726284272168 0 -0.32224857144892449 -0.47649828689453749 0 -0.32300139100864811 -0.44723989508536771 0 -0.32594289259428999 -0.46085836632795257 0 -0.31044958537109257 -0.45255960714027171 0 -0.33141508850449702 -0.45187214799378478 0 -0.32300139100864811 -0.44723989508536771 0 -0.32594289259428999 -0.46085836632795257 0 -0.31333683559556219 -0.46686726284272168 0 -0.32224857144892449 -0.47649828689453749 0 -0.30503152439861497 -0.48190266549989857 0 -0.32224857144892449 -0.47649828689453749 0 -0.32279626626388608 -0.48781718170045291 0 -0.30503152439861497 -0.48190266549989857 0 -0.32594289259428999 -0.46085836632795257 0 -0.32224857144892449 -0.47649828689453749 0 -0.33264581849560632 -0.47431014716802089 0 -0.32224857144892449 -0.47649828689453749 0 -0.32279626626388608 -0.48781718170045291 0 -0.33105735271625752 -0.4845747321984929 0 -0.32006214434654462 -0.5 0 -0.32279626626388608 -0.48781718170045291 0 -0.30503152439861497 -0.48190266549989857 0 -0.32006214434654462 -0.5 0 -0.32279626626388608 -0.48781718170045291 0 -0.33558173840908911 -0.49611022390933512 0 -0.32006214434654462 -0.5 0 -0.33558173840908911 -0.49611022390933512 0 -0.34657288766042038 -0.5 0 -0.33558173840908911 -0.49611022390933512 0 -0.34190161148819742 -0.48975521975585701 0 -0.35306908662498632 -0.4951847935385878 0 -0.32279626626388608 -0.48781718170045291 0 -0.33558173840908911 -0.49611022390933512 0 -0.33105735271625752 -0.4845747321984929 0 -0.33558173840908911 -0.49611022390933512 0 -0.33105735271625752 -0.4845747321984929 0 -0.34190161148819742 -0.48975521975585701 0 -0.34207866423036198 -0.45986413066326443 0 -0.34190161148819742 -0.48975521975585701 0 -0.34207866423036198 -0.45986413066326443 0 -0.34190161148819742 -0.48975521975585701 0 -0.33264581849560632 -0.47431014716802089 0 -0.33105735271625752 -0.4845747321984929 0 -0.34190161148819742 -0.48975521975585701 0 -0.33264581849560632 -0.47431014716802089 0 -0.32224857144892449 -0.47649828689453749 0 -0.33105735271625752 -0.4845747321984929 0 -0.33264581849560632 -0.47431014716802089 0 -0.34190161148819742 -0.48975521975585701 0 -0.35001641252228072 -0.47142734906239081 0 -0.35328963507943428 -0.48328499015431992 0 -0.34207866423036198 -0.45986413066326443 0 -0.34190161148819742 -0.48975521975585701 0 -0.35001641252228072 -0.47142734906239081 0 -0.35328963507943428 -0.48328499015431992 0 -0.35950950469085041 -0.48638993404071668 0 -0.36112286221809747 -0.47283058930211808 0 -0.35001641252228072 -0.47142734906239081 0 -0.35328963507943428 -0.48328499015431992 0 -0.36112286221809747 -0.47283058930211808 0 -0.33558173840908911 -0.49611022390933512 0 -0.35306908662498632 -0.4951847935385878 0 -0.33558173840908911 -0.49611022390933512 0 -0.34657288766042038 -0.5 0 -0.35306908662498632 -0.4951847935385878 0 -0.34657288766042038 -0.5 0 -0.35306908662498632 -0.4951847935385878 0 -0.37308363097429631 -0.50000000000000244 0 -0.34190161148819742 -0.48975521975585701 0 -0.35328963507943428 -0.48328499015431992 0 -0.35306908662498632 -0.4951847935385878 0 -0.35328963507943428 -0.48328499015431992 0 -0.35306908662498632 -0.4951847935385878 0 -0.35950950469085041 -0.48638993404071668 0 -0.35306908662498632 -0.4951847935385878 0 -0.35950950469085041 -0.48638993404071668 0 -0.37055643484088358 -0.49425936316784103 0 -0.35306908662498632 -0.4951847935385878 0 -0.37055643484088358 -0.49425936316784103 0 -0.35950950469085041 -0.48638993404071668 0 -0.37055643484088358 -0.49425936316784103 0 -0.36112286221809747 -0.47283058930211808 0 -0.35306908662498632 -0.4951847935385878 0 -0.37055643484088358 -0.49425936316784103 0 -0.37308363097429631 -0.50000000000000244 0 -0.37055643484088358 -0.49425936316784103 0 -0.37308363097429631 -0.50000000000000244 0 -0.38039451612360919 -0.47713749807852829 0 -0.37055643484088358 -0.49425936316784103 0 -0.36112286221809747 -0.47283058930211808 0 -0.37055643484088358 -0.49425936316784103 0 -0.36112286221809747 -0.47283058930211808 0 -0.38039451612360919 -0.47713749807852829 0 -0.36112286221809747 -0.47283058930211808 0 -0.37415472949075129 -0.45946062715310632 0 -0.37415472949075129 -0.45946062715310632 0 -0.3629811744391212 -0.45722253899736259 0 -0.36406731613876331 -0.44506275929787698 0 -0.36112286221809747 -0.47283058930211808 0 -0.37415472949075129 -0.45946062715310632 0 -0.3629811744391212 -0.45722253899736259 0 -0.36112286221809747 -0.47283058930211808 0 -0.3629811744391212 -0.45722253899736259 0 -0.35168928959531232 -0.4514018154363949 0 -0.36112286221809747 -0.47283058930211808 0 -0.35168928959531232 -0.4514018154363949 0 -0.35001641252228072 -0.47142734906239081 0 -0.36112286221809747 -0.47283058930211808 0 -0.35168928959531232 -0.4514018154363949 0 -0.34207866423036198 -0.45986413066326443 0 -0.35001641252228072 -0.47142734906239081 0 -0.35168928959531232 -0.4514018154363949 0 -0.35168928959531232 -0.4514018154363949 0 -0.34225571697252682 -0.42997304157067162 0 -0.35168928959531232 -0.4514018154363949 0 -0.36406731613876331 -0.44506275929787698 0 -0.34225571697252682 -0.42997304157067162 0 -0.34207866423036198 -0.45986413066326443 0 -0.35168928959531232 -0.4514018154363949 0 -0.34225571697252682 -0.42997304157067162 0 -0.38339996822118783 -0.44368928783448319 0 -0.36406731613876331 -0.44506275929787698 0 -0.36866352395763108 -0.4313760290561211 0 -0.38339996822118783 -0.44368928783448319 0 -0.37415472949075129 -0.45946062715310632 0 -0.36406731613876331 -0.44506275929787698 0 -0.3629811744391212 -0.45722253899736259 0 -0.35168928959531232 -0.4514018154363949 0 -0.36406731613876331 -0.44506275929787698 0 -0.38131756488089769 -0.42670085612339947 0 -0.36866352395763108 -0.4313760290561211 0 -0.36377437909963828 -0.41972983174959272 0 -0.38704143117499401 -0.40999023144455299 0 -0.3575105341832589 -0.40691374405003478 0 -0.38704143117499401 -0.40999023144455299 0 -0.36377437909963828 -0.41972983174959272 0 -0.3575105341832589 -0.40691374405003478 0 -0.35062038894632092 -0.41624612172537079 0 -0.34239786166265201 -0.40597533588911489 0 -0.34225571697252682 -0.42997304157067162 0 -0.36377437909963828 -0.41972983174959272 0 -0.3575105341832589 -0.40691374405003478 0 -0.35062038894632092 -0.41624612172537079 0 -0.3575105341832589 -0.40691374405003478 0 -0.35062038894632092 -0.41624612172537079 0 -0.34239786166265201 -0.40597533588911489 0 -0.36406731613876331 -0.44506275929787698 0 -0.36866352395763108 -0.4313760290561211 0 -0.34225571697252682 -0.42997304157067162 0 -0.36866352395763108 -0.4313760290561211 0 -0.36377437909963828 -0.41972983174959272 0 -0.34225571697252682 -0.42997304157067162 0 -0.36377437909963828 -0.41972983174959272 0 -0.35062038894632092 -0.41624612172537079 0 -0.34225571697252682 -0.42997304157067162 0 -0.37522403377147279 -0.38060127254172499 0 -0.37464038230528551 -0.396492613407532 0 -0.35879027536972019 -0.3891835699585654 0 -0.37522403377147279 -0.38060127254172499 0 -0.35964608014779109 -0.37334112637938882 0 -0.35879027536972019 -0.3891835699585654 0 -0.38704143117499401 -0.40999023144455299 0 -0.3575105341832589 -0.40691374405003478 0 -0.37464038230528551 -0.396492613407532 0 -0.3575105341832589 -0.40691374405003478 0 -0.37464038230528551 -0.396492613407532 0 -0.35879027536972019 -0.3891835699585654 0 -0.3575105341832589 -0.40691374405003478 0 -0.35030966939210212 -0.39601257002631829 0 -0.35879027536972019 -0.3891835699585654 0 -0.35030966939210212 -0.39601257002631829 0 -0.34254000635277743 -0.38197763020755832 0 -0.34239786166265201 -0.40597533588911489 0 -0.3575105341832589 -0.40691374405003478 0 -0.35030966939210212 -0.39601257002631829 0 -0.34239786166265201 -0.40597533588911489 0 -0.35964608014779109 -0.37334112637938882 0 -0.35879027536972019 -0.3891835699585654 0 -0.34254000635277743 -0.38197763020755832 0 -0.35030966939210212 -0.39601257002631829 0 -0.35879027536972019 -0.3891835699585654 0 -0.34254000635277743 -0.38197763020755832 0 -0.32270418411731933 -0.37181077970513959 0 -0.34254000635277743 -0.38197763020755832 0 -0.32435131947256218 -0.38428518727128619 0 -0.34254000635277743 -0.38197763020755832 0 -0.33211028503505757 -0.39455092735479258 0 -0.32435131947256218 -0.38428518727128619 0 -0.34254000635277743 -0.38197763020755832 0 -0.33211028503505757 -0.39455092735479258 0 -0.34239786166265201 -0.40597533588911489 0 -0.34254000635277743 -0.38197763020755832 0 -0.34239786166265201 -0.40597533588911489 0 -0.33211028503505757 -0.39455092735479258 0 -0.32627218782356721 -0.40254155632103228 0 -0.33325599186729038 -0.40952977136485508 0 -0.33211028503505757 -0.39455092735479258 0 -0.34239786166265201 -0.40597533588911489 0 -0.33325599186729038 -0.40952977136485508 0 -0.32627218782356721 -0.40254155632103228 0 -0.31778611784491262 -0.39429551077659458 0 -0.31836523457261151 -0.40628576827473822 0 -0.31778611784491262 -0.39429551077659458 0 -0.31836523457261151 -0.40628576827473822 0 -0.30856762168503782 -0.40330407176644772 0 -0.33211028503505757 -0.39455092735479258 0 -0.32627218782356721 -0.40254155632103228 0 -0.31778611784491262 -0.39429551077659458 0 -0.33211028503505757 -0.39455092735479258 0 -0.31778611784491262 -0.39429551077659458 0 -0.32435131947256218 -0.38428518727128619 0 -0.31778611784491262 -0.39429551077659458 0 -0.32435131947256218 -0.38428518727128619 0 -0.3103864423796594 -0.37828470113645102 0 -0.32270418411731933 -0.37181077970513959 0 -0.32435131947256218 -0.38428518727128619 0 -0.3103864423796594 -0.37828470113645102 0 -0.34225571697252682 -0.42997304157067162 0 -0.32127707919304882 -0.42450406978857058 0 -0.32413493920603592 -0.43586432580396972 0 -0.33358626016413989 -0.44229992863572659 0 -0.34225571697252682 -0.42997304157067162 0 -0.32413493920603592 -0.43586432580396972 0 -0.34225571697252682 -0.42997304157067162 0 -0.32547848823970138 -0.41505510354763547 0 -0.32127707919304882 -0.42450406978857058 0 -0.34225571697252682 -0.42997304157067162 0 -0.33325599186729038 -0.40952977136485508 0 -0.34239786166265201 -0.40597533588911489 0 -0.34225571697252682 -0.42997304157067162 0 -0.34225571697252682 -0.42997304157067162 0 -0.33325599186729038 -0.40952977136485508 0 -0.32547848823970138 -0.41505510354763547 0 -0.34239786166265201 -0.40597533588911489 0 -0.34225571697252682 -0.42997304157067162 0 -0.33325599186729038 -0.40952977136485508 0 -0.32627218782356721 -0.40254155632103228 0 -0.33325599186729038 -0.40952977136485508 0 -0.32547848823970138 -0.41505510354763547 0 -0.32547848823970138 -0.41505510354763547 0 -0.3149711123139971 -0.41411215899080989 0 -0.32127707919304882 -0.42450406978857058 0 -0.32627218782356721 -0.40254155632103228 0 -0.32547848823970138 -0.41505510354763547 0 -0.31836523457261151 -0.40628576827473822 0 -0.32547848823970138 -0.41505510354763547 0 -0.31836523457261151 -0.40628576827473822 0 -0.3149711123139971 -0.41411215899080989 0 -0.31836523457261151 -0.40628576827473822 0 -0.3149711123139971 -0.41411215899080989 0 -0.30856762168503782 -0.40330407176644772 0 -0.3149711123139971 -0.41411215899080989 0 -0.32127707919304882 -0.42450406978857058 0 -0.31068047406536009 -0.42124040027518911 0 -0.32127707919304882 -0.42450406978857058 0 -0.31073004788055869 -0.43167813375356229 0 -0.31068047406536009 -0.42124040027518911 0 -0.32127707919304882 -0.42450406978857058 0 -0.32413493920603592 -0.43586432580396972 0 -0.31073004788055869 -0.43167813375356229 0 -0.31385630152515048 -0.44199725430357722 0 -0.32413493920603592 -0.43586432580396972 0 -0.31073004788055869 -0.43167813375356229 0 -0.31073004788055869 -0.43167813375356229 0 -0.29829421210859891 -0.43220714453990322 0 -0.30286215921622678 -0.44210958888768459 0 -0.31073004788055869 -0.43167813375356229 0 -0.29829421210859891 -0.43220714453990322 0 -0.30293836312512551 -0.42244552438862548 0 -0.29829421210859891 -0.43220714453990322 0 -0.30293836312512551 -0.42244552438862548 0 -0.29038846928103268 -0.42353273433611682 0 -0.31073004788055869 -0.43167813375356229 0 -0.30293836312512551 -0.42244552438862548 0 -0.31068047406536009 -0.42124040027518911 0 -0.3149711123139971 -0.41411215899080989 0 -0.31068047406536009 -0.42124040027518911 0 -0.30545777612822328 -0.41428354029227837 0 -0.30293836312512551 -0.42244552438862548 0 -0.31068047406536009 -0.42124040027518911 0 -0.30545777612822328 -0.41428354029227837 0 -0.3149711123139971 -0.41411215899080989 0 -0.30545777612822328 -0.41428354029227837 0 -0.30856762168503782 -0.40330407176644772 0 -0.30545777612822328 -0.41428354029227837 0 -0.30856762168503782 -0.40330407176644772 0 -0.30079847364115991 -0.40578130343003371 0 -0.30545777612822328 -0.41428354029227837 0 -0.2987732092282892 -0.41413177709842958 0 -0.30079847364115991 -0.40578130343003371 0 -0.30293836312512551 -0.42244552438862548 0 -0.2987732092282892 -0.41413177709842958 0 -0.29038846928103268 -0.42353273433611682 0 -0.30293836312512551 -0.42244552438862548 0 -0.2987732092282892 -0.41413177709842958 0 -0.30293836312512551 -0.42244552438862548 0 -0.30545777612822328 -0.41428354029227837 0 -0.2987732092282892 -0.41413177709842958 0 -0.30545777612822328 -0.41428354029227837 0 -0.2987732092282892 -0.41413177709842958 0 -0.2987732092282892 -0.41413177709842958 0 -0.29092638885970451 -0.39846933503943821 0 -0.2987732092282892 -0.41413177709842958 0 -0.28243901841779939 -0.41376093348156762 0 -0.29092638885970451 -0.39846933503943821 0 -0.2987732092282892 -0.41413177709842958 0 -0.28243901841779939 -0.41376093348156762 0 -0.29038846928103268 -0.42353273433611682 0 -0.2987732092282892 -0.41413177709842958 0 -0.28243901841779939 -0.41376093348156762 0 -0.28243901841779939 -0.41376093348156762 0 -0.29038846928103268 -0.42353273433611682 0 -0.27500508569675858 -0.42792788340523652 0 -0.29038846928103268 -0.42353273433611682 0 -0.27500508569675858 -0.42792788340523652 0 -0.28620792983366777 -0.44117103379144762 0 -0.29829421210859891 -0.43220714453990322 0 -0.29038846928103268 -0.42353273433611682 0 -0.28620792983366777 -0.44117103379144762 0 -0.31778611784491262 -0.39429551077659458 0 -0.3103864423796594 -0.37828470113645102 0 -0.30424293331838692 -0.39073887816822978 0 -0.29584447723995128 -0.37444813956539807 0 -0.29713407365637251 -0.38186722723828942 0 -0.3103864423796594 -0.37828470113645102 0 -0.29713407365637251 -0.38186722723828942 0 -0.30424293331838692 -0.39073887816822978 0 -0.29406976999373469 -0.38920344929064732 0 -0.29713407365637251 -0.38186722723828942 0 -0.3103864423796594 -0.37828470113645102 0 -0.30424293331838692 -0.39073887816822978 0 -0.29998863005712628 -0.39809616774203599 0 -0.30424293331838692 -0.39073887816822978 0 -0.30856762168503782 -0.40330407176644772 0 -0.29998863005712628 -0.39809616774203599 0 -0.30424293331838692 -0.39073887816822978 0 -0.29406976999373469 -0.38920344929064732 0 -0.31778611784491262 -0.39429551077659458 0 -0.30424293331838692 -0.39073887816822978 0 -0.30856762168503782 -0.40330407176644772 0 -0.29998863005712628 -0.39809616774203599 0 -0.30079847364115991 -0.40578130343003371 0 -0.29092638885970451 -0.39846933503943821 0 -0.29998863005712628 -0.39809616774203599 0 -0.30856762168503782 -0.40330407176644772 0 -0.30079847364115991 -0.40578130343003371 0 -0.2987732092282892 -0.41413177709842958 0 -0.30079847364115991 -0.40578130343003371 0 -0.29092638885970451 -0.39846933503943821 0 -0.29092638885970451 -0.39846933503943821 0 -0.28307956849111848 -0.3828068929804474 0 -0.29092638885970451 -0.39846933503943821 0 -0.28307956849111848 -0.3828068929804474 0 -0.27459219804921331 -0.39809849142257658 0 -0.28243901841779939 -0.41376093348156762 0 -0.29092638885970451 -0.39846933503943821 0 -0.27459219804921331 -0.39809849142257658 0 -0.29998863005712628 -0.39809616774203599 0 -0.29092638885970451 -0.39846933503943821 0 -0.29406976999373469 -0.38920344929064732 0 -0.29092638885970451 -0.39846933503943821 0 -0.29406976999373469 -0.38920344929064732 0 -0.28307956849111848 -0.3828068929804474 0 -0.29713407365637251 -0.38186722723828942 0 -0.29406976999373469 -0.38920344929064732 0 -0.28307956849111848 -0.3828068929804474 0 -0.29584447723995128 -0.37444813956539807 0 -0.29713407365637251 -0.38186722723828942 0 -0.28307956849111848 -0.3828068929804474 0 -0.28307956849111848 -0.3828068929804474 0 -0.27459219804921331 -0.39809849142257658 0 -0.26050234447883253 -0.38027693877573482 0 -0.28307956849111848 -0.3828068929804474 0 -0.27459219804921331 -0.39809849142257658 0 -0.27459219804921331 -0.39809849142257658 0 -0.26610482760730952 -0.4133900898647066 0 -0.27459219804921331 -0.39809849142257658 0 -0.26088670843651829 -0.40068536336094251 0 -0.26610482760730952 -0.4133900898647066 0 -0.26088670843651829 -0.40068536336094251 0 -0.26050234447883253 -0.38027693877573482 0 -0.2487824818667288 -0.3954643368039899 0 -0.27459219804921331 -0.39809849142257658 0 -0.26088670843651829 -0.40068536336094251 0 -0.26050234447883253 -0.38027693877573482 0 -0.26088670843651829 -0.40068536336094251 0 -0.24694430377570939 -0.41295507854145541 0 -0.2487824818667288 -0.3954643368039899 0 -0.27500508569675858 -0.42792788340523652 0 -0.25298523514652932 -0.43702750984159111 0 -0.27028712802556781 -0.44002206955302048 0 -0.27500508569675858 -0.42792788340523652 0 -0.27028712802556781 -0.44002206955302048 0 -0.28620792983366777 -0.44117103379144762 0 -0.28243901841779939 -0.41376093348156762 0 -0.27500508569675858 -0.42792788340523652 0 -0.26610482760730952 -0.4133900898647066 0 -0.28243901841779939 -0.41376093348156762 0 -0.27459219804921331 -0.39809849142257658 0 -0.26610482760730952 -0.4133900898647066 0 -0.28243901841779939 -0.41376093348156762 0 -0.26610482760730952 -0.4133900898647066 0 -0.26610482760730952 -0.4133900898647066 0 -0.24694430377570939 -0.41295507854145541 0 -0.26610482760730952 -0.4133900898647066 0 -0.25298523514652932 -0.43702750984159111 0 -0.24694430377570939 -0.41295507854145541 0 -0.26088670843651829 -0.40068536336094251 0 -0.26610482760730952 -0.4133900898647066 0 -0.24694430377570939 -0.41295507854145541 0 -0.27500508569675858 -0.42792788340523652 0 -0.26610482760730952 -0.4133900898647066 0 -0.25298523514652932 -0.43702750984159111 0 -0.26610482760730952 -0.4133900898647066 0 -0.25298523514652932 -0.43702750984159111 0 -0.25298523514652932 -0.43702750984159111 0 -0.25823473398406083 -0.46259190486934387 0 -0.27139768853026319 -0.45350369328431828 0 -0.25298523514652932 -0.43702750984159111 0 -0.27139768853026319 -0.45350369328431828 0 -0.27028712802556781 -0.44002206955302048 0 -0.25298523514652932 -0.43702750984159111 0 -0.25823473398406083 -0.46259190486934387 0 -0.2398656426857485 -0.46066492981847512 0 -0.27139768853026319 -0.45350369328431828 0 -0.28665438526504589 -0.45880473289459528 0 -0.27499686831673542 -0.4693274569635677 0 -0.25823473398406083 -0.46259190486934387 0 -0.27139768853026319 -0.45350369328431828 0 -0.27499686831673542 -0.4693274569635677 0 -0.27139768853026319 -0.45350369328431828 0 -0.27028712802556781 -0.44002206955302048 0 -0.28620792983366777 -0.44117103379144762 0 -0.28620792983366777 -0.44117103379144762 0 -0.29665932401628559 -0.4519210782245337 0 -0.28665438526504589 -0.45880473289459528 0 -0.28620792983366777 -0.44117103379144762 0 -0.29665932401628559 -0.4519210782245337 0 -0.30286215921622678 -0.44210958888768459 0 -0.27139768853026319 -0.45350369328431828 0 -0.28620792983366777 -0.44117103379144762 0 -0.28665438526504589 -0.45880473289459528 0 -0.29829421210859891 -0.43220714453990322 0 -0.28620792983366777 -0.44117103379144762 0 -0.30286215921622678 -0.44210958888768459 0 -0.28665438526504589 -0.45880473289459528 0 -0.28928475434474438 -0.47221518125428918 0 -0.27499686831673542 -0.4693274569635677 0 -0.28665438526504589 -0.45880473289459528 0 -0.30029558254474148 -0.46389675841394568 0 -0.28928475434474438 -0.47221518125428918 0 -0.29665932401628559 -0.4519210782245337 0 -0.28665438526504589 -0.45880473289459528 0 -0.30029558254474148 -0.46389675841394568 0 -0.29665932401628559 -0.4519210782245337 0 -0.30029558254474148 -0.46389675841394568 0 -0.31044958537109257 -0.45255960714027171 0 -0.31333683559556219 -0.46686726284272168 0 -0.30029558254474148 -0.46389675841394568 0 -0.31044958537109257 -0.45255960714027171 0 -0.31385630152515048 -0.44199725430357722 0 -0.31044958537109257 -0.45255960714027171 0 -0.30286215921622678 -0.44210958888768459 0 -0.31385630152515048 -0.44199725430357722 0 -0.31073004788055869 -0.43167813375356229 0 -0.30286215921622678 -0.44210958888768459 0 -0.29665932401628559 -0.4519210782245337 0 -0.31044958537109257 -0.45255960714027171 0 -0.30286215921622678 -0.44210958888768459 0 -0.32006214434654462 -0.5 0 -0.30503152439861497 -0.48190266549989857 0 -0.29355140103266869 -0.5 0 -0.30029558254474148 -0.46389675841394568 0 -0.30503152439861497 -0.48190266549989857 0 -0.28928475434474438 -0.47221518125428918 0 -0.31333683559556219 -0.46686726284272168 0 -0.30029558254474148 -0.46389675841394568 0 -0.30503152439861497 -0.48190266549989857 0 -0.30503152439861497 -0.48190266549989857 0 -0.28928475434474438 -0.47221518125428918 0 -0.27944541119858413 -0.48714429249943858 0 -0.30503152439861497 -0.48190266549989857 0 -0.29355140103266869 -0.5 0 -0.27944541119858413 -0.48714429249943858 0 -0.26704065771879287 -0.5 0 -0.27944541119858413 -0.48714429249943858 0 -0.26377894750559139 -0.4817410620592058 0 -0.29355140103266869 -0.5 0 -0.26704065771879287 -0.5 0 -0.27944541119858413 -0.48714429249943858 0 -0.27944541119858413 -0.48714429249943858 0 -0.27499686831673542 -0.4693274569635677 0 -0.26377894750559139 -0.4817410620592058 0 -0.28928475434474438 -0.47221518125428918 0 -0.27944541119858413 -0.48714429249943858 0 -0.27499686831673542 -0.4693274569635677 0 -0.25823473398406083 -0.46259190486934387 0 -0.27499686831673542 -0.4693274569635677 0 -0.26377894750559139 -0.4817410620592058 0 -0.25823473398406083 -0.46259190486934387 0 -0.26377894750559139 -0.4817410620592058 0 -0.24769273461092009 -0.47775775457152359 0 -0.26704065771879287 -0.5 0 -0.26377894750559139 -0.4817410620592058 0 -0.24052991440491719 -0.5 0 -0.26377894750559139 -0.4817410620592058 0 -0.24052991440491719 -0.5 0 -0.24769273461092009 -0.47775775457152359 0 -0.24052991440491719 -0.5 0 -0.24769273461092009 -0.47775775457152359 0 -0.2238647917587385 -0.47868470982513422 0 -0.24769273461092009 -0.47775775457152359 0 -0.2238647917587385 -0.47868470982513422 0 -0.2253613830811457 -0.45761053917550981 0 -0.24052991440491719 -0.5 0 -0.2238647917587385 -0.47868470982513422 0 -0.2140191710910414 -0.49999999999999972 0 -0.25298523514652932 -0.43702750984159111 0 -0.23591515519085041 -0.44398209369878189 0 -0.2398656426857485 -0.46066492981847512 0 -0.25298523514652932 -0.43702750984159111 0 -0.2398656426857485 -0.46066492981847512 0 -0.25823473398406083 -0.46259190486934387 0 -0.24769273461092009 -0.47775775457152359 0 -0.2398656426857485 -0.46066492981847512 0 -0.24769273461092009 -0.47775775457152359 0 -0.2398656426857485 -0.46066492981847512 0 -0.2253613830811457 -0.45761053917550981 0 -0.24769273461092009 -0.47775775457152359 0 -0.2253613830811457 -0.45761053917550981 0 -0.2238647917587385 -0.47868470982513422 0 -0.2253613830811457 -0.45761053917550981 0 -0.20999779143719291 -0.46083672605530768 0 -0.23591515519085041 -0.44398209369878189 0 -0.2398656426857485 -0.46066492981847512 0 -0.2253613830811457 -0.45761053917550981 0 -0.23591515519085041 -0.44398209369878189 0 -0.2253613830811457 -0.45761053917550981 0 -0.22549954629610269 -0.43500765649169948 0 -0.2253613830811457 -0.45761053917550981 0 -0.20999779143719291 -0.46083672605530768 0 -0.2030300315513712 -0.43746332377949593 0 -0.2253613830811457 -0.45761053917550981 0 -0.2030300315513712 -0.43746332377949593 0 -0.20999779143719291 -0.46083672605530768 0 -0.19715634076338631 -0.4518064782969281 0 -0.2030300315513712 -0.43746332377949593 0 -0.2253613830811457 -0.45761053917550981 0 -0.2030300315513712 -0.43746332377949593 0 -0.22549954629610269 -0.43500765649169948 0 -0.20999779143719291 -0.46083672605530768 0 -0.19715634076338631 -0.4518064782969281 0 -0.2055877559272139 -0.47590323914846377 0 -0.19715634076338631 -0.4518064782969281 0 -0.2055877559272139 -0.47590323914846377 0 -0.19179305986328829 -0.46711759196808689 0 -0.19715634076338631 -0.4518064782969281 0 -0.2055877559272139 -0.47590323914846377 0 -0.19179305986328829 -0.46711759196808689 0 -0.19715634076338631 -0.4518064782969281 0 -0.184822707974968 -0.45592422963236362 0 -0.19715634076338631 -0.4518064782969281 0 -0.2030300315513712 -0.43746332377949593 0 -0.18872492559955881 -0.42770971744539221 0 -0.19715634076338631 -0.4518064782969281 0 -0.18872492559955881 -0.42770971744539221 0 -0.19715634076338631 -0.4518064782969281 0 -0.1870173619903012 -0.44414077979923022 0 -0.18872492559955881 -0.42770971744539221 0 -0.19715634076338631 -0.4518064782969281 0 -0.184822707974968 -0.45592422963236362 0 -0.1870173619903012 -0.44414077979923022 0 -0.2140191710910414 -0.49999999999999972 0 -0.2055877559272139 -0.47590323914846377 0 -0.2140191710910414 -0.49999999999999972 0 -0.2055877559272139 -0.47590323914846377 0 -0.1915741566131953 -0.48274482478870012 0 -0.2238647917587385 -0.47868470982513422 0 -0.2140191710910414 -0.49999999999999972 0 -0.2055877559272139 -0.47590323914846377 0 -0.2238647917587385 -0.47868470982513422 0 -0.20999779143719291 -0.46083672605530768 0 -0.2055877559272139 -0.47590323914846377 0 -0.19179305986328829 -0.46711759196808689 0 -0.2055877559272139 -0.47590323914846377 0 -0.1915741566131953 -0.48274482478870012 0 -0.19179305986328829 -0.46711759196808689 0 -0.1915741566131953 -0.48274482478870012 0 -0.17982433803767831 -0.46920918797397909 0 -0.2140191710910414 -0.49999999999999972 0 -0.1915741566131953 -0.48274482478870012 0 -0.1841956238768391 -0.5 0 -0.1915741566131953 -0.48274482478870012 0 -0.1841956238768391 -0.5 0 -0.17247084166804699 -0.48396500267038112 0 -0.1841956238768391 -0.5 0 -0.17247084166804699 -0.48396500267038112 0 -0.15437207666263669 -0.50000000000000022 0 -0.15669106487963419 -0.47716915445828201 0 -0.17247084166804699 -0.48396500267038112 0 -0.15437207666263669 -0.50000000000000022 0 -0.15669106487963419 -0.47716915445828201 0 -0.17247084166804699 -0.48396500267038112 0 -0.1680230602922401 -0.4683158249620154 0 -0.17247084166804699 -0.48396500267038112 0 -0.17982433803767831 -0.46920918797397909 0 -0.1680230602922401 -0.4683158249620154 0 -0.1915741566131953 -0.48274482478870012 0 -0.17247084166804699 -0.48396500267038112 0 -0.17982433803767831 -0.46920918797397909 0 -0.19179305986328829 -0.46711759196808689 0 -0.17982433803767831 -0.46920918797397909 0 -0.184822707974968 -0.45592422963236362 0 -0.17982433803767831 -0.46920918797397909 0 -0.184822707974968 -0.45592422963236362 0 -0.17211900377920919 -0.45689747079087062 0 -0.17982433803767831 -0.46920918797397909 0 -0.17211900377920919 -0.45689747079087062 0 -0.1680230602922401 -0.4683158249620154 0 -0.1870173619903012 -0.44414077979923022 0 -0.17843006300647921 -0.44542980211747812 0 -0.1823118302108766 -0.43680876328769058 0 -0.184822707974968 -0.45592422963236362 0 -0.1870173619903012 -0.44414077979923022 0 -0.17843006300647921 -0.44542980211747812 0 -0.17211900377920919 -0.45689747079087062 0 -0.17843006300647921 -0.44542980211747812 0 -0.16919262628862339 -0.44362555979768409 0 -0.184822707974968 -0.45592422963236362 0 -0.17211900377920919 -0.45689747079087062 0 -0.17843006300647921 -0.44542980211747812 0 -0.17843006300647921 -0.44542980211747812 0 -0.16919262628862339 -0.44362555979768409 0 -0.17507497024716731 -0.42995475378866199 0 -0.1590100530966318 -0.45433830891656402 0 -0.148881704538534 -0.44296791951084241 0 -0.1613290413136293 -0.43150746337484569 0 -0.1590100530966318 -0.45433830891656402 0 -0.1613290413136293 -0.43150746337484569 0 -0.16919262628862339 -0.44362555979768409 0 -0.1590100530966318 -0.45433830891656402 0 -0.1613290413136293 -0.43150746337484569 0 -0.17211900377920919 -0.45689747079087062 0 -0.16919262628862339 -0.44362555979768409 0 -0.1590100530966318 -0.45433830891656402 0 -0.15669106487963419 -0.47716915445828201 0 -0.1680230602922401 -0.4683158249620154 0 -0.1590100530966318 -0.45433830891656402 0 -0.15669106487963419 -0.47716915445828201 0 -0.1590100530966318 -0.45433830891656402 0 -0.17211900377920919 -0.45689747079087062 0 -0.1680230602922401 -0.4683158249620154 0 -0.1590100530966318 -0.45433830891656402 0 -0.15669106487963419 -0.47716915445828201 0 -0.1590100530966318 -0.45433830891656402 0 -0.1472923250818238 -0.46077477567243558 0 -0.1590100530966318 -0.45433830891656402 0 -0.1472923250818238 -0.46077477567243558 0 -0.148881704538534 -0.44296791951084241 0 -0.1472923250818238 -0.46077477567243558 0 -0.148881704538534 -0.44296791951084241 0 -0.13194602454298601 -0.43962244526902572 0 -0.13194602454298601 -0.43962244526902572 0 -0.13077987840644981 -0.46069854066347632 0 -0.11615585050415531 -0.45102464773050138 0 -0.1472923250818238 -0.46077477567243558 0 -0.13194602454298601 -0.43962244526902572 0 -0.1472923250818238 -0.46077477567243558 0 -0.13077987840644981 -0.46069854066347632 0 -0.13742439756140509 -0.48004162281001828 0 -0.1472923250818238 -0.46077477567243558 0 -0.13194602454298601 -0.43962244526902572 0 -0.13077987840644981 -0.46069854066347632 0 -0.13742439756140509 -0.48004162281001828 0 -0.12108079434187891 -0.47202921183540031 0 -0.1206292342060253 -0.48641385964910883 0 -0.13077987840644981 -0.46069854066347632 0 -0.13742439756140509 -0.48004162281001828 0 -0.12108079434187891 -0.47202921183540031 0 -0.13742439756140509 -0.48004162281001828 0 -0.131118449396015 -0.5 0 -0.1206292342060253 -0.48641385964910883 0 -0.15669106487963419 -0.47716915445828201 0 -0.13742439756140509 -0.48004162281001828 0 -0.15437207666263669 -0.50000000000000022 0 -0.15669106487963419 -0.47716915445828201 0 -0.15437207666263669 -0.50000000000000022 0 -0.13742439756140509 -0.48004162281001828 0 -0.131118449396015 -0.5 0 -0.15437207666263669 -0.50000000000000022 0 -0.15669106487963419 -0.47716915445828201 0 -0.1472923250818238 -0.46077477567243558 0 -0.13742439756140509 -0.48004162281001828 0 -0.13678826443221431 -0.39755243580027871 0 -0.14931675495270949 -0.41057852288770358 0 -0.15761740849691311 -0.38818340141201402 0 -0.1369224961495438 -0.38192389563367207 0 -0.13678826443221431 -0.39755243580027871 0 -0.15761740849691311 -0.38818340141201402 0 -0.1369224961495438 -0.38192389563367207 0 -0.15761740849691311 -0.38818340141201402 0 -0.148308101659717 -0.36695316985008092 0 -0.1369224961495438 -0.38192389563367207 0 -0.12526638733901391 -0.39147447277512609 0 -0.13678826443221431 -0.39755243580027871 0 -0.1369224961495438 -0.38192389563367207 0 -0.1303219987982592 -0.3665496015062627 0 -0.12201267174342199 -0.37938718301114999 0 -0.1369224961495438 -0.38192389563367207 0 -0.12526638733901391 -0.39147447277512609 0 -0.12201267174342199 -0.37938718301114999 0 -0.12526638733901391 -0.39147447277512609 0 -0.13678826443221431 -0.39755243580027871 0 -0.12592730430259419 -0.40432488328170318 0 -0.13678826443221431 -0.39755243580027871 0 -0.12592730430259419 -0.40432488328170318 0 -0.1345256340888337 -0.41538851269275129 0 -0.13678826443221431 -0.39755243580027871 0 -0.1345256340888337 -0.41538851269275129 0 -0.14931675495270949 -0.41057852288770358 0 -0.12592730430259419 -0.40432488328170318 0 -0.1345256340888337 -0.41538851269275129 0 -0.1165997240041481 -0.41847011486561592 0 -0.13194602454298601 -0.43962244526902572 0 -0.1345256340888337 -0.41538851269275129 0 -0.14483107865759889 -0.42859660432134139 0 -0.13194602454298601 -0.43962244526902572 0 -0.1345256340888337 -0.41538851269275129 0 -0.1165997240041481 -0.41847011486561592 0 -0.148881704538534 -0.44296791951084241 0 -0.14483107865759889 -0.42859660432134139 0 -0.1613290413136293 -0.43150746337484569 0 -0.148881704538534 -0.44296791951084241 0 -0.13194602454298601 -0.43962244526902572 0 -0.14483107865759889 -0.42859660432134139 0 -0.14483107865759889 -0.42859660432134139 0 -0.14931675495270949 -0.41057852288770358 0 -0.1613290413136293 -0.43150746337484569 0 -0.1345256340888337 -0.41538851269275129 0 -0.14483107865759889 -0.42859660432134139 0 -0.14931675495270949 -0.41057852288770358 0 -0.16364802953062679 -0.40867661783312748 0 -0.1613290413136293 -0.43150746337484569 0 -0.14931675495270949 -0.41057852288770358 0 -0.16364802953062679 -0.40867661783312748 0 -0.1613290413136293 -0.43150746337484569 0 -0.16364802953062679 -0.40867661783312748 0 -0.1613290413136293 -0.43150746337484569 0 -0.17507497024716731 -0.42995475378866199 0 -0.16919262628862339 -0.44362555979768409 0 -0.1613290413136293 -0.43150746337484569 0 -0.17507497024716731 -0.42995475378866199 0 -0.1870173619903012 -0.44414077979923022 0 -0.1823118302108766 -0.43680876328769058 0 -0.18872492559955881 -0.42770971744539221 0 -0.17843006300647921 -0.44542980211747812 0 -0.17507497024716731 -0.42995475378866199 0 -0.1823118302108766 -0.43680876328769058 0 -0.17507497024716731 -0.42995475378866199 0 -0.1806986800215967 -0.4173161083834821 0 -0.18872492559955881 -0.42770971744539221 0 -0.17507497024716731 -0.42995475378866199 0 -0.1823118302108766 -0.43680876328769058 0 -0.18872492559955881 -0.42770971744539221 0 -0.1806986800215967 -0.4173161083834821 0 -0.18228064084688081 -0.39610998094782668 0 -0.19209360216251761 -0.40824625574224149 0 -0.16364802953062679 -0.40867661783312748 0 -0.17507497024716731 -0.42995475378866199 0 -0.1806986800215967 -0.4173161083834821 0 -0.16364802953062679 -0.40867661783312748 0 -0.1806986800215967 -0.4173161083834821 0 -0.18228064084688081 -0.39610998094782668 0 -0.16364802953062679 -0.40867661783312748 0 -0.18228064084688081 -0.39610998094782668 0 -0.15761740849691311 -0.38818340141201402 0 -0.14931675495270949 -0.41057852288770358 0 -0.16364802953062679 -0.40867661783312748 0 -0.15761740849691311 -0.38818340141201402 0 -0.15761740849691311 -0.38818340141201402 0 -0.183603859264966 -0.3766054584014627 0 -0.1661931572416451 -0.36889933283976362 0 -0.18228064084688081 -0.39610998094782668 0 -0.15761740849691311 -0.38818340141201402 0 -0.183603859264966 -0.3766054584014627 0 -0.18228064084688081 -0.39610998094782668 0 -0.183603859264966 -0.3766054584014627 0 -0.20216487974800659 -0.3829991661375407 0 -0.18228064084688081 -0.39610998094782668 0 -0.20343785588976751 -0.39944649130885712 0 -0.19209360216251761 -0.40824625574224149 0 -0.18228064084688081 -0.39610998094782668 0 -0.20216487974800659 -0.3829991661375407 0 -0.20343785588976751 -0.39944649130885712 0 -0.20343785588976751 -0.39944649130885712 0 -0.21350444502423929 -0.40864471589815532 0 -0.22035180610084079 -0.39356726900625483 0 -0.20216487974800659 -0.3829991661375407 0 -0.20343785588976751 -0.39944649130885712 0 -0.22035180610084079 -0.39356726900625483 0 -0.20216487974800659 -0.3829991661375407 0 -0.22035180610084079 -0.39356726900625483 0 -0.219169022554425 -0.37113875127287832 0 -0.1806986800215967 -0.4173161083834821 0 -0.2030300315513712 -0.43746332377949593 0 -0.18872492559955881 -0.42770971744539221 0 -0.1806986800215967 -0.4173161083834821 0 -0.2030300315513712 -0.43746332377949593 0 -0.2030300315513712 -0.43746332377949593 0 -0.19369636752838881 -0.41903658901391427 0 -0.2031687955665597 -0.42354741618771741 0 -0.1806986800215967 -0.4173161083834821 0 -0.2030300315513712 -0.43746332377949593 0 -0.19369636752838881 -0.41903658901391427 0 -0.19369636752838881 -0.41903658901391427 0 -0.20299923128825029 -0.41376529568937459 0 -0.2031687955665597 -0.42354741618771741 0 -0.1806986800215967 -0.4173161083834821 0 -0.19369636752838881 -0.41903658901391427 0 -0.19209360216251761 -0.40824625574224149 0 -0.19369636752838881 -0.41903658901391427 0 -0.19209360216251761 -0.40824625574224149 0 -0.20299923128825029 -0.41376529568937459 0 -0.20343785588976751 -0.39944649130885712 0 -0.19209360216251761 -0.40824625574224149 0 -0.20299923128825029 -0.41376529568937459 0 -0.20343785588976751 -0.39944649130885712 0 -0.20299923128825029 -0.41376529568937459 0 -0.21350444502423929 -0.40864471589815532 0 -0.21350444502423929 -0.40864471589815532 0 -0.21294955189822859 -0.42392445626808489 0 -0.2277837799441092 -0.41252006721820539 0 -0.20299923128825029 -0.41376529568937459 0 -0.2031687955665597 -0.42354741618771741 0 -0.21294955189822859 -0.42392445626808489 0 -0.20299923128825029 -0.41376529568937459 0 -0.21350444502423929 -0.40864471589815532 0 -0.21294955189822859 -0.42392445626808489 0 -0.2030300315513712 -0.43746332377949593 0 -0.21294955189822859 -0.42392445626808489 0 -0.22549954629610269 -0.43500765649169948 0 -0.2030300315513712 -0.43746332377949593 0 -0.2031687955665597 -0.42354741618771741 0 -0.21294955189822859 -0.42392445626808489 0 -0.23591515519085041 -0.44398209369878189 0 -0.22549954629610269 -0.43500765649169948 0 -0.23735783041644329 -0.42609093398936743 0 -0.22549954629610269 -0.43500765649169948 0 -0.2277837799441092 -0.41252006721820539 0 -0.23735783041644329 -0.42609093398936743 0 -0.21294955189822859 -0.42392445626808489 0 -0.22549954629610269 -0.43500765649169948 0 -0.2277837799441092 -0.41252006721820539 0 -0.2277837799441092 -0.41252006721820539 0 -0.24694430377570939 -0.41295507854145541 0 -0.2277837799441092 -0.41252006721820539 0 -0.24694430377570939 -0.41295507854145541 0 -0.23735783041644329 -0.42609093398936743 0 -0.2277837799441092 -0.41252006721820539 0 -0.24694430377570939 -0.41295507854145541 0 -0.2359891007147569 -0.39914414181493052 0 -0.25298523514652932 -0.43702750984159111 0 -0.24694430377570939 -0.41295507854145541 0 -0.23735783041644329 -0.42609093398936743 0 -0.25298523514652932 -0.43702750984159111 0 -0.23591515519085041 -0.44398209369878189 0 -0.23735783041644329 -0.42609093398936743 0 -0.22035180610084079 -0.39356726900625483 0 -0.23802591309349369 -0.38358476956933441 0 -0.219169022554425 -0.37113875127287832 0 -0.22035180610084079 -0.39356726900625483 0 -0.2359891007147569 -0.39914414181493052 0 -0.23802591309349369 -0.38358476956933441 0 -0.21350444502423929 -0.40864471589815532 0 -0.2277837799441092 -0.41252006721820539 0 -0.22035180610084079 -0.39356726900625483 0 -0.2277837799441092 -0.41252006721820539 0 -0.22035180610084079 -0.39356726900625483 0 -0.2359891007147569 -0.39914414181493052 0 -0.2359891007147569 -0.39914414181493052 0 -0.2487824818667288 -0.3954643368039899 0 -0.23802591309349369 -0.38358476956933441 0 -0.24694430377570939 -0.41295507854145541 0 -0.2359891007147569 -0.39914414181493052 0 -0.2487824818667288 -0.3954643368039899 0 -0.26050234447883253 -0.38027693877573482 0 -0.2487824818667288 -0.3954643368039899 0 -0.23802591309349369 -0.38358476956933441 0 -0.26050234447883253 -0.38027693877573482 0 -0.23802591309349369 -0.38358476956933441 0 -0.24817767477162081 -0.36986654917455902 0 -0.23802591309349369 -0.38358476956933441 0 -0.24817767477162081 -0.36986654917455902 0 -0.23583729862822109 -0.36574384613307409 0 -0.24817767477162081 -0.36986654917455902 0 -0.23583729862822109 -0.36574384613307409 0 -0.24850069890613241 -0.35473287875334369 0 -0.23583729862822109 -0.36574384613307409 0 -0.219169022554425 -0.37113875127287832 0 -0.22531318381543361 -0.34939628189525529 0 -0.23802591309349369 -0.38358476956933441 0 -0.23583729862822109 -0.36574384613307409 0 -0.219169022554425 -0.37113875127287832 0 -0.22531318381543361 -0.34939628189525529 0 -0.24850069890613241 -0.35473287875334369 0 -0.24219101746094579 -0.34438554910399921 0 -0.23583729862822109 -0.36574384613307409 0 -0.22531318381543361 -0.34939628189525529 0 -0.24850069890613241 -0.35473287875334369 0 -0.22531318381543361 -0.34939628189525529 0 -0.24850069890613241 -0.35473287875334369 0 -0.25445926970156468 -0.34270101061729968 0 -0.24850069890613241 -0.35473287875334369 0 -0.24219101746094579 -0.34438554910399921 0 -0.25445926970156468 -0.34270101061729968 0 -0.24219101746094579 -0.34438554910399921 0 -0.2460450098649074 -0.33743905859998191 0 -0.25207330520806498 -0.33378255792528982 0 -0.2460450098649074 -0.33743905859998191 0 -0.24306356592407591 -0.32787829483024122 0 -0.2348359590034956 -0.33686915078515089 0 -0.24306356592407591 -0.32787829483024122 0 -0.23163603200856511 -0.32708080208212859 0 -0.2460450098649074 -0.33743905859998191 0 -0.2348359590034956 -0.33686915078515089 0 -0.24306356592407591 -0.32787829483024122 0 -0.24219101746094579 -0.34438554910399921 0 -0.2460450098649074 -0.33743905859998191 0 -0.2348359590034956 -0.33686915078515089 0 -0.25273748935779161 -0.32224337373924072 0 -0.24326482791746179 -0.31394285089519419 0 -0.24426682308287331 -0.30533572025667649 0 -0.25273748935779161 -0.32224337373924072 0 -0.24426682308287331 -0.30533572025667649 0 -0.25273748935779161 -0.32224337373924072 0 -0.24326482791746179 -0.31394285089519419 0 -0.2440208243134171 -0.32058552998791068 0 -0.25273748935779161 -0.32224337373924072 0 -0.24306356592407591 -0.32787829483024122 0 -0.2440208243134171 -0.32058552998791068 0 -0.25207330520806498 -0.33378255792528982 0 -0.25273748935779161 -0.32224337373924072 0 -0.24306356592407591 -0.32787829483024122 0 -0.24306356592407591 -0.32787829483024122 0 -0.2440208243134171 -0.32058552998791068 0 -0.23701741405433899 -0.31827760048696663 0 -0.24306356592407591 -0.32787829483024122 0 -0.23701741405433899 -0.31827760048696663 0 -0.23163603200856511 -0.32708080208212859 0 -0.24326482791746179 -0.31394285089519419 0 -0.23701741405433899 -0.31827760048696663 0 -0.2384772558931193 -0.30928307653082621 0 -0.24326482791746179 -0.31394285089519419 0 -0.2440208243134171 -0.32058552998791068 0 -0.23701741405433899 -0.31827760048696663 0 -0.22244826701882919 -0.32070202864358233 0 -0.22802593536356699 -0.30882837184141948 0 -0.21110805984082151 -0.30983785689108939 0 -0.23701741405433899 -0.31827760048696663 0 -0.22244826701882919 -0.32070202864358233 0 -0.22802593536356699 -0.30882837184141948 0 -0.23701741405433899 -0.31827760048696663 0 -0.23163603200856511 -0.32708080208212859 0 -0.22244826701882919 -0.32070202864358233 0 -0.23163603200856511 -0.32708080208212859 0 -0.22244826701882919 -0.32070202864358233 0 -0.22079431421521131 -0.33353493235345111 0 -0.22531318381543361 -0.34939628189525529 0 -0.2348359590034956 -0.33686915078515089 0 -0.22079431421521131 -0.33353493235345111 0 -0.22531318381543361 -0.34939628189525529 0 -0.24219101746094579 -0.34438554910399921 0 -0.2348359590034956 -0.33686915078515089 0 -0.2348359590034956 -0.33686915078515089 0 -0.23163603200856511 -0.32708080208212859 0 -0.22079431421521131 -0.33353493235345111 0 -0.22079431421521131 -0.33353493235345111 0 -0.20839645480677241 -0.32403064402179738 0 -0.20212566872473489 -0.34405968503716688 0 -0.22531318381543361 -0.34939628189525529 0 -0.22079431421521131 -0.33353493235345111 0 -0.20212566872473489 -0.34405968503716688 0 -0.22244826701882919 -0.32070202864358233 0 -0.20839645480677241 -0.32403064402179738 0 -0.21110805984082151 -0.30983785689108939 0 -0.22244826701882919 -0.32070202864358233 0 -0.22079431421521131 -0.33353493235345111 0 -0.20839645480677241 -0.32403064402179738 0 -0.20839645480677241 -0.32403064402179738 0 -0.19575919956014079 -0.31702437624003538 0 -0.21110805984082151 -0.30983785689108939 0 -0.20839645480677241 -0.32403064402179738 0 -0.19575919956014079 -0.31702437624003538 0 -0.19562896033857519 -0.33020038185646122 0 -0.19575919956014079 -0.31702437624003538 0 -0.19562896033857519 -0.33020038185646122 0 -0.18477851095256179 -0.32477614194451959 0 -0.20212566872473489 -0.34405968503716688 0 -0.1789381536340362 -0.33872308817907848 0 -0.19562896033857519 -0.33020038185646122 0 -0.20212566872473489 -0.34405968503716688 0 -0.1789381536340362 -0.33872308817907848 0 -0.20839645480677241 -0.32403064402179738 0 -0.19562896033857519 -0.33020038185646122 0 -0.20212566872473489 -0.34405968503716688 0 -0.20212566872473489 -0.34405968503716688 0 -0.2037839996862793 -0.36234410805543599 0 -0.1863350517553729 -0.35962674217565882 0 -0.20212566872473489 -0.34405968503716688 0 -0.1863350517553729 -0.35962674217565882 0 -0.1789381536340362 -0.33872308817907848 0 -0.183603859264966 -0.3766054584014627 0 -0.20216487974800659 -0.3829991661375407 0 -0.2037839996862793 -0.36234410805543599 0 -0.183603859264966 -0.3766054584014627 0 -0.2037839996862793 -0.36234410805543599 0 -0.1863350517553729 -0.35962674217565882 0 -0.219169022554425 -0.37113875127287832 0 -0.22531318381543361 -0.34939628189525529 0 -0.2037839996862793 -0.36234410805543599 0 -0.20216487974800659 -0.3829991661375407 0 -0.219169022554425 -0.37113875127287832 0 -0.2037839996862793 -0.36234410805543599 0 -0.22531318381543361 -0.34939628189525529 0 -0.20212566872473489 -0.34405968503716688 0 -0.2037839996862793 -0.36234410805543599 0 -0.22531318381543361 -0.34939628189525529 0 -0.20212566872473489 -0.34405968503716688 0 -0.24465976002352091 -0.25387891845332877 0 -0.23199225124923151 -0.26692477658714647 0 -0.21854221021918649 -0.25236034283526498 0 -0.23199225124923151 -0.26692477658714647 0 -0.21864709985809599 -0.27150291036173302 0 -0.21854221021918649 -0.25236034283526498 0 -0.24465976002352091 -0.25387891845332877 0 -0.2444485511135471 -0.27534046621033159 0 -0.23199225124923151 -0.26692477658714647 0 -0.25958550566062261 -0.27102626557679149 0 -0.24465976002352091 -0.25387891845332877 0 -0.2444485511135471 -0.27534046621033159 0 -0.2444485511135471 -0.27534046621033159 0 -0.23199225124923151 -0.26692477658714647 0 -0.23366363503180709 -0.28154124507507411 0 -0.2197277065850177 -0.2872169177591285 0 -0.23366363503180709 -0.28154124507507411 0 -0.21864709985809599 -0.27150291036173302 0 -0.23199225124923151 -0.26692477658714647 0 -0.23366363503180709 -0.28154124507507411 0 -0.21864709985809599 -0.27150291036173302 0 -0.2197277065850177 -0.2872169177591285 0 -0.23366363503180709 -0.28154124507507411 0 -0.24011613505684479 -0.30107681213347393 0 -0.2197277065850177 -0.2872169177591285 0 -0.24011613505684479 -0.30107681213347393 0 -0.2197277065850177 -0.2872169177591285 0 -0.24011613505684479 -0.30107681213347393 0 -0.2201073871300871 -0.30044142834658671 0 -0.2444485511135471 -0.27534046621033159 0 -0.23366363503180709 -0.28154124507507411 0 -0.24732420154209239 -0.29033586459568173 0 -0.23366363503180709 -0.28154124507507411 0 -0.24732420154209239 -0.29033586459568173 0 -0.24011613505684479 -0.30107681213347393 0 -0.25608276685525683 -0.28295324223861612 0 -0.2444485511135471 -0.27534046621033159 0 -0.24732420154209239 -0.29033586459568173 0 -0.26050456352867191 -0.3149367065078193 0 -0.24011613505684479 -0.30107681213347393 0 -0.24426682308287331 -0.30533572025667649 0 -0.25485564421046719 -0.30132045870319019 0 -0.24732420154209239 -0.29033586459568173 0 -0.24011613505684479 -0.30107681213347393 0 -0.24011613505684479 -0.30107681213347393 0 -0.2384772558931193 -0.30928307653082621 0 -0.22802593536356699 -0.30882837184141948 0 -0.24326482791746179 -0.31394285089519419 0 -0.24426682308287331 -0.30533572025667649 0 -0.2384772558931193 -0.30928307653082621 0 -0.24011613505684479 -0.30107681213347393 0 -0.24426682308287331 -0.30533572025667649 0 -0.2384772558931193 -0.30928307653082621 0 -0.23701741405433899 -0.31827760048696663 0 -0.2384772558931193 -0.30928307653082621 0 -0.22802593536356699 -0.30882837184141948 0 -0.22802593536356699 -0.30882837184141948 0 -0.2201073871300871 -0.30044142834658671 0 -0.21110805984082151 -0.30983785689108939 0 -0.24011613505684479 -0.30107681213347393 0 -0.22802593536356699 -0.30882837184141948 0 -0.2201073871300871 -0.30044142834658671 0 -0.2201073871300871 -0.30044142834658671 0 -0.21110805984082151 -0.30983785689108939 0 -0.20155909880418441 -0.29524718310782239 0 -0.21110805984082151 -0.30983785689108939 0 -0.2000775247532616 -0.30687463122530689 0 -0.20155909880418441 -0.29524718310782239 0 -0.19575919956014079 -0.31702437624003538 0 -0.21110805984082151 -0.30983785689108939 0 -0.2000775247532616 -0.30687463122530689 0 -0.18961770926909149 -0.30481471110084102 0 -0.20155909880418441 -0.29524718310782239 0 -0.1798976030385912 -0.29461474791537873 0 -0.19575919956014079 -0.31702437624003538 0 -0.2000775247532616 -0.30687463122530689 0 -0.18961770926909149 -0.30481471110084102 0 -0.19575919956014079 -0.31702437624003538 0 -0.18961770926909149 -0.30481471110084102 0 -0.1803928959391416 -0.31521744924658562 0 -0.2000775247532616 -0.30687463122530689 0 -0.18961770926909149 -0.30481471110084102 0 -0.20155909880418441 -0.29524718310782239 0 -0.19933927811319041 -0.27335702338478318 0 -0.1798976030385912 -0.29461474791537873 0 -0.20155909880418441 -0.29524718310782239 0 -0.19933927811319041 -0.27335702338478318 0 -0.1798976030385912 -0.29461474791537873 0 -0.2197277065850177 -0.2872169177591285 0 -0.20155909880418441 -0.29524718310782239 0 -0.19933927811319041 -0.27335702338478318 0 -0.2197277065850177 -0.2872169177591285 0 -0.2201073871300871 -0.30044142834658671 0 -0.20155909880418441 -0.29524718310782239 0 -0.21864709985809599 -0.27150291036173302 0 -0.19933927811319041 -0.27335702338478318 0 -0.21854221021918649 -0.25236034283526498 0 -0.2197277065850177 -0.2872169177591285 0 -0.21864709985809599 -0.27150291036173302 0 -0.19933927811319041 -0.27335702338478318 0 -0.2197277065850177 -0.2872169177591285 0 -0.19933927811319041 -0.27335702338478318 0 -0.19672455084482071 -0.27157955221738023 0 -0.19563648814007639 -0.2627950405098789 0 -0.1773613401945949 -0.28300380337564962 0 -0.19672455084482071 -0.27157955221738023 0 -0.19933927811319041 -0.27335702338478318 0 -0.1773613401945949 -0.28300380337564962 0 -0.19672455084482071 -0.27157955221738023 0 -0.19933927811319041 -0.27335702338478318 0 -0.19563648814007639 -0.2627950405098789 0 -0.19672455084482071 -0.27157955221738023 0 -0.19933927811319041 -0.27335702338478318 0 -0.19933927811319041 -0.27335702338478318 0 -0.19563648814007639 -0.2627950405098789 0 -0.2024770003035091 -0.25628481747185139 0 -0.19563648814007639 -0.2627950405098789 0 -0.19160736129165659 -0.25262396586623759 0 -0.18182513936558051 -0.25739227955256888 0 -0.19563648814007639 -0.2627950405098789 0 -0.19160736129165659 -0.25262396586623759 0 -0.2024770003035091 -0.25628481747185139 0 -0.19160736129165659 -0.25262396586623759 0 -0.2024770003035091 -0.25628481747185139 0 -0.19988453840298659 -0.24176205441804 0 -0.19933927811319041 -0.27335702338478318 0 -0.2024770003035091 -0.25628481747185139 0 -0.21854221021918649 -0.25236034283526498 0 -0.2024770003035091 -0.25628481747185139 0 -0.21854221021918649 -0.25236034283526498 0 -0.19988453840298659 -0.24176205441804 0 -0.19933927811319041 -0.27335702338478318 0 -0.21854221021918649 -0.25236034283526498 0 -0.16270034237907721 -0.26451024010365409 0 -0.1689202540561075 -0.25519621835756329 0 -0.15263230708737521 -0.24356194903458239 0 -0.16270034237907721 -0.26451024010365409 0 -0.15585924966824549 -0.27338725763800159 0 -0.15263230708737521 -0.24356194903458239 0 -0.16270034237907721 -0.26451024010365409 0 -0.1689202540561075 -0.25519621835756329 0 -0.17291740387759841 -0.2648938158906885 0 -0.1689202540561075 -0.25519621835756329 0 -0.18182513936558051 -0.25739227955256888 0 -0.1745260775709061 -0.24562280720632229 0 -0.19160736129165659 -0.25262396586623759 0 -0.18182513936558051 -0.25739227955256888 0 -0.1745260775709061 -0.24562280720632229 0 -0.19563648814007639 -0.2627950405098789 0 -0.18182513936558051 -0.25739227955256888 0 -0.18269465011250469 -0.26841637399603913 0 -0.1689202540561075 -0.25519621835756329 0 -0.18182513936558051 -0.25739227955256888 0 -0.17291740387759841 -0.2648938158906885 0 -0.18182513936558051 -0.25739227955256888 0 -0.17291740387759841 -0.2648938158906885 0 -0.18269465011250469 -0.26841637399603913 0 -0.19563648814007639 -0.2627950405098789 0 -0.18269465011250469 -0.26841637399603913 0 -0.1773613401945949 -0.28300380337564962 0 -0.17291740387759841 -0.2648938158906885 0 -0.17526212336935321 -0.27297056277525461 0 -0.1680750992927145 -0.27556825783864097 0 -0.19563648814007639 -0.2627950405098789 0 -0.1773613401945949 -0.28300380337564962 0 -0.17291740387759841 -0.2648938158906885 0 -0.17526212336935321 -0.27297056277525461 0 -0.18269465011250469 -0.26841637399603913 0 -0.17526212336935321 -0.27297056277525461 0 -0.18269465011250469 -0.26841637399603913 0 -0.1773613401945949 -0.28300380337564962 0 -0.17526212336935321 -0.27297056277525461 0 -0.1680750992927145 -0.27556825783864097 0 -0.1773613401945949 -0.28300380337564962 0 -0.1680750992927145 -0.27556825783864097 0 -0.1682011228878135 -0.28257539269247411 0 -0.1773613401945949 -0.28300380337564962 0 -0.1680750992927145 -0.27556825783864097 0 -0.1622412594804854 -0.28273310688964581 0 -0.1682011228878135 -0.28257539269247411 0 -0.16270034237907721 -0.26451024010365409 0 -0.17291740387759841 -0.2648938158906885 0 -0.1680750992927145 -0.27556825783864097 0 -0.16270034237907721 -0.26451024010365409 0 -0.1680750992927145 -0.27556825783864097 0 -0.16179622859894191 -0.27503335760685149 0 -0.16270034237907721 -0.26451024010365409 0 -0.16179622859894191 -0.27503335760685149 0 -0.15585924966824549 -0.27338725763800159 0 -0.16179622859894191 -0.27503335760685149 0 -0.1622412594804854 -0.28273310688964581 0 -0.15585924966824549 -0.27338725763800159 0 -0.1680750992927145 -0.27556825783864097 0 -0.16179622859894191 -0.27503335760685149 0 -0.1622412594804854 -0.28273310688964581 0 -0.1622412594804854 -0.28273310688964581 0 -0.16512679258345911 -0.28899640266596011 0 -0.15908619224911419 -0.30321256624142101 0 -0.1622412594804854 -0.28273310688964581 0 -0.15908619224911419 -0.30321256624142101 0 -0.15585924966824549 -0.27338725763800159 0 -0.15908619224911419 -0.30321256624142101 0 -0.15585924966824549 -0.27338725763800159 0 -0.16512679258345911 -0.28899640266596011 0 -0.1773613401945949 -0.28300380337564962 0 -0.15908619224911419 -0.30321256624142101 0 -0.1773613401945949 -0.28300380337564962 0 -0.15908619224911419 -0.30321256624142101 0 -0.16512679258345911 -0.28899640266596011 0 -0.1682011228878135 -0.28257539269247411 0 -0.1773613401945949 -0.28300380337564962 0 -0.1622412594804854 -0.28273310688964581 0 -0.16512679258345911 -0.28899640266596011 0 -0.1682011228878135 -0.28257539269247411 0 -0.1773613401945949 -0.28300380337564962 0 -0.1798976030385912 -0.29461474791537873 0 -0.15908619224911419 -0.30321256624142101 0 -0.19933927811319041 -0.27335702338478318 0 -0.1773613401945949 -0.28300380337564962 0 -0.1798976030385912 -0.29461474791537873 0 -0.1798976030385912 -0.29461474791537873 0 -0.17759103405270391 -0.30762984517719472 0 -0.16045592796399111 -0.3158724724459735 0 -0.18961770926909149 -0.30481471110084102 0 -0.1798976030385912 -0.29461474791537873 0 -0.17759103405270391 -0.30762984517719472 0 -0.18961770926909149 -0.30481471110084102 0 -0.17759103405270391 -0.30762984517719472 0 -0.1803928959391416 -0.31521744924658562 0 -0.1798976030385912 -0.29461474791537873 0 -0.16045592796399111 -0.3158724724459735 0 -0.1798976030385912 -0.29461474791537873 0 -0.15908619224911419 -0.30321256624142101 0 -0.16045592796399111 -0.3158724724459735 0 -0.15908619224911419 -0.30321256624142101 0 -0.16045592796399111 -0.3158724724459735 0 -0.1471380549162328 -0.30532142906175452 0 -0.14032160831301491 -0.30752887986621158 0 -0.14130665940473261 -0.32287327510069419 0 -0.15908619224911419 -0.30321256624142101 0 -0.1471380549162328 -0.30532142906175452 0 -0.14130665940473261 -0.32287327510069419 0 -0.15908619224911419 -0.30321256624142101 0 -0.1471380549162328 -0.30532142906175452 0 -0.1510678287434867 -0.29559461902651829 0 -0.14390798587081549 -0.29739780507392732 0 -0.1471380549162328 -0.30532142906175452 0 -0.1510678287434867 -0.29559461902651829 0 -0.14390798587081549 -0.29739780507392732 0 -0.1471380549162328 -0.30532142906175452 0 -0.14032160831301491 -0.30752887986621158 0 -0.14032160831301491 -0.30752887986621158 0 -0.13439128381467691 -0.29991683468539793 0 -0.13033731665847181 -0.31286393971371201 0 -0.13439128381467691 -0.29991683468539793 0 -0.13033731665847181 -0.31286393971371201 0 -0.12304085188452731 -0.29931348820209958 0 -0.14390798587081549 -0.29739780507392732 0 -0.14032160831301491 -0.30752887986621158 0 -0.13439128381467691 -0.29991683468539793 0 -0.14390798587081549 -0.29739780507392732 0 -0.13439128381467691 -0.29991683468539793 0 -0.14011095662501261 -0.28947786809128212 0 -0.13439128381467691 -0.29991683468539793 0 -0.14011095662501261 -0.28947786809128212 0 -0.12994370463312691 -0.28995419054763111 0 -0.13439128381467691 -0.29991683468539793 0 -0.12994370463312691 -0.28995419054763111 0 -0.12304085188452731 -0.29931348820209958 0 -0.12994370463312691 -0.28995419054763111 0 -0.13687965345326569 -0.27993872332247433 0 -0.1257911728949061 -0.280427018304516 0 -0.12994370463312691 -0.28995419054763111 0 -0.1257911728949061 -0.280427018304516 0 -0.1194571486541455 -0.28746452468861589 0 -0.14011095662501261 -0.28947786809128212 0 -0.12994370463312691 -0.28995419054763111 0 -0.13687965345326569 -0.27993872332247433 0 -0.15908619224911419 -0.30321256624142101 0 -0.15162645984294551 -0.28670064183700439 0 -0.15585924966824549 -0.27338725763800159 0 -0.14011095662501261 -0.28947786809128212 0 -0.1458827091329962 -0.28225219708249882 0 -0.13687965345326569 -0.27993872332247433 0 -0.15908619224911419 -0.30321256624142101 0 -0.1510678287434867 -0.29559461902651829 0 -0.15162645984294551 -0.28670064183700439 0 -0.1458827091329962 -0.28225219708249882 0 -0.1468811506158991 -0.28912565090950809 0 -0.15162645984294551 -0.28670064183700439 0 -0.14011095662501261 -0.28947786809128212 0 -0.1458827091329962 -0.28225219708249882 0 -0.1468811506158991 -0.28912565090950809 0 -0.14390798587081549 -0.29739780507392732 0 -0.1468811506158991 -0.28912565090950809 0 -0.1510678287434867 -0.29559461902651829 0 -0.14390798587081549 -0.29739780507392732 0 -0.14011095662501261 -0.28947786809128212 0 -0.1468811506158991 -0.28912565090950809 0 -0.1468811506158991 -0.28912565090950809 0 -0.1510678287434867 -0.29559461902651829 0 -0.15162645984294551 -0.28670064183700439 0 -0.1458827091329962 -0.28225219708249882 0 -0.15162645984294551 -0.28670064183700439 0 -0.15098162864793119 -0.27663156012407891 0 -0.15162645984294551 -0.28670064183700439 0 -0.15098162864793119 -0.27663156012407891 0 -0.15585924966824549 -0.27338725763800159 0 -0.15098162864793119 -0.27663156012407891 0 -0.1522527558101047 -0.27366235468835692 0 -0.14903370440966179 -0.27344637702894548 0 -0.15098162864793119 -0.27663156012407891 0 -0.1522527558101047 -0.27366235468835692 0 -0.15585924966824549 -0.27338725763800159 0 -0.14903370440966179 -0.27344637702894548 0 -0.1531364405145805 -0.27118422396240138 0 -0.14385763015454139 -0.26954128824380802 0 -0.1522527558101047 -0.27366235468835692 0 -0.15585924966824549 -0.27338725763800159 0 -0.1531364405145805 -0.27118422396240138 0 -0.1522527558101047 -0.27366235468835692 0 -0.14903370440966179 -0.27344637702894548 0 -0.1531364405145805 -0.27118422396240138 0 -0.14903370440966179 -0.27344637702894548 0 -0.14385763015454139 -0.26954128824380802 0 -0.1442805510697899 -0.27562940435382949 0 -0.14385763015454139 -0.26954128824380802 0 -0.1442805510697899 -0.27562940435382949 0 -0.13835653564694769 -0.27242798417408381 0 -0.1458827091329962 -0.28225219708249882 0 -0.1442805510697899 -0.27562940435382949 0 -0.13687965345326569 -0.27993872332247433 0 -0.15098162864793119 -0.27663156012407891 0 -0.14903370440966179 -0.27344637702894548 0 -0.1442805510697899 -0.27562940435382949 0 -0.1458827091329962 -0.28225219708249882 0 -0.15098162864793119 -0.27663156012407891 0 -0.1442805510697899 -0.27562940435382949 0 -0.13687965345326569 -0.27993872332247433 0 -0.12970248462840331 -0.2717774759070859 0 -0.13835653564694769 -0.27242798417408381 0 -0.1442805510697899 -0.27562940435382949 0 -0.13687965345326569 -0.27993872332247433 0 -0.13835653564694769 -0.27242798417408381 0 -0.13687965345326569 -0.27993872332247433 0 -0.1257911728949061 -0.280427018304516 0 -0.12970248462840331 -0.2717774759070859 0 -0.12970248462840331 -0.2717774759070859 0 -0.13570208279224111 -0.26528350045903498 0 -0.12855037573501921 -0.26115248962005239 0 -0.14385763015454139 -0.26954128824380802 0 -0.13835653564694769 -0.27242798417408381 0 -0.13570208279224111 -0.26528350045903498 0 -0.12970248462840331 -0.2717774759070859 0 -0.13835653564694769 -0.27242798417408381 0 -0.13570208279224111 -0.26528350045903498 0 -0.13570208279224111 -0.26528350045903498 0 -0.12855037573501921 -0.26115248962005239 0 -0.1377523016625678 -0.25581657194563601 0 -0.14385763015454139 -0.26954128824380802 0 -0.13570208279224111 -0.26528350045903498 0 -0.1377523016625678 -0.25581657194563601 0 -0.12855037573501921 -0.26115248962005239 0 -0.1377523016625678 -0.25581657194563601 0 -0.1223681628105569 -0.24044891992886891 0 -0.1531364405145805 -0.27118422396240138 0 -0.1377523016625678 -0.25581657194563601 0 -0.15263230708737521 -0.24356194903458239 0 -0.15585924966824549 -0.27338725763800159 0 -0.1531364405145805 -0.27118422396240138 0 -0.15263230708737521 -0.24356194903458239 0 -0.15585924966824549 -0.27338725763800159 0 -0.15263230708737521 -0.24356194903458239 0 -0.1531364405145805 -0.27118422396240138 0 -0.1377523016625678 -0.25581657194563601 0 -0.1531364405145805 -0.27118422396240138 0 -0.14385763015454139 -0.26954128824380802 0 -0.1377523016625678 -0.25581657194563601 0 -0.1661931572416451 -0.36889933283976362 0 -0.1633245426028184 -0.34238590264286861 0 -0.15433175674287769 -0.35458729317269139 0 -0.1661931572416451 -0.36889933283976362 0 -0.1633245426028184 -0.34238590264286861 0 -0.1661931572416451 -0.36889933283976362 0 -0.17388048196752651 -0.3522733272046466 0 -0.1633245426028184 -0.34238590264286861 0 -0.1661931572416451 -0.36889933283976362 0 -0.15433175674287769 -0.35458729317269139 0 -0.148308101659717 -0.36695316985008092 0 -0.15761740849691311 -0.38818340141201402 0 -0.1661931572416451 -0.36889933283976362 0 -0.148308101659717 -0.36695316985008092 0 -0.183603859264966 -0.3766054584014627 0 -0.1661931572416451 -0.36889933283976362 0 -0.1863350517553729 -0.35962674217565882 0 -0.1661931572416451 -0.36889933283976362 0 -0.1863350517553729 -0.35962674217565882 0 -0.17388048196752651 -0.3522733272046466 0 -0.1863350517553729 -0.35962674217565882 0 -0.17388048196752651 -0.3522733272046466 0 -0.1789381536340362 -0.33872308817907848 0 -0.17388048196752651 -0.3522733272046466 0 -0.1789381536340362 -0.33872308817907848 0 -0.1633245426028184 -0.34238590264286861 0 -0.19562896033857519 -0.33020038185646122 0 -0.1789381536340362 -0.33872308817907848 0 -0.18477851095256179 -0.32477614194451959 0 -0.1789381536340362 -0.33872308817907848 0 -0.18477851095256179 -0.32477614194451959 0 -0.1735479853981102 -0.32728394705986258 0 -0.1789381536340362 -0.33872308817907848 0 -0.1735479853981102 -0.32728394705986258 0 -0.1633245426028184 -0.34238590264286861 0 -0.17759103405270391 -0.30762984517719472 0 -0.1803928959391416 -0.31521744924658562 0 -0.16045592796399111 -0.3158724724459735 0 -0.19575919956014079 -0.31702437624003538 0 -0.1803928959391416 -0.31521744924658562 0 -0.18477851095256179 -0.32477614194451959 0 -0.1803928959391416 -0.31521744924658562 0 -0.18477851095256179 -0.32477614194451959 0 -0.1735479853981102 -0.32728394705986258 0 -0.1803928959391416 -0.31521744924658562 0 -0.1735479853981102 -0.32728394705986258 0 -0.16045592796399111 -0.3158724724459735 0 -0.1735479853981102 -0.32728394705986258 0 -0.16045592796399111 -0.3158724724459735 0 -0.1633245426028184 -0.34238590264286861 0 -0.16045592796399111 -0.3158724724459735 0 -0.1633245426028184 -0.34238590264286861 0 -0.1476770575246594 -0.3298450188736391 0 -0.16045592796399111 -0.3158724724459735 0 -0.1633245426028184 -0.34238590264286861 0 -0.1633245426028184 -0.34238590264286861 0 -0.15030263560259111 -0.34285112818916452 0 -0.1476770575246594 -0.3298450188736391 0 -0.1476770575246594 -0.3298450188736391 0 -0.14130665940473261 -0.32287327510069419 0 -0.13989838249203351 -0.33226752099114382 0 -0.1476770575246594 -0.3298450188736391 0 -0.14096893258994439 -0.33934882548262568 0 -0.13989838249203351 -0.33226752099114382 0 -0.15030263560259111 -0.34285112818916452 0 -0.1476770575246594 -0.3298450188736391 0 -0.14096893258994439 -0.33934882548262568 0 -0.15908619224911419 -0.30321256624142101 0 -0.14130665940473261 -0.32287327510069419 0 -0.16045592796399111 -0.3158724724459735 0 -0.1476770575246594 -0.3298450188736391 0 -0.14130665940473261 -0.32287327510069419 0 -0.15908619224911419 -0.30321256624142101 0 -0.16045592796399111 -0.3158724724459735 0 -0.14130665940473261 -0.32287327510069419 0 -0.16045592796399111 -0.3158724724459735 0 -0.1476770575246594 -0.3298450188736391 0 -0.14130665940473261 -0.32287327510069419 0 -0.12766342535057629 -0.32481504462803062 0 -0.13033731665847181 -0.31286393971371201 0 -0.14032160831301491 -0.30752887986621158 0 -0.14130665940473261 -0.32287327510069419 0 -0.13033731665847181 -0.31286393971371201 0 -0.14130665940473261 -0.32287327510069419 0 -0.12766342535057629 -0.32481504462803062 0 -0.12902917457320359 -0.33644978787578289 0 -0.12766342535057629 -0.32481504462803062 0 -0.12902917457320359 -0.33644978787578289 0 -0.123033176677132 -0.34308019655903149 0 -0.14096893258994439 -0.33934882548262568 0 -0.12902917457320359 -0.33644978787578289 0 -0.13366226850604379 -0.34759248760944123 0 -0.14096893258994439 -0.33934882548262568 0 -0.13989838249203351 -0.33226752099114382 0 -0.12902917457320359 -0.33644978787578289 0 -0.14130665940473261 -0.32287327510069419 0 -0.12902917457320359 -0.33644978787578289 0 -0.14130665940473261 -0.32287327510069419 0 -0.13989838249203351 -0.33226752099114382 0 -0.12902917457320359 -0.33644978787578289 0 -0.12902917457320359 -0.33644978787578289 0 -0.123033176677132 -0.34308019655903149 0 -0.12902917457320359 -0.33644978787578289 0 -0.13366226850604379 -0.34759248760944123 0 -0.123033176677132 -0.34308019655903149 0 -0.13366226850604379 -0.34759248760944123 0 -0.1303219987982592 -0.3665496015062627 0 -0.123033176677132 -0.34308019655903149 0 -0.1303219987982592 -0.3665496015062627 0 -0.123033176677132 -0.34308019655903149 0 -0.13366226850604379 -0.34759248760944123 0 -0.1435303466076166 -0.35184693234157938 0 -0.1303219987982592 -0.3665496015062627 0 -0.14096893258994439 -0.33934882548262568 0 -0.13366226850604379 -0.34759248760944123 0 -0.1435303466076166 -0.35184693234157938 0 -0.15030263560259111 -0.34285112818916452 0 -0.14096893258994439 -0.33934882548262568 0 -0.1435303466076166 -0.35184693234157938 0 -0.1435303466076166 -0.35184693234157938 0 -0.15433175674287769 -0.35458729317269139 0 -0.148308101659717 -0.36695316985008092 0 -0.1633245426028184 -0.34238590264286861 0 -0.15030263560259111 -0.34285112818916452 0 -0.15433175674287769 -0.35458729317269139 0 -0.15030263560259111 -0.34285112818916452 0 -0.1435303466076166 -0.35184693234157938 0 -0.15433175674287769 -0.35458729317269139 0 -0.1435303466076166 -0.35184693234157938 0 -0.148308101659717 -0.36695316985008092 0 -0.1303219987982592 -0.3665496015062627 0 -0.1369224961495438 -0.38192389563367207 0 -0.148308101659717 -0.36695316985008092 0 -0.1303219987982592 -0.3665496015062627 0 -0.1303219987982592 -0.3665496015062627 0 -0.1159926709000937 -0.36685414663024191 0 -0.11895596668836859 -0.34683008488337108 0 -0.1303219987982592 -0.3665496015062627 0 -0.1159926709000937 -0.36685414663024191 0 -0.12201267174342199 -0.37938718301114999 0 -0.1024060606807759 -0.36205135125861898 0 -0.1016559479587178 -0.38500202459504551 0 -0.1159926709000937 -0.36685414663024191 0 -0.1024060606807759 -0.36205135125861898 0 -0.1094440337948836 -0.37923577087639421 0 -0.1024060606807759 -0.36205135125861898 0 -0.1016559479587178 -0.38500202459504551 0 -0.095426438310298192 -0.37780241062099151 0 -0.1024060606807759 -0.36205135125861898 0 -0.090139611558562177 -0.37333304007799939 0 -0.095426438310298192 -0.37780241062099151 0 -0.1024060606807759 -0.36205135125861898 0 -0.093943439343664059 -0.36410026383479388 0 -0.090139611558562177 -0.37333304007799939 0 -0.1024060606807759 -0.36205135125861898 0 -0.093943439343664059 -0.36410026383479388 0 -0.095626283443773746 -0.35612124291623848 0 -0.1024060606807759 -0.36205135125861898 0 -0.090139611558562177 -0.37333304007799939 0 -0.1024060606807759 -0.36205135125861898 0 -0.1029439411344124 -0.34559419992324319 0 -0.1024060606807759 -0.36205135125861898 0 -0.1029439411344124 -0.34559419992324319 0 -0.11895596668836859 -0.34683008488337108 0 -0.1024060606807759 -0.36205135125861898 0 -0.095626283443773746 -0.35612124291623848 0 -0.1029439411344124 -0.34559419992324319 0 -0.095626283443773746 -0.35612124291623848 0 -0.1029439411344124 -0.34559419992324319 0 -0.093212578299404075 -0.34130700998995739 0 -0.1159926709000937 -0.36685414663024191 0 -0.1024060606807759 -0.36205135125861898 0 -0.11895596668836859 -0.34683008488337108 0 -0.1024060606807759 -0.36205135125861898 0 -0.11895596668836859 -0.34683008488337108 0 -0.1303219987982592 -0.3665496015062627 0 -0.11895596668836859 -0.34683008488337108 0 -0.123033176677132 -0.34308019655903149 0 -0.1029439411344124 -0.34559419992324319 0 -0.11895596668836859 -0.34683008488337108 0 -0.123033176677132 -0.34308019655903149 0 -0.11895596668836859 -0.34683008488337108 0 -0.123033176677132 -0.34308019655903149 0 -0.1029439411344124 -0.34559419992324319 0 -0.1137910684918501 -0.33520612369310882 0 -0.123033176677132 -0.34308019655903149 0 -0.123033176677132 -0.34308019655903149 0 -0.1159692764993048 -0.31568518943543378 0 -0.1137910684918501 -0.33520612369310882 0 -0.123033176677132 -0.34308019655903149 0 -0.1159692764993048 -0.31568518943543378 0 -0.12766342535057629 -0.32481504462803062 0 -0.123033176677132 -0.34308019655903149 0 -0.1159692764993048 -0.31568518943543378 0 -0.1137910684918501 -0.33520612369310882 0 -0.1159692764993048 -0.31568518943543378 0 -0.1034818215880495 -0.3291370485878673 0 -0.12766342535057629 -0.32481504462803062 0 -0.13033731665847181 -0.31286393971371201 0 -0.1159692764993048 -0.31568518943543378 0 -0.1159692764993048 -0.31568518943543378 0 -0.10079975883819629 -0.31506063040533638 0 -0.1034818215880495 -0.3291370485878673 0 -0.10079975883819629 -0.31506063040533638 0 -0.093212578299404075 -0.34130700998995739 0 -0.10079975883819629 -0.31506063040533638 0 -0.093212578299404075 -0.34130700998995739 0 -0.087373844159168004 -0.3291061545470132 0 -0.10079975883819629 -0.31506063040533638 0 -0.1034818215880495 -0.3291370485878673 0 -0.093212578299404075 -0.34130700998995739 0 -0.1029439411344124 -0.34559419992324319 0 -0.1034818215880495 -0.3291370485878673 0 -0.1029439411344124 -0.34559419992324319 0 -0.1034818215880495 -0.3291370485878673 0 -0.093212578299404075 -0.34130700998995739 0 -0.1029439411344124 -0.34559419992324319 0 -0.1137910684918501 -0.33520612369310882 0 -0.1034818215880495 -0.3291370485878673 0 -0.093212578299404075 -0.34130700998995739 0 -0.087373844159168004 -0.3291061545470132 0 -0.080908772255243899 -0.33898270124258217 0 -0.087373844159168004 -0.3291061545470132 0 -0.080908772255243899 -0.33898270124258217 0 -0.077490532230771417 -0.32991328235931511 0 -0.093212578299404075 -0.34130700998995739 0 -0.080908772255243899 -0.33898270124258217 0 -0.080378844364046895 -0.35001101873094542 0 -0.10079975883819629 -0.31506063040533638 0 -0.085305929108392881 -0.31951846990187233 0 -0.091873739319295072 -0.31122357941036211 0 -0.10079975883819629 -0.31506063040533638 0 -0.087373844159168004 -0.3291061545470132 0 -0.085305929108392881 -0.31951846990187233 0 -0.085305929108392881 -0.31951846990187233 0 -0.076805788315873161 -0.32077910918615782 0 -0.077490532230771417 -0.32991328235931511 0 -0.087373844159168004 -0.3291061545470132 0 -0.085305929108392881 -0.31951846990187233 0 -0.077490532230771417 -0.32991328235931511 0 -0.085305929108392881 -0.31951846990187233 0 -0.076805788315873161 -0.32077910918615782 0 -0.078544889372492196 -0.31002595631180607 0 -0.085305929108392881 -0.31951846990187233 0 -0.091873739319295072 -0.31122357941036211 0 -0.078544889372492196 -0.31002595631180607 0 -0.066882954587322394 -0.32486941793266988 0 -0.078544889372492196 -0.31002595631180607 0 -0.05424539878688571 -0.319762651601179 0 -0.078544889372492196 -0.31002595631180607 0 -0.05424539878688571 -0.319762651601179 0 -0.076805788315873161 -0.32077910918615782 0 -0.066882954587322394 -0.32486941793266988 0 -0.078544889372492196 -0.31002595631180607 0 -0.076805788315873161 -0.32077910918615782 0 -0.066882954587322394 -0.32486941793266988 0 -0.077490532230771417 -0.32991328235931511 0 -0.066882954587322394 -0.32486941793266988 0 -0.070160141916437824 -0.34098238217286791 0 -0.054527031800802053 -0.34042178362413461 0 -0.066882954587322394 -0.32486941793266988 0 -0.077490532230771417 -0.32991328235931511 0 -0.070160141916437824 -0.34098238217286791 0 -0.080908772255243899 -0.33898270124258217 0 -0.077490532230771417 -0.32991328235931511 0 -0.070160141916437824 -0.34098238217286791 0 -0.080908772255243899 -0.33898270124258217 0 -0.070160141916437824 -0.34098238217286791 0 -0.080378844364046895 -0.35001101873094542 0 -0.070160141916437824 -0.34098238217286791 0 -0.066522813126512412 -0.35680227137673098 0 -0.054527031800802053 -0.34042178362413461 0 -0.070160141916437824 -0.34098238217286791 0 -0.066522813126512412 -0.35680227137673098 0 -0.080378844364046895 -0.35001101873094542 0 -0.066522813126512412 -0.35680227137673098 0 -0.076582500297099523 -0.36039923154202719 0 -0.080378844364046895 -0.35001101873094542 0 -0.066522813126512412 -0.35680227137673098 0 -0.073802945937226916 -0.36723024648585417 0 -0.058387822440418388 -0.36975607908058028 0 -0.073802945937226916 -0.36723024648585417 0 -0.058387822440418388 -0.36975607908058028 0 -0.08170780991661282 -0.38109255286014232 0 -0.066522813126512412 -0.35680227137673098 0 -0.073802945937226916 -0.36723024648585417 0 -0.076582500297099523 -0.36039923154202719 0 -0.073802945937226916 -0.36723024648585417 0 -0.076582500297099523 -0.36039923154202719 0 -0.085625397760611066 -0.36755338957457828 0 -0.085625397760611066 -0.36755338957457828 0 -0.087954911787112483 -0.37534235041220648 0 -0.08170780991661282 -0.38109255286014232 0 -0.073802945937226916 -0.36723024648585417 0 -0.085625397760611066 -0.36755338957457828 0 -0.08170780991661282 -0.38109255286014232 0 -0.085625397760611066 -0.36755338957457828 0 -0.08170780991661282 -0.38109255286014232 0 -0.093943439343664059 -0.36410026383479388 0 -0.085625397760611066 -0.36755338957457828 0 -0.090139611558562177 -0.37333304007799939 0 -0.093943439343664059 -0.36410026383479388 0 -0.090139611558562177 -0.37333304007799939 0 -0.085625397760611066 -0.36755338957457828 0 -0.090139611558562177 -0.37333304007799939 0 -0.087954911787112483 -0.37534235041220648 0 -0.085625397760611066 -0.36755338957457828 0 -0.087954911787112483 -0.37534235041220648 0 -0.090139611558562177 -0.37333304007799939 0 -0.087954911787112483 -0.37534235041220648 0 -0.093943439343664059 -0.36410026383479388 0 -0.095626283443773746 -0.35612124291623848 0 -0.085625397760611066 -0.36755338957457828 0 -0.093212578299404075 -0.34130700998995739 0 -0.085625397760611066 -0.36755338957457828 0 -0.076582500297099523 -0.36039923154202719 0 -0.085625397760611066 -0.36755338957457828 0 -0.080378844364046895 -0.35001101873094542 0 -0.093212578299404075 -0.34130700998995739 0 -0.085625397760611066 -0.36755338957457828 0 -0.080378844364046895 -0.35001101873094542 0 -0.085625397760611066 -0.36755338957457828 0 -0.080378844364046895 -0.35001101873094542 0 -0.095626283443773746 -0.35612124291623848 0 -0.093212578299404075 -0.34130700998995739 0 -0.085625397760611066 -0.36755338957457828 0 -0.10474757541744149 -0.26087495970427582 0 -0.090174700483665673 -0.26498018187443112 0 -0.1005321994236209 -0.2431127607729493 0 -0.10474757541744149 -0.26087495970427582 0 -0.11757885349586771 -0.25701660664448461 0 -0.1005321994236209 -0.2431127607729493 0 -0.12855037573501921 -0.26115248962005239 0 -0.11757885349586771 -0.25701660664448461 0 -0.1127895441811773 -0.27358429336009982 0 -0.12855037573501921 -0.26115248962005239 0 -0.11757885349586771 -0.25701660664448461 0 -0.1223681628105569 -0.24044891992886891 0 -0.10474757541744149 -0.26087495970427582 0 -0.11757885349586771 -0.25701660664448461 0 -0.1127895441811773 -0.27358429336009982 0 -0.11757885349586771 -0.25701660664448461 0 -0.1127895441811773 -0.27358429336009982 0 -0.1257911728949061 -0.280427018304516 0 -0.12970248462840331 -0.2717774759070859 0 -0.1127895441811773 -0.27358429336009982 0 -0.12855037573501921 -0.26115248962005239 0 -0.1127895441811773 -0.27358429336009982 0 -0.12970248462840331 -0.2717774759070859 0 -0.12855037573501921 -0.26115248962005239 0 -0.1127895441811773 -0.27358429336009982 0 -0.1257911728949061 -0.280427018304516 0 -0.1127895441811773 -0.27358429336009982 0 -0.1194571486541455 -0.28746452468861589 0 -0.1127895441811773 -0.27358429336009982 0 -0.1083869393769897 -0.28881425082071571 0 -0.1127895441811773 -0.27358429336009982 0 -0.093274829049746905 -0.28897707944045958 0 -0.090174700483665673 -0.26498018187443112 0 -0.10474757541744149 -0.26087495970427582 0 -0.1127895441811773 -0.27358429336009982 0 -0.090174700483665673 -0.26498018187443112 0 -0.1127895441811773 -0.27358429336009982 0 -0.1067008731150054 -0.28283902414649681 0 -0.093274829049746905 -0.28897707944045958 0 -0.1127895441811773 -0.27358429336009982 0 -0.093274829049746905 -0.28897707944045958 0 -0.1083869393769897 -0.28881425082071571 0 -0.102844379958099 -0.30028926102243358 0 -0.093274829049746905 -0.28897707944045958 0 -0.1127895441811773 -0.27358429336009982 0 -0.1083869393769897 -0.28881425082071571 0 -0.1067008731150054 -0.28283902414649681 0 -0.1083869393769897 -0.28881425082071571 0 -0.1067008731150054 -0.28283902414649681 0 -0.1083869393769897 -0.28881425082071571 0 -0.1067008731150054 -0.28283902414649681 0 -0.093274829049746905 -0.28897707944045958 0 -0.1127895441811773 -0.27358429336009982 0 -0.1083869393769897 -0.28881425082071571 0 -0.1194571486541455 -0.28746452468861589 0 -0.12994370463312691 -0.28995419054763111 0 -0.1194571486541455 -0.28746452468861589 0 -0.12304085188452731 -0.29931348820209958 0 -0.1083869393769897 -0.28881425082071571 0 -0.1194571486541455 -0.28746452468861589 0 -0.12304085188452731 -0.29931348820209958 0 -0.1159692764993048 -0.31568518943543378 0 -0.1083869393769897 -0.28881425082071571 0 -0.12304085188452731 -0.29931348820209958 0 -0.1159692764993048 -0.31568518943543378 0 -0.1083869393769897 -0.28881425082071571 0 -0.13033731665847181 -0.31286393971371201 0 -0.1159692764993048 -0.31568518943543378 0 -0.12304085188452731 -0.29931348820209958 0 -0.1159692764993048 -0.31568518943543378 0 -0.10079975883819629 -0.31506063040533638 0 -0.1083869393769897 -0.28881425082071571 0 -0.10079975883819629 -0.31506063040533638 0 -0.1083869393769897 -0.28881425082071571 0 -0.10079975883819629 -0.31506063040533638 0 -0.1083869393769897 -0.28881425082071571 0 -0.102844379958099 -0.30028926102243358 0 -0.10079975883819629 -0.31506063040533638 0 -0.102844379958099 -0.30028926102243358 0 -0.091873739319295072 -0.31122357941036211 0 -0.078544889372492196 -0.31002595631180607 0 -0.073760113918316481 -0.30436986552081963 0 -0.093274829049746905 -0.28897707944045958 0 -0.102844379958099 -0.30028926102243358 0 -0.078544889372492196 -0.31002595631180607 0 -0.093274829049746905 -0.28897707944045958 0 -0.102844379958099 -0.30028926102243358 0 -0.091873739319295072 -0.31122357941036211 0 -0.078544889372492196 -0.31002595631180607 0 -0.102844379958099 -0.30028926102243358 0 -0.078544889372492196 -0.31002595631180607 0 -0.078544889372492196 -0.31002595631180607 0 -0.073760113918316481 -0.30436986552081963 0 -0.05424539878688571 -0.319762651601179 0 -0.073760113918316481 -0.30436986552081963 0 -0.05424539878688571 -0.319762651601179 0 -0.073760113918316481 -0.30436986552081963 0 -0.071188273097670243 -0.28513602236808322 0 -0.055748641784298267 -0.30178875706485681 0 -0.073760113918316481 -0.30436986552081963 0 -0.071188273097670243 -0.28513602236808322 0 -0.093274829049746905 -0.28897707944045958 0 -0.073760113918316481 -0.30436986552081963 0 -0.093274829049746905 -0.28897707944045958 0 -0.071188273097670243 -0.28513602236808322 0 -0.093274829049746905 -0.28897707944045958 0 -0.090174700483665673 -0.26498018187443112 0 -0.071188273097670243 -0.28513602236808322 0 -0.063484538676239377 -0.26413124226689111 0 -0.090174700483665673 -0.26498018187443112 0 -0.063484538676239377 -0.26413124226689111 0 -0.076282262678724011 -0.24169347649274159 0 -0.063484538676239377 -0.26413124226689111 0 -0.090174700483665673 -0.26498018187443112 0 -0.076282262678724011 -0.24169347649274159 0 -0.036942597034766073 -0.27265489088473938 0 -0.050686814673754729 -0.28656900804104057 0 -0.0185119813334658 -0.28327625011988139 0 -0.038581934025118947 -0.25114857380685968 0 -0.038334603868346327 -0.2604973367990705 0 -0.03064478186574425 -0.25326356670072259 0 -0.038334603868346327 -0.2604973367990705 0 -0.029413390480137139 -0.26518294325465769 0 -0.03064478186574425 -0.25326356670072259 0 -0.038334603868346327 -0.2604973367990705 0 -0.046517308340487992 -0.25474718453952289 0 -0.048289188575406587 -0.26955092917192058 0 -0.038581934025118947 -0.25114857380685968 0 -0.038334603868346327 -0.2604973367990705 0 -0.046517308340487992 -0.25474718453952289 0 -0.063484538676239377 -0.26413124226689111 0 -0.046517308340487992 -0.25474718453952289 0 -0.0567919256119837 -0.24387644547435741 0 -0.063484538676239377 -0.26413124226689111 0 -0.046517308340487992 -0.25474718453952289 0 -0.048289188575406587 -0.26955092917192058 0 -0.063484538676239377 -0.26413124226689111 0 -0.050686814673754729 -0.28656900804104057 0 -0.071188273097670243 -0.28513602236808322 0 -0.063484538676239377 -0.26413124226689111 0 -0.050686814673754729 -0.28656900804104057 0 -0.063484538676239377 -0.26413124226689111 0 -0.048289188575406587 -0.26955092917192058 0 -0.050686814673754729 -0.28656900804104057 0 -0.048289188575406587 -0.26955092917192058 0 -0.036942597034766073 -0.27265489088473938 0 -0.050686814673754729 -0.28656900804104057 0 -0.038334603868346327 -0.2604973367990705 0 -0.048289188575406587 -0.26955092917192058 0 -0.036942597034766073 -0.27265489088473938 0 -0.038334603868346327 -0.2604973367990705 0 -0.036942597034766073 -0.27265489088473938 0 -0.029413390480137139 -0.26518294325465769 0 -0.050686814673754729 -0.28656900804104057 0 -0.037889090671270123 -0.30900677381518998 0 -0.0185119813334658 -0.28327625011988139 0 -0.071188273097670243 -0.28513602236808322 0 -0.050686814673754729 -0.28656900804104057 0 -0.055748641784298267 -0.30178875706485681 0 -0.073760113918316481 -0.30436986552081963 0 -0.055748641784298267 -0.30178875706485681 0 -0.05424539878688571 -0.319762651601179 0 -0.055748641784298267 -0.30178875706485681 0 -0.037889090671270123 -0.30900677381518998 0 -0.05424539878688571 -0.319762651601179 0 -0.050686814673754729 -0.28656900804104057 0 -0.055748641784298267 -0.30178875706485681 0 -0.037889090671270123 -0.30900677381518998 0 -0.050686814673754729 -0.28656900804104057 0 -0.037889090671270123 -0.30900677381518998 0 -0.037889090671270123 -0.30900677381518998 0 -0.014390974368570029 -0.31032982847088841 0 -0.0185119813334658 -0.28327625011988139 0 -0.014390974368570029 -0.31032982847088841 0 0.001904989571353899 -0.32214434476741449 0 0.0019518825097332619 -0.30029273945570772 0 -0.014390974368570029 -0.31032982847088841 0 -0.0185119813334658 -0.28327625011988139 0 0.0019518825097332619 -0.30029273945570772 0 -0.0185119813334658 -0.28327625011988139 0 -0.0020851015340006161 -0.28052611142458661 0 0.0019518825097332619 -0.30029273945570772 0 -0.014390974368570029 -0.31032982847088841 0 -0.0185119813334658 -0.28327625011988139 0 -0.036942597034766073 -0.27265489088473938 0 -0.0185119813334658 -0.28327625011988139 0 -0.029413390480137139 -0.26518294325465769 0 -0.0185119813334658 -0.28327625011988139 0 -0.02263298829836323 -0.25622267176887481 0 -0.029413390480137139 -0.26518294325465769 0 -0.0185119813334658 -0.28327625011988139 0 -0.02263298829836323 -0.25622267176887481 0 -0.0185119813334658 -0.28327625011988139 0 -0.0093077836028632385 -0.27105033158696179 0 -0.02263298829836323 -0.25622267176887481 0 -0.0185119813334658 -0.28327625011988139 0 -0.0020851015340006161 -0.28052611142458661 0 -0.0093077836028632385 -0.27105033158696179 0 -0.0020851015340006161 -0.28052611142458661 0 -0.0093077836028632385 -0.27105033158696179 0 0.0055944649301708496 -0.26664830233551728 0 -0.014059514610042069 -0.25416210053859828 0 -0.02263298829836323 -0.25622267176887481 0 0.0055944649301708496 -0.26664830233551728 0 -0.0093077836028632385 -0.27105033158696179 0 -0.02263298829836323 -0.25622267176887481 0 0.0055944649301708496 -0.26664830233551728 0 -0.02263298829836323 -0.25622267176887481 0 0.0055944649301708496 -0.26664830233551728 0 -0.014059514610042069 -0.25416210053859828 0 -0.0080727856436109482 -0.2481099565327444 0 0.0055944649301708496 -0.26664830233551728 0 -0.014059514610042069 -0.25416210053859828 0 -0.01887874476148543 -0.24814250919209771 0 -0.0080727856436109482 -0.2481099565327444 0 -0.014059514610042069 -0.25416210053859828 0 -0.02263298829836323 -0.25622267176887481 0 -0.02285766608625657 -0.25474770747244752 0 -0.014059514610042069 -0.25416210053859828 0 -0.02285766608625657 -0.25474770747244752 0 -0.01887874476148543 -0.24814250919209771 0 -0.02285766608625657 -0.25474770747244752 0 -0.026067501294639708 -0.24850247980592871 0 -0.01887874476148543 -0.24814250919209771 0 -0.02263298829836323 -0.25622267176887481 0 -0.02285766608625657 -0.25474770747244752 0 -0.02263298829836323 -0.25622267176887481 0 -0.029413390480137139 -0.26518294325465769 0 -0.03064478186574425 -0.25326356670072259 0 -0.02263298829836323 -0.25622267176887481 0 -0.03064478186574425 -0.25326356670072259 0 -0.02263298829836323 -0.25622267176887481 0 -0.02285766608625657 -0.25474770747244752 0 -0.03064478186574425 -0.25326356670072259 0 -0.02285766608625657 -0.25474770747244752 0 -0.03064478186574425 -0.25326356670072259 0 -0.026067501294639708 -0.24850247980592871 0 -0.040780788735907937 -0.34809370153295588 0 -0.035070660285960877 -0.35841379707961513 0 -0.051335308585544609 -0.35442186843706669 0 -0.040780788735907937 -0.34809370153295588 0 -0.033802973987086503 -0.33588719504380232 0 -0.029167969020145641 -0.35132386348016093 0 -0.040780788735907937 -0.34809370153295588 0 -0.035070660285960877 -0.35841379707961513 0 -0.029167969020145641 -0.35132386348016093 0 -0.035070660285960877 -0.35841379707961513 0 -0.040000350022935588 -0.37213681664196291 0 -0.021437446366364531 -0.36359117576668931 0 -0.035070660285960877 -0.35841379707961513 0 -0.058387822440418388 -0.36975607908058028 0 -0.035070660285960877 -0.35841379707961513 0 -0.040000350022935588 -0.37213681664196291 0 -0.058387822440418388 -0.36975607908058028 0 -0.040000350022935588 -0.37213681664196291 0 -0.058387822440418388 -0.36975607908058028 0 -0.058563253679506787 -0.38068245751723601 0 -0.035070660285960877 -0.35841379707961513 0 -0.058387822440418388 -0.36975607908058028 0 -0.051335308585544609 -0.35442186843706669 0 -0.066522813126512412 -0.35680227137673098 0 -0.058387822440418388 -0.36975607908058028 0 -0.051335308585544609 -0.35442186843706669 0 -0.066522813126512412 -0.35680227137673098 0 -0.051335308585544609 -0.35442186843706669 0 -0.054527031800802053 -0.34042178362413461 0 -0.040780788735907937 -0.34809370153295588 0 -0.051335308585544609 -0.35442186843706669 0 -0.054527031800802053 -0.34042178362413461 0 -0.066882954587322394 -0.32486941793266988 0 -0.054527031800802053 -0.34042178362413461 0 -0.05424539878688571 -0.319762651601179 0 -0.054527031800802053 -0.34042178362413461 0 -0.05424539878688571 -0.319762651601179 0 -0.033802973987086503 -0.33588719504380232 0 -0.05424539878688571 -0.319762651601179 0 -0.039668382727836717 -0.32560359559526031 0 -0.05424539878688571 -0.319762651601179 0 -0.033802973987086503 -0.33588719504380232 0 -0.037889090671270123 -0.30900677381518998 0 -0.025091366668787349 -0.3314445395893405 0 -0.05424539878688571 -0.319762651601179 0 -0.039668382727836717 -0.32560359559526031 0 -0.033802973987086503 -0.33588719504380232 0 -0.037889090671270123 -0.30900677381518998 0 -0.05424539878688571 -0.319762651601179 0 -0.039668382727836717 -0.32560359559526031 0 -0.037889090671270123 -0.30900677381518998 0 -0.039668382727836717 -0.32560359559526031 0 -0.025091366668787349 -0.3314445395893405 0 -0.040780788735907937 -0.34809370153295588 0 -0.054527031800802053 -0.34042178362413461 0 -0.033802973987086503 -0.33588719504380232 0 -0.039668382727836717 -0.32560359559526031 0 -0.025091366668787349 -0.3314445395893405 0 -0.039668382727836717 -0.32560359559526031 0 -0.033802973987086503 -0.33588719504380232 0 -0.025091366668787349 -0.3314445395893405 0 -0.025091366668787349 -0.3314445395893405 0 -0.01336054918728761 -0.35201173848642592 0 -0.033802973987086503 -0.33588719504380232 0 -0.025091366668787349 -0.3314445395893405 0 -0.01336054918728761 -0.35201173848642592 0 -0.025091366668787349 -0.3314445395893405 0 -0.01532372128421448 -0.33535839064186268 0 -0.01336054918728761 -0.35201173848642592 0 -0.025091366668787349 -0.3314445395893405 0 -0.022734703789933738 -0.32728556430890232 0 -0.01532372128421448 -0.33535839064186268 0 -0.025091366668787349 -0.3314445395893405 0 -0.01532372128421448 -0.33535839064186268 0 -0.022734703789933738 -0.32728556430890232 0 -0.01532372128421448 -0.33535839064186268 0 -0.037889090671270123 -0.30900677381518998 0 -0.014390974368570029 -0.31032982847088841 0 -0.022734703789933738 -0.32728556430890232 0 -0.037889090671270123 -0.30900677381518998 0 -0.025091366668787349 -0.3314445395893405 0 -0.022734703789933738 -0.32728556430890232 0 -0.014390974368570029 -0.31032982847088841 0 -0.022734703789933738 -0.32728556430890232 0 -0.01532372128421448 -0.33535839064186268 0 -0.014390974368570029 -0.31032982847088841 0 -0.010269967403673339 -0.33738340682189533 0 -0.014390974368570029 -0.31032982847088841 0 -0.010269967403673339 -0.33738340682189533 0 -0.01532372128421448 -0.33535839064186268 0 -0.014390974368570029 -0.31032982847088841 0 -0.010269967403673339 -0.33738340682189533 0 0.001904989571353899 -0.32214434476741449 0 -0.010269967403673339 -0.33738340682189533 0 -0.0096343958099064687 -0.34155580596031437 0 0.0075807645751098419 -0.34453611388615663 0 -0.010269967403673339 -0.33738340682189533 0 0.0075807645751098419 -0.34453611388615663 0 -0.0096343958099064687 -0.34155580596031437 0 -0.01532372128421448 -0.33535839064186268 0 -0.01336054918728761 -0.35201173848642592 0 -0.010269967403673339 -0.33738340682189533 0 -0.0096343958099064687 -0.34155580596031437 0 -0.010269967403673339 -0.33738340682189533 0 -0.0096343958099064687 -0.34155580596031437 0 -0.01532372128421448 -0.33535839064186268 0 -0.0096343958099064687 -0.34155580596031437 0 -0.01532372128421448 -0.33535839064186268 0 -0.010269967403673339 -0.33738340682189533 0 -0.01532372128421448 -0.33535839064186268 0 -0.010269967403673339 -0.33738340682189533 0 0.0034794820758208261 -0.33361449123698089 0 0.001904989571353899 -0.32214434476741449 0 -0.0096343958099064687 -0.34155580596031437 0 -0.0070150904897389628 -0.35875101633193152 0 -0.0096343958099064687 -0.34155580596031437 0 -0.0070150904897389628 -0.35875101633193152 0 -0.01336054918728761 -0.35201173848642592 0 -0.0096343958099064687 -0.34155580596031437 0 -0.0070150904897389628 -0.35875101633193152 0 0.0099352179383349771 -0.36287309999936251 0 -0.033802973987086503 -0.33588719504380232 0 -0.01336054918728761 -0.35201173848642592 0 -0.029167969020145641 -0.35132386348016093 0 -0.01336054918728761 -0.35201173848642592 0 -0.029167969020145641 -0.35132386348016093 0 -0.021437446366364531 -0.36359117576668931 0 -0.033802973987086503 -0.33588719504380232 0 -0.01336054918728761 -0.35201173848642592 0 -0.035070660285960877 -0.35841379707961513 0 -0.029167969020145641 -0.35132386348016093 0 -0.021437446366364531 -0.36359117576668931 0 -0.040000350022935588 -0.37213681664196291 0 -0.021437446366364531 -0.36359117576668931 0 -0.02618172091304426 -0.37743656618445498 0 -0.021437446366364531 -0.36359117576668931 0 -0.002178803782163227 -0.37161627006544062 0 -0.02618172091304426 -0.37743656618445498 0 -0.040000350022935588 -0.37213681664196291 0 -0.021437446366364531 -0.36359117576668931 0 -0.01336054918728761 -0.35201173848642592 0 -0.021437446366364531 -0.36359117576668931 0 -0.002178803782163227 -0.37161627006544062 0 -0.01336054918728761 -0.35201173848642592 0 -0.002178803782163227 -0.37161627006544062 0 -0.0070150904897389628 -0.35875101633193152 0 -0.01336054918728761 -0.35201173848642592 0 -0.002178803782163227 -0.37161627006544062 0 -0.002178803782163227 -0.37161627006544062 0 -0.026336278995230201 -0.38905167830789189 0 -0.002178803782163227 -0.37161627006544062 0 -0.0066930742226519926 -0.39143820132839208 0 -0.026336278995230201 -0.38905167830789189 0 -0.0066930742226519926 -0.39143820132839208 0 -0.001728596279610697 -0.40597762003102339 0 -0.017737199096442072 -0.40073047040120602 0 -0.0066930742226519926 -0.39143820132839208 0 -0.017737199096442072 -0.40073047040120602 0 -0.026336278995230201 -0.38905167830789189 0 -0.017737199096442072 -0.40073047040120602 0 -0.026336278995230201 -0.38905167830789189 0 -0.033287388117186109 -0.40399871831440642 0 -0.002178803782163227 -0.37161627006544062 0 -0.026336278995230201 -0.38905167830789189 0 -0.02618172091304426 -0.37743656618445498 0 -0.026336278995230201 -0.38905167830789189 0 -0.02618172091304426 -0.37743656618445498 0 -0.033482850758781962 -0.383939184607547 0 -0.02618172091304426 -0.37743656618445498 0 -0.042372487296275553 -0.37905951185084519 0 -0.033482850758781962 -0.383939184607547 0 -0.02618172091304426 -0.37743656618445498 0 -0.042372487296275553 -0.37905951185084519 0 -0.040000350022935588 -0.37213681664196291 0 -0.02618172091304426 -0.37743656618445498 0 -0.042372487296275553 -0.37905951185084519 0 -0.042372487296275553 -0.37905951185084519 0 -0.039040915830577852 -0.39020898208699611 0 -0.049048127186911553 -0.38756594990863991 0 -0.042372487296275553 -0.37905951185084519 0 -0.039040915830577852 -0.39020898208699611 0 -0.033482850758781962 -0.383939184607547 0 -0.026336278995230201 -0.38905167830789189 0 -0.039040915830577852 -0.39020898208699611 0 -0.033482850758781962 -0.383939184607547 0 -0.026336278995230201 -0.38905167830789189 0 -0.050493754208297943 -0.40648708655034188 0 -0.039040915830577852 -0.39020898208699611 0 -0.048181286987745188 -0.3967611761759377 0 -0.050493754208297943 -0.40648708655034188 0 -0.026336278995230201 -0.38905167830789189 0 -0.039040915830577852 -0.39020898208699611 0 -0.050493754208297943 -0.40648708655034188 0 -0.026336278995230201 -0.38905167830789189 0 -0.033287388117186109 -0.40399871831440642 0 -0.050493754208297943 -0.40648708655034188 0 -0.039040915830577852 -0.39020898208699611 0 -0.048181286987745188 -0.3967611761759377 0 -0.049048127186911553 -0.38756594990863991 0 -0.048181286987745188 -0.3967611761759377 0 -0.055512870853615448 -0.39455951290216967 0 -0.049048127186911553 -0.38756594990863991 0 -0.055512870853615448 -0.39455951290216967 0 -0.052509649903146327 -0.40794203844841681 0 -0.074281153156084773 -0.38791836881244668 0 -0.048181286987745188 -0.3967611761759377 0 -0.055512870853615448 -0.39455951290216967 0 -0.050493754208297943 -0.40648708655034188 0 -0.055512870853615448 -0.39455951290216967 0 -0.052509649903146327 -0.40794203844841681 0 -0.050493754208297943 -0.40648708655034188 0 -0.048181286987745188 -0.3967611761759377 0 -0.050493754208297943 -0.40648708655034188 0 -0.040000350022935588 -0.37213681664196291 0 -0.042372487296275553 -0.37905951185084519 0 -0.058563253679506787 -0.38068245751723601 0 -0.042372487296275553 -0.37905951185084519 0 -0.058563253679506787 -0.38068245751723601 0 -0.040000350022935588 -0.37213681664196291 0 -0.058563253679506787 -0.38068245751723601 0 -0.042372487296275553 -0.37905951185084519 0 -0.058563253679506787 -0.38068245751723601 0 -0.049048127186911553 -0.38756594990863991 0 -0.055512870853615448 -0.39455951290216967 0 -0.058563253679506787 -0.38068245751723601 0 -0.049048127186911553 -0.38756594990863991 0 -0.055571169944573007 -0.4278419796903028 0 -0.060002998013559863 -0.44648162232419802 0 -0.069408814394604765 -0.42365151461769918 0 -0.055571169944573007 -0.4278419796903028 0 -0.060002998013559863 -0.44648162232419802 0 -0.055571169944573007 -0.4278419796903028 0 -0.04142135733128624 -0.43391233418184683 0 -0.048623679129421588 -0.44273110985945369 0 -0.055571169944573007 -0.4278419796903028 0 -0.059775586818595829 -0.41787661413097049 0 -0.069408814394604765 -0.42365151461769918 0 -0.055571169944573007 -0.4278419796903028 0 -0.059775586818595829 -0.41787661413097049 0 -0.052509649903146327 -0.40794203844841681 0 -0.055571169944573007 -0.4278419796903028 0 -0.052509649903146327 -0.40794203844841681 0 -0.038621424185474637 -0.4207153063468223 0 -0.055571169944573007 -0.4278419796903028 0 -0.052509649903146327 -0.40794203844841681 0 -0.052509649903146327 -0.40794203844841681 0 -0.070248957975066639 -0.42074520084202788 0 -0.059775586818595829 -0.41787661413097049 0 -0.052509649903146327 -0.40794203844841681 0 -0.070248957975066639 -0.42074520084202788 0 -0.052509649903146327 -0.40794203844841681 0 -0.050493754208297943 -0.40648708655034188 0 -0.041470954428671609 -0.41006675355118111 0 -0.052509649903146327 -0.40794203844841681 0 -0.050493754208297943 -0.40648708655034188 0 -0.052509649903146327 -0.40794203844841681 0 -0.038621424185474637 -0.4207153063468223 0 -0.033287388117186109 -0.40399871831440642 0 -0.050493754208297943 -0.40648708655034188 0 -0.041470954428671609 -0.41006675355118111 0 -0.052509649903146327 -0.40794203844841681 0 -0.041470954428671609 -0.41006675355118111 0 -0.038621424185474637 -0.4207153063468223 0 -0.033287388117186109 -0.40399871831440642 0 -0.041470954428671609 -0.41006675355118111 0 -0.027792962261932352 -0.41547375898907968 0 -0.041470954428671609 -0.41006675355118111 0 -0.038621424185474637 -0.4207153063468223 0 -0.027792962261932352 -0.41547375898907968 0 -0.055571169944573007 -0.4278419796903028 0 -0.038621424185474637 -0.4207153063468223 0 -0.04142135733128624 -0.43391233418184683 0 -0.038621424185474637 -0.4207153063468223 0 -0.026103506495360269 -0.43222827563723731 0 -0.038621424185474637 -0.4207153063468223 0 -0.04142135733128624 -0.43391233418184683 0 -0.026103506495360269 -0.43222827563723731 0 -0.04142135733128624 -0.43391233418184683 0 -0.026103506495360269 -0.43222827563723731 0 -0.035662081446574762 -0.44437129177822371 0 -0.026103506495360269 -0.43222827563723731 0 -0.027792962261932352 -0.41547375898907968 0 -0.009537301248459449 -0.42510302968362512 0 -0.026103506495360269 -0.43222827563723731 0 -0.009537301248459449 -0.42510302968362512 0 -0.019709463090837601 -0.44530454005801179 0 -0.038621424185474637 -0.4207153063468223 0 -0.026103506495360269 -0.43222827563723731 0 -0.027792962261932352 -0.41547375898907968 0 -0.017737199096442072 -0.40073047040120602 0 -0.027792962261932352 -0.41547375898907968 0 -0.009537301248459449 -0.42510302968362512 0 -0.017737199096442072 -0.40073047040120602 0 -0.033287388117186109 -0.40399871831440642 0 -0.027792962261932352 -0.41547375898907968 0 -0.001728596279610697 -0.40597762003102339 0 -0.017737199096442072 -0.40073047040120602 0 -0.009537301248459449 -0.42510302968362512 0 -0.017737199096442072 -0.40073047040120602 0 -0.009537301248459449 -0.42510302968362512 0 -0.001728596279610697 -0.40597762003102339 0 -0.009537301248459449 -0.42510302968362512 0 0.0082246319185010179 -0.41465428951275207 0 -0.009537301248459449 -0.42510302968362512 0 -0.0013374034004768371 -0.44947558896604423 0 -0.009537301248459449 -0.42510302968362512 0 -0.0013374034004768371 -0.44947558896604423 0 0.01039378864355619 -0.42848339288335913 0 -0.009537301248459449 -0.42510302968362512 0 -0.0013374034004768371 -0.44947558896604423 0 -0.019709463090837601 -0.44530454005801179 0 -0.0013374034004768371 -0.44947558896604423 0 -0.014612752260004851 -0.46155177919014362 0 -0.019709463090837601 -0.44530454005801179 0 -0.0013374034004768371 -0.44947558896604423 0 -0.014612752260004851 -0.46155177919014362 0 0.0068624944475057766 -0.47384814824846327 0 -0.014612752260004851 -0.46155177919014362 0 -0.028521420705905499 -0.4674310816654948 0 -0.030789477839635839 -0.45543267362212791 0 -0.014612752260004851 -0.46155177919014362 0 -0.030789477839635839 -0.45543267362212791 0 -0.019709463090837601 -0.44530454005801179 0 -0.030789477839635839 -0.45543267362212791 0 -0.019709463090837601 -0.44530454005801179 0 -0.035662081446574762 -0.44437129177822371 0 -0.026103506495360269 -0.43222827563723731 0 -0.019709463090837601 -0.44530454005801179 0 -0.035662081446574762 -0.44437129177822371 0 -0.015217900669161011 -0.5 0 -0.01418124297067914 -0.47781864258071971 0 0.0024053695883212941 -0.48891336768777249 0 -0.01418124297067914 -0.47781864258071971 0 0.0068624944475057766 -0.47384814824846327 0 0.0024053695883212941 -0.48891336768777249 0 -0.014612752260004851 -0.46155177919014362 0 -0.01418124297067914 -0.47781864258071971 0 0.0068624944475057766 -0.47384814824846327 0 -0.014612752260004851 -0.46155177919014362 0 -0.028521420705905499 -0.4674310816654948 0 -0.01418124297067914 -0.47781864258071971 0 -0.028521420705905499 -0.4674310816654948 0 -0.01418124297067914 -0.47781864258071971 0 -0.027752274071966478 -0.47742461628286209 0 -0.015217900669161011 -0.5 0 -0.027752274071966478 -0.47742461628286209 0 -0.038171784631523778 -0.48284131767108018 0 -0.015217900669161011 -0.5 0 -0.01418124297067914 -0.47781864258071971 0 -0.027752274071966478 -0.47742461628286209 0 -0.015217900669161011 -0.5 0 -0.043972809743024373 -0.5 0 -0.038171784631523778 -0.48284131767108018 0 -0.043972809743024373 -0.5 0 -0.038171784631523778 -0.48284131767108018 0 -0.049841179956411519 -0.48183723669954598 0 -0.038171784631523778 -0.48284131767108018 0 -0.048675315621036823 -0.47094071089761919 0 -0.038171784631523778 -0.48284131767108018 0 -0.048675315621036823 -0.47094071089761919 0 -0.049841179956411519 -0.48183723669954598 0 -0.027752274071966478 -0.47742461628286209 0 -0.038171784631523778 -0.48284131767108018 0 -0.038764373548703768 -0.47063519779216179 0 -0.028521420705905499 -0.4674310816654948 0 -0.027752274071966478 -0.47742461628286209 0 -0.038764373548703768 -0.47063519779216179 0 -0.038764373548703768 -0.47063519779216179 0 -0.048675315621036823 -0.47094071089761919 0 -0.045335619097383061 -0.46570514195792412 0 -0.038171784631523778 -0.48284131767108018 0 -0.038764373548703768 -0.47063519779216179 0 -0.048675315621036823 -0.47094071089761919 0 -0.048675315621036823 -0.47094071089761919 0 -0.055120034750126161 -0.47128965669693351 0 -0.049841179956411519 -0.48183723669954598 0 -0.048675315621036823 -0.47094071089761919 0 -0.055120034750126161 -0.47128965669693351 0 -0.057384894248553399 -0.46524593439390849 0 -0.055120034750126161 -0.47128965669693351 0 -0.059149819292987238 -0.47777467248794547 0 -0.064422500494955764 -0.4650694252783244 0 -0.059149819292987238 -0.47777467248794547 0 -0.049841179956411519 -0.48183723669954598 0 -0.058853327493046781 -0.48842932436532971 0 -0.055120034750126161 -0.47128965669693351 0 -0.059149819292987238 -0.47777467248794547 0 -0.049841179956411519 -0.48183723669954598 0 -0.059149819292987238 -0.47777467248794547 0 -0.058853327493046781 -0.48842932436532971 0 -0.068575109655922298 -0.48253471263916042 0 -0.043972809743024373 -0.5 0 -0.058853327493046781 -0.48842932436532971 0 -0.072727718816887776 -0.49999999999999672 0 -0.043972809743024373 -0.5 0 -0.049841179956411519 -0.48183723669954598 0 -0.058853327493046781 -0.48842932436532971 0 -0.045123684251444827 -0.45223268167437758 0 -0.035662081446574762 -0.44437129177822371 0 -0.048623679129421588 -0.44273110985945369 0 -0.04142135733128624 -0.43391233418184683 0 -0.035662081446574762 -0.44437129177822371 0 -0.048623679129421588 -0.44273110985945369 0 -0.030789477839635839 -0.45543267362212791 0 -0.045123684251444827 -0.45223268167437758 0 -0.035662081446574762 -0.44437129177822371 0 -0.030789477839635839 -0.45543267362212791 0 -0.045123684251444827 -0.45223268167437758 0 -0.04007978340352341 -0.46172459869688548 0 -0.028521420705905499 -0.4674310816654948 0 -0.030789477839635839 -0.45543267362212791 0 -0.04007978340352341 -0.46172459869688548 0 -0.028521420705905499 -0.4674310816654948 0 -0.038764373548703768 -0.47063519779216179 0 -0.04007978340352341 -0.46172459869688548 0 -0.038764373548703768 -0.47063519779216179 0 -0.04007978340352341 -0.46172459869688548 0 -0.045335619097383061 -0.46570514195792412 0 -0.04007978340352341 -0.46172459869688548 0 -0.045335619097383061 -0.46570514195792412 0 -0.047248161051959649 -0.4591011094540644 0 -0.045123684251444827 -0.45223268167437758 0 -0.04007978340352341 -0.46172459869688548 0 -0.047248161051959649 -0.4591011094540644 0 -0.045123684251444827 -0.45223268167437758 0 -0.050581796861615229 -0.45333412325219669 0 -0.047248161051959649 -0.4591011094540644 0 -0.050581796861615229 -0.45333412325219669 0 -0.047248161051959649 -0.4591011094540644 0 -0.051910461861691633 -0.46612409294888979 0 -0.051910461861691633 -0.46612409294888979 0 -0.05917884661055 -0.4590401041241583 0 -0.060002998013559863 -0.44648162232419802 0 -0.051910461861691633 -0.46612409294888979 0 -0.060002998013559863 -0.44648162232419802 0 -0.050581796861615229 -0.45333412325219669 0 -0.051910461861691633 -0.46612409294888979 0 -0.060002998013559863 -0.44648162232419802 0 -0.048675315621036823 -0.47094071089761919 0 -0.05917884661055 -0.4590401041241583 0 -0.048675315621036823 -0.47094071089761919 0 -0.051910461861691633 -0.46612409294888979 0 -0.05917884661055 -0.4590401041241583 0 -0.048675315621036823 -0.47094071089761919 0 -0.045335619097383061 -0.46570514195792412 0 -0.051910461861691633 -0.46612409294888979 0 -0.045335619097383061 -0.46570514195792412 0 -0.047248161051959649 -0.4591011094540644 0 -0.051910461861691633 -0.46612409294888979 0 -0.055120034750126161 -0.47128965669693351 0 -0.057384894248553399 -0.46524593439390849 0 -0.064422500494955764 -0.4650694252783244 0 -0.048675315621036823 -0.47094071089761919 0 -0.057384894248553399 -0.46524593439390849 0 -0.05917884661055 -0.4590401041241583 0 -0.057384894248553399 -0.46524593439390849 0 -0.05917884661055 -0.4590401041241583 0 -0.059237257045792073 -0.46090013765886428 0 -0.064422500494955764 -0.4650694252783244 0 -0.057384894248553399 -0.46524593439390849 0 -0.059237257045792073 -0.46090013765886428 0 -0.064422500494955764 -0.4650694252783244 0 -0.057384894248553399 -0.46524593439390849 0 -0.059237257045792073 -0.46090013765886428 0 -0.05917884661055 -0.4590401041241583 0 -0.059237257045792073 -0.46090013765886428 0 -0.062180371227510647 -0.45563934639583059 0 -0.064422500494955764 -0.4650694252783244 0 -0.059237257045792073 -0.46090013765886428 0 -0.05917884661055 -0.4590401041241583 0 -0.062180371227510647 -0.45563934639583059 0 -0.05917884661055 -0.4590401041241583 0 -0.062180371227510647 -0.45563934639583059 0 -0.05917884661055 -0.4590401041241583 0 -0.061269440441321127 -0.45180810022505591 0 -0.05917884661055 -0.4590401041241583 0 -0.062180371227510647 -0.45563934639583059 0 -0.061269440441321127 -0.45180810022505591 0 -0.062180371227510647 -0.45563934639583059 0 -0.061269440441321127 -0.45180810022505591 0 -0.055571169944573007 -0.4278419796903028 0 -0.060002998013559863 -0.44648162232419802 0 -0.048623679129421588 -0.44273110985945369 0 -0.05917884661055 -0.4590401041241583 0 -0.061269440441321127 -0.45180810022505591 0 -0.060002998013559863 -0.44648162232419802 0 -0.061269440441321127 -0.45180810022505591 0 -0.060002998013559863 -0.44648162232419802 0 -0.050581796861615229 -0.45333412325219669 0 -0.060002998013559863 -0.44648162232419802 0 -0.048623679129421588 -0.44273110985945369 0 -0.045123684251444827 -0.45223268167437758 0 -0.050581796861615229 -0.45333412325219669 0 -0.048623679129421588 -0.44273110985945369 0 -0.061269440441321127 -0.45180810022505591 0 -0.069408814394604765 -0.42365151461769918 0 -0.062180371227510647 -0.45563934639583059 0 -0.061269440441321127 -0.45180810022505591 0 -0.077098496045509793 -0.43873696019506903 0 -0.062180371227510647 -0.45563934639583059 0 -0.077098496045509793 -0.43873696019506903 0 -0.073769461018799692 -0.45951707792468061 0 -0.061269440441321127 -0.45180810022505591 0 -0.077098496045509793 -0.43873696019506903 0 -0.069408814394604765 -0.42365151461769918 0 -0.061269440441321127 -0.45180810022505591 0 -0.060002998013559863 -0.44648162232419802 0 -0.069408814394604765 -0.42365151461769918 0 -0.062180371227510647 -0.45563934639583059 0 -0.077098496045509793 -0.43873696019506903 0 -0.062180371227510647 -0.45563934639583059 0 -0.064422500494955764 -0.4650694252783244 0 -0.062180371227510647 -0.45563934639583059 0 -0.064422500494955764 -0.4650694252783244 0 -0.073769461018799692 -0.45951707792468061 0 -0.084521355142842869 -0.45759592347480388 0 -0.086143661312174283 -0.48253471263916248 0 -0.099165393688022629 -0.46120376842987459 0 -0.073769461018799692 -0.45951707792468061 0 -0.084521355142842869 -0.45759592347480388 0 -0.086143661312174283 -0.48253471263916248 0 -0.084521355142842869 -0.45759592347480388 0 -0.089624247433654214 -0.44685599598904568 0 -0.099165393688022629 -0.46120376842987459 0 -0.077098496045509793 -0.43873696019506903 0 -0.084521355142842869 -0.45759592347480388 0 -0.089624247433654214 -0.44685599598904568 0 -0.077098496045509793 -0.43873696019506903 0 -0.073769461018799692 -0.45951707792468061 0 -0.084521355142842869 -0.45759592347480388 0 -0.089624247433654214 -0.44685599598904568 0 -0.099878095611554862 -0.4393977270813314 0 -0.089545628933694749 -0.43673796215895883 0 -0.077098496045509793 -0.43873696019506903 0 -0.089624247433654214 -0.44685599598904568 0 -0.089545628933694749 -0.43673796215895883 0 -0.072727718816887776 -0.49999999999999672 0 -0.068575109655922298 -0.48253471263916042 0 -0.058853327493046781 -0.48842932436532971 0 -0.072727718816887776 -0.49999999999999672 0 -0.068575109655922298 -0.48253471263916042 0 -0.072727718816887776 -0.49999999999999672 0 -0.068575109655922298 -0.48253471263916042 0 -0.086143661312174283 -0.48253471263916248 0 -0.064422500494955764 -0.4650694252783244 0 -0.068575109655922298 -0.48253471263916042 0 -0.059149819292987238 -0.47777467248794547 0 -0.064422500494955764 -0.4650694252783244 0 -0.068575109655922298 -0.48253471263916042 0 -0.064422500494955764 -0.4650694252783244 0 -0.073769461018799692 -0.45951707792468061 0 -0.086143661312174283 -0.48253471263916248 0 -0.064422500494955764 -0.4650694252783244 0 -0.068575109655922298 -0.48253471263916042 0 -0.086143661312174283 -0.48253471263916248 0 -0.064422500494955764 -0.4650694252783244 0 -0.086143661312174283 -0.48253471263916248 0 -0.072727718816887776 -0.49999999999999672 0 -0.086143661312174283 -0.48253471263916248 0 -0.090296270473140428 -0.5 0 -0.086143661312174283 -0.48253471263916248 0 -0.090296270473140428 -0.5 0 -0.10786482212939311 -0.50000000000000011 0 -0.086143661312174283 -0.48253471263916248 0 -0.10786482212939311 -0.50000000000000011 0 -0.086143661312174283 -0.48253471263916248 0 -0.10786482212939311 -0.50000000000000011 0 -0.1056577076014347 -0.47999846360012538 0 -0.086143661312174283 -0.48253471263916248 0 -0.1056577076014347 -0.47999846360012538 0 -0.099165393688022629 -0.46120376842987459 0 -0.1056577076014347 -0.47999846360012538 0 -0.12108079434187891 -0.47202921183540031 0 -0.099165393688022629 -0.46120376842987459 0 -0.1056577076014347 -0.47999846360012538 0 -0.12108079434187891 -0.47202921183540031 0 -0.1206292342060253 -0.48641385964910883 0 -0.131118449396015 -0.5 0 -0.10786482212939311 -0.50000000000000011 0 -0.1206292342060253 -0.48641385964910883 0 -0.10786482212939311 -0.50000000000000011 0 -0.1056577076014347 -0.47999846360012538 0 -0.1206292342060253 -0.48641385964910883 0 -0.099878095611554862 -0.4393977270813314 0 -0.099165393688022629 -0.46120376842987459 0 -0.099878095611554862 -0.4393977270813314 0 -0.099165393688022629 -0.46120376842987459 0 -0.11615585050415531 -0.45102464773050138 0 -0.089624247433654214 -0.44685599598904568 0 -0.099878095611554862 -0.4393977270813314 0 -0.099165393688022629 -0.46120376842987459 0 -0.12108079434187891 -0.47202921183540031 0 -0.099165393688022629 -0.46120376842987459 0 -0.11615585050415531 -0.45102464773050138 0 -0.13077987840644981 -0.46069854066347632 0 -0.12108079434187891 -0.47202921183540031 0 -0.11615585050415531 -0.45102464773050138 0 -0.13194602454298601 -0.43962244526902572 0 -0.11615585050415531 -0.45102464773050138 0 -0.1129403580353462 -0.43280081863281078 0 -0.099878095611554862 -0.4393977270813314 0 -0.11615585050415531 -0.45102464773050138 0 -0.1129403580353462 -0.43280081863281078 0 -0.13194602454298601 -0.43962244526902572 0 -0.1165997240041481 -0.41847011486561592 0 -0.13194602454298601 -0.43962244526902572 0 -0.1129403580353462 -0.43280081863281078 0 -0.1165997240041481 -0.41847011486561592 0 -0.1129403580353462 -0.43280081863281078 0 -0.1079125428112538 -0.41892639524425412 0 -0.1165997240041481 -0.41847011486561592 0 -0.099878095611554862 -0.4393977270813314 0 -0.100590797535087 -0.41759168573278821 0 -0.092016620863508841 -0.4218345739943074 0 -0.099878095611554862 -0.4393977270813314 0 -0.089545628933694749 -0.43673796215895883 0 -0.092016620863508841 -0.4218345739943074 0 -0.099878095611554862 -0.4393977270813314 0 -0.1129403580353462 -0.43280081863281078 0 -0.10283731640903 -0.42510314405888588 0 -0.099878095611554862 -0.4393977270813314 0 -0.100590797535087 -0.41759168573278821 0 -0.099878095611554862 -0.4393977270813314 0 -0.10283731640903 -0.42510314405888588 0 -0.100590797535087 -0.41759168573278821 0 -0.1129403580353462 -0.43280081863281078 0 -0.10283731640903 -0.42510314405888588 0 -0.1079125428112538 -0.41892639524425412 0 -0.100590797535087 -0.41759168573278821 0 -0.1012534234653099 -0.39731778446220639 0 -0.1165997240041481 -0.41847011486561592 0 -0.1012534234653099 -0.39731778446220639 0 -0.100590797535087 -0.41759168573278821 0 -0.094499944748829334 -0.39722631626938482 0 -0.088610052547492879 -0.41006814396079783 0 -0.100590797535087 -0.41759168573278821 0 -0.1079125428112538 -0.41892639524425412 0 -0.1012534234653099 -0.39731778446220639 0 -0.100590797535087 -0.41759168573278821 0 -0.094499944748829334 -0.39722631626938482 0 -0.1079125428112538 -0.41892639524425412 0 -0.1165997240041481 -0.41847011486561592 0 -0.1012534234653099 -0.39731778446220639 0 -0.10283731640903 -0.42510314405888588 0 -0.100590797535087 -0.41759168573278821 0 -0.1079125428112538 -0.41892639524425412 0 -0.10283731640903 -0.42510314405888588 0 -0.100590797535087 -0.41759168573278821 0 -0.12592730430259419 -0.40432488328170318 0 -0.1165997240041481 -0.41847011486561592 0 -0.1152538145686829 -0.39895411709426332 0 -0.1165997240041481 -0.41847011486561592 0 -0.1152538145686829 -0.39895411709426332 0 -0.1012534234653099 -0.39731778446220639 0 -0.12526638733901391 -0.39147447277512609 0 -0.12592730430259419 -0.40432488328170318 0 -0.1152538145686829 -0.39895411709426332 0 -0.12526638733901391 -0.39147447277512609 0 -0.1152538145686829 -0.39895411709426332 0 -0.1147112201852714 -0.38836266809632891 0 -0.1152538145686829 -0.39895411709426332 0 -0.1147112201852714 -0.38836266809632891 0 -0.1077648281157602 -0.39377477908459929 0 -0.12526638733901391 -0.39147447277512609 0 -0.12201267174342199 -0.37938718301114999 0 -0.1147112201852714 -0.38836266809632891 0 -0.1147112201852714 -0.38836266809632891 0 -0.1094440337948836 -0.37923577087639421 0 -0.1073228884697877 -0.3875649225559597 0 -0.1147112201852714 -0.38836266809632891 0 -0.1073228884697877 -0.3875649225559597 0 -0.1077648281157602 -0.39377477908459929 0 -0.12201267174342199 -0.37938718301114999 0 -0.1147112201852714 -0.38836266809632891 0 -0.1094440337948836 -0.37923577087639421 0 -0.1159926709000937 -0.36685414663024191 0 -0.12201267174342199 -0.37938718301114999 0 -0.1094440337948836 -0.37923577087639421 0 -0.1024060606807759 -0.36205135125861898 0 -0.1094440337948836 -0.37923577087639421 0 -0.1016559479587178 -0.38500202459504551 0 -0.1094440337948836 -0.37923577087639421 0 -0.1016559479587178 -0.38500202459504551 0 -0.1073228884697877 -0.3875649225559597 0 -0.1016559479587178 -0.38500202459504551 0 -0.1014693111655476 -0.390712419775258 0 -0.1016559479587178 -0.38500202459504551 0 -0.1073228884697877 -0.3875649225559597 0 -0.1014693111655476 -0.390712419775258 0 -0.1016559479587178 -0.38500202459504551 0 -0.091585827134305964 -0.3839926061052007 0 -0.1016559479587178 -0.38500202459504551 0 -0.1014693111655476 -0.390712419775258 0 -0.093729726096669103 -0.3869476153003294 0 -0.1016559479587178 -0.38500202459504551 0 -0.091585827134305964 -0.3839926061052007 0 -0.093729726096669103 -0.3869476153003294 0 -0.1014693111655476 -0.390712419775258 0 -0.093729726096669103 -0.3869476153003294 0 -0.1016559479587178 -0.38500202459504551 0 -0.095426438310298192 -0.37780241062099151 0 -0.091585827134305964 -0.3839926061052007 0 -0.100590797535087 -0.41759168573278821 0 -0.1012534234653099 -0.39731778446220639 0 -0.099487365185966847 -0.39952233119993291 0 -0.100590797535087 -0.41759168573278821 0 -0.094499944748829334 -0.39722631626938482 0 -0.099487365185966847 -0.39952233119993291 0 -0.1152538145686829 -0.39895411709426332 0 -0.1077648281157602 -0.39377477908459929 0 -0.1012534234653099 -0.39731778446220639 0 -0.1073228884697877 -0.3875649225559597 0 -0.1077648281157602 -0.39377477908459929 0 -0.1014693111655476 -0.390712419775258 0 -0.1077648281157602 -0.39377477908459929 0 -0.1012534234653099 -0.39731778446220639 0 -0.1014693111655476 -0.390712419775258 0 -0.1077648281157602 -0.39377477908459929 0 -0.1014693111655476 -0.390712419775258 0 -0.1012534234653099 -0.39731778446220639 0 -0.094499944748829334 -0.39722631626938482 0 -0.099487365185966847 -0.39952233119993291 0 -0.1012534234653099 -0.39731778446220639 0 -0.094499944748829334 -0.39722631626938482 0 -0.093729726096669103 -0.3869476153003294 0 -0.1012534234653099 -0.39731778446220639 0 -0.1014693111655476 -0.390712419775258 0 -0.093729726096669103 -0.3869476153003294 0 -0.1012534234653099 -0.39731778446220639 0 -0.093729726096669103 -0.3869476153003294 0 -0.1012534234653099 -0.39731778446220639 0 -0.1014693111655476 -0.390712419775258 0 -0.094499944748829334 -0.39722631626938482 0 -0.099487365185966847 -0.39952233119993291 0 -0.094499944748829334 -0.39722631626938482 0 -0.085553154766675646 -0.40134027138503481 0 -0.088610052547492879 -0.41006814396079783 0 -0.094499944748829334 -0.39722631626938482 0 -0.082560309743270749 -0.39172977139542609 0 -0.085553154766675646 -0.40134027138503481 0 -0.094499944748829334 -0.39722631626938482 0 -0.082560309743270749 -0.39172977139542609 0 -0.091033556626635648 -0.38563610430902873 0 -0.094499944748829334 -0.39722631626938482 0 -0.082560309743270749 -0.39172977139542609 0 -0.094499944748829334 -0.39722631626938482 0 -0.091033556626635648 -0.38563610430902873 0 -0.082560309743270749 -0.39172977139542609 0 -0.079097438192195432 -0.39013559964190198 0 -0.074673198083630793 -0.40544040024196493 0 -0.082560309743270749 -0.39172977139542609 0 -0.079097438192195432 -0.39013559964190198 0 -0.082560309743270749 -0.39172977139542609 0 -0.076542312027108539 -0.406336853914531 0 -0.082560309743270749 -0.39172977139542609 0 -0.085553154766675646 -0.40134027138503481 0 -0.076542312027108539 -0.406336853914531 0 -0.085553154766675646 -0.40134027138503481 0 -0.076542312027108539 -0.406336853914531 0 -0.088610052547492879 -0.41006814396079783 0 -0.090139611558562177 -0.37333304007799939 0 -0.088525620654428705 -0.37725057202694517 0 -0.088525620654428705 -0.37725057202694517 0 -0.087954911787112483 -0.37534235041220648 0 -0.08170780991661282 -0.38109255286014232 0 -0.090139611558562177 -0.37333304007799939 0 -0.088525620654428705 -0.37725057202694517 0 -0.087954911787112483 -0.37534235041220648 0 -0.088525620654428705 -0.37725057202694517 0 -0.087954911787112483 -0.37534235041220648 0 -0.090139611558562177 -0.37333304007799939 0 -0.095426438310298192 -0.37780241062099151 0 -0.088525620654428705 -0.37725057202694517 0 -0.088525620654428705 -0.37725057202694517 0 -0.091585827134305964 -0.3839926061052007 0 -0.095426438310298192 -0.37780241062099151 0 -0.088525620654428705 -0.37725057202694517 0 -0.091585827134305964 -0.3839926061052007 0 -0.088525620654428705 -0.37725057202694517 0 -0.086634605294488312 -0.38349630075200858 0 -0.088525620654428705 -0.37725057202694517 0 -0.086634605294488312 -0.38349630075200858 0 -0.091585827134305964 -0.3839926061052007 0 -0.082560309743270749 -0.39172977139542609 0 -0.086634605294488312 -0.38349630075200858 0 -0.091033556626635648 -0.38563610430902873 0 -0.094499944748829334 -0.39722631626938482 0 -0.091033556626635648 -0.38563610430902873 0 -0.093729726096669103 -0.3869476153003294 0 -0.086634605294488312 -0.38349630075200858 0 -0.091585827134305964 -0.3839926061052007 0 -0.086634605294488312 -0.38349630075200858 0 -0.091033556626635648 -0.38563610430902873 0 -0.086634605294488312 -0.38349630075200858 0 -0.091585827134305964 -0.3839926061052007 0 -0.091033556626635648 -0.38563610430902873 0 -0.091585827134305964 -0.3839926061052007 0 -0.091033556626635648 -0.38563610430902873 0 -0.093729726096669103 -0.3869476153003294 0 -0.091033556626635648 -0.38563610430902873 0 -0.093729726096669103 -0.3869476153003294 0 -0.091585827134305964 -0.3839926061052007 0 -0.093729726096669103 -0.3869476153003294 0 -0.091585827134305964 -0.3839926061052007 0 -0.091033556626635648 -0.38563610430902873 0 -0.082560309743270749 -0.39172977139542609 0 -0.086634605294488312 -0.38349630075200858 0 -0.082560309743270749 -0.39172977139542609 0 -0.086634605294488312 -0.38349630075200858 0 -0.081174899406055781 -0.38294902548401538 0 -0.082560309743270749 -0.39172977139542609 0 -0.079097438192195432 -0.39013559964190198 0 -0.081174899406055781 -0.38294902548401538 0 -0.079097438192195432 -0.39013559964190198 0 -0.081174899406055781 -0.38294902548401538 0 -0.074281153156084773 -0.38791836881244668 0 -0.079097438192195432 -0.39013559964190198 0 -0.081174899406055781 -0.38294902548401538 0 -0.086634605294488312 -0.38349630075200858 0 -0.081174899406055781 -0.38294902548401538 0 -0.088525620654428705 -0.37725057202694517 0 -0.086634605294488312 -0.38349630075200858 0 -0.08170780991661282 -0.38109255286014232 0 -0.086634605294488312 -0.38349630075200858 0 -0.081174899406055781 -0.38294902548401538 0 -0.08170780991661282 -0.38109255286014232 0 -0.086634605294488312 -0.38349630075200858 0 -0.08170780991661282 -0.38109255286014232 0 -0.081174899406055781 -0.38294902548401538 0 -0.08170780991661282 -0.38109255286014232 0 -0.087954911787112483 -0.37534235041220648 0 -0.08170780991661282 -0.38109255286014232 0 -0.055512870853615448 -0.39455951290216967 0 -0.058563253679506787 -0.38068245751723601 0 -0.074281153156084773 -0.38791836881244668 0 -0.058563253679506787 -0.38068245751723601 0 -0.074281153156084773 -0.38791836881244668 0 -0.058387822440418388 -0.36975607908058028 0 -0.08170780991661282 -0.38109255286014232 0 -0.058387822440418388 -0.36975607908058028 0 -0.081174899406055781 -0.38294902548401538 0 -0.08170780991661282 -0.38109255286014232 0 -0.058563253679506787 -0.38068245751723601 0 -0.081174899406055781 -0.38294902548401538 0 -0.074281153156084773 -0.38791836881244668 0 -0.058563253679506787 -0.38068245751723601 0 -0.081174899406055781 -0.38294902548401538 0 -0.058387822440418388 -0.36975607908058028 0 -0.058563253679506787 -0.38068245751723601 0 -0.081174899406055781 -0.38294902548401538 0 -0.081174899406055781 -0.38294902548401538 0 -0.074281153156084773 -0.38791836881244668 0 -0.079097438192195432 -0.39013559964190198 0 -0.074281153156084773 -0.38791836881244668 0 -0.079097438192195432 -0.39013559964190198 0 -0.074281153156084773 -0.38791836881244668 0 -0.074673198083630793 -0.40544040024196493 0 -0.052509649903146327 -0.40794203844841681 0 -0.074281153156084773 -0.38791836881244668 0 -0.052509649903146327 -0.40794203844841681 0 -0.074281153156084773 -0.38791836881244668 0 -0.074673198083630793 -0.40544040024196493 0 -0.082560309743270749 -0.39172977139542609 0 -0.074673198083630793 -0.40544040024196493 0 -0.076542312027108539 -0.406336853914531 0 -0.079097438192195432 -0.39013559964190198 0 -0.074673198083630793 -0.40544040024196493 0 -0.052509649903146327 -0.40794203844841681 0 -0.074673198083630793 -0.40544040024196493 0 -0.070248957975066639 -0.42074520084202788 0 -0.076542312027108539 -0.406336853914531 0 -0.070248957975066639 -0.42074520084202788 0 -0.074673198083630793 -0.40544040024196493 0 -0.070248957975066639 -0.42074520084202788 0 -0.074673198083630793 -0.40544040024196493 0 -0.076542312027108539 -0.406336853914531 0 -0.070248957975066639 -0.42074520084202788 0 -0.070248957975066639 -0.42074520084202788 0 -0.077246521605040669 -0.42579562012280953 0 -0.078194253298280558 -0.41865647959270891 0 -0.076542312027108539 -0.406336853914531 0 -0.070248957975066639 -0.42074520084202788 0 -0.078194253298280558 -0.41865647959270891 0 -0.059775586818595829 -0.41787661413097049 0 -0.070248957975066639 -0.42074520084202788 0 -0.069408814394604765 -0.42365151461769918 0 -0.060002998013559863 -0.44648162232419802 0 -0.069408814394604765 -0.42365151461769918 0 -0.070248957975066639 -0.42074520084202788 0 -0.069408814394604765 -0.42365151461769918 0 -0.077098496045509793 -0.43873696019506903 0 -0.069408814394604765 -0.42365151461769918 0 -0.077246521605040669 -0.42579562012280953 0 -0.070248957975066639 -0.42074520084202788 0 -0.069408814394604765 -0.42365151461769918 0 -0.077246521605040669 -0.42579562012280953 0 -0.070248957975066639 -0.42074520084202788 0 -0.077246521605040669 -0.42579562012280953 0 -0.077246521605040669 -0.42579562012280953 0 -0.082943237868067593 -0.4239856173255338 0 -0.078194253298280558 -0.41865647959270891 0 -0.077098496045509793 -0.43873696019506903 0 -0.082943237868067593 -0.4239856173255338 0 -0.092016620863508841 -0.4218345739943074 0 -0.077098496045509793 -0.43873696019506903 0 -0.089545628933694749 -0.43673796215895883 0 -0.092016620863508841 -0.4218345739943074 0 -0.077098496045509793 -0.43873696019506903 0 -0.092016620863508841 -0.4218345739943074 0 -0.077098496045509793 -0.43873696019506903 0 -0.077246521605040669 -0.42579562012280953 0 -0.082943237868067593 -0.4239856173255338 0 -0.100590797535087 -0.41759168573278821 0 -0.092016620863508841 -0.4218345739943074 0 -0.088610052547492879 -0.41006814396079783 0 -0.082943237868067593 -0.4239856173255338 0 -0.092016620863508841 -0.4218345739943074 0 -0.083714880680240453 -0.41622037016703428 0 -0.092016620863508841 -0.4218345739943074 0 -0.088610052547492879 -0.41006814396079783 0 -0.083714880680240453 -0.41622037016703428 0 -0.076542312027108539 -0.406336853914531 0 -0.088610052547492879 -0.41006814396079783 0 -0.083714880680240453 -0.41622037016703428 0 -0.076542312027108539 -0.406336853914531 0 -0.078194253298280558 -0.41865647959270891 0 -0.083714880680240453 -0.41622037016703428 0 -0.082943237868067593 -0.4239856173255338 0 -0.078194253298280558 -0.41865647959270891 0 -0.083714880680240453 -0.41622037016703428 0 -0.081808777729522386 -0.083143660930833002 0 -0.073985000225153141 -0.099795971436559522 0 -0.085935801107842547 -0.09579043756499836 0 -0.081808777729522386 -0.083143660930833002 0 -0.085935801107842547 -0.09579043756499836 0 -0.094306078709463503 -0.087148618235937392 0 -0.081808777729522386 -0.083143660930833002 0 -0.094306078709463503 -0.087148618235937392 0 -0.095869533599057435 -0.074719864200214883 0 -0.081808777729522386 -0.083143660930833002 0 -0.087640100333796281 -0.066301869750421821 0 -0.076351800502585221 -0.068318825045574613 0 -0.081808777729522386 -0.083143660930833002 0 -0.087640100333796281 -0.066301869750421821 0 -0.095869533599057435 -0.074719864200214883 0 -0.087640100333796281 -0.066301869750421821 0 -0.095869533599057435 -0.074719864200214883 0 -0.097041901727127691 -0.062312633498474219 0 -0.087640100333796281 -0.066301869750421821 0 -0.076351800502585221 -0.068318825045574613 0 -0.079773765115028039 -0.057914828426178573 0 -0.081808777729522386 -0.083143660930833002 0 -0.076351800502585221 -0.068318825045574613 0 -0.068001603171865072 -0.074911341683796137 0 -0.068001603171865072 -0.074911341683796137 0 -0.065822825648978775 -0.060485584973140792 0 -0.05753372126900759 -0.073422836261521005 0 -0.076351800502585221 -0.068318825045574613 0 -0.068001603171865072 -0.074911341683796137 0 -0.065822825648978775 -0.060485584973140792 0 -0.068001603171865072 -0.074911341683796137 0 -0.066670257350634976 -0.085780572793309681 0 -0.05753372126900759 -0.073422836261521005 0 -0.081808777729522386 -0.083143660930833002 0 -0.066670257350634976 -0.085780572793309681 0 -0.073985000225153141 -0.099795971436559522 0 -0.081808777729522386 -0.083143660930833002 0 -0.068001603171865072 -0.074911341683796137 0 -0.066670257350634976 -0.085780572793309681 0 -0.066670257350634976 -0.085780572793309681 0 -0.073985000225153141 -0.099795971436559522 0 -0.05982498813170789 -0.10249801488187529 0 -0.073985000225153141 -0.099795971436559522 0 -0.065415314349395459 -0.11473522154729129 0 -0.05982498813170789 -0.10249801488187529 0 -0.073985000225153141 -0.099795971436559522 0 -0.065415314349395459 -0.11473522154729129 0 -0.07727601190464152 -0.1134926659633375 0 -0.065415314349395459 -0.11473522154729129 0 -0.060446148579459319 -0.1303024678998376 0 -0.071674103496310607 -0.1250344835198243 0 -0.07727601190464152 -0.1134926659633375 0 -0.082994471061899833 -0.1234246307735777 0 -0.071674103496310607 -0.1250344835198243 0 -0.065415314349395459 -0.11473522154729129 0 -0.07727601190464152 -0.1134926659633375 0 -0.071674103496310607 -0.1250344835198243 0 -0.07727601190464152 -0.1134926659633375 0 -0.082994471061899833 -0.1234246307735777 0 -0.08680817640523622 -0.1078855820033275 0 -0.082994471061899833 -0.1234246307735777 0 -0.08680817640523622 -0.1078855820033275 0 -0.095277368860953449 -0.1178446661751102 0 -0.082994471061899833 -0.1234246307735777 0 -0.095277368860953449 -0.1178446661751102 0 -0.095971306836852913 -0.13086642389395989 0 -0.085935801107842547 -0.09579043756499836 0 -0.08680817640523622 -0.1078855820033275 0 -0.1020424425883536 -0.1015565670732166 0 -0.073985000225153141 -0.099795971436559522 0 -0.085935801107842547 -0.09579043756499836 0 -0.08680817640523622 -0.1078855820033275 0 -0.073985000225153141 -0.099795971436559522 0 -0.07727601190464152 -0.1134926659633375 0 -0.08680817640523622 -0.1078855820033275 0 -0.085935801107842547 -0.09579043756499836 0 -0.1020424425883536 -0.1015565670732166 0 -0.094306078709463503 -0.087148618235937392 0 -0.08680817640523622 -0.1078855820033275 0 -0.1020424425883536 -0.1015565670732166 0 -0.095277368860953449 -0.1178446661751102 0 -0.1020424425883536 -0.1015565670732166 0 -0.095277368860953449 -0.1178446661751102 0 -0.1085913382140784 -0.11903379143832921 0 -0.095277368860953449 -0.1178446661751102 0 -0.1085913382140784 -0.11903379143832921 0 -0.095971306836852913 -0.13086642389395989 0 -0.1085913382140784 -0.11903379143832921 0 -0.11893842975153809 -0.10446969177473921 0 -0.12736410167423581 -0.1213878944680517 0 -0.1020424425883536 -0.1015565670732166 0 -0.11893842975153809 -0.10446969177473921 0 -0.1189291253072135 -0.086669643832799348 0 -0.1020424425883536 -0.1015565670732166 0 -0.1085913382140784 -0.11903379143832921 0 -0.11893842975153809 -0.10446969177473921 0 -0.1189291253072135 -0.086669643832799348 0 -0.1056068239719813 -0.08097964138995771 0 -0.1139735316209595 -0.069866863539540053 0 -0.1020424425883536 -0.1015565670732166 0 -0.1189291253072135 -0.086669643832799348 0 -0.1056068239719813 -0.08097964138995771 0 -0.1020424425883536 -0.1015565670732166 0 -0.1056068239719813 -0.08097964138995771 0 -0.094306078709463503 -0.087148618235937392 0 -0.1056068239719813 -0.08097964138995771 0 -0.094306078709463503 -0.087148618235937392 0 -0.095869533599057435 -0.074719864200214883 0 -0.095869533599057435 -0.074719864200214883 0 -0.1039382096783972 -0.069282752438140638 0 -0.097041901727127691 -0.062312633498474219 0 -0.1056068239719813 -0.08097964138995771 0 -0.1039382096783972 -0.069282752438140638 0 -0.1139735316209595 -0.069866863539540053 0 -0.1056068239719813 -0.08097964138995771 0 -0.095869533599057435 -0.074719864200214883 0 -0.1039382096783972 -0.069282752438140638 0 -0.1039382096783972 -0.069282752438140638 0 -0.097041901727127691 -0.062312633498474219 0 -0.1071992574728602 -0.058534759562516372 0 -0.1039382096783972 -0.069282752438140638 0 -0.1139735316209595 -0.069866863539540053 0 -0.1071992574728602 -0.058534759562516372 0 -0.1189291253072135 -0.086669643832799348 0 -0.1139735316209595 -0.069866863539540053 0 -0.12930964035960699 -0.069761515268982097 0 -0.1139735316209595 -0.069866863539540053 0 -0.1161384697585349 -0.056806249932135858 0 -0.12930964035960699 -0.069761515268982097 0 -0.1161384697585349 -0.056806249932135858 0 -0.1208541397454049 -0.045822468476665427 0 -0.12930964035960699 -0.069761515268982097 0 -0.1248214427799455 -0.0491876577223027 0 -0.1208541397454049 -0.045822468476665427 0 -0.12930964035960699 -0.069761515268982097 0 -0.1161384697585349 -0.056806249932135858 0 -0.10991932193075039 -0.048940588969216672 0 -0.1071992574728602 -0.058534759562516372 0 -0.1139735316209595 -0.069866863539540053 0 -0.1161384697585349 -0.056806249932135858 0 -0.1071992574728602 -0.058534759562516372 0 -0.1161384697585349 -0.056806249932135858 0 -0.10991932193075039 -0.048940588969216672 0 -0.1149357203506014 -0.047989794102068162 0 -0.1161384697585349 -0.056806249932135858 0 -0.1149357203506014 -0.047989794102068162 0 -0.1208541397454049 -0.045822468476665427 0 -0.1248214427799455 -0.0491876577223027 0 -0.1208541397454049 -0.045822468476665427 0 -0.1246368416492639 -0.024787675353444869 0 -0.1128309499677153 -0.040389869030254703 0 -0.10841128816168021 -0.033720593740292633 0 -0.11239863913120279 -0.021883421684348751 0 -0.1208541397454049 -0.045822468476665427 0 -0.11239863913120279 -0.021883421684348751 0 -0.1208541397454049 -0.045822468476665427 0 -0.1128309499677153 -0.040389869030254703 0 -0.11239863913120279 -0.021883421684348751 0 -0.1248214427799455 -0.0491876577223027 0 -0.1246368416492639 -0.024787675353444869 0 -0.1149357203506014 -0.047989794102068162 0 -0.1208541397454049 -0.045822468476665427 0 -0.1128309499677153 -0.040389869030254703 0 -0.10991932193075039 -0.048940588969216672 0 -0.1149357203506014 -0.047989794102068162 0 -0.1128309499677153 -0.040389869030254703 0 -0.10991932193075039 -0.048940588969216672 0 -0.1128309499677153 -0.040389869030254703 0 -0.1049963107845597 -0.040407454994133042 0 -0.10991932193075039 -0.048940588969216672 0 -0.1049963107845597 -0.040407454994133042 0 -0.1002598709818909 -0.049694841596422852 0 -0.1049963107845597 -0.040407454994133042 0 -0.10841128816168021 -0.033720593740292633 0 -0.1012581714839781 -0.029848849592015819 0 -0.1128309499677153 -0.040389869030254703 0 -0.1049963107845597 -0.040407454994133042 0 -0.10841128816168021 -0.033720593740292633 0 -0.097298262181343159 -0.039849987036595598 0 -0.1012581714839781 -0.029848849592015819 0 -0.091929659262116575 -0.033133953101480262 0 -0.1049963107845597 -0.040407454994133042 0 -0.097298262181343159 -0.039849987036595598 0 -0.1012581714839781 -0.029848849592015819 0 -0.1049963107845597 -0.040407454994133042 0 -0.097298262181343159 -0.039849987036595598 0 -0.1002598709818909 -0.049694841596422852 0 -0.097298262181343159 -0.039849987036595598 0 -0.1002598709818909 -0.049694841596422852 0 -0.087030839425688053 -0.044306376809862227 0 -0.1002598709818909 -0.049694841596422852 0 -0.097041901727127691 -0.062312633498474219 0 -0.1071992574728602 -0.058534759562516372 0 -0.1002598709818909 -0.049694841596422852 0 -0.097041901727127691 -0.062312633498474219 0 -0.090164156554830718 -0.055563028782557922 0 -0.10991932193075039 -0.048940588969216672 0 -0.1002598709818909 -0.049694841596422852 0 -0.1071992574728602 -0.058534759562516372 0 -0.1244522405185825 -0.00038769298458709092 0 -0.11239863913120279 -0.021883421684348751 0 -0.10394313851700079 0.0020556251079679459 0 -0.1244522405185825 -0.00038769298458709092 0 -0.1246368416492639 -0.024787675353444869 0 -0.1244522405185825 -0.00038769298458709092 0 -0.11239863913120279 -0.021883421684348751 0 -0.1246368416492639 -0.024787675353444869 0 -0.1208541397454049 -0.045822468476665427 0 -0.11239863913120279 -0.021883421684348751 0 -0.1246368416492639 -0.024787675353444869 0 -0.10841128816168021 -0.033720593740292633 0 -0.11239863913120279 -0.021883421684348751 0 -0.1012581714839781 -0.029848849592015819 0 -0.1012581714839781 -0.029848849592015819 0 -0.090677970328949406 -0.022917020247476879 0 -0.091929659262116575 -0.033133953101480262 0 -0.1012581714839781 -0.029848849592015819 0 -0.1001126671493681 -0.016491083843961009 0 -0.090677970328949406 -0.022917020247476879 0 -0.1001126671493681 -0.016491083843961009 0 -0.092285416285709382 -0.0098617528039315269 0 -0.090677970328949406 -0.022917020247476879 0 -0.11239863913120279 -0.021883421684348751 0 -0.1012581714839781 -0.029848849592015819 0 -0.1001126671493681 -0.016491083843961009 0 -0.1001126671493681 -0.016491083843961009 0 -0.092285416285709382 -0.0098617528039315269 0 -0.10394313851700079 0.0020556251079679459 0 -0.11239863913120279 -0.021883421684348751 0 -0.1001126671493681 -0.016491083843961009 0 -0.10394313851700079 0.0020556251079679459 0 -0.092285416285709382 -0.0098617528039315269 0 -0.10394313851700079 0.0020556251079679459 0 -0.085958893623968774 0.001514634656162053 0 -0.11239863913120279 -0.021883421684348751 0 -0.10394313851700079 0.0020556251079679459 0 -0.092285416285709382 -0.0098617528039315269 0 -0.077949881484559239 -0.01307625006729682 0 -0.085958893623968774 0.001514634656162053 0 -0.092285416285709382 -0.0098617528039315269 0 -0.090677970328949406 -0.022917020247476879 0 -0.077949881484559239 -0.01307625006729682 0 -0.090677970328949406 -0.022917020247476879 0 -0.073841780976804383 -0.025706854857452392 0 -0.077949881484559239 -0.01307625006729682 0 -0.090677970328949406 -0.022917020247476879 0 -0.073841780976804383 -0.025706854857452392 0 -0.082102255714859004 -0.034759692131612618 0 -0.090677970328949406 -0.022917020247476879 0 -0.091929659262116575 -0.033133953101480262 0 -0.082102255714859004 -0.034759692131612618 0 -0.073841780976804383 -0.025706854857452392 0 -0.077949881484559239 -0.01307625006729682 0 -0.060674527584339763 -0.015412449877807689 0 -0.073841780976804383 -0.025706854857452392 0 -0.060674527584339763 -0.015412449877807689 0 -0.060703590497751453 -0.03101491529774986 0 -0.077949881484559239 -0.01307625006729682 0 -0.085958893623968774 0.001514634656162053 0 -0.065648076432031049 0.00090955339710942099 0 -0.077949881484559239 -0.01307625006729682 0 -0.060674527584339763 -0.015412449877807689 0 -0.065648076432031049 0.00090955339710942099 0 -0.079773765115028039 -0.057914828426178573 0 -0.087030839425688053 -0.044306376809862227 0 -0.074827122987446398 -0.047817820925290022 0 -0.079773765115028039 -0.057914828426178573 0 -0.090164156554830718 -0.055563028782557922 0 -0.087030839425688053 -0.044306376809862227 0 -0.087640100333796281 -0.066301869750421821 0 -0.079773765115028039 -0.057914828426178573 0 -0.090164156554830718 -0.055563028782557922 0 -0.087640100333796281 -0.066301869750421821 0 -0.097041901727127691 -0.062312633498474219 0 -0.090164156554830718 -0.055563028782557922 0 -0.1002598709818909 -0.049694841596422852 0 -0.090164156554830718 -0.055563028782557922 0 -0.087030839425688053 -0.044306376809862227 0 -0.097298262181343159 -0.039849987036595598 0 -0.087030839425688053 -0.044306376809862227 0 -0.091929659262116575 -0.033133953101480262 0 -0.087030839425688053 -0.044306376809862227 0 -0.091929659262116575 -0.033133953101480262 0 -0.082102255714859004 -0.034759692131612618 0 -0.087030839425688053 -0.044306376809862227 0 -0.082102255714859004 -0.034759692131612618 0 -0.074827122987446398 -0.047817820925290022 0 -0.082102255714859004 -0.034759692131612618 0 -0.070942460250367517 -0.03706080152277047 0 -0.074827122987446398 -0.047817820925290022 0 -0.073841780976804383 -0.025706854857452392 0 -0.082102255714859004 -0.034759692131612618 0 -0.070942460250367517 -0.03706080152277047 0 -0.073841780976804383 -0.025706854857452392 0 -0.070942460250367517 -0.03706080152277047 0 -0.060703590497751453 -0.03101491529774986 0 -0.070942460250367517 -0.03706080152277047 0 -0.061850736208416378 -0.044087883634974623 0 -0.060703590497751453 -0.03101491529774986 0 -0.070942460250367517 -0.03706080152277047 0 -0.074827122987446398 -0.047817820925290022 0 -0.061850736208416378 -0.044087883634974623 0 -0.074827122987446398 -0.047817820925290022 0 -0.065822825648978775 -0.060485584973140792 0 -0.061850736208416378 -0.044087883634974623 0 -0.079773765115028039 -0.057914828426178573 0 -0.074827122987446398 -0.047817820925290022 0 -0.065822825648978775 -0.060485584973140792 0 -0.076351800502585221 -0.068318825045574613 0 -0.079773765115028039 -0.057914828426178573 0 -0.065822825648978775 -0.060485584973140792 0 -0.065822825648978775 -0.060485584973140792 0 -0.051906109188989122 -0.051634581827710108 0 -0.055146373663134192 -0.063188587977351315 0 -0.065822825648978775 -0.060485584973140792 0 -0.051906109188989122 -0.051634581827710108 0 -0.061850736208416378 -0.044087883634974623 0 -0.051906109188989122 -0.051634581827710108 0 -0.044968642856814678 -0.064628327886466996 0 -0.055146373663134192 -0.063188587977351315 0 -0.061850736208416378 -0.044087883634974623 0 -0.048286593140243993 -0.039377229684959138 0 -0.060703590497751453 -0.03101491529774986 0 -0.051906109188989122 -0.051634581827710108 0 -0.061850736208416378 -0.044087883634974623 0 -0.048286593140243993 -0.039377229684959138 0 -0.048286593140243993 -0.039377229684959138 0 -0.039642814346724391 -0.052475069278980747 0 -0.030584103036016622 -0.035608219704199993 0 -0.039642814346724391 -0.052475069278980747 0 -0.024435088609687641 -0.049746151716912712 0 -0.030584103036016622 -0.035608219704199993 0 -0.048286593140243993 -0.039377229684959138 0 -0.044331283213942488 -0.020119990811347448 0 -0.030584103036016622 -0.035608219704199993 0 -0.039642814346724391 -0.052475069278980747 0 -0.03034189778213453 -0.060014988360291517 0 -0.024435088609687641 -0.049746151716912712 0 -0.039642814346724391 -0.052475069278980747 0 -0.03034189778213453 -0.060014988360291517 0 -0.044968642856814678 -0.064628327886466996 0 -0.051906109188989122 -0.051634581827710108 0 -0.039642814346724391 -0.052475069278980747 0 -0.044968642856814678 -0.064628327886466996 0 -0.051906109188989122 -0.051634581827710108 0 -0.048286593140243993 -0.039377229684959138 0 -0.039642814346724391 -0.052475069278980747 0 -0.060674527584339763 -0.015412449877807689 0 -0.044331283213942488 -0.020119990811347448 0 -0.045118160941850949 -0.00049033847668307538 0 -0.060674527584339763 -0.015412449877807689 0 -0.045118160941850949 -0.00049033847668307538 0 -0.065648076432031049 0.00090955339710942099 0 -0.048286593140243993 -0.039377229684959138 0 -0.060703590497751453 -0.03101491529774986 0 -0.044331283213942488 -0.020119990811347448 0 -0.060674527584339763 -0.015412449877807689 0 -0.060703590497751453 -0.03101491529774986 0 -0.044331283213942488 -0.020119990811347448 0 -0.044331283213942488 -0.020119990811347448 0 -0.027025641752002061 -0.0079319500279313396 0 -0.030584103036016622 -0.035608219704199993 0 -0.044331283213942488 -0.020119990811347448 0 -0.045118160941850949 -0.00049033847668307538 0 -0.027025641752002061 -0.0079319500279313396 0 -0.027025641752002061 -0.0079319500279313396 0 -0.0118242871531395 -0.020545428430059291 0 -0.0091716063734174208 -0.003332990253060792 0 -0.027025641752002061 -0.0079319500279313396 0 -0.0091716063734174208 -0.003332990253060792 0 -0.01566814095190756 0.010235570601176981 0 -0.027025641752002061 -0.0079319500279313396 0 -0.0118242871531395 -0.020545428430059291 0 -0.030584103036016622 -0.035608219704199993 0 -0.0118242871531395 -0.020545428430059291 0 -0.030584103036016622 -0.035608219704199993 0 -0.0118242871531395 -0.020545428430059291 0 0.006935528729737548 -0.0054826371559186567 0 0.0027408304473846411 -0.028176541972939319 0 -0.0118242871531395 -0.020545428430059291 0 -0.01026660782967455 -0.041229232136501717 0 0.0027408304473846411 -0.028176541972939319 0 -0.0118242871531395 -0.020545428430059291 0 -0.0091716063734174208 -0.003332990253060792 0 0.006935528729737548 -0.0054826371559186567 0 -0.0118242871531395 -0.020545428430059291 0 0.006935528729737548 -0.0054826371559186567 0 -0.024435088609687641 -0.049746151716912712 0 -0.01026660782967455 -0.041229232136501717 0 -0.01499476028908407 -0.06055090283160456 0 -0.03034189778213453 -0.060014988360291517 0 -0.01499476028908407 -0.06055090283160456 0 -0.03034189778213453 -0.060014988360291517 0 -0.024435088609687641 -0.049746151716912712 0 -0.01499476028908407 -0.06055090283160456 0 -0.024435088609687641 -0.049746151716912712 0 -0.030584103036016622 -0.035608219704199993 0 -0.01026660782967455 -0.041229232136501717 0 -0.0118242871531395 -0.020545428430059291 0 -0.030584103036016622 -0.035608219704199993 0 -0.01026660782967455 -0.041229232136501717 0 -0.01026660782967455 -0.041229232136501717 0 0.0096258971738255473 -0.043108802377643002 0 0.00035237720396625368 -0.061086817302918282 0 -0.01026660782967455 -0.041229232136501717 0 -0.01499476028908407 -0.06055090283160456 0 0.00035237720396625368 -0.061086817302918282 0 -0.01499476028908407 -0.06055090283160456 0 0.00035237720396625368 -0.061086817302918282 0 -0.011408129540087309 -0.083886203777590068 0 0.0065051428120863272 -0.082127796022149757 0 0.00035237720396625368 -0.061086817302918282 0 -0.011408129540087309 -0.083886203777590068 0 0.00035237720396625368 -0.061086817302918282 0 -0.01499476028908407 -0.06055090283160456 0 -0.011408129540087309 -0.083886203777590068 0 0.00035237720396625368 -0.061086817302918282 0 -0.011408129540087309 -0.083886203777590068 0 0.001856719827670471 -0.098182337095309047 0 0.0065051428120863272 -0.082127796022149757 0 -0.011408129540087309 -0.083886203777590068 0 -0.03053113156520738 -0.089911417014305078 0 -0.02316863628414112 -0.10668559025226169 0 -0.011408129540087309 -0.083886203777590068 0 -0.03053113156520738 -0.089911417014305078 0 -0.026049830403481512 -0.075342802050597457 0 -0.01499476028908407 -0.06055090283160456 0 -0.011408129540087309 -0.083886203777590068 0 -0.026049830403481512 -0.075342802050597457 0 -0.03034189778213453 -0.060014988360291517 0 -0.01499476028908407 -0.06055090283160456 0 -0.026049830403481512 -0.075342802050597457 0 -0.03034189778213453 -0.060014988360291517 0 -0.026049830403481512 -0.075342802050597457 0 -0.041349905228919973 -0.078428718904655664 0 -0.03034189778213453 -0.060014988360291517 0 -0.044968642856814678 -0.064628327886466996 0 -0.041349905228919973 -0.078428718904655664 0 -0.03053113156520738 -0.089911417014305078 0 -0.026049830403481512 -0.075342802050597457 0 -0.041349905228919973 -0.078428718904655664 0 -0.03053113156520738 -0.089911417014305078 0 -0.041349905228919973 -0.078428718904655664 0 -0.047432501145458397 -0.097370211357339573 0 -0.041349905228919973 -0.078428718904655664 0 -0.053879666709155317 -0.08598560359304859 0 -0.05753372126900759 -0.073422836261521005 0 -0.041349905228919973 -0.078428718904655664 0 -0.053879666709155317 -0.08598560359304859 0 -0.047432501145458397 -0.097370211357339573 0 -0.066670257350634976 -0.085780572793309681 0 -0.053879666709155317 -0.08598560359304859 0 -0.05982498813170789 -0.10249801488187529 0 -0.066670257350634976 -0.085780572793309681 0 -0.053879666709155317 -0.08598560359304859 0 -0.05753372126900759 -0.073422836261521005 0 -0.044968642856814678 -0.064628327886466996 0 -0.041349905228919973 -0.078428718904655664 0 -0.05753372126900759 -0.073422836261521005 0 -0.065822825648978775 -0.060485584973140792 0 -0.05753372126900759 -0.073422836261521005 0 -0.055146373663134192 -0.063188587977351315 0 -0.044968642856814678 -0.064628327886466996 0 -0.05753372126900759 -0.073422836261521005 0 -0.055146373663134192 -0.063188587977351315 0 -0.065415314349395459 -0.11473522154729129 0 -0.048239208743362072 -0.1165718691901324 0 -0.05982498813170789 -0.10249801488187529 0 -0.065415314349395459 -0.11473522154729129 0 -0.048239208743362072 -0.1165718691901324 0 -0.060446148579459319 -0.1303024678998376 0 -0.048239208743362072 -0.1165718691901324 0 -0.05982498813170789 -0.10249801488187529 0 -0.047432501145458397 -0.097370211357339573 0 -0.053879666709155317 -0.08598560359304859 0 -0.05982498813170789 -0.10249801488187529 0 -0.047432501145458397 -0.097370211357339573 0 -0.048239208743362072 -0.1165718691901324 0 -0.047432501145458397 -0.097370211357339573 0 -0.02316863628414112 -0.10668559025226169 0 -0.03053113156520738 -0.089911417014305078 0 -0.047432501145458397 -0.097370211357339573 0 -0.02316863628414112 -0.10668559025226169 0 -0.048239208743362072 -0.1165718691901324 0 -0.02316863628414112 -0.10668559025226169 0 -0.029948833034415319 -0.13246817914486481 0 -0.02316863628414112 -0.10668559025226169 0 -0.01250087523651249 -0.12826546419306251 0 -0.029948833034415319 -0.13246817914486481 0 -0.011408129540087309 -0.083886203777590068 0 -0.02316863628414112 -0.10668559025226169 0 -0.02316863628414112 -0.10668559025226169 0 0.0015243557028834459 -0.11711868301268021 0 0.001856719827670471 -0.098182337095309047 0 -0.011408129540087309 -0.083886203777590068 0 -0.02316863628414112 -0.10668559025226169 0 0.001856719827670471 -0.098182337095309047 0 -0.02316863628414112 -0.10668559025226169 0 -0.01250087523651249 -0.12826546419306251 0 0.0015243557028834459 -0.11711868301268021 0 -0.01250087523651249 -0.12826546419306251 0 -0.013317386200938249 -0.14799664519887931 0 0.0088678229424013627 -0.13941235935176011 0 -0.01250087523651249 -0.12826546419306251 0 0.0088678229424013627 -0.13941235935176011 0 0.0015243557028834459 -0.11711868301268021 0 -0.01250087523651249 -0.12826546419306251 0 -0.029948833034415319 -0.13246817914486481 0 -0.013317386200938249 -0.14799664519887931 0 -0.013317386200938249 -0.14799664519887931 0 -0.035502595344277812 -0.15658093104599841 0 -0.029948833034415319 -0.13246817914486481 0 -0.013317386200938249 -0.14799664519887931 0 -0.035502595344277812 -0.15658093104599841 0 -0.013317386200938249 -0.14799664519887931 0 0.0088678229424013627 -0.13941235935176011 0 -0.013317386200938249 -0.14799664519887931 0 0.0027310736070901482 -0.15493719994590471 0 0.0088678229424013627 -0.13941235935176011 0 -0.013317386200938249 -0.14799664519887931 0 -0.0013673002328405961 -0.1767093328090546 0 0.0027310736070901482 -0.15493719994590471 0 -0.013317386200938249 -0.14799664519887931 0 -0.0013673002328405961 -0.1767093328090546 0 -0.029934926785222919 -0.1776443960910804 0 -0.0013673002328405961 -0.1767093328090546 0 -0.0217915143334447 -0.19785215020996011 0 -0.0013673002328405961 -0.1767093328090546 0 -0.029934926785222919 -0.1776443960910804 0 -0.0217915143334447 -0.19785215020996011 0 -0.013317386200938249 -0.14799664519887931 0 -0.029934926785222919 -0.1776443960910804 0 -0.035502595344277812 -0.15658093104599841 0 -0.035502595344277812 -0.15658093104599841 0 -0.057687804487617317 -0.16516521689311761 0 -0.029934926785222919 -0.1776443960910804 0 -0.035502595344277812 -0.15658093104599841 0 -0.057687804487617317 -0.16516521689311761 0 -0.029934926785222919 -0.1776443960910804 0 -0.048583433801033478 -0.18728911877980611 0 -0.034676635542126917 -0.191298641696723 0 -0.029934926785222919 -0.1776443960910804 0 -0.048583433801033478 -0.18728911877980611 0 -0.057687804487617317 -0.16516521689311761 0 -0.048583433801033478 -0.18728911877980611 0 -0.057687804487617317 -0.16516521689311761 0 -0.063770138428779252 -0.18079669395549949 0 -0.035502595344277812 -0.15658093104599841 0 -0.057687804487617317 -0.16516521689311761 0 -0.06059931965736505 -0.14742373122833671 0 -0.035502595344277812 -0.15658093104599841 0 -0.06059931965736505 -0.14742373122833671 0 -0.046947221071775923 -0.13666943570183401 0 -0.048239208743362072 -0.1165718691901324 0 -0.046947221071775923 -0.13666943570183401 0 -0.060446148579459319 -0.1303024678998376 0 -0.06059931965736505 -0.14742373122833671 0 -0.046947221071775923 -0.13666943570183401 0 -0.060446148579459319 -0.1303024678998376 0 -0.048239208743362072 -0.1165718691901324 0 -0.029948833034415319 -0.13246817914486481 0 -0.046947221071775923 -0.13666943570183401 0 -0.029948833034415319 -0.13246817914486481 0 -0.035502595344277812 -0.15658093104599841 0 -0.046947221071775923 -0.13666943570183401 0 -0.03064478186574425 -0.25326356670072259 0 -0.026067501294639708 -0.24850247980592871 0 -0.033387688564450117 -0.24425465961654741 0 -0.026067501294639708 -0.24850247980592871 0 -0.02456862519526215 -0.24210395604782819 0 -0.033387688564450117 -0.24425465961654741 0 -0.02974340118516787 -0.23585106297766359 0 -0.02456862519526215 -0.24210395604782819 0 -0.02062871475200042 -0.2320366992723622 0 -0.02974340118516787 -0.23585106297766359 0 -0.02456862519526215 -0.24210395604782819 0 -0.033387688564450117 -0.24425465961654741 0 -0.02456862519526215 -0.24210395604782819 0 -0.01660477195623393 -0.2403164687020414 0 -0.02062871475200042 -0.2320366992723622 0 -0.02456862519526215 -0.24210395604782819 0 -0.01660477195623393 -0.2403164687020414 0 -0.01887874476148543 -0.24814250919209771 0 -0.026067501294639708 -0.24850247980592871 0 -0.02456862519526215 -0.24210395604782819 0 -0.01887874476148543 -0.24814250919209771 0 -0.01660477195623393 -0.2403164687020414 0 -0.01887874476148543 -0.24814250919209771 0 -0.0080727856436109482 -0.2481099565327444 0 -0.0080727856436109482 -0.2481099565327444 0 -0.0084819670471955304 -0.2367225590632196 0 0.0055632338660241776 -0.24332209518663511 0 -0.01660477195623393 -0.2403164687020414 0 -0.0084819670471955304 -0.2367225590632196 0 -0.02062871475200042 -0.2320366992723622 0 -0.01660477195623393 -0.2403164687020414 0 -0.0080727856436109482 -0.2481099565327444 0 -0.0084819670471955304 -0.2367225590632196 0 -0.0084819670471955304 -0.2367225590632196 0 -0.0075276580997289226 -0.21896018305478171 0 0.0032521440618358652 -0.23009641691855939 0 -0.0084819670471955304 -0.2367225590632196 0 -0.0075276580997289226 -0.21896018305478171 0 -0.02062871475200042 -0.2320366992723622 0 -0.0075276580997289226 -0.21896018305478171 0 -0.02062871475200042 -0.2320366992723622 0 -0.024832472176938718 -0.21885173135413241 0 -0.02974340118516787 -0.23585106297766359 0 -0.02062871475200042 -0.2320366992723622 0 -0.031998745265470661 -0.22641465662269231 0 -0.02062871475200042 -0.2320366992723622 0 -0.024832472176938718 -0.21885173135413241 0 -0.031998745265470661 -0.22641465662269231 0 -0.0075276580997289226 -0.21896018305478171 0 -0.024832472176938718 -0.21885173135413241 0 -0.0217915143334447 -0.19785215020996011 0 -0.024832472176938718 -0.21885173135413241 0 -0.0217915143334447 -0.19785215020996011 0 -0.042215728434048867 -0.21899496761086559 0 -0.0075276580997289226 -0.21896018305478171 0 -0.0217915143334447 -0.19785215020996011 0 0.003555539334036632 -0.19934620758084881 0 -0.0013673002328405961 -0.1767093328090546 0 -0.0217915143334447 -0.19785215020996011 0 0.003555539334036632 -0.19934620758084881 0 -0.029934926785222919 -0.1776443960910804 0 -0.0217915143334447 -0.19785215020996011 0 -0.034676635542126917 -0.191298641696723 0 -0.0217915143334447 -0.19785215020996011 0 -0.034676635542126917 -0.191298641696723 0 -0.04224094911505525 -0.20168175555289891 0 -0.048583433801033478 -0.18728911877980611 0 -0.034676635542126917 -0.191298641696723 0 -0.04224094911505525 -0.20168175555289891 0 -0.048583433801033478 -0.18728911877980611 0 -0.058327232484387218 -0.2013044317948425 0 -0.063770138428779252 -0.18079669395549949 0 -0.048583433801033478 -0.18728911877980611 0 -0.04224094911505525 -0.20168175555289891 0 -0.058327232484387218 -0.2013044317948425 0 -0.058327232484387218 -0.2013044317948425 0 -0.04785115009529034 -0.21335122322519601 0 -0.065984069430329237 -0.21594808513783789 0 -0.04224094911505525 -0.20168175555289891 0 -0.058327232484387218 -0.2013044317948425 0 -0.04785115009529034 -0.21335122322519601 0 -0.04785115009529034 -0.21335122322519601 0 -0.065984069430329237 -0.21594808513783789 0 -0.04785115009529034 -0.21335122322519601 0 -0.050089297127046031 -0.22131182591420251 0 -0.065984069430329237 -0.21594808513783789 0 -0.0217915143334447 -0.19785215020996011 0 -0.042215728434048867 -0.21899496761086559 0 -0.0217915143334447 -0.19785215020996011 0 -0.04224094911505525 -0.20168175555289891 0 -0.042215728434048867 -0.21899496761086559 0 -0.04224094911505525 -0.20168175555289891 0 -0.04785115009529034 -0.21335122322519601 0 -0.042215728434048867 -0.21899496761086559 0 -0.04785115009529034 -0.21335122322519601 0 -0.042215728434048867 -0.21899496761086559 0 -0.050089297127046031 -0.22131182591420251 0 -0.024832472176938718 -0.21885173135413241 0 -0.031998745265470661 -0.22641465662269231 0 -0.042215728434048867 -0.21899496761086559 0 -0.031998745265470661 -0.22641465662269231 0 -0.042215728434048867 -0.21899496761086559 0 -0.041320068815934301 -0.22639292378782619 0 -0.031998745265470661 -0.22641465662269231 0 -0.041320068815934301 -0.22639292378782619 0 -0.038133232148655979 -0.23444534332888789 0 -0.02974340118516787 -0.23585106297766359 0 -0.031998745265470661 -0.22641465662269231 0 -0.038133232148655979 -0.23444534332888789 0 -0.041320068815934301 -0.22639292378782619 0 -0.052151212760384272 -0.22988480121754831 0 -0.038133232148655979 -0.23444534332888789 0 -0.042215728434048867 -0.21899496761086559 0 -0.041320068815934301 -0.22639292378782619 0 -0.050089297127046031 -0.22131182591420251 0 -0.041320068815934301 -0.22639292378782619 0 -0.050089297127046031 -0.22131182591420251 0 -0.052151212760384272 -0.22988480121754831 0 -0.0567919256119837 -0.24387644547435741 0 -0.065984069430329237 -0.21594808513783789 0 -0.050089297127046031 -0.22131182591420251 0 -0.052151212760384272 -0.22988480121754831 0 -0.065984069430329237 -0.21594808513783789 0 -0.052151212760384272 -0.22988480121754831 0 -0.0567919256119837 -0.24387644547435741 0 -0.065984069430329237 -0.21594808513783789 0 -0.052151212760384272 -0.22988480121754831 0 -0.0567919256119837 -0.24387644547435741 0 -0.045207486351244337 -0.24272005325013779 0 -0.046517308340487992 -0.25474718453952289 0 -0.0567919256119837 -0.24387644547435741 0 -0.045207486351244337 -0.24272005325013779 0 -0.038581934025118947 -0.25114857380685968 0 -0.046517308340487992 -0.25474718453952289 0 -0.045207486351244337 -0.24272005325013779 0 -0.052151212760384272 -0.22988480121754831 0 -0.045207486351244337 -0.24272005325013779 0 -0.038133232148655979 -0.23444534332888789 0 -0.02974340118516787 -0.23585106297766359 0 -0.038133232148655979 -0.23444534332888789 0 -0.033387688564450117 -0.24425465961654741 0 -0.045207486351244337 -0.24272005325013779 0 -0.038133232148655979 -0.23444534332888789 0 -0.033387688564450117 -0.24425465961654741 0 -0.038581934025118947 -0.25114857380685968 0 -0.03064478186574425 -0.25326356670072259 0 -0.033387688564450117 -0.24425465961654741 0 -0.038581934025118947 -0.25114857380685968 0 -0.045207486351244337 -0.24272005325013779 0 -0.033387688564450117 -0.24425465961654741 0 -0.076282262678724011 -0.24169347649274159 0 -0.094544528280961701 -0.23130979592197831 0 -0.1005321994236209 -0.2431127607729493 0 -0.090174700483665673 -0.26498018187443112 0 -0.076282262678724011 -0.24169347649274159 0 -0.1005321994236209 -0.2431127607729493 0 -0.063484538676239377 -0.26413124226689111 0 -0.0567919256119837 -0.24387644547435741 0 -0.076282262678724011 -0.24169347649274159 0 -0.0567919256119837 -0.24387644547435741 0 -0.076282262678724011 -0.24169347649274159 0 -0.076216545617433393 -0.2267874217425101 0 -0.0567919256119837 -0.24387644547435741 0 -0.076216545617433393 -0.2267874217425101 0 -0.065984069430329237 -0.21594808513783789 0 -0.076216545617433393 -0.2267874217425101 0 -0.089079986681209755 -0.21925571071859279 0 -0.065984069430329237 -0.21594808513783789 0 -0.076282262678724011 -0.24169347649274159 0 -0.076216545617433393 -0.2267874217425101 0 -0.089079986681209755 -0.21925571071859279 0 -0.076282262678724011 -0.24169347649274159 0 -0.089079986681209755 -0.21925571071859279 0 -0.076282262678724011 -0.24169347649274159 0 -0.089079986681209755 -0.21925571071859279 0 -0.094544528280961701 -0.23130979592197831 0 -0.089079986681209755 -0.21925571071859279 0 -0.087982693832912948 -0.20610030108417279 0 -0.065984069430329237 -0.21594808513783789 0 -0.089079986681209755 -0.21925571071859279 0 -0.091681034097487346 -0.21469539259619891 0 -0.087982693832912948 -0.20610030108417279 0 -0.089079986681209755 -0.21925571071859279 0 -0.091681034097487346 -0.21469539259619891 0 -0.089079986681209755 -0.21925571071859279 0 -0.065984069430329237 -0.21594808513783789 0 -0.058327232484387218 -0.2013044317948425 0 -0.065984069430329237 -0.21594808513783789 0 -0.072928541530643487 -0.1948487939390374 0 -0.065984069430329237 -0.21594808513783789 0 -0.072928541530643487 -0.1948487939390374 0 -0.087982693832912948 -0.20610030108417279 0 -0.065984069430329237 -0.21594808513783789 0 -0.072928541530643487 -0.1948487939390374 0 -0.058327232484387218 -0.2013044317948425 0 -0.072928541530643487 -0.1948487939390374 0 -0.063770138428779252 -0.18079669395549949 0 -0.087982693832912948 -0.20610030108417279 0 -0.072928541530643487 -0.1948487939390374 0 -0.088647710124579282 -0.1895137930351245 0 -0.087982693832912948 -0.20610030108417279 0 -0.088647710124579282 -0.1895137930351245 0 -0.098413722631135098 -0.19641739989264009 0 -0.088647710124579282 -0.1895137930351245 0 -0.098413722631135098 -0.19641739989264009 0 -0.1039428787252024 -0.18306303235069041 0 -0.087982693832912948 -0.20610030108417279 0 -0.098413722631135098 -0.19641739989264009 0 -0.1018219586260966 -0.2062222809526808 0 -0.098413722631135098 -0.19641739989264009 0 -0.10967337184688419 -0.19718759204053191 0 -0.1018219586260966 -0.2062222809526808 0 -0.098413722631135098 -0.19641739989264009 0 -0.10967337184688419 -0.19718759204053191 0 -0.1039428787252024 -0.18306303235069041 0 -0.1039428787252024 -0.18306303235069041 0 -0.1280127438194481 -0.19237656196114411 0 -0.10967337184688419 -0.19718759204053191 0 -0.1178174188303993 -0.20556040013348681 0 -0.1280127438194481 -0.19237656196114411 0 -0.10967337184688419 -0.19718759204053191 0 -0.1039428787252024 -0.18306303235069041 0 -0.1280127438194481 -0.19237656196114411 0 -0.10967337184688419 -0.19718759204053191 0 -0.10961342770230489 -0.21003706569406461 0 -0.1178174188303993 -0.20556040013348681 0 -0.1178174188303993 -0.20556040013348681 0 -0.1109550451866443 -0.21888036136960631 0 -0.13246178853905299 -0.20873151589840269 0 -0.1109550451866443 -0.21888036136960631 0 -0.13246178853905299 -0.20873151589840269 0 -0.1109550451866443 -0.21888036136960631 0 -0.12407830270498089 -0.22426790937284519 0 -0.13246178853905299 -0.20873151589840269 0 -0.10961342770230489 -0.21003706569406461 0 -0.1178174188303993 -0.20556040013348681 0 -0.1109550451866443 -0.21888036136960631 0 -0.10961342770230489 -0.21003706569406461 0 -0.103172625086798 -0.22127395363072039 0 -0.1109550451866443 -0.21888036136960631 0 -0.10961342770230489 -0.21003706569406461 0 -0.1018219586260966 -0.2062222809526808 0 -0.103172625086798 -0.22127395363072039 0 -0.10967337184688419 -0.19718759204053191 0 -0.10961342770230489 -0.21003706569406461 0 -0.1018219586260966 -0.2062222809526808 0 -0.091681034097487346 -0.21469539259619891 0 -0.087982693832912948 -0.20610030108417279 0 -0.103172625086798 -0.22127395363072039 0 -0.089079986681209755 -0.21925571071859279 0 -0.091681034097487346 -0.21469539259619891 0 -0.103172625086798 -0.22127395363072039 0 -0.087982693832912948 -0.20610030108417279 0 -0.103172625086798 -0.22127395363072039 0 -0.087982693832912948 -0.20610030108417279 0 -0.1018219586260966 -0.2062222809526808 0 -0.103172625086798 -0.22127395363072039 0 -0.094544528280961701 -0.23130979592197831 0 -0.103172625086798 -0.22127395363072039 0 -0.1005321994236209 -0.2431127607729493 0 -0.089079986681209755 -0.21925571071859279 0 -0.103172625086798 -0.22127395363072039 0 -0.089079986681209755 -0.21925571071859279 0 -0.094544528280961701 -0.23130979592197831 0 -0.103172625086798 -0.22127395363072039 0 -0.103172625086798 -0.22127395363072039 0 -0.1223681628105569 -0.24044891992886891 0 -0.103172625086798 -0.22127395363072039 0 -0.12407830270498089 -0.22426790937284519 0 -0.1238233973506119 -0.23541481827178831 0 -0.103172625086798 -0.22127395363072039 0 -0.1223681628105569 -0.24044891992886891 0 -0.1238233973506119 -0.23541481827178831 0 -0.103172625086798 -0.22127395363072039 0 -0.12407830270498089 -0.22426790937284519 0 -0.103172625086798 -0.22127395363072039 0 -0.1109550451866443 -0.21888036136960631 0 -0.12407830270498089 -0.22426790937284519 0 -0.11757885349586771 -0.25701660664448461 0 -0.1223681628105569 -0.24044891992886891 0 -0.1005321994236209 -0.2431127607729493 0 -0.11757885349586771 -0.25701660664448461 0 -0.1223681628105569 -0.24044891992886891 0 -0.1223681628105569 -0.24044891992886891 0 -0.1238233973506119 -0.23541481827178831 0 -0.103172625086798 -0.22127395363072039 0 -0.1223681628105569 -0.24044891992886891 0 -0.1005321994236209 -0.2431127607729493 0 -0.088441251280713618 -0.1477167476767523 0 -0.085474651021334253 -0.13655174303235951 0 -0.077236065216807342 -0.1460130695171887 0 -0.088441251280713618 -0.1477167476767523 0 -0.077236065216807342 -0.1460130695171887 0 -0.072985053953480025 -0.15595005707556001 0 -0.088441251280713618 -0.1477167476767523 0 -0.093538562727787294 -0.15940564464812701 0 -0.098894310772838973 -0.14952020789867901 0 -0.088441251280713618 -0.1477167476767523 0 -0.085474651021334253 -0.13655174303235951 0 -0.095252038160572317 -0.1406191133899993 0 -0.085474651021334253 -0.13655174303235951 0 -0.095971306836852913 -0.13086642389395989 0 -0.095252038160572317 -0.1406191133899993 0 -0.082994471061899833 -0.1234246307735777 0 -0.085474651021334253 -0.13655174303235951 0 -0.095971306836852913 -0.13086642389395989 0 -0.082994471061899833 -0.1234246307735777 0 -0.085474651021334253 -0.13655174303235951 0 -0.073596501371478315 -0.1364787996572045 0 -0.085474651021334253 -0.13655174303235951 0 -0.073596501371478315 -0.1364787996572045 0 -0.077236065216807342 -0.1460130695171887 0 -0.06059931965736505 -0.14742373122833671 0 -0.060446148579459319 -0.1303024678998376 0 -0.073596501371478315 -0.1364787996572045 0 -0.082994471061899833 -0.1234246307735777 0 -0.073596501371478315 -0.1364787996572045 0 -0.071674103496310607 -0.1250344835198243 0 -0.060446148579459319 -0.1303024678998376 0 -0.073596501371478315 -0.1364787996572045 0 -0.071674103496310607 -0.1250344835198243 0 -0.06059931965736505 -0.14742373122833671 0 -0.073596501371478315 -0.1364787996572045 0 -0.077236065216807342 -0.1460130695171887 0 -0.057687804487617317 -0.16516521689311761 0 -0.06059931965736505 -0.14742373122833671 0 -0.072985053953480025 -0.15595005707556001 0 -0.06059931965736505 -0.14742373122833671 0 -0.077236065216807342 -0.1460130695171887 0 -0.072985053953480025 -0.15595005707556001 0 -0.057687804487617317 -0.16516521689311761 0 -0.079873013630956835 -0.17374950274023659 0 -0.057687804487617317 -0.16516521689311761 0 -0.072985053953480025 -0.15595005707556001 0 -0.079873013630956835 -0.17374950274023659 0 -0.072928541530643487 -0.1948487939390374 0 -0.079873013630956835 -0.17374950274023659 0 -0.057687804487617317 -0.16516521689311761 0 -0.063770138428779252 -0.18079669395549949 0 -0.079873013630956835 -0.17374950274023659 0 -0.072928541530643487 -0.1948487939390374 0 -0.063770138428779252 -0.18079669395549949 0 -0.079873013630956835 -0.17374950274023659 0 -0.072928541530643487 -0.1948487939390374 0 -0.088647710124579282 -0.1895137930351245 0 -0.079873013630956835 -0.17374950274023659 0 -0.079873013630956835 -0.17374950274023659 0 -0.1039428787252024 -0.18306303235069041 0 -0.088647710124579282 -0.1895137930351245 0 -0.079873013630956835 -0.17374950274023659 0 -0.1039428787252024 -0.18306303235069041 0 -0.088441251280713618 -0.1477167476767523 0 -0.079873013630956835 -0.17374950274023659 0 -0.079873013630956835 -0.17374950274023659 0 -0.093538562727787294 -0.15940564464812701 0 -0.098088850166783578 -0.16700629557107341 0 -0.088441251280713618 -0.1477167476767523 0 -0.079873013630956835 -0.17374950274023659 0 -0.093538562727787294 -0.15940564464812701 0 -0.088441251280713618 -0.1477167476767523 0 -0.072985053953480025 -0.15595005707556001 0 -0.079873013630956835 -0.17374950274023659 0 -0.093538562727787294 -0.15940564464812701 0 -0.098088850166783578 -0.16700629557107341 0 -0.1023953877876435 -0.15903546935389351 0 -0.098088850166783578 -0.16700629557107341 0 -0.1039428787252024 -0.18306303235069041 0 -0.1119878388851908 -0.16231915977259129 0 -0.098088850166783578 -0.16700629557107341 0 -0.1023953877876435 -0.15903546935389351 0 -0.1119878388851908 -0.16231915977259129 0 -0.079873013630956835 -0.17374950274023659 0 -0.098088850166783578 -0.16700629557107341 0 -0.1039428787252024 -0.18306303235069041 0 -0.1039428787252024 -0.18306303235069041 0 -0.11859204859796291 -0.17560578940816099 0 -0.1119878388851908 -0.16231915977259129 0 -0.1039428787252024 -0.18306303235069041 0 -0.11859204859796291 -0.17560578940816099 0 -0.1280127438194481 -0.19237656196114411 0 -0.1023953877876435 -0.15903546935389351 0 -0.1119878388851908 -0.16231915977259129 0 -0.1169630623746598 -0.14907522687480429 0 -0.11859204859796291 -0.17560578940816099 0 -0.1119878388851908 -0.16231915977259129 0 -0.12588679133122799 -0.1624874708491951 0 -0.1119878388851908 -0.16231915977259129 0 -0.1169630623746598 -0.14907522687480429 0 -0.12588679133122799 -0.1624874708491951 0 -0.1119878388851908 -0.16231915977259129 0 -0.1169630623746598 -0.14907522687480429 0 -0.1023953877876435 -0.15903546935389351 0 -0.1169630623746598 -0.14907522687480429 0 -0.098894310772838973 -0.14952020789867901 0 -0.1169630623746598 -0.14907522687480429 0 -0.098894310772838973 -0.14952020789867901 0 -0.1169630623746598 -0.14907522687480429 0 -0.098894310772838973 -0.14952020789867901 0 -0.1074786708911218 -0.1384404444482458 0 -0.088441251280713618 -0.1477167476767523 0 -0.098894310772838973 -0.14952020789867901 0 -0.095252038160572317 -0.1406191133899993 0 -0.098894310772838973 -0.14952020789867901 0 -0.095252038160572317 -0.1406191133899993 0 -0.1074786708911218 -0.1384404444482458 0 -0.093538562727787294 -0.15940564464812701 0 -0.1023953877876435 -0.15903546935389351 0 -0.098894310772838973 -0.14952020789867901 0 -0.1085913382140784 -0.11903379143832921 0 -0.095971306836852913 -0.13086642389395989 0 -0.1074786708911218 -0.1384404444482458 0 -0.095971306836852913 -0.13086642389395989 0 -0.095252038160572317 -0.1406191133899993 0 -0.1074786708911218 -0.1384404444482458 0 -0.1085913382140784 -0.11903379143832921 0 -0.1074786708911218 -0.1384404444482458 0 -0.12736410167423581 -0.1213878944680517 0 -0.1169630623746598 -0.14907522687480429 0 -0.1074786708911218 -0.1384404444482458 0 -0.12736410167423581 -0.1213878944680517 0 -0.1169630623746598 -0.14907522687480429 0 -0.12736410167423581 -0.1213878944680517 0 -0.13746664940214659 -0.13470709103134659 0 -0.12736410167423581 -0.1213878944680517 0 -0.14737054533773081 -0.1208951937003558 0 -0.1169630623746598 -0.14907522687480429 0 -0.13746664940214659 -0.13470709103134659 0 -0.12736410167423581 -0.1213878944680517 0 -0.1569759497016511 -0.14808982533941309 0 -0.14737054533773081 -0.1208951937003558 0 -0.13746664940214659 -0.13470709103134659 0 -0.1569759497016511 -0.14808982533941309 0 -0.14737054533773081 -0.1208951937003558 0 -0.1369695060381555 -0.1485825261071109 0 -0.1526603788815559 -0.1573596194762775 0 -0.1569759497016511 -0.14808982533941309 0 -0.13746664940214659 -0.13470709103134659 0 -0.1369695060381555 -0.1485825261071109 0 -0.1569759497016511 -0.14808982533941309 0 -0.1369695060381555 -0.1485825261071109 0 -0.1569759497016511 -0.14808982533941309 0 -0.1169630623746598 -0.14907522687480429 0 -0.1369695060381555 -0.1485825261071109 0 -0.1169630623746598 -0.14907522687480429 0 -0.1369695060381555 -0.1485825261071109 0 -0.12588679133122799 -0.1624874708491951 0 -0.1169630623746598 -0.14907522687480429 0 -0.13746664940214659 -0.13470709103134659 0 -0.1369695060381555 -0.1485825261071109 0 -0.11859204859796291 -0.17560578940816099 0 -0.12588679133122799 -0.1624874708491951 0 -0.13147554750711021 -0.17522771154146191 0 -0.12588679133122799 -0.1624874708491951 0 -0.13147554750711021 -0.17522771154146191 0 -0.14107140235061469 -0.16358211752318311 0 -0.13147554750711021 -0.17522771154146191 0 -0.14520517551865919 -0.17294749126987599 0 -0.14107140235061469 -0.16358211752318311 0 -0.1369695060381555 -0.1485825261071109 0 -0.12588679133122799 -0.1624874708491951 0 -0.14107140235061469 -0.16358211752318311 0 -0.11859204859796291 -0.17560578940816099 0 -0.13147554750711021 -0.17522771154146191 0 -0.1280127438194481 -0.19237656196114411 0 -0.13147554750711021 -0.17522771154146191 0 -0.1398254013782112 -0.18365029146927231 0 -0.1280127438194481 -0.19237656196114411 0 -0.13147554750711021 -0.17522771154146191 0 -0.1398254013782112 -0.18365029146927231 0 -0.14520517551865919 -0.17294749126987599 0 -0.1398254013782112 -0.18365029146927231 0 -0.14820117369214661 -0.18035874543477601 0 -0.1498687104188495 -0.18767128888863599 0 -0.1398254013782112 -0.18365029146927231 0 -0.14820117369214661 -0.18035874543477601 0 -0.14520517551865919 -0.17294749126987599 0 -0.14820117369214661 -0.18035874543477601 0 -0.14520517551865919 -0.17294749126987599 0 -0.1568216795970071 -0.17538216601134321 0 -0.14820117369214661 -0.18035874543477601 0 -0.15608754076248521 -0.18190001438557629 0 -0.1568216795970071 -0.17538216601134321 0 -0.14520517551865919 -0.17294749126987599 0 -0.15263532751206779 -0.16758471640843459 0 -0.1568216795970071 -0.17538216601134321 0 -0.14820117369214661 -0.18035874543477601 0 -0.15608754076248521 -0.18190001438557629 0 -0.1498687104188495 -0.18767128888863599 0 -0.15608754076248521 -0.18190001438557629 0 -0.1607184616130248 -0.18728683910860641 0 -0.1498687104188495 -0.18767128888863599 0 -0.1369695060381555 -0.1485825261071109 0 -0.14107140235061469 -0.16358211752318311 0 -0.1526603788815559 -0.1573596194762775 0 -0.14520517551865919 -0.17294749126987599 0 -0.14107140235061469 -0.16358211752318311 0 -0.15263532751206779 -0.16758471640843459 0 -0.15263532751206779 -0.16758471640843459 0 -0.1526603788815559 -0.1573596194762775 0 -0.16142564196989831 -0.16655703171874039 0 -0.14107140235061469 -0.16358211752318311 0 -0.15263532751206779 -0.16758471640843459 0 -0.1526603788815559 -0.1573596194762775 0 -0.1526603788815559 -0.1573596194762775 0 -0.16142564196989831 -0.16655703171874039 0 -0.16326087804426159 -0.16588359066980229 0 -0.16326087804426159 -0.16588359066980229 0 -0.1569759497016511 -0.14808982533941309 0 -0.1526603788815559 -0.1573596194762775 0 -0.16326087804426159 -0.16588359066980229 0 -0.1569759497016511 -0.14808982533941309 0 -0.1594122663447772 -0.17133307891758459 0 -0.16142564196989831 -0.16655703171874039 0 -0.16676641630013581 -0.17580840153182001 0 -0.15263532751206779 -0.16758471640843459 0 -0.1594122663447772 -0.17133307891758459 0 -0.16142564196989831 -0.16655703171874039 0 -0.16142564196989831 -0.16655703171874039 0 -0.16326087804426159 -0.16588359066980229 0 -0.16676641630013581 -0.17580840153182001 0 -0.15263532751206779 -0.16758471640843459 0 -0.1594122663447772 -0.17133307891758459 0 -0.1568216795970071 -0.17538216601134321 0 -0.16142564196989831 -0.16655703171874039 0 -0.16326087804426159 -0.16588359066980229 0 -0.16326087804426159 -0.16588359066980229 0 -0.16676641630013581 -0.17580840153182001 0 -0.1783922457352059 -0.17293489930968209 0 -0.16326087804426159 -0.16588359066980229 0 -0.16676641630013581 -0.17580840153182001 0 -0.15608754076248521 -0.18190001438557629 0 -0.1607184616130248 -0.18728683910860641 0 -0.16676641630013581 -0.17580840153182001 0 -0.15608754076248521 -0.18190001438557629 0 -0.1568216795970071 -0.17538216601134321 0 -0.16676641630013581 -0.17580840153182001 0 -0.1594122663447772 -0.17133307891758459 0 -0.1568216795970071 -0.17538216601134321 0 -0.16676641630013581 -0.17580840153182001 0 -0.1607184616130248 -0.18728683910860641 0 -0.16676641630013581 -0.17580840153182001 0 -0.17547527524387041 -0.1884338249559952 0 -0.17547527524387041 -0.1884338249559952 0 -0.1969820185962792 -0.17828497948479149 0 -0.1783922457352059 -0.17293489930968209 0 -0.17547527524387041 -0.1884338249559952 0 -0.1969820185962792 -0.17828497948479149 0 -0.16676641630013581 -0.17580840153182001 0 -0.1783922457352059 -0.17293489930968209 0 -0.17547527524387041 -0.1884338249559952 0 -0.16326087804426159 -0.16588359066980229 0 -0.18947664049148261 -0.1562636999060015 0 -0.16326087804426159 -0.16588359066980229 0 -0.18633417632017751 -0.14736681724080919 0 -0.18947664049148261 -0.1562636999060015 0 -0.16326087804426159 -0.16588359066980229 0 -0.1783922457352059 -0.17293489930968209 0 -0.18947664049148261 -0.1562636999060015 0 -0.18633417632017751 -0.14736681724080919 0 -0.16621773075288121 -0.1295318635244681 0 -0.18400621351090571 -0.1217110611121094 0 -0.16621773075288121 -0.1295318635244681 0 -0.1569759497016511 -0.14808982533941309 0 -0.14737054533773081 -0.1208951937003558 0 -0.18633417632017751 -0.14736681724080919 0 -0.16621773075288121 -0.1295318635244681 0 -0.1569759497016511 -0.14808982533941309 0 -0.18633417632017751 -0.14736681724080919 0 -0.1569759497016511 -0.14808982533941309 0 -0.16326087804426159 -0.16588359066980229 0 -0.18633417632017751 -0.14736681724080919 0 -0.1569759497016511 -0.14808982533941309 0 -0.1377523016625678 -0.25581657194563601 0 -0.15263230708737521 -0.24356194903458239 0 -0.13476861079800859 -0.2391754021203874 0 -0.15263230708737521 -0.24356194903458239 0 -0.13476861079800859 -0.2391754021203874 0 -0.14055595197029169 -0.22979662500526149 0 -0.1377523016625678 -0.25581657194563601 0 -0.1223681628105569 -0.24044891992886891 0 -0.13476861079800859 -0.2391754021203874 0 -0.1377523016625678 -0.25581657194563601 0 -0.1223681628105569 -0.24044891992886891 0 -0.1238233973506119 -0.23541481827178831 0 -0.13476861079800859 -0.2391754021203874 0 -0.13139441447274411 -0.22962184130071481 0 -0.1223681628105569 -0.24044891992886891 0 -0.1238233973506119 -0.23541481827178831 0 -0.13476861079800859 -0.2391754021203874 0 -0.13476861079800859 -0.2391754021203874 0 -0.14055595197029169 -0.22979662500526149 0 -0.13139441447274411 -0.22962184130071481 0 -0.12407830270498089 -0.22426790937284519 0 -0.1238233973506119 -0.23541481827178831 0 -0.13139441447274411 -0.22962184130071481 0 -0.12407830270498089 -0.22426790937284519 0 -0.13139441447274411 -0.22962184130071481 0 -0.13441394179160859 -0.22010184774946731 0 -0.14055595197029169 -0.22979662500526149 0 -0.13139441447274411 -0.22962184130071481 0 -0.13441394179160859 -0.22010184774946731 0 -0.14055595197029169 -0.22979662500526149 0 -0.13441394179160859 -0.22010184774946731 0 -0.14940536450650499 -0.21373664043116339 0 -0.15263230708737521 -0.24356194903458239 0 -0.14940536450650499 -0.21373664043116339 0 -0.15263230708737521 -0.24356194903458239 0 -0.14940536450650499 -0.21373664043116339 0 -0.16621803193972459 -0.22739125443424221 0 -0.15263230708737521 -0.24356194903458239 0 -0.14055595197029169 -0.22979662500526149 0 -0.14940536450650499 -0.21373664043116339 0 -0.14940536450650499 -0.21373664043116339 0 -0.13246178853905299 -0.20873151589840269 0 -0.1539685318914617 -0.1985826704271989 0 -0.13246178853905299 -0.20873151589840269 0 -0.1539685318914617 -0.1985826704271989 0 -0.13441394179160859 -0.22010184774946731 0 -0.14940536450650499 -0.21373664043116339 0 -0.13246178853905299 -0.20873151589840269 0 -0.12407830270498089 -0.22426790937284519 0 -0.13441394179160859 -0.22010184774946731 0 -0.13246178853905299 -0.20873151589840269 0 -0.1178174188303993 -0.20556040013348681 0 -0.13246178853905299 -0.20873151589840269 0 -0.1280127438194481 -0.19237656196114411 0 -0.13246178853905299 -0.20873151589840269 0 -0.1280127438194481 -0.19237656196114411 0 -0.14041115317576749 -0.19424917250638599 0 -0.1398254013782112 -0.18365029146927231 0 -0.1280127438194481 -0.19237656196114411 0 -0.14041115317576749 -0.19424917250638599 0 -0.13246178853905299 -0.20873151589840269 0 -0.14041115317576749 -0.19424917250638599 0 -0.1539685318914617 -0.1985826704271989 0 -0.14041115317576749 -0.19424917250638599 0 -0.1539685318914617 -0.1985826704271989 0 -0.1498687104188495 -0.18767128888863599 0 -0.1398254013782112 -0.18365029146927231 0 -0.14041115317576749 -0.19424917250638599 0 -0.1498687104188495 -0.18767128888863599 0 -0.1607184616130248 -0.18728683910860641 0 -0.1539685318914617 -0.1985826704271989 0 -0.1498687104188495 -0.18767128888863599 0 -0.1607184616130248 -0.18728683910860641 0 -0.1539685318914617 -0.1985826704271989 0 -0.17547527524387041 -0.1884338249559952 0 -0.1539685318914617 -0.1985826704271989 0 -0.17547527524387041 -0.1884338249559952 0 -0.16825702714884239 -0.20885775366498019 0 -0.1539685318914617 -0.1985826704271989 0 -0.17547527524387041 -0.1884338249559952 0 -0.17547527524387041 -0.1884338249559952 0 -0.18277425339256639 -0.2026996383603622 0 -0.16825702714884239 -0.20885775366498019 0 -0.17547527524387041 -0.1884338249559952 0 -0.18277425339256639 -0.2026996383603622 0 -0.1902080517791363 -0.1917922864575213 0 -0.18277425339256639 -0.2026996383603622 0 -0.16825702714884239 -0.20885775366498019 0 -0.18626938338499441 -0.22517712183416291 0 -0.14940536450650499 -0.21373664043116339 0 -0.1539685318914617 -0.1985826704271989 0 -0.16825702714884239 -0.20885775366498019 0 -0.14940536450650499 -0.21373664043116339 0 -0.16825702714884239 -0.20885775366498019 0 -0.16621803193972459 -0.22739125443424221 0 -0.16825702714884239 -0.20885775366498019 0 -0.16621803193972459 -0.22739125443424221 0 -0.18626938338499441 -0.22517712183416291 0 -0.16621803193972459 -0.22739125443424221 0 -0.18626938338499441 -0.22517712183416291 0 -0.1745260775709061 -0.24562280720632229 0 -0.18626938338499441 -0.22517712183416291 0 -0.1745260775709061 -0.24562280720632229 0 -0.19988453840298659 -0.24176205441804 0 -0.18626938338499441 -0.22517712183416291 0 -0.1745260775709061 -0.24562280720632229 0 -0.15263230708737521 -0.24356194903458239 0 -0.16621803193972459 -0.22739125443424221 0 -0.1745260775709061 -0.24562280720632229 0 -0.1689202540561075 -0.25519621835756329 0 -0.15263230708737521 -0.24356194903458239 0 -0.1745260775709061 -0.24562280720632229 0 -0.21854221021918649 -0.25236034283526498 0 -0.19988453840298659 -0.24176205441804 0 -0.21493562756427159 -0.22243862284749449 0 -0.19160736129165659 -0.25262396586623759 0 -0.1745260775709061 -0.24562280720632229 0 -0.19988453840298659 -0.24176205441804 0 -0.18626938338499441 -0.22517712183416291 0 -0.19988453840298659 -0.24176205441804 0 -0.21493562756427159 -0.22243862284749449 0 -0.21493562756427159 -0.22243862284749449 0 -0.19801268919908249 -0.2047314364620034 0 -0.21541309520260529 -0.20113031717637361 0 -0.18626938338499441 -0.22517712183416291 0 -0.19801268919908249 -0.2047314364620034 0 -0.18277425339256639 -0.2026996383603622 0 -0.18626938338499441 -0.22517712183416291 0 -0.19801268919908249 -0.2047314364620034 0 -0.18626938338499441 -0.22517712183416291 0 -0.21493562756427159 -0.22243862284749449 0 -0.19801268919908249 -0.2047314364620034 0 -0.19801268919908249 -0.2047314364620034 0 -0.1902080517791363 -0.1917922864575213 0 -0.20975599501317069 -0.18428575108984399 0 -0.18277425339256639 -0.2026996383603622 0 -0.19801268919908249 -0.2047314364620034 0 -0.1902080517791363 -0.1917922864575213 0 -0.21541309520260529 -0.20113031717637361 0 -0.20975599501317069 -0.18428575108984399 0 -0.229896455205026 -0.18225842567294781 0 -0.19801268919908249 -0.2047314364620034 0 -0.21541309520260529 -0.20113031717637361 0 -0.20975599501317069 -0.18428575108984399 0 -0.19801268919908249 -0.2047314364620034 0 -0.20975599501317069 -0.18428575108984399 0 -0.21541309520260529 -0.20113031717637361 0 -0.23384346774119599 -0.2034651679104556 0 -0.229896455205026 -0.18225842567294781 0 -0.24262172765942899 -0.19089247064050549 0 -0.25644706280453389 -0.1995927939493197 0 -0.25029992488695979 -0.1782534950292988 0 -0.24262172765942899 -0.19089247064050549 0 -0.23384346774119599 -0.2034651679104556 0 -0.25644706280453389 -0.1995927939493197 0 -0.24262172765942899 -0.19089247064050549 0 -0.23384346774119599 -0.2034651679104556 0 -0.229896455205026 -0.18225842567294781 0 -0.23384346774119599 -0.2034651679104556 0 -0.2377451423251814 -0.23136366228574551 0 -0.25674041691710447 -0.22108212323078871 0 -0.23384346774119599 -0.2034651679104556 0 -0.25674041691710447 -0.22108212323078871 0 -0.25644706280453389 -0.1995927939493197 0 -0.21493562756427159 -0.22243862284749449 0 -0.21541309520260529 -0.20113031717637361 0 -0.23384346774119599 -0.2034651679104556 0 -0.21493562756427159 -0.22243862284749449 0 -0.23384346774119599 -0.2034651679104556 0 -0.2377451423251814 -0.23136366228574551 0 -0.24465976002352091 -0.25387891845332877 0 -0.2377451423251814 -0.23136366228574551 0 -0.25992972331208369 -0.2410680052130979 0 -0.24465976002352091 -0.25387891845332877 0 -0.21854221021918649 -0.25236034283526498 0 -0.2377451423251814 -0.23136366228574551 0 -0.21854221021918649 -0.25236034283526498 0 -0.21493562756427159 -0.22243862284749449 0 -0.2377451423251814 -0.23136366228574551 0 -0.21854221021918649 -0.25236034283526498 0 -0.2377451423251814 -0.23136366228574551 0 -0.21569240293870359 -0.1466438091422006 0 -0.18947664049148261 -0.1562636999060015 0 -0.2105647825198341 -0.15627799774793921 0 -0.2105647825198341 -0.15627799774793921 0 -0.22149930082725899 -0.1638400657176845 0 -0.22047208921520459 -0.14652609931143951 0 -0.21569240293870359 -0.1466438091422006 0 -0.2105647825198341 -0.15627799774793921 0 -0.22047208921520459 -0.14652609931143951 0 -0.21569240293870359 -0.1466438091422006 0 -0.22047208921520459 -0.14652609931143951 0 -0.20228853596836749 -0.13187567246267581 0 -0.2244809527826766 -0.1321180186971766 0 -0.2129261089666101 -0.1196792574727195 0 -0.21569240293870359 -0.1466438091422006 0 -0.20228853596836749 -0.13187567246267581 0 -0.2244809527826766 -0.1321180186971766 0 -0.18633417632017751 -0.14736681724080919 0 -0.20228853596836749 -0.13187567246267581 0 -0.18400621351090571 -0.1217110611121094 0 -0.21569240293870359 -0.1466438091422006 0 -0.18947664049148261 -0.1562636999060015 0 -0.18633417632017751 -0.14736681724080919 0 -0.21569240293870359 -0.1466438091422006 0 -0.18947664049148261 -0.1562636999060015 0 -0.18633417632017751 -0.14736681724080919 0 -0.21569240293870359 -0.1466438091422006 0 -0.18633417632017751 -0.14736681724080919 0 -0.21569240293870359 -0.1466438091422006 0 -0.20228853596836749 -0.13187567246267581 0 -0.1783922457352059 -0.17293489930968209 0 -0.18947664049148261 -0.1562636999060015 0 -0.1969820185962792 -0.17828497948479149 0 -0.18947664049148261 -0.1562636999060015 0 -0.1969820185962792 -0.17828497948479149 0 -0.20568347912652049 -0.16811631466237001 0 -0.18947664049148261 -0.1562636999060015 0 -0.20568347912652049 -0.16811631466237001 0 -0.2105647825198341 -0.15627799774793921 0 -0.1902080517791363 -0.1917922864575213 0 -0.1969820185962792 -0.17828497948479149 0 -0.20975599501317069 -0.18428575108984399 0 -0.17547527524387041 -0.1884338249559952 0 -0.1902080517791363 -0.1917922864575213 0 -0.1969820185962792 -0.17828497948479149 0 -0.20975599501317069 -0.18428575108984399 0 -0.22149930082725899 -0.1638400657176845 0 -0.20975599501317069 -0.18428575108984399 0 -0.20568347912652049 -0.16811631466237001 0 -0.22149930082725899 -0.1638400657176845 0 -0.1969820185962792 -0.17828497948479149 0 -0.20975599501317069 -0.18428575108984399 0 -0.20568347912652049 -0.16811631466237001 0 -0.20568347912652049 -0.16811631466237001 0 -0.2105647825198341 -0.15627799774793921 0 -0.22149930082725899 -0.1638400657176845 0 -0.22149930082725899 -0.1638400657176845 0 -0.2402834514435094 -0.1667894474332684 0 -0.2341322288468432 -0.15422277024092529 0 -0.22149930082725899 -0.1638400657176845 0 -0.229896455205026 -0.18225842567294781 0 -0.2402834514435094 -0.1667894474332684 0 -0.20975599501317069 -0.18428575108984399 0 -0.22149930082725899 -0.1638400657176845 0 -0.229896455205026 -0.18225842567294781 0 -0.229896455205026 -0.18225842567294781 0 -0.2402834514435094 -0.1667894474332684 0 -0.25029992488695979 -0.1782534950292988 0 -0.24262172765942899 -0.19089247064050549 0 -0.229896455205026 -0.18225842567294781 0 -0.25029992488695979 -0.1782534950292988 0 -0.2402834514435094 -0.1667894474332684 0 -0.25029992488695979 -0.1782534950292988 0 -0.25761979100978533 -0.16665415002795461 0 -0.2402834514435094 -0.1667894474332684 0 -0.24825300788518309 -0.1555077779107997 0 -0.25761979100978533 -0.16665415002795461 0 -0.2402834514435094 -0.1667894474332684 0 -0.24825300788518309 -0.1555077779107997 0 -0.2341322288468432 -0.15422277024092529 0 -0.24825300788518309 -0.1555077779107997 0 -0.2405789555143194 -0.1375116727892334 0 -0.25601133851015478 -0.1487044986697981 0 -0.24825300788518309 -0.1555077779107997 0 -0.2341322288468432 -0.15422277024092529 0 -0.2405789555143194 -0.1375116727892334 0 -0.21569240293870359 -0.1466438091422006 0 -0.22047208921520459 -0.14652609931143951 0 -0.2405789555143194 -0.1375116727892334 0 -0.22149930082725899 -0.1638400657176845 0 -0.2341322288468432 -0.15422277024092529 0 -0.22047208921520459 -0.14652609931143951 0 -0.21569240293870359 -0.1466438091422006 0 -0.2405789555143194 -0.1375116727892334 0 -0.2341322288468432 -0.15422277024092529 0 -0.22047208921520459 -0.14652609931143951 0 -0.2405789555143194 -0.1375116727892334 0 -0.21569240293870359 -0.1466438091422006 0 -0.2244809527826766 -0.1321180186971766 0 -0.2405789555143194 -0.1375116727892334 0 -0.2244809527826766 -0.1321180186971766 0 -0.2405789555143194 -0.1375116727892334 0 -0.23651179230599079 -0.1199754775459997 0 -0.2405789555143194 -0.1375116727892334 0 -0.23651179230599079 -0.1199754775459997 0 -0.25054446979338107 -0.12912519928877991 0 -0.23651179230599079 -0.1199754775459997 0 -0.24959534238117709 -0.1078054475449232 0 -0.26009747564537128 -0.1202716976192799 0 -0.23651179230599079 -0.1199754775459997 0 -0.26009747564537128 -0.1202716976192799 0 -0.23651179230599079 -0.1199754775459997 0 -0.26009747564537128 -0.1202716976192799 0 -0.25054446979338107 -0.12912519928877991 0 -0.23651179230599079 -0.1199754775459997 0 -0.24959534238117709 -0.1078054475449232 0 -0.23746734258601571 -0.1067534300414448 0 -0.24098124084432149 -0.095291905336151436 0 -0.23746734258601571 -0.1067534300414448 0 -0.22473934926471251 -0.1042306158888877 0 -0.24959534238117709 -0.1078054475449232 0 -0.24098124084432149 -0.095291905336151436 0 -0.25687551172258971 -0.095275519396915032 0 -0.24959534238117709 -0.1078054475449232 0 -0.24098124084432149 -0.095291905336151436 0 -0.23746734258601571 -0.1067534300414448 0 -0.22473934926471251 -0.1042306158888877 0 -0.22774604229393439 -0.087804120453188278 0 -0.20897213189474381 -0.093424031558921927 0 -0.24098124084432149 -0.095291905336151436 0 -0.22473934926471251 -0.1042306158888877 0 -0.22774604229393439 -0.087804120453188278 0 -0.2244809527826766 -0.1321180186971766 0 -0.23651179230599079 -0.1199754775459997 0 -0.2129261089666101 -0.1196792574727195 0 -0.23651179230599079 -0.1199754775459997 0 -0.2129261089666101 -0.1196792574727195 0 -0.23651179230599079 -0.1199754775459997 0 -0.23746734258601571 -0.1067534300414448 0 -0.22473934926471251 -0.1042306158888877 0 -0.23651179230599079 -0.1199754775459997 0 -0.22473934926471251 -0.1042306158888877 0 -0.2129261089666101 -0.1196792574727195 0 -0.2466384096447127 -0.069214282175018252 0 -0.23144064811545881 -0.071679072189906365 0 -0.24006258296416741 -0.059977364163272567 0 -0.2466384096447127 -0.069214282175018252 0 -0.23867713564867771 -0.0818228939715063 0 -0.25106785873748549 -0.083001848322642804 0 -0.2466384096447127 -0.069214282175018252 0 -0.23867713564867771 -0.0818228939715063 0 -0.23144064811545881 -0.071679072189906365 0 -0.24098124084432149 -0.095291905336151436 0 -0.25106785873748549 -0.083001848322642804 0 -0.25687551172258971 -0.095275519396915032 0 -0.24098124084432149 -0.095291905336151436 0 -0.23867713564867771 -0.0818228939715063 0 -0.25106785873748549 -0.083001848322642804 0 -0.24098124084432149 -0.095291905336151436 0 -0.23867713564867771 -0.0818228939715063 0 -0.22774604229393439 -0.087804120453188278 0 -0.22048160989483939 -0.080833284582646742 0 -0.22774604229393439 -0.087804120453188278 0 -0.23144064811545881 -0.071679072189906365 0 -0.23867713564867771 -0.0818228939715063 0 -0.22774604229393439 -0.087804120453188278 0 -0.23144064811545881 -0.071679072189906365 0 -0.22048160989483939 -0.080833284582646742 0 -0.22774604229393439 -0.087804120453188278 0 -0.20897213189474381 -0.093424031558921927 0 -0.23144064811545881 -0.071679072189906365 0 -0.2137676172752207 -0.070425914128570383 0 -0.21856310265569601 -0.047427796698218422 0 -0.22048160989483939 -0.080833284582646742 0 -0.23144064811545881 -0.071679072189906365 0 -0.2137676172752207 -0.070425914128570383 0 -0.23144064811545881 -0.071679072189906365 0 -0.23092663332862359 -0.057189961691847993 0 -0.24006258296416741 -0.059977364163272567 0 -0.20335705558913081 -0.063140738221072371 0 -0.2137676172752207 -0.070425914128570383 0 -0.20224544779007569 -0.076575791796341275 0 -0.2137676172752207 -0.070425914128570383 0 -0.20897213189474381 -0.093424031558921927 0 -0.20224544779007569 -0.076575791796341275 0 -0.2137676172752207 -0.070425914128570383 0 -0.20897213189474381 -0.093424031558921927 0 -0.22048160989483939 -0.080833284582646742 0 -0.2137676172752207 -0.070425914128570383 0 -0.20897213189474381 -0.093424031558921927 0 -0.20897213189474381 -0.093424031558921927 0 -0.18864483179057751 -0.079783658531738119 0 -0.20224544779007569 -0.076575791796341275 0 -0.20897213189474381 -0.093424031558921927 0 -0.18864483179057751 -0.079783658531738119 0 -0.1843208979706715 -0.098582101900239388 0 -0.20335705558913081 -0.063140738221072371 0 -0.18864483179057751 -0.079783658531738119 0 -0.20224544779007569 -0.076575791796341275 0 -0.20335705558913081 -0.063140738221072371 0 -0.18864483179057751 -0.079783658531738119 0 -0.20335705558913081 -0.063140738221072371 0 -0.18864483179057751 -0.079783658531738119 0 -0.18476368522970901 -0.060313507398174523 0 -0.22473934926471251 -0.1042306158888877 0 -0.2129261089666101 -0.1196792574727195 0 -0.1994025973422491 -0.10829052452779669 0 -0.20228853596836749 -0.13187567246267581 0 -0.2129261089666101 -0.1196792574727195 0 -0.1994025973422491 -0.10829052452779669 0 -0.22473934926471251 -0.1042306158888877 0 -0.20897213189474381 -0.093424031558921927 0 -0.1994025973422491 -0.10829052452779669 0 -0.20897213189474381 -0.093424031558921927 0 -0.1994025973422491 -0.10829052452779669 0 -0.1843208979706715 -0.098582101900239388 0 -0.20228853596836749 -0.13187567246267581 0 -0.1994025973422491 -0.10829052452779669 0 -0.18400621351090571 -0.1217110611121094 0 -0.1994025973422491 -0.10829052452779669 0 -0.18400621351090571 -0.1217110611121094 0 -0.1843208979706715 -0.098582101900239388 0 -0.16621773075288121 -0.1295318635244681 0 -0.18400621351090571 -0.1217110611121094 0 -0.16647442841019139 -0.11035058163789351 0 -0.18400621351090571 -0.1217110611121094 0 -0.16647442841019139 -0.11035058163789351 0 -0.1843208979706715 -0.098582101900239388 0 -0.16621773075288121 -0.1295318635244681 0 -0.16647442841019139 -0.11035058163789351 0 -0.14737054533773081 -0.1208951937003558 0 -0.16647442841019139 -0.11035058163789351 0 -0.16521255597131029 -0.094363556792246006 0 -0.15171862691764881 -0.097019712797942706 0 -0.16647442841019139 -0.11035058163789351 0 -0.16521255597131029 -0.094363556792246006 0 -0.1843208979706715 -0.098582101900239388 0 -0.16521255597131029 -0.094363556792246006 0 -0.1843208979706715 -0.098582101900239388 0 -0.1718657805157274 -0.077566403117392158 0 -0.18864483179057751 -0.079783658531738119 0 -0.1843208979706715 -0.098582101900239388 0 -0.1718657805157274 -0.077566403117392158 0 -0.18864483179057751 -0.079783658531738119 0 -0.1718657805157274 -0.077566403117392158 0 -0.18476368522970901 -0.060313507398174523 0 -0.1718657805157274 -0.077566403117392158 0 -0.16766997596840549 -0.055069670457126463 0 -0.18476368522970901 -0.060313507398174523 0 -0.1718657805157274 -0.077566403117392158 0 -0.1555984100513392 -0.067553704814911478 0 -0.16766997596840549 -0.055069670457126463 0 -0.1718657805157274 -0.077566403117392158 0 -0.15451520526235171 -0.083858215916353424 0 -0.1555984100513392 -0.067553704814911478 0 -0.16521255597131029 -0.094363556792246006 0 -0.1718657805157274 -0.077566403117392158 0 -0.15451520526235171 -0.083858215916353424 0 -0.16521255597131029 -0.094363556792246006 0 -0.15451520526235171 -0.083858215916353424 0 -0.15171862691764881 -0.097019712797942706 0 -0.15451520526235171 -0.083858215916353424 0 -0.14334301715898221 -0.074859018030624863 0 -0.13903100861317999 -0.090330850909877913 0 -0.15451520526235171 -0.083858215916353424 0 -0.13903100861317999 -0.090330850909877913 0 -0.15171862691764881 -0.097019712797942706 0 -0.1377651409738101 -0.093700562061298426 0 -0.13903100861317999 -0.090330850909877913 0 -0.15171862691764881 -0.097019712797942706 0 -0.15451520526235171 -0.083858215916353424 0 -0.1555984100513392 -0.067553704814911478 0 -0.14334301715898221 -0.074859018030624863 0 -0.1555984100513392 -0.067553704814911478 0 -0.14334301715898221 -0.074859018030624863 0 -0.13945189113323761 -0.059806177835795588 0 -0.14334301715898221 -0.074859018030624863 0 -0.12930964035960699 -0.069761515268982097 0 -0.13945189113323761 -0.059806177835795588 0 -0.12930964035960699 -0.069761515268982097 0 -0.1377651409738101 -0.093700562061298426 0 -0.12930964035960699 -0.069761515268982097 0 -0.1377651409738101 -0.093700562061298426 0 -0.13903100861317999 -0.090330850909877913 0 -0.1189291253072135 -0.086669643832799348 0 -0.12930964035960699 -0.069761515268982097 0 -0.1377651409738101 -0.093700562061298426 0 -0.14334301715898221 -0.074859018030624863 0 -0.12930964035960699 -0.069761515268982097 0 -0.13903100861317999 -0.090330850909877913 0 -0.1377651409738101 -0.093700562061298426 0 -0.13903100861317999 -0.090330850909877913 0 -0.11893842975153809 -0.10446969177473921 0 -0.1377651409738101 -0.093700562061298426 0 -0.12736410167423581 -0.1213878944680517 0 -0.1377651409738101 -0.093700562061298426 0 -0.12736410167423581 -0.1213878944680517 0 -0.11893842975153809 -0.10446969177473921 0 -0.1189291253072135 -0.086669643832799348 0 -0.1377651409738101 -0.093700562061298426 0 -0.1377651409738101 -0.093700562061298426 0 -0.12736410167423581 -0.1213878944680517 0 -0.14737054533773081 -0.1208951937003558 0 -0.16647442841019139 -0.11035058163789351 0 -0.14737054533773081 -0.1208951937003558 0 -0.15171862691764881 -0.097019712797942706 0 -0.1377651409738101 -0.093700562061298426 0 -0.14737054533773081 -0.1208951937003558 0 -0.15171862691764881 -0.097019712797942706 0 -0.1377651409738101 -0.093700562061298426 0 -0.14737054533773081 -0.1208951937003558 0 -0.14925834278157041 -0.027771983247297551 0 -0.15381676672243971 -0.0048344028756085976 0 -0.16158573310271521 -0.019122381719964599 0 -0.14925834278157041 -0.027771983247297551 0 -0.15381676672243971 -0.0048344028756085976 0 -0.14925834278157041 -0.027771983247297551 0 -0.13622810944285851 -0.025664644749336048 0 -0.13728148428220571 -0.03631729474545041 0 -0.15381676672243971 -0.0048344028756085976 0 -0.13373576905839379 -0.01378162565115138 0 -0.13796817939809339 -7.5853332940862265e-05 0 -0.14925834278157041 -0.027771983247297551 0 -0.15381676672243971 -0.0048344028756085976 0 -0.13373576905839379 -0.01378162565115138 0 -0.1244522405185825 -0.00038769298458709092 0 -0.1246368416492639 -0.024787675353444869 0 -0.13373576905839379 -0.01378162565115138 0 -0.1244522405185825 -0.00038769298458709092 0 -0.13373576905839379 -0.01378162565115138 0 -0.13796817939809339 -7.5853332940862265e-05 0 -0.1244522405185825 -0.00038769298458709092 0 -0.13373576905839379 -0.01378162565115138 0 -0.1246368416492639 -0.024787675353444869 0 -0.13373576905839379 -0.01378162565115138 0 -0.13622810944285851 -0.025664644749336048 0 -0.14925834278157041 -0.027771983247297551 0 -0.13373576905839379 -0.01378162565115138 0 -0.13622810944285851 -0.025664644749336048 0 -0.1246368416492639 -0.024787675353444869 0 -0.13622810944285851 -0.025664644749336048 0 -0.13728148428220571 -0.03631729474545041 0 -0.1248214427799455 -0.0491876577223027 0 -0.1246368416492639 -0.024787675353444869 0 -0.13067566527459321 -0.039597081228004503 0 -0.1246368416492639 -0.024787675353444869 0 -0.13067566527459321 -0.039597081228004503 0 -0.13728148428220571 -0.03631729474545041 0 -0.1248214427799455 -0.0491876577223027 0 -0.13067566527459321 -0.039597081228004503 0 -0.1359628923869578 -0.048095697090820053 0 -0.13067566527459321 -0.039597081228004503 0 -0.13728148428220571 -0.03631729474545041 0 -0.1359628923869578 -0.048095697090820053 0 -0.13728148428220571 -0.03631729474545041 0 -0.1359628923869578 -0.048095697090820053 0 -0.14767594406259391 -0.049379474087132447 0 -0.1248214427799455 -0.0491876577223027 0 -0.12930964035960699 -0.069761515268982097 0 -0.13945189113323761 -0.059806177835795588 0 -0.1208541397454049 -0.045822468476665427 0 -0.12930964035960699 -0.069761515268982097 0 -0.1248214427799455 -0.0491876577223027 0 -0.1359628923869578 -0.048095697090820053 0 -0.13945189113323761 -0.059806177835795588 0 -0.1555984100513392 -0.067553704814911478 0 -0.13945189113323761 -0.059806177835795588 0 -0.14767594406259391 -0.049379474087132447 0 -0.1359628923869578 -0.048095697090820053 0 -0.13945189113323761 -0.059806177835795588 0 -0.14767594406259391 -0.049379474087132447 0 -0.14925834278157041 -0.027771983247297551 0 -0.14767594406259391 -0.049379474087132447 0 -0.16346190388351911 -0.035477368974388322 0 -0.14925834278157041 -0.027771983247297551 0 -0.13728148428220571 -0.03631729474545041 0 -0.14767594406259391 -0.049379474087132447 0 -0.14767594406259391 -0.049379474087132447 0 -0.16346190388351911 -0.035477368974388322 0 -0.16766997596840549 -0.055069670457126463 0 -0.16346190388351911 -0.035477368974388322 0 -0.16766997596840549 -0.055069670457126463 0 -0.1792130821544009 -0.041655239440509813 0 -0.1555984100513392 -0.067553704814911478 0 -0.14767594406259391 -0.049379474087132447 0 -0.16766997596840549 -0.055069670457126463 0 -0.16766997596840549 -0.055069670457126463 0 -0.18476368522970901 -0.060313507398174523 0 -0.1792130821544009 -0.041655239440509813 0 -0.18476368522970901 -0.060313507398174523 0 -0.1792130821544009 -0.041655239440509813 0 -0.19607578221694649 -0.043845816873478577 0 -0.16346190388351911 -0.035477368974388322 0 -0.1792130821544009 -0.041655239440509813 0 -0.1747539590121796 -0.02148713112583673 0 -0.1792130821544009 -0.041655239440509813 0 -0.1747539590121796 -0.02148713112583673 0 -0.18874747204970219 -0.028974905836781941 0 -0.1747539590121796 -0.02148713112583673 0 -0.18814241231787171 -0.014961103822567131 0 -0.18874747204970219 -0.028974905836781941 0 -0.14925834278157041 -0.027771983247297551 0 -0.16346190388351911 -0.035477368974388322 0 -0.16158573310271521 -0.019122381719964599 0 -0.16346190388351911 -0.035477368974388322 0 -0.1747539590121796 -0.02148713112583673 0 -0.16158573310271521 -0.019122381719964599 0 -0.1747539590121796 -0.02148713112583673 0 -0.16158573310271521 -0.019122381719964599 0 -0.1670666400728934 -0.0075955490013497832 0 -0.15381676672243971 -0.0048344028756085976 0 -0.1670666400728934 -0.0075955490013497832 0 -0.16872927738725291 0.0066655648670224509 0 -0.15381676672243971 -0.0048344028756085976 0 -0.16158573310271521 -0.019122381719964599 0 -0.1670666400728934 -0.0075955490013497832 0 -0.1670666400728934 -0.0075955490013497832 0 -0.1785064095432054 -0.0066611219507198768 0 -0.16872927738725291 0.0066655648670224509 0 -0.1747539590121796 -0.02148713112583673 0 -0.1670666400728934 -0.0075955490013497832 0 -0.1785064095432054 -0.0066611219507198768 0 -0.1747539590121796 -0.02148713112583673 0 -0.1785064095432054 -0.0066611219507198768 0 -0.18814241231787171 -0.014961103822567131 0 -0.1785064095432054 -0.0066611219507198768 0 -0.18814241231787171 -0.014961103822567131 0 -0.193034969706537 0.00064734206737222756 0 -0.20555212454711219 -0.022925237921517471 0 -0.20993853639106591 -0.0035380738047605968 0 -0.193034969706537 0.00064734206737222756 0 -0.18814241231787171 -0.014961103822567131 0 -0.20555212454711219 -0.022925237921517471 0 -0.193034969706537 0.00064734206737222756 0 -0.20555212454711219 -0.022925237921517471 0 -0.193034969706537 0.00064734206737222756 0 -0.20993853639106591 -0.0035380738047605968 0 -0.193034969706537 0.00064734206737222756 0 -0.18814241231787171 -0.014961103822567131 0 -0.18874747204970219 -0.028974905836781941 0 -0.20555212454711219 -0.022925237921517471 0 -0.20555212454711219 -0.022925237921517471 0 -0.21630961893328751 -0.01519709454307171 0 -0.22290571171937651 -0.026601576769118469 0 -0.20993853639106591 -0.0035380738047605968 0 -0.22684210307559549 -0.0077234896768903086 0 -0.21568563774484731 0.0082874278720449449 0 -0.20993853639106591 -0.0035380738047605968 0 -0.21630961893328751 -0.01519709454307171 0 -0.22684210307559549 -0.0077234896768903086 0 -0.20555212454711219 -0.022925237921517471 0 -0.20993853639106591 -0.0035380738047605968 0 -0.21630961893328751 -0.01519709454307171 0 -0.20993853639106591 -0.0035380738047605968 0 -0.22684210307559549 -0.0077234896768903086 0 -0.20335705558913081 -0.063140738221072371 0 -0.18476368522970901 -0.060313507398174523 0 -0.19607578221694649 -0.043845816873478577 0 -0.1792130821544009 -0.041655239440509813 0 -0.18874747204970219 -0.028974905836781941 0 -0.19607578221694649 -0.043845816873478577 0 -0.18874747204970219 -0.028974905836781941 0 -0.20555212454711219 -0.022925237921517471 0 -0.19607578221694649 -0.043845816873478577 0 -0.20555212454711219 -0.022925237921517471 0 -0.21856310265569601 -0.047427796698218422 0 -0.20555212454711219 -0.022925237921517471 0 -0.21856310265569601 -0.047427796698218422 0 -0.21896932036315811 -0.045479663861346789 0 -0.20555212454711219 -0.022925237921517471 0 -0.19607578221694649 -0.043845816873478577 0 -0.21856310265569601 -0.047427796698218422 0 -0.20555212454711219 -0.022925237921517471 0 -0.21896932036315811 -0.045479663861346789 0 -0.22290571171937651 -0.026601576769118469 0 -0.2137676172752207 -0.070425914128570383 0 -0.21856310265569601 -0.047427796698218422 0 -0.20335705558913081 -0.063140738221072371 0 -0.2137676172752207 -0.070425914128570383 0 -0.21856310265569601 -0.047427796698218422 0 -0.20335705558913081 -0.063140738221072371 0 -0.19607578221694649 -0.043845816873478577 0 -0.21856310265569601 -0.047427796698218422 0 -0.20335705558913081 -0.063140738221072371 0 -0.21856310265569601 -0.047427796698218422 0 -0.23144064811545881 -0.071679072189906365 0 -0.21856310265569601 -0.047427796698218422 0 -0.23092663332862359 -0.057189961691847993 0 -0.23144064811545881 -0.071679072189906365 0 -0.21856310265569601 -0.047427796698218422 0 -0.21856310265569601 -0.047427796698218422 0 -0.23092663332862359 -0.057189961691847993 0 -0.22458774444026389 -0.046948698447319907 0 -0.23092663332862359 -0.057189961691847993 0 -0.2320274706224234 -0.04981915803055513 0 -0.23892230415514151 -0.050781370399802413 0 -0.23092663332862359 -0.057189961691847993 0 -0.22458774444026389 -0.046948698447319907 0 -0.2320274706224234 -0.04981915803055513 0 -0.21896932036315811 -0.045479663861346789 0 -0.2306307955349908 -0.032287844280089482 0 -0.22290571171937651 -0.026601576769118469 0 -0.21896932036315811 -0.045479663861346789 0 -0.22290571171937651 -0.026601576769118469 0 -0.22458774444026389 -0.046948698447319907 0 -0.2320274706224234 -0.04981915803055513 0 -0.23529860714157019 -0.041169280456794459 0 -0.22458774444026389 -0.046948698447319907 0 -0.2306307955349908 -0.032287844280089482 0 -0.23529860714157019 -0.041169280456794459 0 -0.22458774444026389 -0.046948698447319907 0 -0.21896932036315811 -0.045479663861346789 0 -0.2306307955349908 -0.032287844280089482 0 -0.21856310265569601 -0.047427796698218422 0 -0.22458774444026389 -0.046948698447319907 0 -0.21896932036315811 -0.045479663861346789 0 -0.21856310265569601 -0.047427796698218422 0 -0.21896932036315811 -0.045479663861346789 0 -0.21896932036315811 -0.045479663861346789 0 -0.2306307955349908 -0.032287844280089482 0 -0.2306307955349908 -0.032287844280089482 0 -0.23529860714157019 -0.041169280456794459 0 -0.241537864008738 -0.030171217790278881 0 -0.24798951326795751 -0.035882587373858313 0 -0.23529860714157019 -0.041169280456794459 0 -0.241537864008738 -0.030171217790278881 0 -0.24798951326795751 -0.035882587373858313 0 -0.24357205858261219 -0.044359355700093257 0 -0.23529860714157019 -0.041169280456794459 0 -0.24798951326795751 -0.035882587373858313 0 -0.24357205858261219 -0.044359355700093257 0 -0.25238491957690051 -0.051022134359787842 0 -0.24357205858261219 -0.044359355700093257 0 -0.23529860714157019 -0.041169280456794459 0 -0.23892230415514151 -0.050781370399802413 0 -0.2466384096447127 -0.069214282175018252 0 -0.24006258296416741 -0.059977364163272567 0 -0.25238491957690051 -0.051022134359787842 0 -0.2320274706224234 -0.04981915803055513 0 -0.23529860714157019 -0.041169280456794459 0 -0.23892230415514151 -0.050781370399802413 0 -0.23892230415514151 -0.050781370399802413 0 -0.24006258296416741 -0.059977364163272567 0 -0.25238491957690051 -0.051022134359787842 0 -0.24357205858261219 -0.044359355700093257 0 -0.23892230415514151 -0.050781370399802413 0 -0.25238491957690051 -0.051022134359787842 0 -0.23092663332862359 -0.057189961691847993 0 -0.23892230415514151 -0.050781370399802413 0 -0.24006258296416741 -0.059977364163272567 0 -0.21630961893328751 -0.01519709454307171 0 -0.22684210307559549 -0.0077234896768903086 0 -0.22290571171937651 -0.026601576769118469 0 -0.22684210307559549 -0.0077234896768903086 0 -0.22290571171937651 -0.026601576769118469 0 -0.23226271327452069 -0.02198020745377605 0 -0.22684210307559549 -0.0077234896768903086 0 -0.22290571171937651 -0.026601576769118469 0 -0.2306307955349908 -0.032287844280089482 0 -0.22290571171937651 -0.026601576769118469 0 -0.23226271327452069 -0.02198020745377605 0 -0.22684210307559549 -0.0077234896768903086 0 -0.23226271327452069 -0.02198020745377605 0 -0.24229227070682269 -0.019096024698831499 0 -0.2306307955349908 -0.032287844280089482 0 -0.241537864008738 -0.030171217790278881 0 -0.24229227070682269 -0.019096024698831499 0 -0.2306307955349908 -0.032287844280089482 0 -0.23226271327452069 -0.02198020745377605 0 -0.24229227070682269 -0.019096024698831499 0 -0.2306307955349908 -0.032287844280089482 0 -0.24229227070682269 -0.019096024698831499 0 -0.24798951326795751 -0.035882587373858313 0 -0.241537864008738 -0.030171217790278881 0 -0.25387676547985721 -0.02452441136234379 0 -0.241537864008738 -0.030171217790278881 0 -0.24229227070682269 -0.019096024698831499 0 -0.25387676547985721 -0.02452441136234379 0 -0.24229227070682269 -0.019096024698831499 0 -0.24826461013585729 -0.013027819984466921 0 -0.25387676547985721 -0.02452441136234379 0 -0.22684210307559549 -0.0077234896768903086 0 -0.24826461013585729 -0.013027819984466921 0 -0.24598119983726671 0.0037338506766126851 0 -0.22684210307559549 -0.0077234896768903086 0 -0.24229227070682269 -0.019096024698831499 0 -0.24826461013585729 -0.013027819984466921 0 -0.22684210307559549 -0.0077234896768903086 0 -0.24826461013585729 -0.013027819984466921 0 -0.24826461013585729 -0.013027819984466921 0 -0.26003022337954462 -0.0038093911555793728 0 -0.24598119983726671 0.0037338506766126851 0 -0.24826461013585729 -0.013027819984466921 0 -0.26003022337954462 -0.0038093911555793728 0 -0.26968711719611937 -0.018332150292041979 0 -0.24826461013585729 -0.013027819984466921 0 -0.26968711719611937 -0.018332150292041979 0 -0.25387676547985721 -0.02452441136234379 0 -0.26968711719611937 -0.018332150292041979 0 -0.26155562347943467 -0.037861138146123199 0 -0.24826461013585729 -0.013027819984466921 0 -0.25387676547985721 -0.02452441136234379 0 -0.26968711719611937 -0.018332150292041979 0 -0.26968711719611937 -0.018332150292041979 0 -0.28953187906397732 -0.034281883787379987 0 -0.27524211720584768 -0.038538427260779863 0 -0.26003022337954462 -0.0038093911555793728 0 -0.26968711719611937 -0.018332150292041979 0 -0.27433688946420332 -0.0007833753365484626 0 -0.26968711719611937 -0.018332150292041979 0 -0.27433688946420332 -0.0007833753365484626 0 -0.28631392786639209 -0.0070506759659385472 0 -0.28631392786639209 -0.0070506759659385472 0 -0.29653674479957171 -0.021015146411400301 0 -0.3025805037907468 -0.0027432771802810229 0 -0.28631392786639209 -0.0070506759659385472 0 -0.3025805037907468 -0.0027432771802810229 0 -0.28842838408131971 0.0076205693905790281 0 -0.27433688946420332 -0.0007833753365484626 0 -0.28631392786639209 -0.0070506759659385472 0 -0.28842838408131971 0.0076205693905790281 0 -0.26968711719611937 -0.018332150292041979 0 -0.28631392786639209 -0.0070506759659385472 0 -0.29653674479957171 -0.021015146411400301 0 -0.26968711719611937 -0.018332150292041979 0 -0.29653674479957171 -0.021015146411400301 0 -0.28953187906397732 -0.034281883787379987 0 -0.29653674479957171 -0.021015146411400301 0 -0.28953187906397732 -0.034281883787379987 0 -0.31718310516035308 -0.038172790333745737 0 -0.29653674479957171 -0.021015146411400301 0 -0.31459326366374579 -0.01532774276474733 0 -0.31718310516035308 -0.038172790333745737 0 -0.29653674479957171 -0.021015146411400301 0 -0.3025805037907468 -0.0027432771802810229 0 -0.31459326366374579 -0.01532774276474733 0 -0.30229462048881822 -0.056161209871372138 0 -0.29850594913894141 -0.055440370537233663 0 -0.30849544073550722 -0.074776909133231664 0 -0.30229462048881822 -0.056161209871372138 0 -0.29366820665513949 -0.048519954280836622 0 -0.31370341578724742 -0.051143824177853653 0 -0.30229462048881822 -0.056161209871372138 0 -0.29850594913894141 -0.055440370537233663 0 -0.29366820665513949 -0.048519954280836622 0 -0.30229462048881822 -0.056161209871372138 0 -0.31629816603535338 -0.060261719535131632 0 -0.30229462048881822 -0.056161209871372138 0 -0.31178497446605258 -0.064623658022855565 0 -0.31629816603535338 -0.060261719535131632 0 -0.30229462048881822 -0.056161209871372138 0 -0.31370341578724742 -0.051143824177853653 0 -0.31629816603535338 -0.060261719535131632 0 -0.29366820665513949 -0.048519954280836622 0 -0.31718310516035308 -0.038172790333745737 0 -0.29366820665513949 -0.048519954280836622 0 -0.31718310516035308 -0.038172790333745737 0 -0.31370341578724742 -0.051143824177853653 0 -0.28953187906397732 -0.034281883787379987 0 -0.29366820665513949 -0.048519954280836622 0 -0.31718310516035308 -0.038172790333745737 0 -0.28953187906397732 -0.034281883787379987 0 -0.29366820665513949 -0.048519954280836622 0 -0.27524211720584768 -0.038538427260779863 0 -0.29366820665513949 -0.048519954280836622 0 -0.27015330814992611 -0.058867118227927437 0 -0.29366820665513949 -0.048519954280836622 0 -0.28660483069534037 -0.061918496488246169 0 -0.27015330814992611 -0.058867118227927437 0 -0.29850594913894141 -0.055440370537233663 0 -0.28660483069534037 -0.061918496488246169 0 -0.29557893925590151 -0.069462416794053169 0 -0.29850594913894141 -0.055440370537233663 0 -0.29366820665513949 -0.048519954280836622 0 -0.28660483069534037 -0.061918496488246169 0 -0.29366820665513949 -0.048519954280836622 0 -0.27015330814992611 -0.058867118227927437 0 -0.27524211720584768 -0.038538427260779863 0 -0.26968711719611937 -0.018332150292041979 0 -0.27524211720584768 -0.038538427260779863 0 -0.26155562347943467 -0.037861138146123199 0 -0.27015330814992611 -0.058867118227927437 0 -0.27524211720584768 -0.038538427260779863 0 -0.26155562347943467 -0.037861138146123199 0 -0.24798951326795751 -0.035882587373858313 0 -0.26155562347943467 -0.037861138146123199 0 -0.25238491957690051 -0.051022134359787842 0 -0.24798951326795751 -0.035882587373858313 0 -0.25387676547985721 -0.02452441136234379 0 -0.26155562347943467 -0.037861138146123199 0 -0.27015330814992611 -0.058867118227927437 0 -0.26155562347943467 -0.037861138146123199 0 -0.25238491957690051 -0.051022134359787842 0 -0.2466384096447127 -0.069214282175018252 0 -0.27015330814992611 -0.058867118227927437 0 -0.25238491957690051 -0.051022134359787842 0 -0.2466384096447127 -0.069214282175018252 0 -0.27015330814992611 -0.058867118227927437 0 -0.26102584033089798 -0.073534373921212107 0 -0.2466384096447127 -0.069214282175018252 0 -0.27015330814992611 -0.058867118227927437 0 -0.2466384096447127 -0.069214282175018252 0 -0.26102584033089798 -0.073534373921212107 0 -0.25106785873748549 -0.083001848322642804 0 -0.25106785873748549 -0.083001848322642804 0 -0.26431637422662529 -0.083961298504163229 0 -0.25687551172258971 -0.095275519396915032 0 -0.26431637422662529 -0.083961298504163229 0 -0.25687551172258971 -0.095275519396915032 0 -0.26922948176741379 -0.094556007429682482 0 -0.26102584033089798 -0.073534373921212107 0 -0.25106785873748549 -0.083001848322642804 0 -0.26431637422662529 -0.083961298504163229 0 -0.26431637422662529 -0.083961298504163229 0 -0.27622487875609619 -0.085738752979791055 0 -0.27411142324960069 -0.07331497732508381 0 -0.26431637422662529 -0.083961298504163229 0 -0.27622487875609619 -0.085738752979791055 0 -0.26922948176741379 -0.094556007429682482 0 -0.27622487875609619 -0.085738752979791055 0 -0.26922948176741379 -0.094556007429682482 0 -0.28208733676033698 -0.099544680508420066 0 -0.27622487875609619 -0.085738752979791055 0 -0.27411142324960069 -0.07331497732508381 0 -0.28634330733871821 -0.075869823829162894 0 -0.28660483069534037 -0.061918496488246169 0 -0.27015330814992611 -0.058867118227927437 0 -0.27411142324960069 -0.07331497732508381 0 -0.27015330814992611 -0.058867118227927437 0 -0.26102584033089798 -0.073534373921212107 0 -0.27411142324960069 -0.07331497732508381 0 -0.26102584033089798 -0.073534373921212107 0 -0.26431637422662529 -0.083961298504163229 0 -0.27411142324960069 -0.07331497732508381 0 -0.24959534238117709 -0.1078054475449232 0 -0.26009747564537128 -0.1202716976192799 0 -0.26511094786836592 -0.1069062435210571 0 -0.24959534238117709 -0.1078054475449232 0 -0.26511094786836592 -0.1069062435210571 0 -0.25687551172258971 -0.095275519396915032 0 -0.26511094786836592 -0.1069062435210571 0 -0.25687551172258971 -0.095275519396915032 0 -0.26922948176741379 -0.094556007429682482 0 -0.26511094786836592 -0.1069062435210571 0 -0.27676276389741278 -0.11052104179975 0 -0.28208733676033698 -0.099544680508420066 0 -0.26511094786836592 -0.1069062435210571 0 -0.26922948176741379 -0.094556007429682482 0 -0.28208733676033698 -0.099544680508420066 0 -0.26511094786836592 -0.1069062435210571 0 -0.28208733676033698 -0.099544680508420066 0 -0.26009747564537128 -0.1202716976192799 0 -0.28368315898475188 -0.1205679176925603 0 -0.26697405985724948 -0.1304210152969853 0 -0.26009747564537128 -0.1202716976192799 0 -0.27676276389741278 -0.11052104179975 0 -0.28368315898475188 -0.1205679176925603 0 -0.26009747564537128 -0.1202716976192799 0 -0.28368315898475188 -0.1205679176925603 0 -0.26009747564537128 -0.1202716976192799 0 -0.26511094786836592 -0.1069062435210571 0 -0.27676276389741278 -0.11052104179975 0 -0.28368315898475188 -0.1205679176925603 0 -0.30807566230962469 -0.12087427087378499 0 -0.28368315898475188 -0.1205679176925603 0 -0.29137344231852969 -0.1063755175941712 0 -0.30807566230962469 -0.12087427087378499 0 -0.27676276389741278 -0.11052104179975 0 -0.28368315898475188 -0.1205679176925603 0 -0.29137344231852969 -0.1063755175941712 0 -0.28368315898475188 -0.1205679176925603 0 -0.29137344231852969 -0.1063755175941712 0 -0.29137344231852969 -0.1063755175941712 0 -0.28208733676033698 -0.099544680508420066 0 -0.29906372565230788 -0.092183117495782341 0 -0.28208733676033698 -0.099544680508420066 0 -0.29906372565230788 -0.092183117495782341 0 -0.27676276389741278 -0.11052104179975 0 -0.29137344231852969 -0.1063755175941712 0 -0.28208733676033698 -0.099544680508420066 0 -0.29137344231852969 -0.1063755175941712 0 -0.29906372565230788 -0.092183117495782341 0 -0.30690970986333499 -0.10413412755240679 0 -0.29906372565230788 -0.092183117495782341 0 -0.31411573014289268 -0.085656035662949492 0 -0.29137344231852969 -0.1063755175941712 0 -0.30690970986333499 -0.10413412755240679 0 -0.29906372565230788 -0.092183117495782341 0 -0.28368315898475188 -0.1205679176925603 0 -0.30807566230962469 -0.12087427087378499 0 -0.30140371581860798 -0.1292511186866305 0 -0.29137344231852969 -0.1063755175941712 0 -0.30690970986333499 -0.10413412755240679 0 -0.30807566230962469 -0.12087427087378499 0 -0.29557893925590151 -0.069462416794053169 0 -0.28634330733871821 -0.075869823829162894 0 -0.29528406594296941 -0.079953964946478426 0 -0.28660483069534037 -0.061918496488246169 0 -0.29557893925590151 -0.069462416794053169 0 -0.28634330733871821 -0.075869823829162894 0 -0.28660483069534037 -0.061918496488246169 0 -0.27411142324960069 -0.07331497732508381 0 -0.28634330733871821 -0.075869823829162894 0 -0.27622487875609619 -0.085738752979791055 0 -0.28634330733871821 -0.075869823829162894 0 -0.28693891673241251 -0.08747755748016231 0 -0.28208733676033698 -0.099544680508420066 0 -0.28693891673241251 -0.08747755748016231 0 -0.29906372565230788 -0.092183117495782341 0 -0.27622487875609619 -0.085738752979791055 0 -0.28208733676033698 -0.099544680508420066 0 -0.28693891673241251 -0.08747755748016231 0 -0.28693891673241251 -0.08747755748016231 0 -0.29528406594296941 -0.079953964946478426 0 -0.29906372565230788 -0.092183117495782341 0 -0.28634330733871821 -0.075869823829162894 0 -0.28693891673241251 -0.08747755748016231 0 -0.29528406594296941 -0.079953964946478426 0 -0.29528406594296941 -0.079953964946478426 0 -0.29906372565230788 -0.092183117495782341 0 -0.30849544073550722 -0.074776909133231664 0 -0.29906372565230788 -0.092183117495782341 0 -0.30849544073550722 -0.074776909133231664 0 -0.29906372565230788 -0.092183117495782341 0 -0.30849544073550722 -0.074776909133231664 0 -0.31411573014289268 -0.085656035662949492 0 -0.29906372565230788 -0.092183117495782341 0 -0.31411573014289268 -0.085656035662949492 0 -0.30849544073550722 -0.074776909133231664 0 -0.31411573014289268 -0.085656035662949492 0 -0.30229462048881822 -0.056161209871372138 0 -0.30849544073550722 -0.074776909133231664 0 -0.31178497446605258 -0.064623658022855565 0 -0.29850594913894141 -0.055440370537233663 0 -0.29557893925590151 -0.069462416794053169 0 -0.30849544073550722 -0.074776909133231664 0 -0.30849544073550722 -0.074776909133231664 0 -0.31286059459191501 -0.066721027791507209 0 -0.29850594913894141 -0.055440370537233663 0 -0.30849544073550722 -0.074776909133231664 0 -0.29557893925590151 -0.069462416794053169 0 -0.29528406594296941 -0.079953964946478426 0 -0.30849544073550722 -0.074776909133231664 0 -0.30849544073550722 -0.074776909133231664 0 -0.31178497446605258 -0.064623658022855565 0 -0.31286059459191501 -0.066721027791507209 0 -0.31178497446605258 -0.064623658022855565 0 -0.31286059459191501 -0.066721027791507209 0 -0.31286059459191501 -0.066721027791507209 0 -0.32103296817657878 -0.082656476452658639 0 -0.31286059459191501 -0.066721027791507209 0 -0.32103296817657878 -0.082656476452658639 0 -0.32352590008436471 -0.062378140209921912 0 -0.31178497446605258 -0.064623658022855565 0 -0.31286059459191501 -0.066721027791507209 0 -0.31629816603535338 -0.060261719535131632 0 -0.30849544073550722 -0.074776909133231664 0 -0.31286059459191501 -0.066721027791507209 0 -0.32103296817657878 -0.082656476452658639 0 -0.31286059459191501 -0.066721027791507209 0 -0.31629816603535338 -0.060261719535131632 0 -0.31286059459191501 -0.066721027791507209 0 -0.31629816603535338 -0.060261719535131632 0 -0.32352590008436471 -0.062378140209921912 0 -0.32103296817657878 -0.082656476452658639 0 -0.33093834944883532 -0.101971145942244 0 -0.30849544073550722 -0.074776909133231664 0 -0.31411573014289268 -0.085656035662949492 0 -0.32103296817657878 -0.082656476452658639 0 -0.31411573014289268 -0.085656035662949492 0 -0.32103296817657878 -0.082656476452658639 0 -0.32329194788869442 -0.1034183298589804 0 -0.31411573014289268 -0.085656035662949492 0 -0.32103296817657878 -0.082656476452658639 0 -0.32103296817657878 -0.082656476452658639 0 -0.33692687914299491 -0.089632102483736459 0 -0.33093834944883532 -0.101971145942244 0 -0.32103296817657878 -0.082656476452658639 0 -0.33692687914299491 -0.089632102483736459 0 -0.3453529791357649 -0.07211045902320197 0 -0.32103296817657878 -0.082656476452658639 0 -0.3453529791357649 -0.07211045902320197 0 -0.32352590008436471 -0.062378140209921912 0 -0.34475717967991132 -0.068595070548471249 0 -0.3453529791357649 -0.07211045902320197 0 -0.32352590008436471 -0.062378140209921912 0 -0.34475717967991132 -0.068595070548471249 0 -0.32352590008436471 -0.062378140209921912 0 -0.32103296817657878 -0.082656476452658639 0 -0.3453529791357649 -0.07211045902320197 0 -0.30807566230962469 -0.12087427087378499 0 -0.32329194788869442 -0.1034183298589804 0 -0.33246816563449738 -0.1211806240550105 0 -0.30807566230962469 -0.12087427087378499 0 -0.33246816563449738 -0.1211806240550105 0 -0.30807566230962469 -0.12087427087378499 0 -0.32007374605487132 -0.12494213909402439 0 -0.33246816563449738 -0.1211806240550105 0 -0.30690970986333499 -0.10413412755240679 0 -0.30807566230962469 -0.12087427087378499 0 -0.32329194788869442 -0.1034183298589804 0 -0.32329194788869442 -0.1034183298589804 0 -0.33246816563449738 -0.1211806240550105 0 -0.32007374605487132 -0.12494213909402439 0 -0.33441303965894859 -0.1249452932850653 0 -0.30690970986333499 -0.10413412755240679 0 -0.31411573014289268 -0.085656035662949492 0 -0.32329194788869442 -0.1034183298589804 0 -0.32103296817657878 -0.082656476452658639 0 -0.32329194788869442 -0.1034183298589804 0 -0.33093834944883532 -0.101971145942244 0 -0.31411573014289268 -0.085656035662949492 0 -0.32329194788869442 -0.1034183298589804 0 -0.32329194788869442 -0.1034183298589804 0 -0.33093834944883532 -0.101971145942244 0 -0.33246816563449738 -0.1211806240550105 0 -0.33692687914299491 -0.089632102483736459 0 -0.33093834944883532 -0.101971145942244 0 -0.35038321981080389 -0.10179032851684799 0 -0.33093834944883532 -0.101971145942244 0 -0.34773438721257438 -0.1121772477149196 0 -0.35038321981080389 -0.10179032851684799 0 -0.33093834944883532 -0.101971145942244 0 -0.3408437307210912 -0.1212858154318297 0 -0.33093834944883532 -0.101971145942244 0 -0.3408437307210912 -0.1212858154318297 0 -0.33246816563449738 -0.1211806240550105 0 -0.33093834944883532 -0.101971145942244 0 -0.3408437307210912 -0.1212858154318297 0 -0.34773438721257438 -0.1121772477149196 0 -0.34272140335036932 -0.124947120862287 0 -0.3408437307210912 -0.1212858154318297 0 -0.33441303965894859 -0.1249452932850653 0 -0.3408437307210912 -0.1212858154318297 0 -0.33246816563449738 -0.1211806240550105 0 -0.34272140335036932 -0.124947120862287 0 -0.33441303965894859 -0.1249452932850653 0 -0.34272140335036932 -0.124947120862287 0 -0.3408437307210912 -0.1212858154318297 0 -0.32007374605487132 -0.12494213909402439 0 -0.33441303965894859 -0.1249452932850653 0 -0.33246816563449738 -0.1211806240550105 0 -0.3408437307210912 -0.1212858154318297 0 -0.33441303965894859 -0.1249452932850653 0 -0.33246816563449738 -0.1211806240550105 0 -0.33441303965894859 -0.1249452932850653 0 -0.33246816563449738 -0.1211806240550105 0 -0.34272140335036932 -0.124947120862287 0 -0.35433435295871402 -0.1214552484327875 0 -0.36893450279197471 -0.1249528869149899 0 -0.34272140335036932 -0.124947120862287 0 -0.36893450279197471 -0.1249528869149899 0 -0.3408437307210912 -0.1212858154318297 0 -0.35433435295871402 -0.1214552484327875 0 -0.3408437307210912 -0.1212858154318297 0 -0.35433435295871402 -0.1214552484327875 0 -0.34773438721257438 -0.1121772477149196 0 -0.34272140335036932 -0.124947120862287 0 -0.3408437307210912 -0.1212858154318297 0 -0.35433435295871402 -0.1214552484327875 0 -0.35433435295871402 -0.1214552484327875 0 -0.34773438721257438 -0.1121772477149196 0 -0.3623387343604032 -0.1125517513480446 0 -0.34773438721257438 -0.1121772477149196 0 -0.35038321981080389 -0.10179032851684799 0 -0.3623387343604032 -0.1125517513480446 0 -0.37380044498630338 -0.100392191664622 0 -0.3623387343604032 -0.1125517513480446 0 -0.3789649235099295 -0.11270856972454819 0 -0.35038321981080389 -0.10179032851684799 0 -0.37380044498630338 -0.100392191664622 0 -0.36747037526515469 -0.088210616938563927 0 -0.35038321981080389 -0.10179032851684799 0 -0.37380044498630338 -0.100392191664622 0 -0.3623387343604032 -0.1125517513480446 0 -0.3623387343604032 -0.1125517513480446 0 -0.36893450279197471 -0.1249528869149899 0 -0.3789649235099295 -0.11270856972454819 0 -0.35433435295871402 -0.1214552484327875 0 -0.3623387343604032 -0.1125517513480446 0 -0.36893450279197471 -0.1249528869149899 0 -0.34995192587724822 -0.070116192960804249 0 -0.35645509357982358 -0.081628608772215283 0 -0.36843110820579178 -0.075527255856609146 0 -0.34995192587724822 -0.070116192960804249 0 -0.36608399240098949 -0.063120758007335118 0 -0.35494834161021771 -0.06194377696909157 0 -0.34995192587724822 -0.070116192960804249 0 -0.36843110820579178 -0.075527255856609146 0 -0.34995192587724822 -0.070116192960804249 0 -0.36608399240098949 -0.063120758007335118 0 -0.34995192587724822 -0.070116192960804249 0 -0.34475717967991132 -0.068595070548471249 0 -0.35494834161021771 -0.06194377696909157 0 -0.34995192587724822 -0.070116192960804249 0 -0.34475717967991132 -0.068595070548471249 0 -0.34995192587724822 -0.070116192960804249 0 -0.34475717967991132 -0.068595070548471249 0 -0.3453529791357649 -0.07211045902320197 0 -0.34995192587724822 -0.070116192960804249 0 -0.3453529791357649 -0.07211045902320197 0 -0.34995192587724822 -0.070116192960804249 0 -0.3453529791357649 -0.07211045902320197 0 -0.35645509357982358 -0.081628608772215283 0 -0.34475717967991132 -0.068595070548471249 0 -0.3453529791357649 -0.07211045902320197 0 -0.35038321981080389 -0.10179032851684799 0 -0.35645509357982358 -0.081628608772215283 0 -0.36747037526515469 -0.088210616938563927 0 -0.35038321981080389 -0.10179032851684799 0 -0.3453529791357649 -0.07211045902320197 0 -0.35645509357982358 -0.081628608772215283 0 -0.33692687914299491 -0.089632102483736459 0 -0.35038321981080389 -0.10179032851684799 0 -0.3453529791357649 -0.07211045902320197 0 -0.35038321981080389 -0.10179032851684799 0 -0.3453529791357649 -0.07211045902320197 0 -0.36747037526515469 -0.088210616938563927 0 -0.36843110820579178 -0.075527255856609146 0 -0.38691029053433551 -0.080938318752413793 0 -0.35645509357982358 -0.081628608772215283 0 -0.36747037526515469 -0.088210616938563927 0 -0.36843110820579178 -0.075527255856609146 0 -0.34995192587724822 -0.070116192960804249 0 -0.36843110820579178 -0.075527255856609146 0 -0.36608399240098949 -0.063120758007335118 0 -0.36843110820579178 -0.075527255856609146 0 -0.36608399240098949 -0.063120758007335118 0 -0.37978412082390189 -0.068029865631836883 0 -0.36608399240098949 -0.063120758007335118 0 -0.37085155020467431 -0.050438611479832557 0 -0.38221605892473098 -0.056125323053866277 0 -0.36608399240098949 -0.063120758007335118 0 -0.38221605892473098 -0.056125323053866277 0 -0.37085155020467431 -0.050438611479832557 0 -0.36177701350261748 -0.054750595911384127 0 -0.36329546327126672 -0.041142767418341691 0 -0.36608399240098949 -0.063120758007335118 0 -0.36177701350261748 -0.054750595911384127 0 -0.35494834161021771 -0.06194377696909157 0 -0.36608399240098949 -0.063120758007335118 0 -0.37085155020467431 -0.050438611479832557 0 -0.36177701350261748 -0.054750595911384127 0 -0.36177701350261748 -0.054750595911384127 0 -0.35494834161021771 -0.06194377696909157 0 -0.35217159659032232 -0.05313626741746251 0 -0.34475717967991132 -0.068595070548471249 0 -0.35217159659032232 -0.05313626741746251 0 -0.34008173660725832 -0.04100860914713586 0 -0.36177701350261748 -0.054750595911384127 0 -0.35217159659032232 -0.05313626741746251 0 -0.36329546327126672 -0.041142767418341691 0 -0.34475717967991132 -0.068595070548471249 0 -0.35494834161021771 -0.06194377696909157 0 -0.35217159659032232 -0.05313626741746251 0 -0.35217159659032232 -0.05313626741746251 0 -0.35233090603521772 -0.034345905606361089 0 -0.36329546327126672 -0.041142767418341691 0 -0.35217159659032232 -0.05313626741746251 0 -0.35233090603521772 -0.034345905606361089 0 -0.34008173660725832 -0.04100860914713586 0 -0.35233090603521772 -0.034345905606361089 0 -0.34677261788783459 -0.022263095799622792 0 -0.34008173660725832 -0.04100860914713586 0 -0.35233090603521772 -0.034345905606361089 0 -0.36329546327126672 -0.041142767418341691 0 -0.36125368123050811 -0.029816691131076791 0 -0.36329546327126672 -0.041142767418341691 0 -0.37015544225173291 -0.03012439130571171 0 -0.36125368123050811 -0.029816691131076791 0 -0.37085155020467431 -0.050438611479832557 0 -0.36329546327126672 -0.041142767418341691 0 -0.37439980638912518 -0.038891661293645137 0 -0.36329546327126672 -0.041142767418341691 0 -0.37439980638912518 -0.038891661293645137 0 -0.37015544225173291 -0.03012439130571171 0 -0.37439980638912518 -0.038891661293645137 0 -0.37015544225173291 -0.03012439130571171 0 -0.37866743010551202 -0.02906954498465647 0 -0.37015544225173291 -0.03012439130571171 0 -0.37402384376206249 -0.023759624541515059 0 -0.37866743010551202 -0.02906954498465647 0 -0.37015544225173291 -0.03012439130571171 0 -0.37402384376206249 -0.023759624541515059 0 -0.36652472594663232 -0.022500501643346649 0 -0.37402384376206249 -0.023759624541515059 0 -0.37465439862472261 -0.016787835852634068 0 -0.36652472594663232 -0.022500501643346649 0 -0.37465439862472261 -0.016787835852634068 0 -0.36652472594663232 -0.022500501643346649 0 -0.3596530522362773 -0.017262546391789129 0 -0.36652472594663232 -0.022500501643346649 0 -0.3596530522362773 -0.017262546391789129 0 -0.35649867437881472 -0.022585523222405649 0 -0.36652472594663232 -0.022500501643346649 0 -0.36125368123050811 -0.029816691131076791 0 -0.35649867437881472 -0.022585523222405649 0 -0.37015544225173291 -0.03012439130571171 0 -0.36652472594663232 -0.022500501643346649 0 -0.36125368123050811 -0.029816691131076791 0 -0.37465439862472261 -0.016787835852634068 0 -0.3596530522362773 -0.017262546391789129 0 -0.34857824671955512 -0.007874197240844389 0 -0.37465439862472261 -0.016787835852634068 0 -0.3597652811465577 -0.0058215117475868012 0 -0.34857824671955512 -0.007874197240844389 0 -0.37465439862472261 -0.016787835852634068 0 -0.34857824671955512 -0.007874197240844389 0 -0.37126952376897032 -0.00085078512189483576 0 -0.36867541047690239 -0.006920070417115203 0 -0.36494834593608783 -0.001298186014321303 0 -0.37126952376897032 -0.00085078512189483576 0 -0.37464851222799189 -0.0076089195940836872 0 -0.37774077980655368 -0.001289555558904682 0 -0.37126952376897032 -0.00085078512189483576 0 -0.37464851222799189 -0.0076089195940836872 0 -0.36867541047690239 -0.006920070417115203 0 -0.37465439862472261 -0.016787835852634068 0 -0.36867541047690239 -0.006920070417115203 0 -0.3597652811465577 -0.0058215117475868012 0 -0.37465439862472261 -0.016787835852634068 0 -0.37464851222799189 -0.0076089195940836872 0 -0.36867541047690239 -0.006920070417115203 0 -0.36867541047690239 -0.006920070417115203 0 -0.3597652811465577 -0.0058215117475868012 0 -0.36494834593608783 -0.001298186014321303 0 -0.3597652811465577 -0.0058215117475868012 0 -0.36494834593608783 -0.001298186014321303 0 -0.35900139338342918 0.0020097317905480609 0 -0.3597652811465577 -0.0058215117475868012 0 -0.35221409618436439 -0.0049109655465913588 0 -0.34857824671955512 -0.007874197240844389 0 -0.3597652811465577 -0.0058215117475868012 0 -0.35509488683577939 -0.0004162838960613095 0 -0.35900139338342918 0.0020097317905480609 0 -0.3597652811465577 -0.0058215117475868012 0 -0.35509488683577939 -0.0004162838960613095 0 -0.35221409618436439 -0.0049109655465913588 0 -0.3596530522362773 -0.017262546391789129 0 -0.34857824671955512 -0.007874197240844389 0 -0.35200921551166209 -0.0165646739997149 0 -0.34857824671955512 -0.007874197240844389 0 -0.34618108527798752 -0.01472783018749277 0 -0.35200921551166209 -0.0165646739997149 0 -0.35233090603521772 -0.034345905606361089 0 -0.36125368123050811 -0.029816691131076791 0 -0.35649867437881472 -0.022585523222405649 0 -0.35233090603521772 -0.034345905606361089 0 -0.35649867437881472 -0.022585523222405649 0 -0.34677261788783459 -0.022263095799622792 0 -0.35649867437881472 -0.022585523222405649 0 -0.35200921551166209 -0.0165646739997149 0 -0.34677261788783459 -0.022263095799622792 0 -0.3596530522362773 -0.017262546391789129 0 -0.35649867437881472 -0.022585523222405649 0 -0.35200921551166209 -0.0165646739997149 0 -0.34618108527798752 -0.01472783018749277 0 -0.35200921551166209 -0.0165646739997149 0 -0.34677261788783459 -0.022263095799622792 0 -0.33540629353460438 -0.01342214774580049 0 -0.31718310516035308 -0.038172790333745737 0 -0.34008173660725832 -0.04100860914713586 0 -0.33540629353460438 -0.01342214774580049 0 -0.34008173660725832 -0.04100860914713586 0 -0.34677261788783459 -0.022263095799622792 0 -0.33540629353460438 -0.01342214774580049 0 -0.34008173660725832 -0.04100860914713586 0 -0.34618108527798752 -0.01472783018749277 0 -0.34677261788783459 -0.022263095799622792 0 -0.33540629353460438 -0.01342214774580049 0 -0.33540629353460438 -0.01342214774580049 0 -0.3204068892458079 -0.0014125807301150939 0 -0.33073085046195078 0.01416431365553468 0 -0.34857824671955512 -0.007874197240844389 0 -0.33540629353460438 -0.01342214774580049 0 -0.33073085046195078 0.01416431365553468 0 -0.34857824671955512 -0.007874197240844389 0 -0.34618108527798752 -0.01472783018749277 0 -0.33540629353460438 -0.01342214774580049 0 -0.3025805037907468 -0.0027432771802810229 0 -0.31459326366374579 -0.01532774276474733 0 -0.3204068892458079 -0.0014125807301150939 0 -0.33540629353460438 -0.01342214774580049 0 -0.31459326366374579 -0.01532774276474733 0 -0.3204068892458079 -0.0014125807301150939 0 -0.33540629353460438 -0.01342214774580049 0 -0.31459326366374579 -0.01532774276474733 0 -0.31718310516035308 -0.038172790333745737 0 -0.31718310516035308 -0.038172790333745737 0 -0.3268834079531176 -0.05023453433316457 0 -0.34008173660725832 -0.04100860914713586 0 -0.31718310516035308 -0.038172790333745737 0 -0.31370341578724742 -0.051143824177853653 0 -0.3268834079531176 -0.05023453433316457 0 -0.31370341578724742 -0.051143824177853653 0 -0.31629816603535338 -0.060261719535131632 0 -0.32352590008436471 -0.062378140209921912 0 -0.31629816603535338 -0.060261719535131632 0 -0.32352590008436471 -0.062378140209921912 0 -0.32352590008436471 -0.062378140209921912 0 -0.3268834079531176 -0.05023453433316457 0 -0.33381205608116321 -0.055554088559673351 0 -0.31370341578724742 -0.051143824177853653 0 -0.32352590008436471 -0.062378140209921912 0 -0.3268834079531176 -0.05023453433316457 0 -0.34475717967991132 -0.068595070548471249 0 -0.32352590008436471 -0.062378140209921912 0 -0.33381205608116321 -0.055554088559673351 0 -0.34475717967991132 -0.068595070548471249 0 -0.33381205608116321 -0.055554088559673351 0 -0.34008173660725832 -0.04100860914713586 0 -0.3268834079531176 -0.05023453433316457 0 -0.33381205608116321 -0.055554088559673351 0 -0.34008173660725832 -0.04100860914713586 0 -0.34475717967991132 -0.068595070548471249 0 -0.34008173660725832 -0.04100860914713586 0 -0.29131753467172561 -0.25675805269722002 0 -0.30769212114973271 -0.24578220261295139 0 -0.29241592956139478 -0.23974284613727589 0 -0.30769212114973271 -0.24578220261295139 0 -0.30829656048542242 -0.23127198481015249 0 -0.29241592956139478 -0.23974284613727589 0 -0.30829656048542242 -0.23127198481015249 0 -0.29279532374442052 -0.2217612167757172 0 -0.3129652712195421 -0.2114706657937139 0 -0.30829656048542242 -0.23127198481015249 0 -0.29279532374442052 -0.2217612167757172 0 -0.29241592956139478 -0.23974284613727589 0 -0.29279532374442052 -0.2217612167757172 0 -0.29241592956139478 -0.23974284613727589 0 -0.27798049023744681 -0.23352671123603991 0 -0.29279532374442052 -0.2217612167757172 0 -0.27798049023744681 -0.23352671123603991 0 -0.27449661508218531 -0.21747639879007349 0 -0.29131753467172561 -0.25675805269722002 0 -0.29241592956139478 -0.23974284613727589 0 -0.27722523139620658 -0.24922189107985179 0 -0.29241592956139478 -0.23974284613727589 0 -0.27722523139620658 -0.24922189107985179 0 -0.27798049023744681 -0.23352671123603991 0 -0.27722523139620658 -0.24922189107985179 0 -0.25992972331208369 -0.2410680052130979 0 -0.27798049023744681 -0.23352671123603991 0 -0.26398002587916253 -0.25656090854441049 0 -0.27722523139620658 -0.24922189107985179 0 -0.25992972331208369 -0.2410680052130979 0 -0.25992972331208369 -0.2410680052130979 0 -0.25674041691710447 -0.22108212323078871 0 -0.27798049023744681 -0.23352671123603991 0 -0.2377451423251814 -0.23136366228574551 0 -0.25992972331208369 -0.2410680052130979 0 -0.25674041691710447 -0.22108212323078871 0 -0.25674041691710447 -0.22108212323078871 0 -0.27798049023744681 -0.23352671123603991 0 -0.27449661508218531 -0.21747639879007349 0 -0.27449661508218531 -0.21747639879007349 0 -0.25644706280453389 -0.1995927939493197 0 -0.27817485521465529 -0.19463925610534399 0 -0.27449661508218531 -0.21747639879007349 0 -0.27817485521465529 -0.19463925610534399 0 -0.25674041691710447 -0.22108212323078871 0 -0.27449661508218531 -0.21747639879007349 0 -0.25644706280453389 -0.1995927939493197 0 -0.25644706280453389 -0.1995927939493197 0 -0.27817485521465529 -0.19463925610534399 0 -0.26629571781906192 -0.18034234132084431 0 -0.27817485521465529 -0.19463925610534399 0 -0.29367807880863189 -0.20345752952089671 0 -0.29386082525749962 -0.1848532680646672 0 -0.27449661508218531 -0.21747639879007349 0 -0.27817485521465529 -0.19463925610534399 0 -0.29367807880863189 -0.20345752952089671 0 -0.29279532374442052 -0.2217612167757172 0 -0.27449661508218531 -0.21747639879007349 0 -0.29367807880863189 -0.20345752952089671 0 -0.29279532374442052 -0.2217612167757172 0 -0.29367807880863189 -0.20345752952089671 0 -0.3129652712195421 -0.2114706657937139 0 -0.29367807880863189 -0.20345752952089671 0 -0.30717411826112789 -0.1920401195635244 0 -0.29386082525749962 -0.1848532680646672 0 -0.29367807880863189 -0.20345752952089671 0 -0.30717411826112789 -0.1920401195635244 0 -0.3129652712195421 -0.2114706657937139 0 -0.30551265723832022 -0.17938492804960809 0 -0.29677214667513702 -0.1677956617280158 0 -0.29386082525749962 -0.1848532680646672 0 -0.30717411826112789 -0.1920401195635244 0 -0.30551265723832022 -0.17938492804960809 0 -0.29386082525749962 -0.1848532680646672 0 -0.30717411826112789 -0.1920401195635244 0 -0.30551265723832022 -0.17938492804960809 0 -0.31489114071409963 -0.18333745750317351 0 -0.30551265723832022 -0.17938492804960809 0 -0.31220508881165993 -0.16846949012138551 0 -0.29677214667513702 -0.1677956617280158 0 -0.30551265723832022 -0.17938492804960809 0 -0.31220508881165993 -0.16846949012138551 0 -0.31489114071409963 -0.18333745750317351 0 -0.31220508881165993 -0.16846949012138551 0 -0.2949530938874384 -0.15245549241185349 0 -0.31498630483336881 -0.15987728715749039 0 -0.31220508881165993 -0.16846949012138551 0 -0.2949530938874384 -0.15245549241185349 0 -0.31220508881165993 -0.16846949012138551 0 -0.29677214667513702 -0.1677956617280158 0 -0.2949530938874384 -0.15245549241185349 0 -0.28185309534712533 -0.17180211342061449 0 -0.28553133547959519 -0.14896497073588499 0 -0.29677214667513702 -0.1677956617280158 0 -0.28185309534712533 -0.17180211342061449 0 -0.2949530938874384 -0.15245549241185349 0 -0.28185309534712533 -0.17180211342061449 0 -0.28553133547959519 -0.14896497073588499 0 -0.2949530938874384 -0.15245549241185349 0 -0.27817485521465529 -0.19463925610534399 0 -0.28185309534712533 -0.17180211342061449 0 -0.29386082525749962 -0.1848532680646672 0 -0.29677214667513702 -0.1677956617280158 0 -0.28185309534712533 -0.17180211342061449 0 -0.29386082525749962 -0.1848532680646672 0 -0.27817485521465529 -0.19463925610534399 0 -0.28185309534712533 -0.17180211342061449 0 -0.27817485521465529 -0.19463925610534399 0 -0.28185309534712533 -0.17180211342061449 0 -0.26629571781906192 -0.18034234132084431 0 -0.26629571781906192 -0.18034234132084431 0 -0.25029992488695979 -0.1782534950292988 0 -0.25761979100978533 -0.16665415002795461 0 -0.25644706280453389 -0.1995927939493197 0 -0.26629571781906192 -0.18034234132084431 0 -0.25029992488695979 -0.1782534950292988 0 -0.26629571781906192 -0.18034234132084431 0 -0.25761979100978533 -0.16665415002795461 0 -0.26933386928146391 -0.16300442301689841 0 -0.24825300788518309 -0.1555077779107997 0 -0.25761979100978533 -0.16665415002795461 0 -0.26108146703715113 -0.15708396540124031 0 -0.25761979100978533 -0.16665415002795461 0 -0.26108146703715113 -0.15708396540124031 0 -0.26933386928146391 -0.16300442301689841 0 -0.28185309534712533 -0.17180211342061449 0 -0.27598770130958522 -0.15333886838191951 0 -0.28553133547959519 -0.14896497073588499 0 -0.28185309534712533 -0.17180211342061449 0 -0.26629571781906192 -0.18034234132084431 0 -0.26933386928146391 -0.16300442301689841 0 -0.26108146703715113 -0.15708396540124031 0 -0.26933386928146391 -0.16300442301689841 0 -0.26726071412102442 -0.15087550168963329 0 -0.28185309534712533 -0.17180211342061449 0 -0.26933386928146391 -0.16300442301689841 0 -0.27598770130958522 -0.15333886838191951 0 -0.27598770130958522 -0.15333886838191951 0 -0.271177428866754 -0.14364721368904659 0 -0.28553133547959519 -0.14896497073588499 0 -0.271177428866754 -0.14364721368904659 0 -0.28662611268527088 -0.1421678116724244 0 -0.28553133547959519 -0.14896497073588499 0 -0.271177428866754 -0.14364721368904659 0 -0.28553133547959519 -0.14896497073588499 0 -0.271177428866754 -0.14364721368904659 0 -0.26726071412102442 -0.15087550168963329 0 -0.25891484533836889 -0.13910423861407881 0 -0.271177428866754 -0.14364721368904659 0 -0.26726071412102442 -0.15087550168963329 0 -0.27598770130958522 -0.15333886838191951 0 -0.271177428866754 -0.14364721368904659 0 -0.26726071412102442 -0.15087550168963329 0 -0.26933386928146391 -0.16300442301689841 0 -0.27598770130958522 -0.15333886838191951 0 -0.26726071412102442 -0.15087550168963329 0 -0.2405789555143194 -0.1375116727892334 0 -0.25601133851015478 -0.1487044986697981 0 -0.25891484533836889 -0.13910423861407881 0 -0.26108146703715113 -0.15708396540124031 0 -0.26726071412102442 -0.15087550168963329 0 -0.25601133851015478 -0.1487044986697981 0 -0.271177428866754 -0.14364721368904659 0 -0.25891484533836889 -0.13910423861407881 0 -0.26726071412102442 -0.15087550168963329 0 -0.25601133851015478 -0.1487044986697981 0 -0.25891484533836889 -0.13910423861407881 0 -0.24825300788518309 -0.1555077779107997 0 -0.26108146703715113 -0.15708396540124031 0 -0.25601133851015478 -0.1487044986697981 0 -0.26009747564537128 -0.1202716976192799 0 -0.25054446979338107 -0.12912519928877991 0 -0.26697405985724948 -0.1304210152969853 0 -0.25054446979338107 -0.12912519928877991 0 -0.25891484533836889 -0.13910423861407881 0 -0.26697405985724948 -0.1304210152969853 0 -0.2405789555143194 -0.1375116727892334 0 -0.25054446979338107 -0.12912519928877991 0 -0.25891484533836889 -0.13910423861407881 0 -0.28368315898475188 -0.1205679176925603 0 -0.271177428866754 -0.14364721368904659 0 -0.26697405985724948 -0.1304210152969853 0 -0.28368315898475188 -0.1205679176925603 0 -0.271177428866754 -0.14364721368904659 0 -0.28514813781506088 -0.1345929107172644 0 -0.28368315898475188 -0.1205679176925603 0 -0.271177428866754 -0.14364721368904659 0 -0.271177428866754 -0.14364721368904659 0 -0.25891484533836889 -0.13910423861407881 0 -0.26697405985724948 -0.1304210152969853 0 -0.271177428866754 -0.14364721368904659 0 -0.28514813781506088 -0.1345929107172644 0 -0.28662611268527088 -0.1421678116724244 0 -0.28368315898475188 -0.1205679176925603 0 -0.29492821592448881 -0.13453805291007029 0 -0.28514813781506088 -0.1345929107172644 0 -0.28368315898475188 -0.1205679176925603 0 -0.29492821592448881 -0.13453805291007029 0 -0.30140371581860798 -0.1292511186866305 0 -0.29492821592448881 -0.13453805291007029 0 -0.2912775948780732 -0.1389862943003273 0 -0.28514813781506088 -0.1345929107172644 0 -0.29657756063899582 -0.140013172184488 0 -0.29492821592448881 -0.13453805291007029 0 -0.2912775948780732 -0.1389862943003273 0 -0.2912775948780732 -0.1389862943003273 0 -0.28514813781506088 -0.1345929107172644 0 -0.28662611268527088 -0.1421678116724244 0 -0.28662611268527088 -0.1421678116724244 0 -0.28553133547959519 -0.14896497073588499 0 -0.28662611268527088 -0.1421678116724244 0 -0.28553133547959519 -0.14896497073588499 0 -0.28937009998544028 -0.14621975116982991 0 -0.28553133547959519 -0.14896497073588499 0 -0.2922536480049423 -0.1499497578362777 0 -0.28937009998544028 -0.14621975116982991 0 -0.28553133547959519 -0.14896497073588499 0 -0.2922536480049423 -0.1499497578362777 0 -0.2949530938874384 -0.15245549241185349 0 -0.28553133547959519 -0.14896497073588499 0 -0.2949530938874384 -0.15245549241185349 0 -0.2922536480049423 -0.1499497578362777 0 -0.2949530938874384 -0.15245549241185349 0 -0.29617843115691228 -0.14802272380236281 0 -0.2922536480049423 -0.1499497578362777 0 -0.2949530938874384 -0.15245549241185349 0 -0.2912775948780732 -0.1389862943003273 0 -0.28662611268527088 -0.1421678116724244 0 -0.29310794732654949 -0.1436195240173895 0 -0.28662611268527088 -0.1421678116724244 0 -0.28937009998544028 -0.14621975116982991 0 -0.29310794732654949 -0.1436195240173895 0 -0.2922536480049423 -0.1499497578362777 0 -0.28937009998544028 -0.14621975116982991 0 -0.29310794732654949 -0.1436195240173895 0 -0.29617843115691228 -0.14802272380236281 0 -0.29310794732654949 -0.1436195240173895 0 -0.29956135480037449 -0.14472193576336759 0 -0.2922536480049423 -0.1499497578362777 0 -0.29617843115691228 -0.14802272380236281 0 -0.29310794732654949 -0.1436195240173895 0 -0.29657756063899582 -0.140013172184488 0 -0.2912775948780732 -0.1389862943003273 0 -0.29310794732654949 -0.1436195240173895 0 -0.29657756063899582 -0.140013172184488 0 -0.29310794732654949 -0.1436195240173895 0 -0.29956135480037449 -0.14472193576336759 0 -0.29956135480037449 -0.14472193576336759 0 -0.30554397810907652 -0.146919348525368 0 -0.30456114821214081 -0.13888567554976469 0 -0.2949530938874384 -0.15245549241185349 0 -0.30620642865757891 -0.15285211384445899 0 -0.31498630483336881 -0.15987728715749039 0 -0.2949530938874384 -0.15245549241185349 0 -0.31498630483336881 -0.15987728715749039 0 -0.29657756063899582 -0.140013172184488 0 -0.29956135480037449 -0.14472193576336759 0 -0.30456114821214081 -0.13888567554976469 0 -0.29617843115691228 -0.14802272380236281 0 -0.29956135480037449 -0.14472193576336759 0 -0.30052761464898298 -0.14908162957255741 0 -0.29956135480037449 -0.14472193576336759 0 -0.30052761464898298 -0.14908162957255741 0 -0.30554397810907652 -0.146919348525368 0 -0.2949530938874384 -0.15245549241185349 0 -0.30052761464898298 -0.14908162957255741 0 -0.30620642865757891 -0.15285211384445899 0 -0.2949530938874384 -0.15245549241185349 0 -0.29617843115691228 -0.14802272380236281 0 -0.30052761464898298 -0.14908162957255741 0 -0.30052761464898298 -0.14908162957255741 0 -0.30620642865757891 -0.15285211384445899 0 -0.30554397810907652 -0.146919348525368 0 -0.30620642865757891 -0.15285211384445899 0 -0.31211863317072019 -0.1538765410016501 0 -0.31498630483336881 -0.15987728715749039 0 -0.30620642865757891 -0.15285211384445899 0 -0.31071230574427161 -0.15022116190891349 0 -0.30554397810907652 -0.146919348525368 0 -0.30620642865757891 -0.15285211384445899 0 -0.31071230574427161 -0.15022116190891349 0 -0.31211863317072019 -0.1538765410016501 0 -0.31246836027323899 -0.14497521722301901 0 -0.31246708178415561 -0.13872402753426441 0 -0.30456114821214081 -0.13888567554976469 0 -0.30554397810907652 -0.146919348525368 0 -0.31246836027323899 -0.14497521722301901 0 -0.30456114821214081 -0.13888567554976469 0 -0.31071230574427161 -0.15022116190891349 0 -0.30554397810907652 -0.146919348525368 0 -0.31246836027323899 -0.14497521722301901 0 -0.30140371581860798 -0.1292511186866305 0 -0.30456114821214081 -0.13888567554976469 0 -0.31280589771709483 -0.13181614145056869 0 -0.31246708178415561 -0.13872402753426441 0 -0.30456114821214081 -0.13888567554976469 0 -0.31280589771709483 -0.13181614145056869 0 -0.30807566230962469 -0.12087427087378499 0 -0.30140371581860798 -0.1292511186866305 0 -0.31280589771709483 -0.13181614145056869 0 -0.29657756063899582 -0.140013172184488 0 -0.29492821592448881 -0.13453805291007029 0 -0.30456114821214081 -0.13888567554976469 0 -0.29492821592448881 -0.13453805291007029 0 -0.30140371581860798 -0.1292511186866305 0 -0.30456114821214081 -0.13888567554976469 0 -0.3226930215385343 -0.13395567837890529 0 -0.31855308997834159 -0.13934265221991729 0 -0.32506280578504959 -0.14064102607364051 0 -0.3226930215385343 -0.13395567837890529 0 -0.32506280578504959 -0.14064102607364051 0 -0.33047387389575927 -0.1369340691945744 0 -0.3226930215385343 -0.13395567837890529 0 -0.32807010768985068 -0.12986880773923029 0 -0.33047387389575927 -0.1369340691945744 0 -0.32007374605487132 -0.12494213909402439 0 -0.33441303965894859 -0.1249452932850653 0 -0.32807010768985068 -0.12986880773923029 0 -0.32007374605487132 -0.12494213909402439 0 -0.3226930215385343 -0.13395567837890529 0 -0.32807010768985068 -0.12986880773923029 0 -0.32007374605487132 -0.12494213909402439 0 -0.3226930215385343 -0.13395567837890529 0 -0.31280589771709483 -0.13181614145056869 0 -0.30807566230962469 -0.12087427087378499 0 -0.32007374605487132 -0.12494213909402439 0 -0.31280589771709483 -0.13181614145056869 0 -0.3226930215385343 -0.13395567837890529 0 -0.31280589771709483 -0.13181614145056869 0 -0.31855308997834159 -0.13934265221991729 0 -0.31246708178415561 -0.13872402753426441 0 -0.31280589771709483 -0.13181614145056869 0 -0.31855308997834159 -0.13934265221991729 0 -0.31246836027323899 -0.14497521722301901 0 -0.31246708178415561 -0.13872402753426441 0 -0.31855308997834159 -0.13934265221991729 0 -0.31246836027323899 -0.14497521722301901 0 -0.31855308997834159 -0.13934265221991729 0 -0.32096396999162452 -0.14503749675666289 0 -0.31246836027323899 -0.14497521722301901 0 -0.31722412851074311 -0.15248258895007169 0 -0.32096396999162452 -0.14503749675666289 0 -0.31211863317072019 -0.1538765410016501 0 -0.31722412851074311 -0.15248258895007169 0 -0.31498630483336881 -0.15987728715749039 0 -0.31071230574427161 -0.15022116190891349 0 -0.31246836027323899 -0.14497521722301901 0 -0.31722412851074311 -0.15248258895007169 0 -0.31071230574427161 -0.15022116190891349 0 -0.31211863317072019 -0.1538765410016501 0 -0.31722412851074311 -0.15248258895007169 0 -0.32096396999162452 -0.14503749675666289 0 -0.32506280578504959 -0.14064102607364051 0 -0.33039285730051032 -0.1475567648151897 0 -0.31722412851074311 -0.15248258895007169 0 -0.32096396999162452 -0.14503749675666289 0 -0.33039285730051032 -0.1475567648151897 0 -0.31855308997834159 -0.13934265221991729 0 -0.32096396999162452 -0.14503749675666289 0 -0.32506280578504959 -0.14064102607364051 0 -0.33039285730051032 -0.1475567648151897 0 -0.33813688440009898 -0.15615522653291031 0 -0.34198145815712638 -0.1395953898376964 0 -0.32506280578504959 -0.14064102607364051 0 -0.33039285730051032 -0.1475567648151897 0 -0.33047387389575927 -0.1369340691945744 0 -0.31722412851074311 -0.15248258895007169 0 -0.33039285730051032 -0.1475567648151897 0 -0.33813688440009898 -0.15615522653291031 0 -0.33039285730051032 -0.1475567648151897 0 -0.34198145815712638 -0.1395953898376964 0 -0.33047387389575927 -0.1369340691945744 0 -0.33813688440009898 -0.15615522653291031 0 -0.34198145815712638 -0.1395953898376964 0 -0.34954987665533299 -0.15424548639031271 0 -0.34198145815712638 -0.1395953898376964 0 -0.3337346198504213 -0.1328358900141379 0 -0.33047387389575927 -0.1369340691945744 0 -0.32807010768985068 -0.12986880773923029 0 -0.3337346198504213 -0.1328358900141379 0 -0.33047387389575927 -0.1369340691945744 0 -0.33441303965894859 -0.1249452932850653 0 -0.32807010768985068 -0.12986880773923029 0 -0.3337346198504213 -0.1328358900141379 0 -0.33441303965894859 -0.1249452932850653 0 -0.34198145815712638 -0.1395953898376964 0 -0.34272140335036932 -0.124947120862287 0 -0.33441303965894859 -0.1249452932850653 0 -0.34198145815712638 -0.1395953898376964 0 -0.33441303965894859 -0.1249452932850653 0 -0.34198145815712638 -0.1395953898376964 0 -0.3337346198504213 -0.1328358900141379 0 -0.34272140335036932 -0.124947120862287 0 -0.35413341494744088 -0.14719959415449421 0 -0.34272140335036932 -0.124947120862287 0 -0.35599685079288468 -0.13305792836185981 0 -0.35413341494744088 -0.14719959415449421 0 -0.34272140335036932 -0.124947120862287 0 -0.34198145815712638 -0.1395953898376964 0 -0.35413341494744088 -0.14719959415449421 0 -0.34272140335036932 -0.124947120862287 0 -0.36893450279197471 -0.1249528869149899 0 -0.35599685079288468 -0.13305792836185981 0 -0.35599685079288468 -0.13305792836185981 0 -0.36484224068191412 -0.14157370685753851 0 -0.35413341494744088 -0.14719959415449421 0 -0.36893450279197471 -0.1249528869149899 0 -0.35599685079288468 -0.13305792836185981 0 -0.36484224068191412 -0.14157370685753851 0 -0.36893450279197471 -0.1249528869149899 0 -0.36484224068191412 -0.14157370685753851 0 -0.3777566452334315 -0.14913711856379011 0 -0.3679743334396014 -0.15408772885571331 0 -0.37696591512674532 -0.1609827341034305 0 -0.3777566452334315 -0.14913711856379011 0 -0.3679743334396014 -0.15408772885571331 0 -0.36484224068191412 -0.14157370685753851 0 -0.3777566452334315 -0.14913711856379011 0 -0.3679743334396014 -0.15408772885571331 0 -0.36484224068191412 -0.14157370685753851 0 -0.35413341494744088 -0.14719959415449421 0 -0.35413341494744088 -0.14719959415449421 0 -0.34954987665533299 -0.15424548639031271 0 -0.35445721343992059 -0.1619675590177023 0 -0.34198145815712638 -0.1395953898376964 0 -0.34954987665533299 -0.15424548639031271 0 -0.34198145815712638 -0.1395953898376964 0 -0.35413341494744088 -0.14719959415449421 0 -0.34954987665533299 -0.15424548639031271 0 -0.33813688440009898 -0.15615522653291031 0 -0.34954987665533299 -0.15424548639031271 0 -0.34648545334868369 -0.16311147615285329 0 -0.34648545334868369 -0.16311147615285329 0 -0.35788001493839611 -0.17576831496813999 0 -0.33501951577929873 -0.16729908190312789 0 -0.34954987665533299 -0.15424548639031271 0 -0.34648545334868369 -0.16311147615285329 0 -0.35445721343992059 -0.1619675590177023 0 -0.35413341494744088 -0.14719959415449421 0 -0.35445721343992059 -0.1619675590177023 0 -0.36554542654456429 -0.16945206744667471 0 -0.35788001493839611 -0.17576831496813999 0 -0.33501951577929873 -0.16729908190312789 0 -0.34648545334868369 -0.16311147615285329 0 -0.35445721343992059 -0.1619675590177023 0 -0.35788001493839611 -0.17576831496813999 0 -0.35445721343992059 -0.1619675590177023 0 -0.36554542654456429 -0.16945206744667471 0 -0.35788001493839611 -0.17576831496813999 0 -0.35413341494744088 -0.14719959415449421 0 -0.36554542654456429 -0.16945206744667471 0 -0.3679743334396014 -0.15408772885571331 0 -0.35413341494744088 -0.14719959415449421 0 -0.36554542654456429 -0.16945206744667471 0 -0.3679743334396014 -0.15408772885571331 0 -0.36554542654456429 -0.16945206744667471 0 -0.37696591512674532 -0.1609827341034305 0 -0.37016556171889331 -0.18126023377528719 0 -0.3536864721015115 -0.18284124587119119 0 -0.37235342842372432 -0.19838340983925429 0 -0.36554542654456429 -0.16945206744667471 0 -0.37016556171889331 -0.18126023377528719 0 -0.38426477739238413 -0.17192867897072969 0 -0.37016556171889331 -0.18126023377528719 0 -0.3536864721015115 -0.18284124587119119 0 -0.35788001493839611 -0.17576831496813999 0 -0.36554542654456429 -0.16945206744667471 0 -0.37016556171889331 -0.18126023377528719 0 -0.35788001493839611 -0.17576831496813999 0 -0.3536864721015115 -0.18284124587119119 0 -0.33501951577929873 -0.16729908190312789 0 -0.3536864721015115 -0.18284124587119119 0 -0.35788001493839611 -0.17576831496813999 0 -0.33501951577929873 -0.16729908190312789 0 -0.3536864721015115 -0.18284124587119119 0 -0.32945708373588178 -0.18448348783091689 0 -0.33501951577929873 -0.16729908190312789 0 -0.31722412851074311 -0.15248258895007169 0 -0.33813688440009898 -0.15615522653291031 0 -0.33501951577929873 -0.16729908190312789 0 -0.33813688440009898 -0.15615522653291031 0 -0.34648545334868369 -0.16311147615285329 0 -0.33501951577929873 -0.16729908190312789 0 -0.31722412851074311 -0.15248258895007169 0 -0.33501951577929873 -0.16729908190312789 0 -0.31722412851074311 -0.15248258895007169 0 -0.33501951577929873 -0.16729908190312789 0 -0.31498630483336881 -0.15987728715749039 0 -0.31220508881165993 -0.16846949012138551 0 -0.33501951577929873 -0.16729908190312789 0 -0.31498630483336881 -0.15987728715749039 0 -0.33501951577929873 -0.16729908190312789 0 -0.31498630483336881 -0.15987728715749039 0 -0.31220508881165993 -0.16846949012138551 0 -0.32945708373588178 -0.18448348783091689 0 -0.31489114071409963 -0.18333745750317351 0 -0.31220508881165993 -0.16846949012138551 0 -0.32945708373588178 -0.18448348783091689 0 -0.31220508881165993 -0.16846949012138551 0 -0.32945708373588178 -0.18448348783091689 0 -0.33501951577929873 -0.16729908190312789 0 -0.32945708373588178 -0.18448348783091689 0 -0.31489114071409963 -0.18333745750317351 0 -0.32010675552350842 -0.19230926195043291 0 -0.30717411826112789 -0.1920401195635244 0 -0.32010675552350842 -0.19230926195043291 0 -0.3129652712195421 -0.2114706657937139 0 -0.32945708373588178 -0.18448348783091689 0 -0.32010675552350842 -0.19230926195043291 0 -0.32566449460190838 -0.20326261146105551 0 -0.32010675552350842 -0.19230926195043291 0 -0.3129652712195421 -0.2114706657937139 0 -0.32566449460190838 -0.20326261146105551 0 -0.30717411826112789 -0.1920401195635244 0 -0.31489114071409963 -0.18333745750317351 0 -0.32010675552350842 -0.19230926195043291 0 -0.3129652712195421 -0.2114706657937139 0 -0.32566449460190838 -0.20326261146105551 0 -0.33208474862113468 -0.21873250337862821 0 -0.33208474862113468 -0.21873250337862821 0 -0.34670907866010381 -0.20049748554044841 0 -0.34896881396179619 -0.22434135344573131 0 -0.32566449460190838 -0.20326261146105551 0 -0.33208474862113468 -0.21873250337862821 0 -0.34670907866010381 -0.20049748554044841 0 -0.3536864721015115 -0.18284124587119119 0 -0.32945708373588178 -0.18448348783091689 0 -0.34670907866010381 -0.20049748554044841 0 -0.32945708373588178 -0.18448348783091689 0 -0.32566449460190838 -0.20326261146105551 0 -0.34670907866010381 -0.20049748554044841 0 -0.32945708373588178 -0.18448348783091689 0 -0.34670907866010381 -0.20049748554044841 0 -0.3536864721015115 -0.18284124587119119 0 -0.35917751319241631 -0.19955840612521841 0 -0.34670907866010381 -0.20049748554044841 0 -0.3536864721015115 -0.18284124587119119 0 -0.37235342842372432 -0.19838340983925429 0 -0.3536864721015115 -0.18284124587119119 0 -0.35917751319241631 -0.19955840612521841 0 -0.37235342842372432 -0.19838340983925429 0 -0.37235342842372432 -0.19838340983925429 0 -0.36396107358432572 -0.21651148324997979 0 -0.37772562505684643 -0.22219038377974651 0 -0.35917751319241631 -0.19955840612521841 0 -0.37235342842372432 -0.19838340983925429 0 -0.36396107358432572 -0.21651148324997979 0 -0.34670907866010381 -0.20049748554044841 0 -0.36396107358432572 -0.21651148324997979 0 -0.34896881396179619 -0.22434135344573131 0 -0.34670907866010381 -0.20049748554044841 0 -0.36396107358432572 -0.21651148324997979 0 -0.35917751319241631 -0.19955840612521841 0 -0.34670907866010381 -0.20049748554044841 0 -0.36396107358432572 -0.21651148324997979 0 -0.34896881396179619 -0.22434135344573131 0 -0.36764811873304098 -0.23322730847002751 0 -0.35305879752332059 -0.24486073726717009 0 -0.36396107358432572 -0.21651148324997979 0 -0.36764811873304098 -0.23322730847002751 0 -0.37772562505684643 -0.22219038377974651 0 -0.36396107358432572 -0.21651148324997979 0 -0.34896881396179619 -0.22434135344573131 0 -0.36764811873304098 -0.23322730847002751 0 -0.37533687834285862 -0.25417213976024849 0 -0.36764811873304098 -0.23322730847002751 0 -0.35305879752332059 -0.24486073726717009 0 -0.34896881396179619 -0.22434135344573131 0 -0.35305879752332059 -0.24486073726717009 0 -0.33568364413539042 -0.23615154195274179 0 -0.33623326073948312 -0.25365348176558788 0 -0.33568364413539042 -0.23615154195274179 0 -0.32213598881581812 -0.2442700999577708 0 -0.33623326073948312 -0.25365348176558788 0 -0.35305879752332059 -0.24486073726717009 0 -0.33568364413539042 -0.23615154195274179 0 -0.33208474862113468 -0.21873250337862821 0 -0.33568364413539042 -0.23615154195274179 0 -0.32219037366776621 -0.22897372759534659 0 -0.33208474862113468 -0.21873250337862821 0 -0.34896881396179619 -0.22434135344573131 0 -0.33568364413539042 -0.23615154195274179 0 -0.30829656048542242 -0.23127198481015249 0 -0.3129652712195421 -0.2114706657937139 0 -0.32219037366776621 -0.22897372759534659 0 -0.3129652712195421 -0.2114706657937139 0 -0.33208474862113468 -0.21873250337862821 0 -0.32219037366776621 -0.22897372759534659 0 -0.30769212114973271 -0.24578220261295139 0 -0.30829656048542242 -0.23127198481015249 0 -0.32213598881581812 -0.2442700999577708 0 -0.30829656048542242 -0.23127198481015249 0 -0.32219037366776621 -0.22897372759534659 0 -0.32213598881581812 -0.2442700999577708 0 -0.31968345090478489 -0.25798973640781447 0 -0.30769212114973271 -0.24578220261295139 0 -0.32213598881581812 -0.2442700999577708 0 -0.33568364413539042 -0.23615154195274179 0 -0.32219037366776621 -0.22897372759534659 0 -0.32213598881581812 -0.2442700999577708 0 -0.43598079583492633 -0.24721882136819351 0 -0.42311134176242837 -0.2304528026464861 0 -0.41615383063077721 -0.2466412503256647 0 -0.43598079583492633 -0.24721882136819351 0 -0.42311134176242837 -0.2304528026464861 0 -0.43908324849522451 -0.2287046610080686 0 -0.42311134176242837 -0.2304528026464861 0 -0.41411505562058892 -0.2091502018577929 0 -0.42948217154750851 -0.21815887616964899 0 -0.42311134176242837 -0.2304528026464861 0 -0.42948217154750851 -0.21815887616964899 0 -0.43908324849522451 -0.2287046610080686 0 -0.42948217154750851 -0.21815887616964899 0 -0.43955036875351089 -0.21658504913102711 0 -0.43908324849522451 -0.2287046610080686 0 -0.40619246279161347 -0.2313797712556602 0 -0.41411505562058892 -0.2091502018577929 0 -0.42311134176242837 -0.2304528026464861 0 -0.40619246279161347 -0.2313797712556602 0 -0.41411505562058892 -0.2091502018577929 0 -0.39826986996263802 -0.25360934065352753 0 -0.41615383063077721 -0.2466412503256647 0 -0.40619246279161347 -0.2313797712556602 0 -0.42311134176242837 -0.2304528026464861 0 -0.41615383063077721 -0.2466412503256647 0 -0.40619246279161347 -0.2313797712556602 0 -0.39826986996263802 -0.25360934065352753 0 -0.38632210934187061 -0.2364082567837591 0 -0.40619246279161347 -0.2313797712556602 0 -0.39826986996263802 -0.25360934065352753 0 -0.40619246279161347 -0.2313797712556602 0 -0.37533687834285862 -0.25417213976024849 0 -0.36764811873304098 -0.23322730847002751 0 -0.38632210934187061 -0.2364082567837591 0 -0.37533687834285862 -0.25417213976024849 0 -0.39826986996263802 -0.25360934065352753 0 -0.38632210934187061 -0.2364082567837591 0 -0.36764811873304098 -0.23322730847002751 0 -0.38632210934187061 -0.2364082567837591 0 -0.37772562505684643 -0.22219038377974651 0 -0.38632210934187061 -0.2364082567837591 0 -0.37772562505684643 -0.22219038377974651 0 -0.39102038474593709 -0.2139255738073175 0 -0.38632210934187061 -0.2364082567837591 0 -0.40619246279161347 -0.2313797712556602 0 -0.39102038474593709 -0.2139255738073175 0 -0.39102038474593709 -0.2139255738073175 0 -0.40351751052996843 -0.1957217498792192 0 -0.41411505562058892 -0.2091502018577929 0 -0.40619246279161347 -0.2313797712556602 0 -0.39102038474593709 -0.2139255738073175 0 -0.41411505562058892 -0.2091502018577929 0 -0.37235342842372432 -0.19838340983925429 0 -0.39102038474593709 -0.2139255738073175 0 -0.37235342842372432 -0.19838340983925429 0 -0.37772562505684643 -0.22219038377974651 0 -0.39102038474593709 -0.2139255738073175 0 -0.37016556171889331 -0.18126023377528719 0 -0.37235342842372432 -0.19838340983925429 0 -0.38726325091278008 -0.18918768555573329 0 -0.37235342842372432 -0.19838340983925429 0 -0.39102038474593709 -0.2139255738073175 0 -0.38726325091278008 -0.18918768555573329 0 -0.38726325091278008 -0.18918768555573329 0 -0.40351751052996843 -0.1957217498792192 0 -0.40315121292097328 -0.17942465571532731 0 -0.39102038474593709 -0.2139255738073175 0 -0.38726325091278008 -0.18918768555573329 0 -0.40351751052996843 -0.1957217498792192 0 -0.41411505562058892 -0.2091502018577929 0 -0.42203764844956237 -0.18692063245992491 0 -0.40351751052996843 -0.1957217498792192 0 -0.41411505562058892 -0.2091502018577929 0 -0.42203764844956237 -0.18692063245992491 0 -0.41411505562058892 -0.2091502018577929 0 -0.42948217154750851 -0.21815887616964899 0 -0.43155084310578928 -0.2059016662048701 0 -0.42948217154750851 -0.21815887616964899 0 -0.43155084310578928 -0.2059016662048701 0 -0.43955036875351089 -0.21658504913102711 0 -0.42203764844956237 -0.18692063245992491 0 -0.44484374680150301 -0.19597231310248839 0 -0.41411505562058892 -0.2091502018577929 0 -0.43155084310578928 -0.2059016662048701 0 -0.42203764844956237 -0.18692063245992491 0 -0.43155084310578928 -0.2059016662048701 0 -0.42203764844956237 -0.18692063245992491 0 -0.44484374680150301 -0.19597231310248839 0 -0.42203764844956237 -0.18692063245992491 0 -0.44134853753678083 -0.18159229851429221 0 -0.44484374680150301 -0.19597231310248839 0 -0.42203764844956237 -0.18692063245992491 0 -0.42880774722037651 -0.1679247830322266 0 -0.42203764844956237 -0.18692063245992491 0 -0.42880774722037651 -0.1679247830322266 0 -0.44134853753678083 -0.18159229851429221 0 -0.42880774722037651 -0.1679247830322266 0 -0.43557784599118871 -0.14892893360452769 0 -0.44631139980808621 -0.1631836851414229 0 -0.42880774722037651 -0.1679247830322266 0 -0.43557784599118871 -0.14892893360452769 0 -0.42880774722037651 -0.1679247830322266 0 -0.41236960909879722 -0.16540507401591409 0 -0.42079860369606048 -0.15043713941075901 0 -0.42203764844956237 -0.18692063245992491 0 -0.42880774722037651 -0.1679247830322266 0 -0.41236960909879722 -0.16540507401591409 0 -0.40351751052996843 -0.1957217498792192 0 -0.42203764844956237 -0.18692063245992491 0 -0.40315121292097328 -0.17942465571532731 0 -0.42203764844956237 -0.18692063245992491 0 -0.40315121292097328 -0.17942465571532731 0 -0.42203764844956237 -0.18692063245992491 0 -0.41236960909879722 -0.16540507401591409 0 -0.40315121292097328 -0.17942465571532731 0 -0.38726325091278008 -0.18918768555573329 0 -0.40315121292097328 -0.17942465571532731 0 -0.38426477739238413 -0.17192867897072969 0 -0.40315121292097328 -0.17942465571532731 0 -0.38426477739238413 -0.17192867897072969 0 -0.37016556171889331 -0.18126023377528719 0 -0.38726325091278008 -0.18918768555573329 0 -0.38426477739238413 -0.17192867897072969 0 -0.36554542654456429 -0.16945206744667471 0 -0.38426477739238413 -0.17192867897072969 0 -0.37696591512674532 -0.1609827341034305 0 -0.38426477739238413 -0.17192867897072969 0 -0.37696591512674532 -0.1609827341034305 0 -0.39230106084837368 -0.15838844905994759 0 -0.40315121292097328 -0.17942465571532731 0 -0.38426477739238413 -0.17192867897072969 0 -0.39230106084837368 -0.15838844905994759 0 -0.41236960909879722 -0.16540507401591409 0 -0.39230106084837368 -0.15838844905994759 0 -0.40587711449475489 -0.1449624873806776 0 -0.41236960909879722 -0.16540507401591409 0 -0.40315121292097328 -0.17942465571532731 0 -0.39230106084837368 -0.15838844905994759 0 -0.39230106084837368 -0.15838844905994759 0 -0.39162863389564362 -0.14105630786861159 0 -0.40587711449475489 -0.1449624873806776 0 -0.39230106084837368 -0.15838844905994759 0 -0.39162863389564362 -0.14105630786861159 0 -0.3777566452334315 -0.14913711856379011 0 -0.37696591512674532 -0.1609827341034305 0 -0.39230106084837368 -0.15838844905994759 0 -0.3777566452334315 -0.14913711856379011 0 -0.36893450279197471 -0.1249528869149899 0 -0.39162863389564362 -0.14105630786861159 0 -0.3777566452334315 -0.14913711856379011 0 -0.36893450279197471 -0.1249528869149899 0 -0.39162863389564362 -0.14105630786861159 0 -0.39514760223357998 -0.1249586529677193 0 -0.39162863389564362 -0.14105630786861159 0 -0.40587711449475489 -0.1449624873806776 0 -0.39514760223357998 -0.1249586529677193 0 -0.40587711449475489 -0.1449624873806776 0 -0.39514760223357998 -0.1249586529677193 0 -0.42136070167518519 -0.1249644190204488 0 -0.40587711449475489 -0.1449624873806776 0 -0.42079860369606048 -0.15043713941075901 0 -0.42136070167518519 -0.1249644190204488 0 -0.41236960909879722 -0.16540507401591409 0 -0.40587711449475489 -0.1449624873806776 0 -0.42079860369606048 -0.15043713941075901 0 -0.42079860369606048 -0.15043713941075901 0 -0.43557784599118871 -0.14892893360452769 0 -0.42136070167518519 -0.1249644190204488 0 -0.42880774722037651 -0.1679247830322266 0 -0.42079860369606048 -0.15043713941075901 0 -0.43557784599118871 -0.14892893360452769 0 -0.43557784599118871 -0.14892893360452769 0 -0.42136070167518519 -0.1249644190204488 0 -0.44757380111679052 -0.12497018507317829 0 -0.43557784599118871 -0.14892893360452769 0 -0.45596445488588 -0.14427568033770541 0 -0.44757380111679052 -0.12497018507317829 0 -0.43557784599118871 -0.14892893360452769 0 -0.45596445488588 -0.14427568033770541 0 -0.44631139980808621 -0.1631836851414229 0 -0.45596445488588 -0.14427568033770541 0 -0.46278066629215481 -0.1610158872753634 0 -0.44631139980808621 -0.1631836851414229 0 -0.45596445488588 -0.14427568033770541 0 -0.47930750267908417 -0.1480635854121114 0 -0.46278066629215481 -0.1610158872753634 0 -0.45596445488588 -0.14427568033770541 0 -0.44757380111679052 -0.12497018507317829 0 -0.47378690055839578 -0.1249759511259078 0 -0.48827360080937021 -0.13531742911399189 0 -0.47930750267908417 -0.1480635854121114 0 -0.47378690055839578 -0.1249759511259078 0 -0.45596445488588 -0.14427568033770541 0 -0.47930750267908417 -0.1480635854121114 0 -0.47378690055839578 -0.1249759511259078 0 -0.48827360080937021 -0.13531742911399189 0 -0.5 -0.14324846273931111 0 -0.50000000000000111 -0.12498171717863731 0 -0.48827360080937021 -0.13531742911399189 0 -0.47378690055839578 -0.1249759511259078 0 -0.50000000000000111 -0.12498171717863731 0 -0.5 -0.14324846273931111 0 -0.47930750267908417 -0.1480635854121114 0 -0.49999999999999961 -0.161515208299985 0 -0.48827360080937021 -0.13531742911399189 0 -0.5 -0.14324846273931111 0 -0.47930750267908417 -0.1480635854121114 0 -0.47930750267908417 -0.1480635854121114 0 -0.47738728335761421 -0.1682509267597351 0 -0.46278066629215481 -0.1610158872753634 0 -0.47738728335761421 -0.1682509267597351 0 -0.49999999999999961 -0.161515208299985 0 -0.48839409620634278 -0.18039624849769001 0 -0.49999999999999961 -0.161515208299985 0 -0.48839409620634278 -0.18039624849769001 0 -0.47930750267908417 -0.1480635854121114 0 -0.47738728335761421 -0.1682509267597351 0 -0.49999999999999961 -0.161515208299985 0 -0.49999999999999961 -0.161515208299985 0 -0.5 -0.18618779176616679 0 -0.48839409620634278 -0.18039624849769001 0 -0.5 -0.18618779176616679 0 -0.48839409620634278 -0.18039624849769001 0 -0.48957789370491162 -0.19386933705848941 0 -0.47738728335761421 -0.1682509267597351 0 -0.48839409620634278 -0.18039624849769001 0 -0.47328693949397721 -0.18411760774338479 0 -0.47738728335761421 -0.1682509267597351 0 -0.47328693949397721 -0.18411760774338479 0 -0.45860677246597031 -0.17520894370368309 0 -0.47328693949397721 -0.18411760774338479 0 -0.45860677246597031 -0.17520894370368309 0 -0.45906836497473352 -0.19043479360484361 0 -0.47738728335761421 -0.1682509267597351 0 -0.45860677246597031 -0.17520894370368309 0 -0.46278066629215481 -0.1610158872753634 0 -0.45860677246597031 -0.17520894370368309 0 -0.46278066629215481 -0.1610158872753634 0 -0.44631139980808621 -0.1631836851414229 0 -0.42880774722037651 -0.1679247830322266 0 -0.44631139980808621 -0.1631836851414229 0 -0.44134853753678083 -0.18159229851429221 0 -0.45860677246597031 -0.17520894370368309 0 -0.44631139980808621 -0.1631836851414229 0 -0.44134853753678083 -0.18159229851429221 0 -0.45860677246597031 -0.17520894370368309 0 -0.44134853753678083 -0.18159229851429221 0 -0.45906836497473352 -0.19043479360484361 0 -0.44134853753678083 -0.18159229851429221 0 -0.45906836497473352 -0.19043479360484361 0 -0.44134853753678083 -0.18159229851429221 0 -0.44484374680150301 -0.19597231310248839 0 -0.45906836497473352 -0.19043479360484361 0 -0.43155084310578928 -0.2059016662048701 0 -0.44484374680150301 -0.19597231310248839 0 -0.44343463088850471 -0.20721188330797369 0 -0.43155084310578928 -0.2059016662048701 0 -0.44343463088850471 -0.20721188330797369 0 -0.43955036875351089 -0.21658504913102711 0 -0.44343463088850471 -0.20721188330797369 0 -0.43955036875351089 -0.21658504913102711 0 -0.44966782191270221 -0.21345696714665749 0 -0.44966782191270221 -0.21345696714665749 0 -0.45691127413918359 -0.218140336649912 0 -0.44903912237987481 -0.22310222333220869 0 -0.43955036875351089 -0.21658504913102711 0 -0.44966782191270221 -0.21345696714665749 0 -0.44903912237987481 -0.22310222333220869 0 -0.44484374680150301 -0.19597231310248839 0 -0.44343463088850471 -0.20721188330797369 0 -0.45285363365211462 -0.2065344908709397 0 -0.44343463088850471 -0.20721188330797369 0 -0.44966782191270221 -0.21345696714665749 0 -0.45285363365211462 -0.2065344908709397 0 -0.45285363365211462 -0.2065344908709397 0 -0.4586721235044201 -0.2110072970525271 0 -0.46764984515344349 -0.20502399374505181 0 -0.44966782191270221 -0.21345696714665749 0 -0.45285363365211462 -0.2065344908709397 0 -0.4586721235044201 -0.2110072970525271 0 -0.44966782191270221 -0.21345696714665749 0 -0.4586721235044201 -0.2110072970525271 0 -0.45691127413918359 -0.218140336649912 0 -0.4586721235044201 -0.2110072970525271 0 -0.45691127413918359 -0.218140336649912 0 -0.46757130244775341 -0.21427176676618889 0 -0.4586721235044201 -0.2110072970525271 0 -0.46757130244775341 -0.21427176676618889 0 -0.46764984515344349 -0.20502399374505181 0 -0.44484374680150301 -0.19597231310248839 0 -0.46764984515344349 -0.20502399374505181 0 -0.45906836497473352 -0.19043479360484361 0 -0.44484374680150301 -0.19597231310248839 0 -0.45285363365211462 -0.2065344908709397 0 -0.46764984515344349 -0.20502399374505181 0 -0.45906836497473352 -0.19043479360484361 0 -0.47678819241268611 -0.1992772886953951 0 -0.44484374680150301 -0.19597231310248839 0 -0.46764984515344349 -0.20502399374505181 0 -0.46764984515344349 -0.20502399374505181 0 -0.45906836497473352 -0.19043479360484361 0 -0.47678819241268611 -0.1992772886953951 0 -0.47328693949397721 -0.18411760774338479 0 -0.45906836497473352 -0.19043479360484361 0 -0.47678819241268611 -0.1992772886953951 0 -0.48839409620634278 -0.18039624849769001 0 -0.47328693949397721 -0.18411760774338479 0 -0.47678819241268611 -0.1992772886953951 0 -0.48839409620634278 -0.18039624849769001 0 -0.47678819241268611 -0.1992772886953951 0 -0.47678819241268611 -0.1992772886953951 0 -0.48957789370491162 -0.19386933705848941 0 -0.50000000000000222 -0.21086037523234849 0 -0.48839409620634278 -0.18039624849769001 0 -0.47678819241268611 -0.1992772886953951 0 -0.48957789370491162 -0.19386933705848941 0 -0.5 -0.18618779176616679 0 -0.48957789370491162 -0.19386933705848941 0 -0.50000000000000222 -0.21086037523234849 0 -0.50000000000000222 -0.21086037523234849 0 -0.48101414991814051 -0.21220490785157131 0 -0.4775447229854059 -0.22535576830415929 0 -0.47678819241268611 -0.1992772886953951 0 -0.50000000000000222 -0.21086037523234849 0 -0.47678819241268611 -0.1992772886953951 0 -0.50000000000000222 -0.21086037523234849 0 -0.48101414991814051 -0.21220490785157131 0 -0.46757130244775341 -0.21427176676618889 0 -0.47678819241268611 -0.1992772886953951 0 -0.48101414991814051 -0.21220490785157131 0 -0.46757130244775341 -0.21427176676618889 0 -0.47678819241268611 -0.1992772886953951 0 -0.46757130244775341 -0.21427176676618889 0 -0.46764984515344349 -0.20502399374505181 0 -0.47678819241268611 -0.1992772886953951 0 -0.46757130244775341 -0.21427176676618889 0 -0.48101414991814051 -0.21220490785157131 0 -0.4775447229854059 -0.22535576830415929 0 -0.46757130244775341 -0.21427176676618889 0 -0.4775447229854059 -0.22535576830415929 0 -0.46571952953094348 -0.22577651025912229 0 -0.4775447229854059 -0.22535576830415929 0 -0.4726071657750785 -0.240360200228666 0 -0.45676275941016609 -0.23628729483617639 0 -0.50000000000000222 -0.21086037523234849 0 -0.4775447229854059 -0.22535576830415929 0 -0.48548116721245049 -0.23774912910784329 0 -0.50000000000000222 -0.21086037523234849 0 -0.5 -0.2401545466321974 0 -0.48548116721245049 -0.23774912910784329 0 -0.48050148842732221 -0.25523221810557922 0 -0.5 -0.2401545466321974 0 -0.48548116721245049 -0.23774912910784329 0 -0.48050148842732221 -0.25523221810557922 0 -0.4726071657750785 -0.240360200228666 0 -0.46267023581878858 -0.24817136713935201 0 -0.48050148842732221 -0.25523221810557922 0 -0.48548116721245049 -0.23774912910784329 0 -0.4726071657750785 -0.240360200228666 0 -0.4775447229854059 -0.22535576830415929 0 -0.48548116721245049 -0.23774912910784329 0 -0.4726071657750785 -0.240360200228666 0 -0.4726071657750785 -0.240360200228666 0 -0.46267023581878858 -0.24817136713935201 0 -0.45676275941016609 -0.23628729483617639 0 -0.46267023581878858 -0.24817136713935201 0 -0.45676275941016609 -0.23628729483617639 0 -0.45139902778349827 -0.24711062934306771 0 -0.4775447229854059 -0.22535576830415929 0 -0.45676275941016609 -0.23628729483617639 0 -0.46571952953094348 -0.22577651025912229 0 -0.4775447229854059 -0.22535576830415929 0 -0.45676275941016609 -0.23628729483617639 0 -0.46757130244775341 -0.21427176676618889 0 -0.45835441248282049 -0.22926624483698249 0 -0.45691127413918359 -0.218140336649912 0 -0.46757130244775341 -0.21427176676618889 0 -0.45835441248282049 -0.22926624483698249 0 -0.46757130244775341 -0.21427176676618889 0 -0.46571952953094348 -0.22577651025912229 0 -0.45835441248282049 -0.22926624483698249 0 -0.45691127413918359 -0.218140336649912 0 -0.45835441248282049 -0.22926624483698249 0 -0.44903912237987481 -0.22310222333220869 0 -0.45676275941016609 -0.23628729483617639 0 -0.46571952953094348 -0.22577651025912229 0 -0.45835441248282049 -0.22926624483698249 0 -0.45676275941016609 -0.23628729483617639 0 -0.45835441248282049 -0.22926624483698249 0 -0.44784406772060242 -0.23291584907632601 0 -0.45835441248282049 -0.22926624483698249 0 -0.44784406772060242 -0.23291584907632601 0 -0.44903912237987481 -0.22310222333220869 0 -0.44784406772060242 -0.23291584907632601 0 -0.44903912237987481 -0.22310222333220869 0 -0.43908324849522451 -0.2287046610080686 0 -0.43955036875351089 -0.21658504913102711 0 -0.44903912237987481 -0.22310222333220869 0 -0.43908324849522451 -0.2287046610080686 0 -0.43598079583492633 -0.24721882136819351 0 -0.44784406772060242 -0.23291584907632601 0 -0.43908324849522451 -0.2287046610080686 0 -0.43598079583492633 -0.24721882136819351 0 -0.45676275941016609 -0.23628729483617639 0 -0.45139902778349827 -0.24711062934306771 0 -0.43598079583492633 -0.24721882136819351 0 -0.45676275941016609 -0.23628729483617639 0 -0.44784406772060242 -0.23291584907632601 0 -0.43598079583492633 -0.24721882136819351 0 -0.45676275941016609 -0.23628729483617639 0 -0.41513049604948221 -0.033942569896895612 0 -0.42680670243505803 -0.034615113076212713 0 -0.40073055052989021 -0.025701474464423758 0 -0.41513049604948221 -0.033942569896895612 0 -0.42462943043776058 -0.041038039404546971 0 -0.40237332615973681 -0.030676944162886681 0 -0.42462943043776058 -0.041038039404546971 0 -0.40237332615973681 -0.030676944162886681 0 -0.41105872637709778 -0.041104419315527559 0 -0.42462943043776058 -0.041038039404546971 0 -0.40237332615973681 -0.030676944162886681 0 -0.41795689190558921 -0.046390941043723911 0 -0.41105872637709778 -0.041104419315527559 0 -0.42462943043776058 -0.041038039404546971 0 -0.41513049604948221 -0.033942569896895612 0 -0.42462943043776058 -0.041038039404546971 0 -0.4243569293735685 -0.037306081984415762 0 -0.41105872637709778 -0.041104419315527559 0 -0.4050251302254127 -0.045922345921936697 0 -0.40306291723554027 -0.039039715031688543 0 -0.41795689190558921 -0.046390941043723911 0 -0.41105872637709778 -0.041104419315527559 0 -0.41174405323292163 -0.047949206462353358 0 -0.41105872637709778 -0.041104419315527559 0 -0.41174405323292163 -0.047949206462353358 0 -0.4050251302254127 -0.045922345921936697 0 -0.41174405323292163 -0.047949206462353358 0 -0.4050251302254127 -0.045922345921936697 0 -0.40603099279739802 -0.054788986838451827 0 -0.41174405323292163 -0.047949206462353358 0 -0.4187470457232762 -0.053937065845881961 0 -0.40603099279739802 -0.054788986838451827 0 -0.4187470457232762 -0.053937065845881961 0 -0.40603099279739802 -0.054788986838451827 0 -0.41284572228237681 -0.064006668923108523 0 -0.4187470457232762 -0.053937065845881961 0 -0.41284572228237681 -0.064006668923108523 0 -0.42746868386642678 -0.066478460468227696 0 -0.41795689190558921 -0.046390941043723911 0 -0.41174405323292163 -0.047949206462353358 0 -0.4187470457232762 -0.053937065845881961 0 -0.41795689190558921 -0.046390941043723911 0 -0.4187470457232762 -0.053937065845881961 0 -0.42320145590089769 -0.048540393412862697 0 -0.42320145590089769 -0.048540393412862697 0 -0.43147245553696489 -0.05279552735729795 0 -0.42462943043776058 -0.041038039404546971 0 -0.4187470457232762 -0.053937065845881961 0 -0.42320145590089769 -0.048540393412862697 0 -0.43147245553696489 -0.05279552735729795 0 -0.43147245553696489 -0.05279552735729795 0 -0.42462943043776058 -0.041038039404546971 0 -0.44688553471578463 -0.051399134646207288 0 -0.4187470457232762 -0.053937065845881961 0 -0.43147245553696489 -0.05279552735729795 0 -0.42746868386642678 -0.066478460468227696 0 -0.43147245553696489 -0.05279552735729795 0 -0.42746868386642678 -0.066478460468227696 0 -0.43950717444435422 -0.063784996514660589 0 -0.42818951741271921 -0.038310772776573528 0 -0.43628267576141971 -0.035329403205585218 0 -0.44688553471578463 -0.051399134646207288 0 -0.42462943043776058 -0.041038039404546971 0 -0.42818951741271921 -0.038310772776573528 0 -0.44688553471578463 -0.051399134646207288 0 -0.42462943043776058 -0.041038039404546971 0 -0.44688553471578463 -0.051399134646207288 0 -0.41795689190558921 -0.046390941043723911 0 -0.42320145590089769 -0.048540393412862697 0 -0.42462943043776058 -0.041038039404546971 0 -0.41513049604948221 -0.033942569896895612 0 -0.4243569293735685 -0.037306081984415762 0 -0.42680670243505803 -0.034615113076212713 0 -0.42462943043776058 -0.041038039404546971 0 -0.4243569293735685 -0.037306081984415762 0 -0.42818951741271921 -0.038310772776573528 0 -0.42818951741271921 -0.038310772776573528 0 -0.42680670243505803 -0.034615113076212713 0 -0.4243569293735685 -0.037306081984415762 0 -0.42818951741271921 -0.038310772776573528 0 -0.42680670243505803 -0.034615113076212713 0 -0.42818951741271921 -0.038310772776573528 0 -0.42680670243505803 -0.034615113076212713 0 -0.42995577540377822 -0.032900560567165532 0 -0.42818951741271921 -0.038310772776573528 0 -0.42995577540377822 -0.032900560567165532 0 -0.43628267576141971 -0.035329403205585218 0 -0.42995577540377822 -0.032900560567165532 0 -0.43628267576141971 -0.035329403205585218 0 -0.4327931004709421 -0.029092843067932112 0 -0.42680670243505803 -0.034615113076212713 0 -0.4285090787839364 -0.025262373234060161 0 -0.41794895562780338 -0.01094222954485795 0 -0.42680670243505803 -0.034615113076212713 0 -0.41794895562780338 -0.01094222954485795 0 -0.43628267576141971 -0.035329403205585218 0 -0.4327931004709421 -0.029092843067932112 0 -0.43710875721387199 -0.026668229939385779 0 -0.42995577540377822 -0.032900560567165532 0 -0.4327931004709421 -0.029092843067932112 0 -0.4285090787839364 -0.025262373234060161 0 -0.43210921519170409 -0.025303648393463829 0 -0.43710875721387199 -0.026668229939385779 0 -0.43108579893039811 -0.01948839847471974 0 -0.4327931004709421 -0.029092843067932112 0 -0.43210921519170409 -0.025303648393463829 0 -0.4285090787839364 -0.025262373234060161 0 -0.4327931004709421 -0.029092843067932112 0 -0.43210921519170409 -0.025303648393463829 0 -0.43710875721387199 -0.026668229939385779 0 -0.43108579893039811 -0.01948839847471974 0 -0.43397544616601241 -0.014244232554068349 0 -0.43928417642389239 -0.017661557407765791 0 -0.43710875721387199 -0.026668229939385779 0 -0.43108579893039811 -0.01948839847471974 0 -0.43928417642389239 -0.017661557407765791 0 -0.43210921519170409 -0.025303648393463829 0 -0.43108579893039811 -0.01948839847471974 0 -0.4285090787839364 -0.025262373234060161 0 -0.43108579893039811 -0.01948839847471974 0 -0.4285090787839364 -0.025262373234060161 0 -0.41794895562780338 -0.01094222954485795 0 -0.42680670243505803 -0.034615113076212713 0 -0.42995577540377822 -0.032900560567165532 0 -0.4285090787839364 -0.025262373234060161 0 -0.43591977417237449 -0.008065469867085449 0 -0.42907061680018699 -0.010664914002041091 0 -0.42583279771702431 0.00046528033667210148 0 -0.43108579893039811 -0.01948839847471974 0 -0.43397544616601241 -0.014244232554068349 0 -0.42907061680018699 -0.010664914002041091 0 -0.43591977417237449 -0.008065469867085449 0 -0.43397544616601241 -0.014244232554068349 0 -0.43928417642389239 -0.017661557407765791 0 -0.43591977417237449 -0.008065469867085449 0 -0.43397544616601241 -0.014244232554068349 0 -0.42907061680018699 -0.010664914002041091 0 -0.43108579893039811 -0.01948839847471974 0 -0.42907061680018699 -0.010664914002041091 0 -0.41794895562780338 -0.01094222954485795 0 -0.42907061680018699 -0.010664914002041091 0 -0.41794895562780338 -0.01094222954485795 0 -0.42583279771702431 0.00046528033667210148 0 -0.41794895562780338 -0.01094222954485795 0 -0.4102220184461346 -0.019351118920435541 0 -0.40021295305484711 -0.013852611056198059 0 -0.41794895562780338 -0.01094222954485795 0 -0.40352261506359649 -0.001038070178381474 0 -0.40021295305484711 -0.013852611056198059 0 -0.42680670243505803 -0.034615113076212713 0 -0.41794895562780338 -0.01094222954485795 0 -0.4102220184461346 -0.019351118920435541 0 -0.42680670243505803 -0.034615113076212713 0 -0.4102220184461346 -0.019351118920435541 0 -0.40073055052989021 -0.025701474464423758 0 -0.42680670243505803 -0.034615113076212713 0 -0.40073055052989021 -0.025701474464423758 0 -0.41513049604948221 -0.033942569896895612 0 -0.40073055052989021 -0.025701474464423758 0 -0.40237332615973681 -0.030676944162886681 0 -0.40073055052989021 -0.025701474464423758 0 -0.40237332615973681 -0.030676944162886681 0 -0.38011722188171299 -0.020315848921226409 0 -0.40237332615973681 -0.030676944162886681 0 -0.38011722188171299 -0.020315848921226409 0 -0.4102220184461346 -0.019351118920435541 0 -0.40073055052989021 -0.025701474464423758 0 -0.40021295305484711 -0.013852611056198059 0 -0.40073055052989021 -0.025701474464423758 0 -0.40021295305484711 -0.013852611056198059 0 -0.38745402304870558 -0.01483805838738575 0 -0.40352261506359649 -0.001038070178381474 0 -0.40021295305484711 -0.013852611056198059 0 -0.39408165103759368 -0.0019794594859314238 0 -0.40021295305484711 -0.013852611056198059 0 -0.39408165103759368 -0.0019794594859314238 0 -0.39005949432245718 -0.0085411321607220259 0 -0.40021295305484711 -0.013852611056198059 0 -0.39005949432245718 -0.0085411321607220259 0 -0.38745402304870558 -0.01483805838738575 0 -0.39408165103759368 -0.0019794594859314238 0 -0.3848191179490616 -0.0027051675553946518 0 -0.39005949432245718 -0.0085411321607220259 0 -0.3848191179490616 -0.0027051675553946518 0 -0.38372972652207787 -0.0093303643187002475 0 -0.39005949432245718 -0.0085411321607220259 0 -0.38372972652207787 -0.0093303643187002475 0 -0.38745402304870558 -0.01483805838738575 0 -0.3791207175096093 -0.01135650732177081 0 -0.38372972652207787 -0.0093303643187002475 0 -0.39005949432245718 -0.0085411321607220259 0 -0.38745402304870558 -0.01483805838738575 0 -0.37465439862472261 -0.016787835852634068 0 -0.37464851222799189 -0.0076089195940836872 0 -0.3791207175096093 -0.01135650732177081 0 -0.37465439862472261 -0.016787835852634068 0 -0.38745402304870558 -0.01483805838738575 0 -0.3791207175096093 -0.01135650732177081 0 -0.37464851222799189 -0.0076089195940836872 0 -0.3791207175096093 -0.01135650732177081 0 -0.37960876280762101 -0.0064231604720931881 0 -0.38372972652207787 -0.0093303643187002475 0 -0.3791207175096093 -0.01135650732177081 0 -0.37960876280762101 -0.0064231604720931881 0 -0.3848191179490616 -0.0027051675553946518 0 -0.38372972652207787 -0.0093303643187002475 0 -0.37960876280762101 -0.0064231604720931881 0 -0.37464851222799189 -0.0076089195940836872 0 -0.37960876280762101 -0.0064231604720931881 0 -0.37774077980655368 -0.001289555558904682 0 -0.3848191179490616 -0.0027051675553946518 0 -0.37960876280762101 -0.0064231604720931881 0 -0.37774077980655368 -0.001289555558904682 0 -0.37465439862472261 -0.016787835852634068 0 -0.40073055052989021 -0.025701474464423758 0 -0.38745402304870558 -0.01483805838738575 0 -0.40237332615973681 -0.030676944162886681 0 -0.38781453024876661 -0.02996800237218563 0 -0.38011722188171299 -0.020315848921226409 0 -0.37465439862472261 -0.016787835852634068 0 -0.40073055052989021 -0.025701474464423758 0 -0.38011722188171299 -0.020315848921226409 0 -0.37465439862472261 -0.016787835852634068 0 -0.40073055052989021 -0.025701474464423758 0 -0.37402384376206249 -0.023759624541515059 0 -0.37465439862472261 -0.016787835852634068 0 -0.38011722188171299 -0.020315848921226409 0 -0.37402384376206249 -0.023759624541515059 0 -0.38011722188171299 -0.020315848921226409 0 -0.37866743010551202 -0.02906954498465647 0 -0.38781453024876661 -0.02996800237218563 0 -0.38011722188171299 -0.020315848921226409 0 -0.37866743010551202 -0.02906954498465647 0 -0.37439980638912518 -0.038891661293645137 0 -0.37866743010551202 -0.02906954498465647 0 -0.38394575501216083 -0.036535335565972972 0 -0.37439980638912518 -0.038891661293645137 0 -0.37993408630244868 -0.045501240077299353 0 -0.38394575501216083 -0.036535335565972972 0 -0.37085155020467431 -0.050438611479832557 0 -0.37439980638912518 -0.038891661293645137 0 -0.37993408630244868 -0.045501240077299353 0 -0.37993408630244868 -0.045501240077299353 0 -0.38895054345211377 -0.045335196083553769 0 -0.38394575501216083 -0.036535335565972972 0 -0.38895054345211377 -0.045335196083553769 0 -0.38394575501216083 -0.036535335565972972 0 -0.39396365166307989 -0.03445798481758762 0 -0.38781453024876661 -0.02996800237218563 0 -0.38394575501216083 -0.036535335565972972 0 -0.39396365166307989 -0.03445798481758762 0 -0.38781453024876661 -0.02996800237218563 0 -0.37866743010551202 -0.02906954498465647 0 -0.38394575501216083 -0.036535335565972972 0 -0.40237332615973681 -0.030676944162886681 0 -0.38781453024876661 -0.02996800237218563 0 -0.39396365166307989 -0.03445798481758762 0 -0.39396365166307989 -0.03445798481758762 0 -0.39750411751227832 -0.042292212187568533 0 -0.39928834571923882 -0.035924112998793431 0 -0.38895054345211377 -0.045335196083553769 0 -0.39396365166307989 -0.03445798481758762 0 -0.39750411751227832 -0.042292212187568533 0 -0.39750411751227832 -0.042292212187568533 0 -0.4050251302254127 -0.045922345921936697 0 -0.40306291723554027 -0.039039715031688543 0 -0.39750411751227832 -0.042292212187568533 0 -0.40306291723554027 -0.039039715031688543 0 -0.39928834571923882 -0.035924112998793431 0 -0.40237332615973681 -0.030676944162886681 0 -0.39396365166307989 -0.03445798481758762 0 -0.39928834571923882 -0.035924112998793431 0 -0.41105872637709778 -0.041104419315527559 0 -0.40237332615973681 -0.030676944162886681 0 -0.40306291723554027 -0.039039715031688543 0 -0.40237332615973681 -0.030676944162886681 0 -0.40306291723554027 -0.039039715031688543 0 -0.39928834571923882 -0.035924112998793431 0 -0.40603099279739802 -0.054788986838451827 0 -0.39527915405366182 -0.064437672488960096 0 -0.41284572228237681 -0.064006668923108523 0 -0.40603099279739802 -0.054788986838451827 0 -0.39443592701229091 -0.053019652188425637 0 -0.39527915405366182 -0.064437672488960096 0 -0.4050251302254127 -0.045922345921936697 0 -0.40603099279739802 -0.054788986838451827 0 -0.39443592701229091 -0.053019652188425637 0 -0.39750411751227832 -0.042292212187568533 0 -0.4050251302254127 -0.045922345921936697 0 -0.39443592701229091 -0.053019652188425637 0 -0.38895054345211377 -0.045335196083553769 0 -0.39750411751227832 -0.042292212187568533 0 -0.39443592701229091 -0.053019652188425637 0 -0.39443592701229091 -0.053019652188425637 0 -0.38221605892473098 -0.056125323053866277 0 -0.39527915405366182 -0.064437672488960096 0 -0.36608399240098949 -0.063120758007335118 0 -0.38221605892473098 -0.056125323053866277 0 -0.37978412082390189 -0.068029865631836883 0 -0.38895054345211377 -0.045335196083553769 0 -0.39443592701229091 -0.053019652188425637 0 -0.38221605892473098 -0.056125323053866277 0 -0.37993408630244868 -0.045501240077299353 0 -0.38895054345211377 -0.045335196083553769 0 -0.38221605892473098 -0.056125323053866277 0 -0.37085155020467431 -0.050438611479832557 0 -0.37993408630244868 -0.045501240077299353 0 -0.38221605892473098 -0.056125323053866277 0 -0.36843110820579178 -0.075527255856609146 0 -0.37978412082390189 -0.068029865631836883 0 -0.38691029053433551 -0.080938318752413793 0 -0.37978412082390189 -0.068029865631836883 0 -0.38691029053433551 -0.080938318752413793 0 -0.39527915405366182 -0.064437672488960096 0 -0.38221605892473098 -0.056125323053866277 0 -0.37978412082390189 -0.068029865631836883 0 -0.39527915405366182 -0.064437672488960096 0 -0.37380044498630338 -0.100392191664622 0 -0.36747037526515469 -0.088210616938563927 0 -0.38691029053433551 -0.080938318752413793 0 -0.36843110820579178 -0.075527255856609146 0 -0.38691029053433551 -0.080938318752413793 0 -0.40007542381043809 -0.086939242353532731 0 -0.39460333317738627 -0.1006873657273652 0 -0.41352047356827321 -0.0909948847898496 0 -0.38691029053433551 -0.080938318752413793 0 -0.40007542381043809 -0.086939242353532731 0 -0.40767355229219521 -0.074626636544090755 0 -0.38691029053433551 -0.080938318752413793 0 -0.40007542381043809 -0.086939242353532731 0 -0.39460333317738627 -0.1006873657273652 0 -0.38691029053433551 -0.080938318752413793 0 -0.39527915405366182 -0.064437672488960096 0 -0.40767355229219521 -0.074626636544090755 0 -0.39527915405366182 -0.064437672488960096 0 -0.41284572228237681 -0.064006668923108523 0 -0.40767355229219521 -0.074626636544090755 0 -0.36893450279197471 -0.1249528869149899 0 -0.3789649235099295 -0.11270856972454819 0 -0.39514760223357998 -0.1249586529677193 0 -0.36893450279197471 -0.1249528869149899 0 -0.39514760223357998 -0.1249586529677193 0 -0.3789649235099295 -0.11270856972454819 0 -0.39460333317738627 -0.1006873657273652 0 -0.39514760223357998 -0.1249586529677193 0 -0.37380044498630338 -0.100392191664622 0 -0.38691029053433551 -0.080938318752413793 0 -0.39460333317738627 -0.1006873657273652 0 -0.37380044498630338 -0.100392191664622 0 -0.3789649235099295 -0.11270856972454819 0 -0.39460333317738627 -0.1006873657273652 0 -0.39460333317738627 -0.1006873657273652 0 -0.39514760223357998 -0.1249586529677193 0 -0.4114708495464785 -0.1093321351213095 0 -0.42136070167518519 -0.1249644190204488 0 -0.4114708495464785 -0.1093321351213095 0 -0.43272213707796769 -0.1050553531011644 0 -0.39514760223357998 -0.1249586529677193 0 -0.42136070167518519 -0.1249644190204488 0 -0.39514760223357998 -0.1249586529677193 0 -0.42136070167518519 -0.1249644190204488 0 -0.4114708495464785 -0.1093321351213095 0 -0.39460333317738627 -0.1006873657273652 0 -0.4114708495464785 -0.1093321351213095 0 -0.41352047356827321 -0.0909948847898496 0 -0.4114708495464785 -0.1093321351213095 0 -0.43272213707796769 -0.1050553531011644 0 -0.41352047356827321 -0.0909948847898496 0 -0.42136070167518519 -0.1249644190204488 0 -0.43272213707796769 -0.1050553531011644 0 -0.44757380111679052 -0.12497018507317829 0 -0.42136070167518519 -0.1249644190204488 0 -0.44757380111679052 -0.12497018507317829 0 -0.42023793718526542 -0.076451056482049876 0 -0.41284572228237681 -0.064006668923108523 0 -0.42746868386642678 -0.066478460468227696 0 -0.42023793718526542 -0.076451056482049876 0 -0.41284572228237681 -0.064006668923108523 0 -0.40767355229219521 -0.074626636544090755 0 -0.42023793718526542 -0.076451056482049876 0 -0.40767355229219521 -0.074626636544090755 0 -0.41352047356827321 -0.0909948847898496 0 -0.40007542381043809 -0.086939242353532731 0 -0.40767355229219521 -0.074626636544090755 0 -0.41352047356827321 -0.0909948847898496 0 -0.42023793718526542 -0.076451056482049876 0 -0.41352047356827321 -0.0909948847898496 0 -0.43051036701793649 -0.083964229305721505 0 -0.43272213707796769 -0.1050553531011644 0 -0.41352047356827321 -0.0909948847898496 0 -0.43051036701793649 -0.083964229305721505 0 -0.43272213707796769 -0.1050553531011644 0 -0.43051036701793649 -0.083964229305721505 0 -0.44869793539396702 -0.090613631575090198 0 -0.43051036701793649 -0.083964229305721505 0 -0.42746868386642678 -0.066478460468227696 0 -0.43938561630945938 -0.075374003134316428 0 -0.42023793718526542 -0.076451056482049876 0 -0.43051036701793649 -0.083964229305721505 0 -0.42746868386642678 -0.066478460468227696 0 -0.42746868386642678 -0.066478460468227696 0 -0.43950717444435422 -0.063784996514660589 0 -0.43938561630945938 -0.075374003134316428 0 -0.43950717444435422 -0.063784996514660589 0 -0.45074392082461212 -0.072028697807882153 0 -0.43938561630945938 -0.075374003134316428 0 -0.43051036701793649 -0.083964229305721505 0 -0.43938561630945938 -0.075374003134316428 0 -0.44869793539396702 -0.090613631575090198 0 -0.45074392082461212 -0.072028697807882153 0 -0.43938561630945938 -0.075374003134316428 0 -0.44869793539396702 -0.090613631575090198 0 -0.45074392082461212 -0.072028697807882153 0 -0.44869793539396702 -0.090613631575090198 0 -0.4647336852437608 -0.080388630180202481 0 -0.44869793539396702 -0.090613631575090198 0 -0.4647336852437608 -0.080388630180202481 0 -0.47380622041468068 -0.096022360055862885 0 -0.4647336852437608 -0.080388630180202481 0 -0.46264955769922828 -0.069236149835977229 0 -0.47254815090776853 -0.069469283055039688 0 -0.45074392082461212 -0.072028697807882153 0 -0.46264955769922828 -0.069236149835977229 0 -0.44688553471578463 -0.051399134646207288 0 -0.46264955769922828 -0.069236149835977229 0 -0.47254815090776853 -0.069469283055039688 0 -0.46914163899380801 -0.061760229887868598 0 -0.45074392082461212 -0.072028697807882153 0 -0.4647336852437608 -0.080388630180202481 0 -0.46264955769922828 -0.069236149835977229 0 -0.43272213707796769 -0.1050553531011644 0 -0.44757380111679052 -0.12497018507317829 0 -0.46022938895027038 -0.10869066194517669 0 -0.43272213707796769 -0.1050553531011644 0 -0.44869793539396702 -0.090613631575090198 0 -0.46022938895027038 -0.10869066194517669 0 -0.44869793539396702 -0.090613631575090198 0 -0.46022938895027038 -0.10869066194517669 0 -0.47380622041468068 -0.096022360055862885 0 -0.44757380111679052 -0.12497018507317829 0 -0.47378690055839578 -0.1249759511259078 0 -0.44757380111679052 -0.12497018507317829 0 -0.46022938895027038 -0.10869066194517669 0 -0.47378690055839578 -0.1249759511259078 0 -0.46022938895027038 -0.10869066194517669 0 -0.47378690055839578 -0.1249759511259078 0 -0.48374478807960558 -0.1092121363906397 0 -0.46022938895027038 -0.10869066194517669 0 -0.48374478807960558 -0.1092121363906397 0 -0.47380622041468068 -0.096022360055862885 0 -0.48374478807960558 -0.1092121363906397 0 -0.47380622041468068 -0.096022360055862885 0 -0.48832582805197727 -0.092109142267116931 0 -0.48374478807960558 -0.1092121363906397 0 -0.5 -0.10055386622176241 0 -0.48832582805197727 -0.092109142267116931 0 -0.47378690055839578 -0.1249759511259078 0 -0.48374478807960558 -0.1092121363906397 0 -0.50000000000000111 -0.12498171717863731 0 -0.48374478807960558 -0.1092121363906397 0 -0.5 -0.10055386622176241 0 -0.50000000000000111 -0.12498171717863731 0 -0.47378690055839578 -0.1249759511259078 0 -0.50000000000000111 -0.12498171717863731 0 -0.47254815090776853 -0.069469283055039688 0 -0.47913967023945842 -0.082463322467565006 0 -0.48457081949690362 -0.068943122576377761 0 -0.47913967023945842 -0.082463322467565006 0 -0.48808502354595151 -0.080031310268457945 0 -0.48457081949690362 -0.068943122576377761 0 -0.48457081949690362 -0.068943122576377761 0 -0.46914163899380801 -0.061760229887868598 0 -0.48457081949690362 -0.068943122576377761 0 -0.48230491698392047 -0.057318093012348498 0 -0.46914163899380801 -0.061760229887868598 0 -0.47254815090776853 -0.069469283055039688 0 -0.48457081949690362 -0.068943122576377761 0 -0.46914163899380801 -0.061760229887868598 0 -0.47254815090776853 -0.069469283055039688 0 -0.46914163899380801 -0.061760229887868598 0 -0.4647336852437608 -0.080388630180202481 0 -0.47254815090776853 -0.069469283055039688 0 -0.47913967023945842 -0.082463322467565006 0 -0.4647336852437608 -0.080388630180202481 0 -0.47380622041468068 -0.096022360055862885 0 -0.47913967023945842 -0.082463322467565006 0 -0.47380622041468068 -0.096022360055862885 0 -0.47913967023945842 -0.082463322467565006 0 -0.48832582805197727 -0.092109142267116931 0 -0.5 -0.10055386622176241 0 -0.48832582805197727 -0.092109142267116931 0 -0.499999999999999 -0.07612601526488752 0 -0.48808502354595151 -0.080031310268457945 0 -0.48832582805197727 -0.092109142267116931 0 -0.499999999999999 -0.07612601526488752 0 -0.47913967023945842 -0.082463322467565006 0 -0.48808502354595151 -0.080031310268457945 0 -0.48832582805197727 -0.092109142267116931 0 -0.499999999999999 -0.07612601526488752 0 -0.48457081949690362 -0.068943122576377761 0 -0.499999999999999 -0.07612601526488752 0 -0.48457081949690362 -0.068943122576377761 0 -0.5 -0.055081012739928707 0 -0.48808502354595151 -0.080031310268457945 0 -0.499999999999999 -0.07612601526488752 0 -0.48457081949690362 -0.068943122576377761 0 -0.48457081949690362 -0.068943122576377761 0 -0.5 -0.055081012739928707 0 -0.48230491698392047 -0.057318093012348498 0 -0.5 -0.055081012739928707 0 -0.48157039955536241 -0.044558511477442143 0 -0.48230491698392047 -0.057318093012348498 0 -0.5 -0.055081012739928707 0 -0.500000000000004 -0.034036010214970061 0 -0.48157039955536241 -0.044558511477442143 0 -0.500000000000004 -0.034036010214970061 0 -0.48157039955536241 -0.044558511477442143 0 -0.48148290990478199 -0.029591545163434652 0 -0.48157039955536241 -0.044558511477442143 0 -0.45768975774058179 -0.035844230274481748 0 -0.48148290990478199 -0.029591545163434652 0 -0.48157039955536241 -0.044558511477442143 0 -0.46914163899380801 -0.061760229887868598 0 -0.45768975774058179 -0.035844230274481748 0 -0.48157039955536241 -0.044558511477442143 0 -0.48230491698392047 -0.057318093012348498 0 -0.46914163899380801 -0.061760229887868598 0 -0.46914163899380801 -0.061760229887868598 0 -0.45768975774058179 -0.035844230274481748 0 -0.44688553471578463 -0.051399134646207288 0 -0.46914163899380801 -0.061760229887868598 0 -0.45768975774058179 -0.035844230274481748 0 -0.46264955769922828 -0.069236149835977229 0 -0.46914163899380801 -0.061760229887868598 0 -0.44688553471578463 -0.051399134646207288 0 -0.46914163899380801 -0.061760229887868598 0 -0.44688553471578463 -0.051399134646207288 0 -0.43628267576141971 -0.035329403205585218 0 -0.44354830351403418 -0.034418653902415733 0 -0.44688553471578463 -0.051399134646207288 0 -0.45768975774058179 -0.035844230274481748 0 -0.44354830351403418 -0.034418653902415733 0 -0.44688553471578463 -0.051399134646207288 0 -0.45768975774058179 -0.035844230274481748 0 -0.44354830351403418 -0.034418653902415733 0 -0.44312252706978628 -0.024928407146411868 0 -0.43628267576141971 -0.035329403205585218 0 -0.43710875721387199 -0.026668229939385779 0 -0.44354830351403418 -0.034418653902415733 0 -0.43950717444435422 -0.063784996514660589 0 -0.45074392082461212 -0.072028697807882153 0 -0.44688553471578463 -0.051399134646207288 0 -0.43147245553696489 -0.05279552735729795 0 -0.43950717444435422 -0.063784996514660589 0 -0.44688553471578463 -0.051399134646207288 0 -0.43591977417237449 -0.008065469867085449 0 -0.44623787648735791 -0.0099282306610938807 0 -0.43740981058492812 0.01004998492246997 0 -0.43591977417237449 -0.008065469867085449 0 -0.44623787648735791 -0.0099282306610938807 0 -0.43928417642389239 -0.017661557407765791 0 -0.43591977417237449 -0.008065469867085449 0 -0.44623787648735791 -0.0099282306610938807 0 -0.43710875721387199 -0.026668229939385779 0 -0.43928417642389239 -0.017661557407765791 0 -0.44312252706978628 -0.024928407146411868 0 -0.45768975774058179 -0.035844230274481748 0 -0.44623787648735791 -0.0099282306610938807 0 -0.44312252706978628 -0.024928407146411868 0 -0.45768975774058179 -0.035844230274481748 0 -0.44623787648735791 -0.0099282306610938807 0 -0.44623787648735791 -0.0099282306610938807 0 -0.43928417642389239 -0.017661557407765791 0 -0.44312252706978628 -0.024928407146411868 0 -0.43710875721387199 -0.026668229939385779 0 -0.44354830351403418 -0.034418653902415733 0 -0.44312252706978628 -0.024928407146411868 0 -0.45768975774058179 -0.035844230274481748 0 -0.44623787648735791 -0.0099282306610938807 0 -0.47146408957177099 -0.01448240150379307 0 -0.44623787648735791 -0.0099282306610938807 0 -0.47146408957177099 -0.01448240150379307 0 -0.44623787648735791 -0.0099282306610938807 0 -0.47146408957177099 -0.01448240150379307 0 -0.46048772545436639 0.0043098071123656434 0 -0.47146408957177099 -0.01448240150379307 0 -0.47882554305316488 -0.0018417715126103191 0 -0.46048772545436639 0.0043098071123656434 0 -0.47146408957177099 -0.01448240150379307 0 -0.47882554305316488 -0.0018417715126103191 0 -0.49669030265618502 -0.01903657234648758 0 -0.47146408957177099 -0.01448240150379307 0 -0.49669030265618502 -0.01903657234648758 0 -0.47146408957177099 -0.01448240150379307 0 -0.48148290990478199 -0.029591545163434652 0 -0.49669030265618502 -0.01903657234648758 0 -0.45768975774058179 -0.035844230274481748 0 -0.47146408957177099 -0.01448240150379307 0 -0.48148290990478199 -0.029591545163434652 0 -0.500000000000004 -0.034036010214970061 0 -0.48148290990478199 -0.029591545163434652 0 -0.49669030265618502 -0.01903657234648758 0 -0.49669030265618502 -0.01903657234648758 0 -0.50000000000000056 -0.019634082844440681 0 -0.500000000000004 -0.034036010214970061 0 -0.49669030265618502 -0.01903657234648758 0 -0.500000000000004 -0.034036010214970061 0 -0.49669030265618502 -0.01903657234648758 0 -0.50000000000000056 -0.019634082844440681 0 -0.47882554305316488 -0.0018417715126103191 0 -0.49669030265618502 -0.01903657234648758 0 -0.49160980924365538 0.0039880541876541054 0 -0.49669030265618502 -0.01903657234648758 0 -0.49160980924365538 0.0039880541876541054 0 -0.49669030265618502 -0.01903657234648758 0 -0.50000000000000056 -0.019634082844440681 0 -0.49160980924365538 0.0039880541876541054 0 -0.50000000000000056 -0.019634082844440681 0 -0.49160980924365538 0.0039880541876541054 0 -0.50000000000000033 0.009303662189531537 0 -0.49160980924365538 0.0039880541876541054 0 -0.48652931583112352 0.027012680721795381 0 -0.49160980924365538 0.0039880541876541054 0 -0.50000000000000033 0.009303662189531537 0 -0.48652931583112352 0.027012680721795381 0 -0.50000000000000033 0.009303662189531537 0 -0.5 0.03611151152349279 0 -0.49175907743105379 0.031398254416965428 0 -0.50000000000000033 0.009303662189531537 0 -0.49175907743105379 0.031398254416965428 0 -0.50000000000000033 0.009303662189531537 0 -0.48652931583112352 0.027012680721795381 0 -0.49175907743105379 0.031398254416965428 0 -0.48652931583112352 0.027012680721795381 0 -0.47387578833984401 0.016012254987208822 0 -0.46815351836101687 0.031449839152918539 0 -0.49160980924365538 0.0039880541876541054 0 -0.48652931583112352 0.027012680721795381 0 -0.47387578833984401 0.016012254987208822 0 -0.47882554305316488 -0.0018417715126103191 0 -0.49160980924365538 0.0039880541876541054 0 -0.47387578833984401 0.016012254987208822 0 -0.47882554305316488 -0.0018417715126103191 0 -0.47387578833984401 0.016012254987208822 0 -0.46048772545436639 0.0043098071123656434 0 -0.49282352307895688 0.045257754500502748 0 -0.5 0.03611151152349279 0 -0.5 0.062919360857453976 0 -0.49282352307895688 0.045257754500502748 0 -0.48351815486210709 0.053492846644399093 0 -0.5 0.062919360857453976 0 -0.49175907743105379 0.031398254416965428 0 -0.48144882241859149 0.050037307255936581 0 -0.48351815486210709 0.053492846644399093 0 -0.48652931583112352 0.027012680721795381 0 -0.49175907743105379 0.031398254416965428 0 -0.48144882241859149 0.050037307255936581 0 -0.49175907743105379 0.031398254416965428 0 -0.48351815486210709 0.053492846644399093 0 -0.49282352307895688 0.045257754500502748 0 -0.49175907743105379 0.031398254416965428 0 -0.48351815486210709 0.053492846644399093 0 -0.49282352307895688 0.045257754500502748 0 -0.5 0.03611151152349279 0 -0.49175907743105379 0.031398254416965428 0 -0.48144882241859149 0.050037307255936581 0 -0.4639696453013944 0.043374392403556838 0 -0.46815351836101687 0.031449839152918539 0 -0.48652931583112352 0.027012680721795381 0 -0.48144882241859149 0.050037307255936581 0 -0.48652931583112352 0.027012680721795381 0 -0.48144882241859149 0.050037307255936581 0 -0.46815351836101687 0.031449839152918539 0 -0.48144882241859149 0.050037307255936581 0 -0.45709786057011947 0.055708105081253657 0 -0.47636832900606041 0.073061933790077832 0 -0.48144882241859149 0.050037307255936581 0 -0.48351815486210709 0.053492846644399093 0 -0.47636832900606041 0.073061933790077832 0 -0.48144882241859149 0.050037307255936581 0 -0.47636832900606041 0.073061933790077832 0 -0.48144882241859149 0.050037307255936581 0 -0.45709786057011947 0.055708105081253657 0 -0.4639696453013944 0.043374392403556838 0 -0.45709786057011947 0.055708105081253657 0 -0.4639696453013944 0.043374392403556838 0 -0.45299045524759751 0.034902057762674861 0 -0.4639696453013944 0.043374392403556838 0 -0.46815351836101687 0.031449839152918539 0 -0.45299045524759751 0.034902057762674861 0 -0.46815351836101687 0.031449839152918539 0 -0.45299045524759751 0.034902057762674861 0 -0.45709786057011947 0.055708105081253657 0 -0.45299045524759751 0.034902057762674861 0 -0.43782739213417787 0.038354276372430232 0 -0.45299045524759751 0.034902057762674861 0 -0.43782739213417787 0.038354276372430232 0 -0.45299045524759751 0.034902057762674861 0 -0.43782739213417787 0.038354276372430232 0 -0.44297011017848281 0.02707887027054981 0 -0.45709786057011947 0.055708105081253657 0 -0.43782739213417787 0.038354276372430232 0 -0.43187248081207541 0.055496176207803817 0 -0.45709786057011947 0.055708105081253657 0 -0.43782739213417787 0.038354276372430232 0 -0.45709786057011947 0.055708105081253657 0 -0.43187248081207541 0.055496176207803817 0 -0.43763284036668942 0.072255399145110422 0 -0.47387578833984401 0.016012254987208822 0 -0.46048772545436639 0.0043098071123656434 0 -0.45598123469437257 0.020633802368031268 0 -0.47387578833984401 0.016012254987208822 0 -0.46815351836101687 0.031449839152918539 0 -0.45598123469437257 0.020633802368031268 0 -0.46815351836101687 0.031449839152918539 0 -0.45299045524759751 0.034902057762674861 0 -0.45598123469437257 0.020633802368031268 0 -0.45598123469437257 0.020633802368031268 0 -0.44297011017848281 0.02707887027054981 0 -0.43740981058492812 0.01004998492246997 0 -0.45299045524759751 0.034902057762674861 0 -0.45598123469437257 0.020633802368031268 0 -0.44297011017848281 0.02707887027054981 0 -0.46048772545436639 0.0043098071123656434 0 -0.45598123469437257 0.020633802368031268 0 -0.43740981058492812 0.01004998492246997 0 -0.44623787648735791 -0.0099282306610938807 0 -0.46048772545436639 0.0043098071123656434 0 -0.43740981058492812 0.01004998492246997 0 -0.44623787648735791 -0.0099282306610938807 0 -0.43740981058492812 0.01004998492246997 0 -0.43591977417237449 -0.008065469867085449 0 -0.43740981058492812 0.01004998492246997 0 -0.42583279771702431 0.00046528033667210148 0 -0.43740981058492812 0.01004998492246997 0 -0.42292027786463471 0.01349413118407828 0 -0.42583279771702431 0.00046528033667210148 0 -0.41794895562780338 -0.01094222954485795 0 -0.40909120882054839 0.01273065398649661 0 -0.41794895562780338 -0.01094222954485795 0 -0.40352261506359649 -0.001038070178381474 0 -0.40909120882054839 0.01273065398649661 0 -0.42292027786463471 0.01349413118407828 0 -0.42583279771702431 0.00046528033667210148 0 -0.40909120882054839 0.01273065398649661 0 -0.41794895562780338 -0.01094222954485795 0 -0.42583279771702431 0.00046528033667210148 0 -0.40909120882054839 0.01273065398649661 0 -0.40909120882054839 0.01273065398649661 0 -0.41494363987246979 0.023236645495722939 0 -0.40023346201329341 0.036403537517851137 0 -0.41494363987246979 0.023236645495722939 0 -0.41436175989852531 0.033604495869393458 0 -0.40023346201329341 0.036403537517851137 0 -0.42292027786463471 0.01349413118407828 0 -0.41494363987246979 0.023236645495722939 0 -0.424969395700869 0.026775135554755129 0 -0.42292027786463471 0.01349413118407828 0 -0.40909120882054839 0.01273065398649661 0 -0.41494363987246979 0.023236645495722939 0 -0.41494363987246979 0.023236645495722939 0 -0.41896391809246269 0.029132761591660509 0 -0.41436175989852531 0.033604495869393458 0 -0.41494363987246979 0.023236645495722939 0 -0.41896391809246269 0.029132761591660509 0 -0.424969395700869 0.026775135554755129 0 -0.41896391809246269 0.029132761591660509 0 -0.424969395700869 0.026775135554755129 0 -0.42158087689798668 0.032914769446770492 0 -0.424969395700869 0.026775135554755129 0 -0.42858174468249838 0.030028200506033911 0 -0.42158087689798668 0.032914769446770492 0 -0.44297011017848281 0.02707887027054981 0 -0.43740981058492812 0.01004998492246997 0 -0.42858174468249838 0.030028200506033911 0 -0.43740981058492812 0.01004998492246997 0 -0.42292027786463471 0.01349413118407828 0 -0.424969395700869 0.026775135554755129 0 -0.43740981058492812 0.01004998492246997 0 -0.42858174468249838 0.030028200506033911 0 -0.43740981058492812 0.01004998492246997 0 -0.424969395700869 0.026775135554755129 0 -0.42858174468249838 0.030028200506033911 0 -0.424969395700869 0.026775135554755129 0 -0.42858174468249838 0.030028200506033911 0 -0.43782739213417787 0.038354276372430232 0 -0.44297011017848281 0.02707887027054981 0 -0.42858174468249838 0.030028200506033911 0 -0.43782739213417787 0.038354276372430232 0 -0.42858174468249838 0.030028200506033911 0 -0.42345682706553001 0.041626064651069543 0 -0.43782739213417787 0.038354276372430232 0 -0.42345682706553001 0.041626064651069543 0 -0.43187248081207541 0.055496176207803817 0 -0.43782739213417787 0.038354276372430232 0 -0.42858174468249838 0.030028200506033911 0 -0.43782739213417787 0.038354276372430232 0 -0.42345682706553001 0.041626064651069543 0 -0.42858174468249838 0.030028200506033911 0 -0.42345682706553001 0.041626064651069543 0 -0.42158087689798668 0.032914769446770492 0 -0.42858174468249838 0.030028200506033911 0 -0.42345682706553001 0.041626064651069543 0 -0.42345682706553001 0.041626064651069543 0 -0.43187248081207541 0.055496176207803817 0 -0.4177568865966339 0.054525225210098782 0 -0.43187248081207541 0.055496176207803817 0 -0.4177568865966339 0.054525225210098782 0 -0.41753301535116211 0.067129086497859855 0 -0.42345682706553001 0.041626064651069543 0 -0.4177568865966339 0.054525225210098782 0 -0.40276573021624068 0.046336866753853997 0 -0.4177568865966339 0.054525225210098782 0 -0.40750332447406851 0.057375884956624552 0 -0.41753301535116211 0.067129086497859855 0 -0.42345682706553001 0.041626064651069543 0 -0.4177568865966339 0.054525225210098782 0 -0.4177568865966339 0.054525225210098782 0 -0.40750332447406851 0.057375884956624552 0 -0.40276573021624068 0.046336866753853997 0 -0.42345682706553001 0.041626064651069543 0 -0.40276573021624068 0.046336866753853997 0 -0.42345682706553001 0.041626064651069543 0 -0.41020444479839763 0.039492741198042178 0 -0.40276573021624068 0.046336866753853997 0 -0.42345682706553001 0.041626064651069543 0 -0.41436175989852531 0.033604495869393458 0 -0.42158087689798668 0.032914769446770492 0 -0.42345682706553001 0.041626064651069543 0 -0.41436175989852531 0.033604495869393458 0 -0.41020444479839763 0.039492741198042178 0 -0.41896391809246269 0.029132761591660509 0 -0.41436175989852531 0.033604495869393458 0 -0.42158087689798668 0.032914769446770492 0 -0.41436175989852531 0.033604495869393458 0 -0.41020444479839763 0.039492741198042178 0 -0.40023346201329341 0.036403537517851137 0 -0.40276573021624068 0.046336866753853997 0 -0.38207463336695202 0.051047668856640811 0 -0.38772007791329738 0.03985096685417347 0 -0.41020444479839763 0.039492741198042178 0 -0.40023346201329341 0.036403537517851137 0 -0.40276573021624068 0.046336866753853997 0 -0.40023346201329341 0.036403537517851137 0 -0.40276573021624068 0.046336866753853997 0 -0.38772007791329738 0.03985096685417347 0 -0.40023346201329341 0.036403537517851137 0 -0.38772007791329738 0.03985096685417347 0 -0.38925836826538629 0.030805614435688099 0 -0.40276573021624068 0.046336866753853997 0 -0.38207463336695202 0.051047668856640811 0 -0.40276573021624068 0.046336866753853997 0 -0.39689466156197101 0.057407184083191301 0 -0.38207463336695202 0.051047668856640811 0 -0.40750332447406851 0.057375884956624552 0 -0.39689466156197101 0.057407184083191301 0 -0.40210564328563447 0.066115584712721373 0 -0.40750332447406851 0.057375884956624552 0 -0.40276573021624068 0.046336866753853997 0 -0.39689466156197101 0.057407184083191301 0 -0.38207463336695202 0.051047668856640811 0 -0.38848633305814179 0.065600711414542545 0 -0.36891219827968119 0.060077996683558232 0 -0.39689466156197101 0.057407184083191301 0 -0.38207463336695202 0.051047668856640811 0 -0.38848633305814179 0.065600711414542545 0 -0.38772007791329738 0.03985096685417347 0 -0.37937813184432773 0.031366277704107569 0 -0.38925836826538629 0.030805614435688099 0 -0.38207463336695202 0.051047668856640811 0 -0.38772007791329738 0.03985096685417347 0 -0.37261014177358448 0.043145835856899219 0 -0.38772007791329738 0.03985096685417347 0 -0.37937813184432773 0.031366277704107569 0 -0.37261014177358448 0.043145835856899219 0 -0.37937813184432773 0.031366277704107569 0 -0.38391758338059062 0.022870450659759161 0 -0.37479293228070759 0.022502646493578662 0 -0.37937813184432773 0.031366277704107569 0 -0.38925836826538629 0.030805614435688099 0 -0.38391758338059062 0.022870450659759161 0 -0.38925836826538629 0.030805614435688099 0 -0.38391758338059062 0.022870450659759161 0 -0.3946160130735708 0.021551959563878339 0 -0.38391758338059062 0.022870450659759161 0 -0.38667067902898572 0.013842153393714489 0 -0.3946160130735708 0.021551959563878339 0 -0.38391758338059062 0.022870450659759161 0 -0.3778438638662554 0.014761087644765769 0 -0.38667067902898572 0.013842153393714489 0 -0.38391758338059062 0.022870450659759161 0 -0.3778438638662554 0.014761087644765769 0 -0.37479293228070759 0.022502646493578662 0 -0.3778438638662554 0.014761087644765769 0 -0.38165634421242611 0.0056742618597281089 0 -0.38667067902898572 0.013842153393714489 0 -0.3778438638662554 0.014761087644765769 0 -0.38165634421242611 0.0056742618597281089 0 -0.37464316483836829 0.0066416053135349984 0 -0.37774077980655368 -0.001289555558904682 0 -0.38165634421242611 0.0056742618597281089 0 -0.37464316483836829 0.0066416053135349984 0 -0.3848191179490616 -0.0027051675553946518 0 -0.37774077980655368 -0.001289555558904682 0 -0.38165634421242611 0.0056742618597281089 0 -0.3848191179490616 -0.0027051675553946518 0 -0.38165634421242611 0.0056742618597281089 0 -0.38845980705381639 0.0057813395070211177 0 -0.39408165103759368 -0.0019794594859314238 0 -0.3848191179490616 -0.0027051675553946518 0 -0.38845980705381639 0.0057813395070211177 0 -0.38845980705381639 0.0057813395070211177 0 -0.38667067902898572 0.013842153393714489 0 -0.39627830677719 0.008853295208583448 0 -0.38165634421242611 0.0056742618597281089 0 -0.38845980705381639 0.0057813395070211177 0 -0.38667067902898572 0.013842153393714489 0 -0.38667067902898572 0.013842153393714489 0 -0.39627830677719 0.008853295208583448 0 -0.3946160130735708 0.021551959563878339 0 -0.39408165103759368 -0.0019794594859314238 0 -0.38845980705381639 0.0057813395070211177 0 -0.39627830677719 0.008853295208583448 0 -0.40352261506359649 -0.001038070178381474 0 -0.39408165103759368 -0.0019794594859314238 0 -0.39627830677719 0.008853295208583448 0 -0.40352261506359649 -0.001038070178381474 0 -0.40909120882054839 0.01273065398649661 0 -0.39627830677719 0.008853295208583448 0 -0.40909120882054839 0.01273065398649661 0 -0.39627830677719 0.008853295208583448 0 -0.3946160130735708 0.021551959563878339 0 -0.40909120882054839 0.01273065398649661 0 -0.40023346201329341 0.036403537517851137 0 -0.3946160130735708 0.021551959563878339 0 -0.40909120882054839 0.01273065398649661 0 -0.40023346201329341 0.036403537517851137 0 -0.40023346201329341 0.036403537517851137 0 -0.38925836826538629 0.030805614435688099 0 -0.3946160130735708 0.021551959563878339 0 -0.38696142946532958 0.1003701901717608 0 -0.40164011277457379 0.081352107660276216 0 -0.40864304721671202 0.1107171055473533 0 -0.38750957741872682 0.11885909540365321 0 -0.40864304721671202 0.1107171055473533 0 -0.39401402549175851 0.1361747599337243 0 -0.38750957741872682 0.11885909540365321 0 -0.38696142946532958 0.1003701901717608 0 -0.40864304721671202 0.1107171055473533 0 -0.38750957741872682 0.11885909540365321 0 -0.38696142946532958 0.1003701901717608 0 -0.36904533532088801 0.1177582563576956 0 -0.38696142946532958 0.1003701901717608 0 -0.37090825683648998 0.098456277756480637 0 -0.36904533532088801 0.1177582563576956 0 -0.37929074908003868 0.077603726490867345 0 -0.40164011277457379 0.081352107660276216 0 -0.38696142946532958 0.1003701901717608 0 -0.37929074908003868 0.077603726490867345 0 -0.40164011277457379 0.081352107660276216 0 -0.38696142946532958 0.1003701901717608 0 -0.37929074908003868 0.077603726490867345 0 -0.37090825683648998 0.098456277756480637 0 -0.37929074908003868 0.077603726490867345 0 -0.38848633305814179 0.065600711414542545 0 -0.36891219827968119 0.060077996683558232 0 -0.37929074908003868 0.077603726490867345 0 -0.38848633305814179 0.065600711414542545 0 -0.40164011277457379 0.081352107660276216 0 -0.38848633305814179 0.065600711414542545 0 -0.40210564328563447 0.066115584712721373 0 -0.40164011277457379 0.081352107660276216 0 -0.39689466156197101 0.057407184083191301 0 -0.38848633305814179 0.065600711414542545 0 -0.40210564328563447 0.066115584712721373 0 -0.40164011277457379 0.081352107660276216 0 -0.42398947646910912 0.085100488829685086 0 -0.40164011277457379 0.081352107660276216 0 -0.42398947646910912 0.085100488829685086 0 -0.40864304721671202 0.1107171055473533 0 -0.40210564328563447 0.066115584712721373 0 -0.40164011277457379 0.081352107660276216 0 -0.41753301535116211 0.067129086497859855 0 -0.40164011277457379 0.081352107660276216 0 -0.41753301535116211 0.067129086497859855 0 -0.42398947646910912 0.085100488829685086 0 -0.40750332447406851 0.057375884956624552 0 -0.40210564328563447 0.066115584712721373 0 -0.41753301535116211 0.067129086497859855 0 -0.41753301535116211 0.067129086497859855 0 -0.42398947646910912 0.085100488829685086 0 -0.43763284036668942 0.072255399145110422 0 -0.43187248081207541 0.055496176207803817 0 -0.41753301535116211 0.067129086497859855 0 -0.43763284036668942 0.072255399145110422 0 -0.42398947646910912 0.085100488829685086 0 -0.44633884016364428 0.088848869999093971 0 -0.42398947646910912 0.085100488829685086 0 -0.43763284036668942 0.072255399145110422 0 -0.44633884016364428 0.088848869999093971 0 -0.42398947646910912 0.085100488829685086 0 -0.42906186480059683 0.10519001099972999 0 -0.44633884016364428 0.088848869999093971 0 -0.42398947646910912 0.085100488829685086 0 -0.42906186480059683 0.10519001099972999 0 -0.40864304721671202 0.1107171055473533 0 -0.40864304721671202 0.1107171055473533 0 -0.43267942878230348 0.12559175737704789 0 -0.42906186480059683 0.10519001099972999 0 -0.40864304721671202 0.1107171055473533 0 -0.43267942878230348 0.12559175737704789 0 -0.42906186480059683 0.10519001099972999 0 -0.4489383204882843 0.11104189391905871 0 -0.43267942878230348 0.12559175737704789 0 -0.4489383204882843 0.11104189391905871 0 -0.45289828098281221 0.1241297055338681 0 -0.43267942878230348 0.12559175737704789 0 -0.4489383204882843 0.11104189391905871 0 -0.43267942878230348 0.12559175737704789 0 -0.42906186480059683 0.10519001099972999 0 -0.4489383204882843 0.11104189391905871 0 -0.44633884016364428 0.088848869999093971 0 -0.4489383204882843 0.11104189391905871 0 -0.44633884016364428 0.088848869999093971 0 -0.47121921728662652 0.096397536200283296 0 -0.46607010556719342 0.11973313861048911 0 -0.47121921728662652 0.096397536200283296 0 -0.4489383204882843 0.11104189391905871 0 -0.46607010556719342 0.11973313861048911 0 -0.47121921728662652 0.096397536200283296 0 -0.4489383204882843 0.11104189391905871 0 -0.45289828098281221 0.1241297055338681 0 -0.46607010556719342 0.11973313861048911 0 -0.45709786057011947 0.055708105081253657 0 -0.43763284036668942 0.072255399145110422 0 -0.45544766770060358 0.07348919590478746 0 -0.43763284036668942 0.072255399145110422 0 -0.44633884016364428 0.088848869999093971 0 -0.45544766770060358 0.07348919590478746 0 -0.44633884016364428 0.088848869999093971 0 -0.45544766770060358 0.07348919590478746 0 -0.47121921728662652 0.096397536200283296 0 -0.45544766770060358 0.07348919590478746 0 -0.47636832900606041 0.073061933790077832 0 -0.47121921728662652 0.096397536200283296 0 -0.45709786057011947 0.055708105081253657 0 -0.47636832900606041 0.073061933790077832 0 -0.45709786057011947 0.055708105081253657 0 -0.45544766770060358 0.07348919590478746 0 -0.47636832900606041 0.073061933790077832 0 -0.48351815486210709 0.053492846644399093 0 -0.47636832900606041 0.073061933790077832 0 -0.49140909277123612 0.074197219851226057 0 -0.47636832900606041 0.073061933790077832 0 -0.48274454235378189 0.091705374172880549 0 -0.47121921728662652 0.096397536200283296 0 -0.47636832900606041 0.073061933790077832 0 -0.47121921728662652 0.096397536200283296 0 -0.47636832900606041 0.073061933790077832 0 -0.49715897998801373 0.091784747772784503 0 -0.5 0.089727210191415163 0 -0.49715897998801373 0.091784747772784503 0 -0.49140909277123612 0.074197219851226057 0 -0.47636832900606041 0.073061933790077832 0 -0.48274454235378189 0.091705374172880549 0 -0.49715897998801373 0.091784747772784503 0 -0.47636832900606041 0.073061933790077832 0 -0.49715897998801373 0.091784747772784503 0 -0.49140909277123612 0.074197219851226057 0 -0.5 0.089727210191415163 0 -0.5 0.062919360857453976 0 -0.49140909277123612 0.074197219851226057 0 -0.48351815486210709 0.053492846644399093 0 -0.5 0.062919360857453976 0 -0.49140909277123612 0.074197219851226057 0 -0.46607010556719342 0.11973313861048911 0 -0.48623164313442779 0.1055772789283768 0 -0.48453668432005692 0.123143207324586 0 -0.46607010556719342 0.11973313861048911 0 -0.47121921728662652 0.096397536200283296 0 -0.48623164313442779 0.1055772789283768 0 -0.48274454235378189 0.091705374172880549 0 -0.47121921728662652 0.096397536200283296 0 -0.48623164313442779 0.1055772789283768 0 -0.5 0.089727210191415163 0 -0.49715897998801373 0.091784747772784503 0 -0.5 0.1165350595253765 0 -0.49715897998801373 0.091784747772784503 0 -0.48623164313442779 0.1055772789283768 0 -0.5 0.1165350595253765 0 -0.48274454235378189 0.091705374172880549 0 -0.49715897998801373 0.091784747772784503 0 -0.48623164313442779 0.1055772789283768 0 -0.48623164313442779 0.1055772789283768 0 -0.5 0.1165350595253765 0 -0.48453668432005692 0.123143207324586 0 -0.5 0.1165350595253765 0 -0.48453668432005692 0.123143207324586 0 -0.5 0.1433429088593379 0 -0.48453668432005692 0.123143207324586 0 -0.48049738108946538 0.1379484740379 0 -0.5 0.1433429088593379 0 -0.46607010556719342 0.11973313861048911 0 -0.48453668432005692 0.123143207324586 0 -0.48049738108946538 0.1379484740379 0 -0.46607010556719342 0.11973313861048911 0 -0.48049738108946538 0.1379484740379 0 -0.46092099384776192 0.14306874102069511 0 -0.48464943840857888 0.15775282940309851 0 -0.46990863904630059 0.1670362475492525 0 -0.46092099384776192 0.14306874102069511 0 -0.48464943840857888 0.15775282940309851 0 -0.46092099384776192 0.14306874102069511 0 -0.48049738108946538 0.1379484740379 0 -0.48464943840857888 0.15775282940309851 0 -0.46092099384776192 0.14306874102069511 0 -0.48049738108946538 0.1379484740379 0 -0.5 0.1433429088593379 0 -0.48464943840857888 0.15775282940309851 0 -0.48464943840857888 0.15775282940309851 0 -0.5 0.17015075819329931 0 -0.4898809761324775 0.17912292006808481 0 -0.5 0.1433429088593379 0 -0.48464943840857888 0.15775282940309851 0 -0.5 0.17015075819329931 0 -0.48464943840857888 0.15775282940309851 0 -0.4898809761324775 0.17912292006808481 0 -0.47865635922375932 0.17909963177513319 0 -0.5 0.17015075819329931 0 -0.4898809761324775 0.17912292006808481 0 -0.5 0.19695860752726069 0 -0.4898809761324775 0.17912292006808481 0 -0.47865635922375932 0.17909963177513319 0 -0.48609908303004917 0.1916527734416324 0 -0.47865635922375932 0.17909963177513319 0 -0.47279817792341111 0.1948006201282925 0 -0.47865635922375932 0.17909963177513319 0 -0.46589335310649882 0.18744802338852329 0 -0.47279817792341111 0.1948006201282925 0 -0.47865635922375932 0.17909963177513319 0 -0.46927870962167312 0.17493875400548389 0 -0.46990863904630059 0.1670362475492525 0 -0.47865635922375932 0.17909963177513319 0 -0.46927870962167312 0.17493875400548389 0 -0.46555461593459269 0.18128722400797501 0 -0.47865635922375932 0.17909963177513319 0 -0.46589335310649882 0.18744802338852329 0 -0.46555461593459269 0.18128722400797501 0 -0.48464943840857888 0.15775282940309851 0 -0.47865635922375932 0.17909963177513319 0 -0.46990863904630059 0.1670362475492525 0 -0.45742932361540911 0.15889287394486271 0 -0.45393765338305497 0.17471700686903011 0 -0.46990863904630059 0.1670362475492525 0 -0.45742932361540911 0.15889287394486271 0 -0.46092099384776192 0.14306874102069511 0 -0.45742932361540911 0.15889287394486271 0 -0.46299522428203971 0.17233191268957501 0 -0.45393765338305497 0.17471700686903011 0 -0.46927870962167312 0.17493875400548389 0 -0.46990863904630059 0.1670362475492525 0 -0.46299522428203971 0.17233191268957501 0 -0.46990863904630059 0.1670362475492525 0 -0.45742932361540911 0.15889287394486271 0 -0.46299522428203971 0.17233191268957501 0 -0.46589335310649882 0.18744802338852329 0 -0.46555461593459269 0.18128722400797501 0 -0.45393765338305497 0.17471700686903011 0 -0.46589335310649882 0.18744802338852329 0 -0.46555461593459269 0.18128722400797501 0 -0.46927870962167312 0.17493875400548389 0 -0.46555461593459269 0.18128722400797501 0 -0.46299522428203971 0.17233191268957501 0 -0.46555461593459269 0.18128722400797501 0 -0.46299522428203971 0.17233191268957501 0 -0.45393765338305497 0.17471700686903011 0 -0.46589335310649882 0.18744802338852329 0 -0.45393765338305497 0.17471700686903011 0 -0.45393765338305497 0.17471700686903011 0 -0.44047241453070329 0.18324079402305421 0 -0.44820564853932793 0.20069426145875721 0 -0.45393765338305497 0.17471700686903011 0 -0.44047241453070329 0.18324079402305421 0 -0.44174290600336708 0.16173144065936321 0 -0.45742932361540911 0.15889287394486271 0 -0.44174290600336708 0.16173144065936321 0 -0.44616928685712581 0.1494742970518641 0 -0.45742932361540911 0.15889287394486271 0 -0.45393765338305497 0.17471700686903011 0 -0.44174290600336708 0.16173144065936321 0 -0.45393765338305497 0.17471700686903011 0 -0.44174290600336708 0.16173144065936321 0 -0.44174290600336708 0.16173144065936321 0 -0.44616928685712581 0.1494742970518641 0 -0.43187713239064979 0.1573343508491826 0 -0.44616928685712581 0.1494742970518641 0 -0.43700896048386301 0.14249666109927989 0 -0.43187713239064979 0.1573343508491826 0 -0.44616928685712581 0.1494742970518641 0 -0.44680021131503311 0.13433024919887079 0 -0.46092099384776192 0.14306874102069511 0 -0.44616928685712581 0.1494742970518641 0 -0.44680021131503311 0.13433024919887079 0 -0.43700896048386301 0.14249666109927989 0 -0.45289828098281221 0.1241297055338681 0 -0.44680021131503311 0.13433024919887079 0 -0.43267942878230348 0.12559175737704789 0 -0.44680021131503311 0.13433024919887079 0 -0.43267942878230348 0.12559175737704789 0 -0.43700896048386301 0.14249666109927989 0 -0.44680021131503311 0.13433024919887079 0 -0.43267942878230348 0.12559175737704789 0 -0.45289828098281221 0.1241297055338681 0 -0.44680021131503311 0.13433024919887079 0 -0.46092099384776192 0.14306874102069511 0 -0.46607010556719342 0.11973313861048911 0 -0.46092099384776192 0.14306874102069511 0 -0.45289828098281221 0.1241297055338681 0 -0.46607010556719342 0.11973313861048911 0 -0.46092099384776192 0.14306874102069511 0 -0.44680021131503311 0.13433024919887079 0 -0.46092099384776192 0.14306874102069511 0 -0.45742932361540911 0.15889287394486271 0 -0.46092099384776192 0.14306874102069511 0 -0.45742932361540911 0.15889287394486271 0 -0.44616928685712581 0.1494742970518641 0 -0.46092099384776192 0.14306874102069511 0 -0.46853242371352971 0.23544625301742969 0 -0.46993231893463527 0.26090691788180947 0 -0.48177750529808522 0.24619974485466931 0 -0.46853242371352971 0.23544625301742969 0 -0.46993231893463527 0.26090691788180947 0 -0.48177750529808522 0.24619974485466931 0 -0.48375626182904402 0.22755154475287301 0 -0.46853242371352971 0.23544625301742969 0 -0.48177750529808522 0.24619974485466931 0 -0.5 0.2461359573144368 0 -0.48375626182904402 0.22755154475287301 0 -0.5 0.2461359573144368 0 -0.48375626182904402 0.22755154475287301 0 -0.49999999999999978 0.22376645686122221 0 -0.48375626182904402 0.22755154475287301 0 -0.48639908896170481 0.20928353849475789 0 -0.5 0.2461359573144368 0 -0.49999999999999978 0.22376645686122221 0 -0.48375626182904402 0.22755154475287301 0 -0.47173343442327142 0.22048762952866541 0 -0.46713252849242448 0.20998558815304991 0 -0.46853242371352971 0.23544625301742969 0 -0.48375626182904402 0.22755154475287301 0 -0.47173343442327142 0.22048762952866541 0 -0.4670472636537164 0.20843482960316059 0 -0.48375626182904402 0.22755154475287301 0 -0.47173343442327142 0.22048762952866541 0 -0.46853242371352971 0.23544625301742969 0 -0.48375626182904402 0.22755154475287301 0 -0.4670472636537164 0.20843482960316059 0 -0.48639908896170481 0.20928353849475789 0 -0.47279817792341111 0.1948006201282925 0 -0.4670472636537164 0.20843482960316059 0 -0.48375626182904402 0.22755154475287301 0 -0.48639908896170481 0.20928353849475789 0 -0.4670472636537164 0.20843482960316059 0 -0.49999999999999978 0.22376645686122221 0 -0.48639908896170481 0.20928353849475789 0 -0.5 0.19695860752726069 0 -0.49999999999999978 0.22376645686122221 0 -0.48639908896170481 0.20928353849475789 0 -0.48639908896170481 0.20928353849475789 0 -0.5 0.19695860752726069 0 -0.48609908303004917 0.1916527734416324 0 -0.4898809761324775 0.17912292006808481 0 -0.5 0.19695860752726069 0 -0.48609908303004917 0.1916527734416324 0 -0.48639908896170481 0.20928353849475789 0 -0.48609908303004917 0.1916527734416324 0 -0.47279817792341111 0.1948006201282925 0 -0.47865635922375932 0.17909963177513319 0 -0.48609908303004917 0.1916527734416324 0 -0.47279817792341111 0.1948006201282925 0 -0.48639908896170481 0.20928353849475789 0 -0.47279817792341111 0.1948006201282925 0 -0.47279817792341111 0.1948006201282925 0 -0.4670472636537164 0.20843482960316059 0 -0.46589335310649882 0.18744802338852329 0 -0.47279817792341111 0.1948006201282925 0 -0.46589335310649882 0.18744802338852329 0 -0.4603250720810298 0.20074399020462361 0 -0.4670472636537164 0.20843482960316059 0 -0.46589335310649882 0.18744802338852329 0 -0.45393765338305497 0.17471700686903011 0 -0.44820564853932793 0.20069426145875721 0 -0.46589335310649882 0.18744802338852329 0 -0.4603250720810298 0.20074399020462361 0 -0.44820564853932793 0.20069426145875721 0 -0.46589335310649882 0.18744802338852329 0 -0.47279817792341111 0.1948006201282925 0 -0.4670472636537164 0.20843482960316059 0 -0.46589335310649882 0.18744802338852329 0 -0.4670472636537164 0.20843482960316059 0 -0.45393765338305497 0.17471700686903011 0 -0.44820564853932793 0.20069426145875721 0 -0.44820564853932793 0.20069426145875721 0 -0.45427794118362658 0.21265328965042851 0 -0.44247364369559788 0.22667151604848371 0 -0.44820564853932793 0.20069426145875721 0 -0.44247364369559788 0.22667151604848371 0 -0.44820564853932793 0.20069426145875721 0 -0.44247364369559788 0.22667151604848371 0 -0.42336320141575168 0.21609666274764849 0 -0.45880341375183131 0.2186303689721085 0 -0.45427794118362658 0.21265328965042851 0 -0.46188137931700068 0.21002659871962689 0 -0.45880341375183131 0.2186303689721085 0 -0.45427794118362658 0.21265328965042851 0 -0.4536201791639074 0.2236252940046442 0 -0.4603250720810298 0.20074399020462361 0 -0.45427794118362658 0.21265328965042851 0 -0.46188137931700068 0.21002659871962689 0 -0.4603250720810298 0.20074399020462361 0 -0.44820564853932793 0.20069426145875721 0 -0.45427794118362658 0.21265328965042851 0 -0.4603250720810298 0.20074399020462361 0 -0.46188137931700068 0.21002659871962689 0 -0.4670472636537164 0.20843482960316059 0 -0.4603250720810298 0.20074399020462361 0 -0.4670472636537164 0.20843482960316059 0 -0.46188137931700068 0.21002659871962689 0 -0.4670472636537164 0.20843482960316059 0 -0.46713252849242448 0.20998558815304991 0 -0.4670472636537164 0.20843482960316059 0 -0.46713252849242448 0.20998558815304991 0 -0.47173343442327142 0.22048762952866541 0 -0.4670472636537164 0.20843482960316059 0 -0.46713252849242448 0.20998558815304991 0 -0.45880341375183131 0.2186303689721085 0 -0.46188137931700068 0.21002659871962689 0 -0.46713252849242448 0.20998558815304991 0 -0.46713252849242448 0.20998558815304991 0 -0.45710504060219709 0.23686107433279269 0 -0.46713252849242448 0.20998558815304991 0 -0.45710504060219709 0.23686107433279269 0 -0.46853242371352971 0.23544625301742969 0 -0.45880341375183131 0.2186303689721085 0 -0.46713252849242448 0.20998558815304991 0 -0.45710504060219709 0.23686107433279269 0 -0.45880341375183131 0.2186303689721085 0 -0.4536201791639074 0.2236252940046442 0 -0.45710504060219709 0.23686107433279269 0 -0.46713252849242448 0.20998558815304991 0 -0.46853242371352971 0.23544625301742969 0 -0.45427794118362658 0.21265328965042851 0 -0.4536201791639074 0.2236252940046442 0 -0.44247364369559788 0.22667151604848371 0 -0.4536201791639074 0.2236252940046442 0 -0.44247364369559788 0.22667151604848371 0 -0.45710504060219709 0.23686107433279269 0 -0.44247364369559788 0.22667151604848371 0 -0.4367416388518679 0.25264877063821017 0 -0.44247364369559788 0.22667151604848371 0 -0.45710504060219709 0.23686107433279269 0 -0.4367416388518679 0.25264877063821017 0 -0.45710504060219709 0.23686107433279269 0 -0.46853242371352971 0.23544625301742969 0 -0.46993231893463527 0.26090691788180947 0 -0.41931835140954682 0.23739665832436521 0 -0.40367044579520373 0.24132688110038639 0 -0.41175872593851298 0.2549478601346914 0 -0.41931835140954682 0.23739665832436521 0 -0.40790513800462019 0.22799805468035339 0 -0.40367044579520373 0.24132688110038639 0 -0.41931835140954682 0.23739665832436521 0 -0.4367416388518679 0.25264877063821017 0 -0.41175872593851298 0.2549478601346914 0 -0.44247364369559788 0.22667151604848371 0 -0.41931835140954682 0.23739665832436521 0 -0.4367416388518679 0.25264877063821017 0 -0.44247364369559788 0.22667151604848371 0 -0.41931835140954682 0.23739665832436521 0 -0.42336320141575168 0.21609666274764849 0 -0.41931835140954682 0.23739665832436521 0 -0.40790513800462019 0.22799805468035339 0 -0.42336320141575168 0.21609666274764849 0 -0.40790513800462019 0.22799805468035339 0 -0.42336320141575168 0.21609666274764849 0 -0.40538393777915788 0.2123952851453417 0 -0.42336320141575168 0.21609666274764849 0 -0.42071240458675369 0.1920614743917832 0 -0.40538393777915788 0.2123952851453417 0 -0.44820564853932793 0.20069426145875721 0 -0.42336320141575168 0.21609666274764849 0 -0.42071240458675369 0.1920614743917832 0 -0.44047241453070329 0.18324079402305421 0 -0.44820564853932793 0.20069426145875721 0 -0.42071240458675369 0.1920614743917832 0 -0.42071240458675369 0.1920614743917832 0 -0.40538393777915788 0.2123952851453417 0 -0.42071240458675369 0.1920614743917832 0 -0.4022878927449296 0.1970928012265635 0 -0.40298680868332198 0.18508216307238631 0 -0.42071240458675369 0.1920614743917832 0 -0.4022878927449296 0.1970928012265635 0 -0.40538393777915788 0.2123952851453417 0 -0.4022878927449296 0.1970928012265635 0 -0.39286614404695941 0.1920732104686422 0 -0.40298680868332198 0.18508216307238631 0 -0.4022878927449296 0.1970928012265635 0 -0.39286614404695941 0.1920732104686422 0 -0.39380007669083689 0.206464460861051 0 -0.38422654444444693 0.2008322729754812 0 -0.38088029112643113 0.1825210369279657 0 -0.38422654444444693 0.2008322729754812 0 -0.38088029112643113 0.1825210369279657 0 -0.36802074197771562 0.19700904511440151 0 -0.38422654444444693 0.2008322729754812 0 -0.37368745339656201 0.20924711939208951 0 -0.36802074197771562 0.19700904511440151 0 -0.39286614404695941 0.1920732104686422 0 -0.38422654444444693 0.2008322729754812 0 -0.38088029112643113 0.1825210369279657 0 -0.39286614404695941 0.1920732104686422 0 -0.38422654444444693 0.2008322729754812 0 -0.39380007669083689 0.206464460861051 0 -0.38422654444444693 0.2008322729754812 0 -0.38757279776246373 0.21914350902299659 0 -0.38757279776246373 0.21914350902299659 0 -0.36800338097472479 0.22147713987588341 0 -0.37368745339656201 0.20924711939208951 0 -0.38422654444444693 0.2008322729754812 0 -0.39380007669083689 0.206464460861051 0 -0.38757279776246373 0.21914350902299659 0 -0.38422654444444693 0.2008322729754812 0 -0.38757279776246373 0.21914350902299659 0 -0.37368745339656201 0.20924711939208951 0 -0.39141353052387118 0.2186855059784025 0 -0.39380007669083689 0.206464460861051 0 -0.38757279776246373 0.21914350902299659 0 -0.39141353052387118 0.2186855059784025 0 -0.39380007669083689 0.206464460861051 0 -0.40538393777915788 0.2123952851453417 0 -0.4022878927449296 0.1970928012265635 0 -0.39380007669083689 0.206464460861051 0 -0.40538393777915788 0.2123952851453417 0 -0.40790513800462019 0.22799805468035339 0 -0.39005547097156312 0.23272909589890109 0 -0.40367044579520373 0.24132688110038639 0 -0.39141353052387118 0.2186855059784025 0 -0.40538393777915788 0.2123952851453417 0 -0.39005547097156312 0.23272909589890109 0 -0.40790513800462019 0.22799805468035339 0 -0.40538393777915788 0.2123952851453417 0 -0.39005547097156312 0.23272909589890109 0 -0.40538393777915788 0.2123952851453417 0 -0.39005547097156312 0.23272909589890109 0 -0.38757279776246373 0.21914350902299659 0 -0.39005547097156312 0.23272909589890109 0 -0.38757279776246373 0.21914350902299659 0 -0.36800338097472479 0.22147713987588341 0 -0.39141353052387118 0.2186855059784025 0 -0.38757279776246373 0.21914350902299659 0 -0.39005547097156312 0.23272909589890109 0 -0.38757279776246373 0.21914350902299659 0 -0.37939186114838758 0.22424627805714001 0 -0.36800338097472479 0.22147713987588341 0 -0.38757279776246373 0.21914350902299659 0 -0.37939186114838758 0.22424627805714001 0 -0.39005547097156312 0.23272909589890109 0 -0.39141353052387118 0.2186855059784025 0 -0.38757279776246373 0.21914350902299659 0 -0.37939186114838758 0.22424627805714001 0 -0.37477717689163992 0.25299635056682518 0 -0.39005547097156312 0.23272909589890109 0 -0.39384597734802013 0.25347135609337229 0 -0.37477717689163992 0.25299635056682518 0 -0.37939186114838758 0.22424627805714001 0 -0.39005547097156312 0.23272909589890109 0 -0.37477717689163992 0.25299635056682518 0 -0.39005547097156312 0.23272909589890109 0 -0.37477717689163992 0.25299635056682518 0 -0.40367044579520373 0.24132688110038639 0 -0.41175872593851298 0.2549478601346914 0 -0.39384597734802013 0.25347135609337229 0 -0.39005547097156312 0.23272909589890109 0 -0.39384597734802013 0.25347135609337229 0 -0.39005547097156312 0.23272909589890109 0 -0.40367044579520373 0.24132688110038639 0 -0.39384597734802013 0.25347135609337229 0 -0.41485942150404181 0.14153864215909739 0 -0.41553858058260518 0.15317901213210369 0 -0.42574561826610652 0.14613969243370301 0 -0.41553858058260518 0.15317901213210369 0 -0.42574561826610652 0.14613969243370301 0 -0.42127399236650492 0.15770626544657529 0 -0.41485942150404181 0.14153864215909739 0 -0.41553858058260518 0.15317901213210369 0 -0.4044664398419977 0.15594807455379561 0 -0.40864304721671202 0.1107171055473533 0 -0.41485942150404181 0.14153864215909739 0 -0.43267942878230348 0.12559175737704789 0 -0.41485942150404181 0.14153864215909739 0 -0.43267942878230348 0.12559175737704789 0 -0.42574561826610652 0.14613969243370301 0 -0.43267942878230348 0.12559175737704789 0 -0.43700896048386301 0.14249666109927989 0 -0.42574561826610652 0.14613969243370301 0 -0.41485942150404181 0.14153864215909739 0 -0.43267942878230348 0.12559175737704789 0 -0.42574561826610652 0.14613969243370301 0 -0.43187713239064979 0.1573343508491826 0 -0.42127399236650492 0.15770626544657529 0 -0.43700896048386301 0.14249666109927989 0 -0.42574561826610652 0.14613969243370301 0 -0.43187713239064979 0.1573343508491826 0 -0.43187713239064979 0.1573343508491826 0 -0.42946357341586749 0.17496324995209989 0 -0.4216380035134229 0.16659483191912641 0 -0.44174290600336708 0.16173144065936321 0 -0.43187713239064979 0.1573343508491826 0 -0.42946357341586749 0.17496324995209989 0 -0.43187713239064979 0.1573343508491826 0 -0.42127399236650492 0.15770626544657529 0 -0.4216380035134229 0.16659483191912641 0 -0.44047241453070329 0.18324079402305421 0 -0.44174290600336708 0.16173144065936321 0 -0.42946357341586749 0.17496324995209989 0 -0.44047241453070329 0.18324079402305421 0 -0.42071240458675369 0.1920614743917832 0 -0.42946357341586749 0.17496324995209989 0 -0.42071240458675369 0.1920614743917832 0 -0.42946357341586749 0.17496324995209989 0 -0.41235879422937732 0.17543682721938669 0 -0.42071240458675369 0.1920614743917832 0 -0.41235879422937732 0.17543682721938669 0 -0.40298680868332198 0.18508216307238631 0 -0.42946357341586749 0.17496324995209989 0 -0.41235879422937732 0.17543682721938669 0 -0.4216380035134229 0.16659483191912641 0 -0.41553858058260518 0.15317901213210369 0 -0.42127399236650492 0.15770626544657529 0 -0.41302135350813218 0.1630654313638546 0 -0.42127399236650492 0.15770626544657529 0 -0.4216380035134229 0.16659483191912641 0 -0.41302135350813218 0.1630654313638546 0 -0.41235879422937732 0.17543682721938669 0 -0.4216380035134229 0.16659483191912641 0 -0.41302135350813218 0.1630654313638546 0 -0.41235879422937732 0.17543682721938669 0 -0.41302135350813218 0.1630654313638546 0 -0.40449990094882532 0.16792382984329149 0 -0.41302135350813218 0.1630654313638546 0 -0.40449990094882532 0.16792382984329149 0 -0.4044664398419977 0.15594807455379561 0 -0.41553858058260518 0.15317901213210369 0 -0.41302135350813218 0.1630654313638546 0 -0.4044664398419977 0.15594807455379561 0 -0.3926733654842145 0.1692345557408807 0 -0.4044664398419977 0.15594807455379561 0 -0.40449990094882532 0.16792382984329149 0 -0.3926733654842145 0.1692345557408807 0 -0.40078474618547688 0.17571320347163299 0 -0.40449990094882532 0.16792382984329149 0 -0.3926733654842145 0.1692345557408807 0 -0.4044664398419977 0.15594807455379561 0 -0.3926733654842145 0.1692345557408807 0 -0.39703941422577987 0.15748552694114659 0 -0.4044664398419977 0.15594807455379561 0 -0.40298680868332198 0.18508216307238631 0 -0.40078474618547688 0.17571320347163299 0 -0.39301525059178999 0.18044652774840561 0 -0.41235879422937732 0.17543682721938669 0 -0.40298680868332198 0.18508216307238631 0 -0.40078474618547688 0.17571320347163299 0 -0.41235879422937732 0.17543682721938669 0 -0.40449990094882532 0.16792382984329149 0 -0.40078474618547688 0.17571320347163299 0 -0.3926733654842145 0.1692345557408807 0 -0.40078474618547688 0.17571320347163299 0 -0.39301525059178999 0.18044652774840561 0 -0.39286614404695941 0.1920732104686422 0 -0.40298680868332198 0.18508216307238631 0 -0.39301525059178999 0.18044652774840561 0 -0.39286614404695941 0.1920732104686422 0 -0.39301525059178999 0.18044652774840561 0 -0.38088029112643113 0.1825210369279657 0 -0.3926733654842145 0.1692345557408807 0 -0.38088029112643113 0.1825210369279657 0 -0.3926733654842145 0.1692345557408807 0 -0.39301525059178999 0.18044652774840561 0 -0.38088029112643113 0.1825210369279657 0 -0.3926733654842145 0.1692345557408807 0 -0.37921940694751782 0.17343241172319571 0 -0.38088029112643113 0.1825210369279657 0 -0.37921940694751782 0.17343241172319571 0 -0.38088029112643113 0.1825210369279657 0 -0.37921940694751782 0.17343241172319571 0 -0.38088029112643113 0.1825210369279657 0 -0.37283571032282492 0.1791450959532255 0 -0.3784015845151173 0.16895715591276281 0 -0.37283571032282492 0.1791450959532255 0 -0.37921940694751782 0.17343241172319571 0 -0.3784015845151173 0.16895715591276281 0 -0.37283571032282492 0.1791450959532255 0 -0.37921940694751782 0.17343241172319571 0 -0.37283571032282492 0.1791450959532255 0 -0.39703941422577987 0.15748552694114659 0 -0.37921940694751782 0.17343241172319571 0 -0.38193020105096481 0.16249827228531991 0 -0.3784015845151173 0.16895715591276281 0 -0.38193020105096481 0.16249827228531991 0 -0.37372345991800282 0.14335770613522919 0 -0.39703941422577987 0.15748552694114659 0 -0.37921940694751782 0.17343241172319571 0 -0.3926733654842145 0.1692345557408807 0 -0.39703941422577987 0.15748552694114659 0 -0.37921940694751782 0.17343241172319571 0 -0.39703941422577987 0.15748552694114659 0 -0.38193020105096481 0.16249827228531991 0 -0.38598126975628672 0.1494316781992327 0 -0.37921940694751782 0.17343241172319571 0 -0.3784015845151173 0.16895715591276281 0 -0.38193020105096481 0.16249827228531991 0 -0.3784015845151173 0.16895715591276281 0 -0.38193020105096481 0.16249827228531991 0 -0.37921940694751782 0.17343241172319571 0 -0.3784015845151173 0.16895715591276281 0 -0.38598126975628672 0.1494316781992327 0 -0.39401402549175851 0.1361747599337243 0 -0.37372345991800282 0.14335770613522919 0 -0.38193020105096481 0.16249827228531991 0 -0.38598126975628672 0.1494316781992327 0 -0.37372345991800282 0.14335770613522919 0 -0.3784015845151173 0.16895715591276281 0 -0.37372345991800282 0.14335770613522919 0 -0.39703941422577987 0.15748552694114659 0 -0.38598126975628672 0.1494316781992327 0 -0.39401402549175851 0.1361747599337243 0 -0.41485942150404181 0.14153864215909739 0 -0.39703941422577987 0.15748552694114659 0 -0.39401402549175851 0.1361747599337243 0 -0.41485942150404181 0.14153864215909739 0 -0.39703941422577987 0.15748552694114659 0 -0.4044664398419977 0.15594807455379561 0 -0.41485942150404181 0.14153864215909739 0 -0.39703941422577987 0.15748552694114659 0 -0.40864304721671202 0.1107171055473533 0 -0.41485942150404181 0.14153864215909739 0 -0.39401402549175851 0.1361747599337243 0 -0.38750957741872682 0.11885909540365321 0 -0.37372345991800282 0.14335770613522919 0 -0.36904533532088801 0.1177582563576956 0 -0.38750957741872682 0.11885909540365321 0 -0.39401402549175851 0.1361747599337243 0 -0.37372345991800282 0.14335770613522919 0 -0.35823941519022368 0.13573745574644491 0 -0.37372345991800282 0.14335770613522919 0 -0.36904533532088801 0.1177582563576956 0 -0.37372345991800282 0.14335770613522919 0 -0.36904533532088801 0.1177582563576956 0 -0.35823941519022368 0.13573745574644491 0 -0.34455851703438989 0.13305210298766909 0 -0.35158166360451942 0.11704707172714621 0 -0.35823941519022368 0.13573745574644491 0 -0.34455851703438989 0.13305210298766909 0 -0.34873147585397152 0.15030858297792049 0 -0.35823941519022368 0.13573745574644491 0 -0.34873147585397152 0.15030858297792049 0 -0.36179603940957061 0.15290101429300901 0 -0.34873147585397152 0.15030858297792049 0 -0.34720568730415252 0.1616956217090188 0 -0.33647431770126862 0.14798842126345041 0 -0.34873147585397152 0.15030858297792049 0 -0.36179603940957061 0.15290101429300901 0 -0.35552330674067661 0.16014073544654131 0 -0.35823941519022368 0.13573745574644491 0 -0.36179603940957061 0.15290101429300901 0 -0.37372345991800282 0.14335770613522919 0 -0.3784015845151173 0.16895715591276281 0 -0.36179603940957061 0.15290101429300901 0 -0.37372345991800282 0.14335770613522919 0 -0.3784015845151173 0.16895715591276281 0 -0.36179603940957061 0.15290101429300901 0 -0.3628088848288224 0.16705289795690309 0 -0.3784015845151173 0.16895715591276281 0 -0.3628088848288224 0.16705289795690309 0 -0.36959790597703868 0.17377317275203899 0 -0.36179603940957061 0.15290101429300901 0 -0.3628088848288224 0.16705289795690309 0 -0.35552330674067661 0.16014073544654131 0 -0.38088029112643113 0.1825210369279657 0 -0.37283571032282492 0.1791450959532255 0 -0.36802074197771562 0.19700904511440151 0 -0.37283571032282492 0.1791450959532255 0 -0.36399845157591232 0.19532107462703119 0 -0.37283571032282492 0.1791450959532255 0 -0.36261880381503758 0.18828806813974089 0 -0.3784015845151173 0.16895715591276281 0 -0.36959790597703868 0.17377317275203899 0 -0.37283571032282492 0.1791450959532255 0 -0.36959790597703868 0.17377317275203899 0 -0.37283571032282492 0.1791450959532255 0 -0.36409588864576692 0.17933358541092431 0 -0.3628088848288224 0.16705289795690309 0 -0.36959790597703868 0.17377317275203899 0 -0.36409588864576692 0.17933358541092431 0 -0.3628088848288224 0.16705289795690309 0 -0.36409588864576692 0.17933358541092431 0 -0.35614161380151321 0.17761165346375071 0 -0.36409588864576692 0.17933358541092431 0 -0.35797279878738592 0.18411861580098379 0 -0.35614161380151321 0.17761165346375071 0 -0.36409588864576692 0.17933358541092431 0 -0.35797279878738592 0.18411861580098379 0 -0.36261880381503758 0.18828806813974089 0 -0.37283571032282492 0.1791450959532255 0 -0.36409588864576692 0.17933358541092431 0 -0.36261880381503758 0.18828806813974089 0 -0.35797279878738592 0.18411861580098379 0 -0.35614161380151321 0.17761165346375071 0 -0.35065229879255438 0.18593262723135329 0 -0.35797279878738592 0.18411861580098379 0 -0.35065229879255438 0.18593262723135329 0 -0.35645772166264922 0.19211102842263869 0 -0.35614161380151321 0.17761165346375071 0 -0.34811061985946878 0.17434540014992381 0 -0.35436851446084039 0.1683048517912053 0 -0.35614161380151321 0.17761165346375071 0 -0.34811061985946878 0.17434540014992381 0 -0.35065229879255438 0.18593262723135329 0 -0.35065229879255438 0.18593262723135329 0 -0.34227569468909552 0.1811403169530669 0 -0.33993633525554889 0.19055096072852831 0 -0.34811061985946878 0.17434540014992381 0 -0.35065229879255438 0.18593262723135329 0 -0.34227569468909552 0.1811403169530669 0 -0.35552330674067661 0.16014073544654131 0 -0.35436851446084039 0.1683048517912053 0 -0.34720568730415252 0.1616956217090188 0 -0.3628088848288224 0.16705289795690309 0 -0.35614161380151321 0.17761165346375071 0 -0.35436851446084039 0.1683048517912053 0 -0.3628088848288224 0.16705289795690309 0 -0.35552330674067661 0.16014073544654131 0 -0.35436851446084039 0.1683048517912053 0 -0.34811061985946878 0.17434540014992381 0 -0.34720568730415252 0.1616956217090188 0 -0.33801991010865667 0.17138732975114751 0 -0.34811061985946878 0.17434540014992381 0 -0.35436851446084039 0.1683048517912053 0 -0.34720568730415252 0.1616956217090188 0 -0.34873147585397152 0.15030858297792049 0 -0.35552330674067661 0.16014073544654131 0 -0.34720568730415252 0.1616956217090188 0 -0.34720568730415252 0.1616956217090188 0 -0.33801991010865667 0.17138732975114751 0 -0.33092539158612982 0.1609515407851054 0 -0.34720568730415252 0.1616956217090188 0 -0.33092539158612982 0.1609515407851054 0 -0.33647431770126862 0.14798842126345041 0 -0.33801991010865667 0.17138732975114751 0 -0.33092539158612982 0.1609515407851054 0 -0.3265778886375873 0.17202186172735501 0 -0.34227569468909552 0.1811403169530669 0 -0.33183788287013261 0.1831818366374682 0 -0.33993633525554889 0.19055096072852831 0 -0.34811061985946878 0.17434540014992381 0 -0.33801991010865667 0.17138732975114751 0 -0.34227569468909552 0.1811403169530669 0 -0.33801991010865667 0.17138732975114751 0 -0.34227569468909552 0.1811403169530669 0 -0.33183788287013261 0.1831818366374682 0 -0.33801991010865667 0.17138732975114751 0 -0.33183788287013261 0.1831818366374682 0 -0.3265778886375873 0.17202186172735501 0 -0.3265778886375873 0.17202186172735501 0 -0.31632076704925127 0.18575639557221951 0 -0.3167678101826048 0.16359462978275929 0 -0.33183788287013261 0.1831818366374682 0 -0.3265778886375873 0.17202186172735501 0 -0.31632076704925127 0.18575639557221951 0 -0.33092539158612982 0.1609515407851054 0 -0.3167678101826048 0.16359462978275929 0 -0.32050673558250908 0.1490213804769015 0 -0.33092539158612982 0.1609515407851054 0 -0.3265778886375873 0.17202186172735501 0 -0.3167678101826048 0.16359462978275929 0 -0.32050673558250908 0.1490213804769015 0 -0.30739524272803709 0.15185112365938391 0 -0.31211500736378339 0.1240031522641292 0 -0.3167678101826048 0.16359462978275929 0 -0.32050673558250908 0.1490213804769015 0 -0.30739524272803709 0.15185112365938391 0 -0.32050673558250908 0.1490213804769015 0 -0.30739524272803709 0.15185112365938391 0 -0.32919359534549508 0.13424827028365749 0 -0.31211500736378339 0.1240031522641292 0 -0.33231339904552459 0.1171762944261375 0 -0.32050673558250908 0.1490213804769015 0 -0.32919359534549508 0.13424827028365749 0 -0.31211500736378339 0.1240031522641292 0 -0.34455851703438989 0.13305210298766909 0 -0.32919359534549508 0.13424827028365749 0 -0.33231339904552459 0.1171762944261375 0 -0.34455851703438989 0.13305210298766909 0 -0.32919359534549508 0.13424827028365749 0 -0.33647431770126862 0.14798842126345041 0 -0.32050673558250908 0.1490213804769015 0 -0.32919359534549508 0.13424827028365749 0 -0.33647431770126862 0.14798842126345041 0 -0.33092539158612982 0.1609515407851054 0 -0.32050673558250908 0.1490213804769015 0 -0.33647431770126862 0.14798842126345041 0 -0.34455851703438989 0.13305210298766909 0 -0.34873147585397152 0.15030858297792049 0 -0.33647431770126862 0.14798842126345041 0 -0.35416421148584648 0.23888623464626721 0 -0.34843396418698602 0.22381077072877051 0 -0.33845336435013867 0.242079554605789 0 -0.35416421148584648 0.23888623464626721 0 -0.33845336435013867 0.242079554605789 0 -0.35464358931248319 0.25491115920099722 0 -0.37939186114838758 0.22424627805714001 0 -0.37013679196984273 0.23750613219799629 0 -0.37477717689163992 0.25299635056682518 0 -0.37013679196984273 0.23750613219799629 0 -0.35464358931248319 0.25491115920099722 0 -0.37477717689163992 0.25299635056682518 0 -0.35416421148584648 0.23888623464626721 0 -0.37013679196984273 0.23750613219799629 0 -0.35464358931248319 0.25491115920099722 0 -0.35416421148584648 0.23888623464626721 0 -0.37013679196984273 0.23750613219799629 0 -0.36148561266771267 0.2305011068434443 0 -0.36148561266771267 0.2305011068434443 0 -0.36975441169016687 0.228432664243616 0 -0.36800338097472479 0.22147713987588341 0 -0.37013679196984273 0.23750613219799629 0 -0.36148561266771267 0.2305011068434443 0 -0.36975441169016687 0.228432664243616 0 -0.37939186114838758 0.22424627805714001 0 -0.37013679196984273 0.23750613219799629 0 -0.36975441169016687 0.228432664243616 0 -0.37939186114838758 0.22424627805714001 0 -0.36975441169016687 0.228432664243616 0 -0.36800338097472479 0.22147713987588341 0 -0.36800338097472479 0.22147713987588341 0 -0.34843396418698602 0.22381077072877051 0 -0.35516119282899983 0.21149705330083701 0 -0.36148561266771267 0.2305011068434443 0 -0.36800338097472479 0.22147713987588341 0 -0.34843396418698602 0.22381077072877051 0 -0.36800338097472479 0.22147713987588341 0 -0.34843396418698602 0.22381077072877051 0 -0.35416421148584648 0.23888623464626721 0 -0.36148561266771267 0.2305011068434443 0 -0.34843396418698602 0.22381077072877051 0 -0.34843396418698602 0.22381077072877051 0 -0.34802604401402371 0.21953575615482759 0 -0.33982416592956399 0.21665757569738961 0 -0.34802604401402371 0.21953575615482759 0 -0.34581283434165899 0.20861347152532789 0 -0.33982416592956399 0.21665757569738961 0 -0.34802604401402371 0.21953575615482759 0 -0.34581283434165899 0.20861347152532789 0 -0.35516119282899983 0.21149705330083701 0 -0.34843396418698602 0.22381077072877051 0 -0.34802604401402371 0.21953575615482759 0 -0.35516119282899983 0.21149705330083701 0 -0.34581283434165899 0.20861347152532789 0 -0.35516119282899983 0.21149705330083701 0 -0.35389383475621161 0.20092716755479181 0 -0.34802604401402371 0.21953575615482759 0 -0.35516119282899983 0.21149705330083701 0 -0.34843396418698602 0.22381077072877051 0 -0.35516119282899983 0.21149705330083701 0 -0.36800338097472479 0.22147713987588341 0 -0.35516119282899983 0.21149705330083701 0 -0.37368745339656201 0.20924711939208951 0 -0.35516119282899983 0.21149705330083701 0 -0.37368745339656201 0.20924711939208951 0 -0.36802074197771562 0.19700904511440151 0 -0.35516119282899983 0.21149705330083701 0 -0.36399845157591232 0.19532107462703119 0 -0.35516119282899983 0.21149705330083701 0 -0.36802074197771562 0.19700904511440151 0 -0.37283571032282492 0.1791450959532255 0 -0.36399845157591232 0.19532107462703119 0 -0.36261880381503758 0.18828806813974089 0 -0.37283571032282492 0.1791450959532255 0 -0.36399845157591232 0.19532107462703119 0 -0.36802074197771562 0.19700904511440151 0 -0.35516119282899983 0.21149705330083701 0 -0.36399845157591232 0.19532107462703119 0 -0.36802074197771562 0.19700904511440151 0 -0.38088029112643113 0.1825210369279657 0 -0.36802074197771562 0.19700904511440151 0 -0.36399845157591232 0.19532107462703119 0 -0.36261880381503758 0.18828806813974089 0 -0.35645772166264922 0.19211102842263869 0 -0.35797279878738592 0.18411861580098379 0 -0.36261880381503758 0.18828806813974089 0 -0.35645772166264922 0.19211102842263869 0 -0.35065229879255438 0.18593262723135329 0 -0.35645772166264922 0.19211102842263869 0 -0.34803897337183792 0.19709320989812409 0 -0.35516119282899983 0.21149705330083701 0 -0.36399845157591232 0.19532107462703119 0 -0.35389383475621161 0.20092716755479181 0 -0.35645772166264922 0.19211102842263869 0 -0.35389383475621161 0.20092716755479181 0 -0.34803897337183792 0.19709320989812409 0 -0.36399845157591232 0.19532107462703119 0 -0.35645772166264922 0.19211102842263869 0 -0.35389383475621161 0.20092716755479181 0 -0.34581283434165899 0.20861347152532789 0 -0.35389383475621161 0.20092716755479181 0 -0.34803897337183792 0.19709320989812409 0 -0.34581283434165899 0.20861347152532789 0 -0.34803897337183792 0.19709320989812409 0 -0.33933674095816863 0.19971543786353729 0 -0.35065229879255438 0.18593262723135329 0 -0.34803897337183792 0.19709320989812409 0 -0.33993633525554889 0.19055096072852831 0 -0.33993633525554889 0.19055096072852831 0 -0.33933674095816863 0.19971543786353729 0 -0.33069942903629101 0.19625725860753851 0 -0.34803897337183792 0.19709320989812409 0 -0.33993633525554889 0.19055096072852831 0 -0.33933674095816863 0.19971543786353729 0 -0.33933674095816863 0.19971543786353729 0 -0.33069942903629101 0.19625725860753851 0 -0.33422481296465362 0.2080963853910347 0 -0.33183788287013261 0.1831818366374682 0 -0.33993633525554889 0.19055096072852831 0 -0.33069942903629101 0.19625725860753851 0 -0.31632076704925127 0.18575639557221951 0 -0.33069942903629101 0.19625725860753851 0 -0.32036655352850157 0.2095523693350691 0 -0.33183788287013261 0.1831818366374682 0 -0.31632076704925127 0.18575639557221951 0 -0.33069942903629101 0.19625725860753851 0 -0.32036655352850157 0.2095523693350691 0 -0.32458589997660492 0.2266546254550818 0 -0.30779163400160159 0.21927945841494459 0 -0.32036655352850157 0.2095523693350691 0 -0.32934906837639222 0.21536895119528529 0 -0.32458589997660492 0.2266546254550818 0 -0.32036655352850157 0.2095523693350691 0 -0.32934906837639222 0.21536895119528529 0 -0.33422481296465362 0.2080963853910347 0 -0.32934906837639222 0.21536895119528529 0 -0.33422481296465362 0.2080963853910347 0 -0.33982416592956399 0.21665757569738961 0 -0.33069942903629101 0.19625725860753851 0 -0.32036655352850157 0.2095523693350691 0 -0.33422481296465362 0.2080963853910347 0 -0.34581283434165899 0.20861347152532789 0 -0.33933674095816863 0.19971543786353729 0 -0.33422481296465362 0.2080963853910347 0 -0.34581283434165899 0.20861347152532789 0 -0.33422481296465362 0.2080963853910347 0 -0.33982416592956399 0.21665757569738961 0 -0.34843396418698602 0.22381077072877051 0 -0.33982416592956399 0.21665757569738961 0 -0.32458589997660492 0.2266546254550818 0 -0.34843396418698602 0.22381077072877051 0 -0.32458589997660492 0.2266546254550818 0 -0.34843396418698602 0.22381077072877051 0 -0.32458589997660492 0.2266546254550818 0 -0.33845336435013867 0.242079554605789 0 -0.34843396418698602 0.22381077072877051 0 -0.33845336435013867 0.242079554605789 0 -0.32934906837639222 0.21536895119528529 0 -0.33982416592956399 0.21665757569738961 0 -0.32458589997660492 0.2266546254550818 0 -0.32458589997660492 0.2266546254550818 0 -0.30073783576622393 0.22949848018139329 0 -0.32458589997660492 0.2266546254550818 0 -0.32455092720978362 0.24357057421839101 0 -0.31122576982003303 0.23714335435801151 0 -0.32455092720978362 0.24357057421839101 0 -0.311575650220281 0.24878047680599949 0 -0.31122576982003303 0.23714335435801151 0 -0.32458589997660492 0.2266546254550818 0 -0.32455092720978362 0.24357057421839101 0 -0.33845336435013867 0.242079554605789 0 -0.32455092720978362 0.24357057421839101 0 -0.33845336435013867 0.242079554605789 0 -0.32847276451329022 0.26034833848280681 0 -0.29310990672191722 0.23613872254877591 0 -0.29467853592727078 0.23721261512919359 0 -0.28985028671148488 0.25537141990030859 0 -0.29310990672191722 0.23613872254877591 0 -0.27131573767068418 0.22826101281380451 0 -0.28058301219108422 0.24181621635705669 0 -0.29310990672191722 0.23613872254877591 0 -0.28985028671148488 0.25537141990030859 0 -0.29310990672191722 0.23613872254877591 0 -0.28058301219108422 0.24181621635705669 0 -0.28985028671148488 0.25537141990030859 0 -0.28058301219108422 0.24181621635705669 0 -0.28985028671148488 0.25537141990030859 0 -0.29310990672191722 0.23613872254877591 0 -0.29467853592727078 0.23721261512919359 0 -0.29467853592727078 0.23721261512919359 0 -0.31122576982003303 0.23714335435801151 0 -0.30073783576622393 0.22949848018139329 0 -0.29467853592727078 0.23721261512919359 0 -0.311575650220281 0.24878047680599949 0 -0.31122576982003303 0.23714335435801151 0 -0.29467853592727078 0.23721261512919359 0 -0.311575650220281 0.24878047680599949 0 -0.29467853592727078 0.23721261512919359 0 -0.311575650220281 0.24878047680599949 0 -0.29523766041035199 0.26325150879709891 0 -0.32458589997660492 0.2266546254550818 0 -0.30073783576622393 0.22949848018139329 0 -0.30779163400160159 0.21927945841494459 0 -0.32458589997660492 0.2266546254550818 0 -0.31122576982003303 0.23714335435801151 0 -0.30073783576622393 0.22949848018139329 0 -0.30073783576622393 0.22949848018139329 0 -0.30779163400160159 0.21927945841494459 0 -0.29448167989639912 0.22804486553003031 0 -0.29310990672191722 0.23613872254877591 0 -0.29448167989639912 0.22804486553003031 0 -0.27369133376421262 0.22284465576077489 0 -0.29448167989639912 0.22804486553003031 0 -0.2838712618875629 0.21479465795795599 0 -0.27369133376421262 0.22284465576077489 0 -0.29448167989639912 0.22804486553003031 0 -0.29413635243235581 0.21196267741475219 0 -0.29310990672191722 0.23613872254877591 0 -0.27369133376421262 0.22284465576077489 0 -0.29467853592727078 0.23721261512919359 0 -0.30073783576622393 0.22949848018139329 0 -0.29448167989639912 0.22804486553003031 0 -0.29310990672191722 0.23613872254877591 0 -0.29467853592727078 0.23721261512919359 0 -0.29448167989639912 0.22804486553003031 0 -0.29467853592727078 0.23721261512919359 0 -0.29448167989639912 0.22804486553003031 0 -0.29310990672191722 0.23613872254877591 0 -0.29448167989639912 0.22804486553003031 0 -0.29413635243235581 0.21196267741475219 0 -0.29878620084027852 0.20264695157314819 0 -0.29379102496831272 0.19588048929947419 0 -0.29448167989639912 0.22804486553003031 0 -0.29413635243235581 0.21196267741475219 0 -0.29878620084027852 0.20264695157314819 0 -0.29448167989639912 0.22804486553003031 0 -0.29878620084027852 0.20264695157314819 0 -0.29413635243235581 0.21196267741475219 0 -0.29379102496831272 0.19588048929947419 0 -0.28522308967114912 0.20452327137286261 0 -0.29413635243235581 0.21196267741475219 0 -0.29379102496831272 0.19588048929947419 0 -0.29448167989639912 0.22804486553003031 0 -0.2838712618875629 0.21479465795795599 0 -0.29413635243235581 0.21196267741475219 0 -0.2838712618875629 0.21479465795795599 0 -0.28522308967114912 0.20452327137286261 0 -0.29413635243235581 0.21196267741475219 0 -0.32036655352850157 0.2095523693350691 0 -0.30779163400160159 0.21927945841494459 0 -0.29878620084027852 0.20264695157314819 0 -0.30779163400160159 0.21927945841494459 0 -0.29448167989639912 0.22804486553003031 0 -0.29878620084027852 0.20264695157314819 0 -0.29878620084027852 0.20264695157314819 0 -0.29379102496831272 0.19588048929947419 0 -0.30309072178415769 0.17724903761626601 0 -0.31632076704925127 0.18575639557221951 0 -0.29878620084027852 0.20264695157314819 0 -0.30309072178415769 0.17724903761626601 0 -0.31632076704925127 0.18575639557221951 0 -0.32036655352850157 0.2095523693350691 0 -0.29878620084027852 0.20264695157314819 0 -0.29878620084027852 0.20264695157314819 0 -0.30309072178415769 0.17724903761626601 0 -0.28522308967114912 0.20452327137286261 0 -0.29379102496831272 0.19588048929947419 0 -0.28124953787461371 0.1935735916895788 0 -0.29379102496831272 0.19588048929947419 0 -0.28124953787461371 0.1935735916895788 0 -0.28752446549241689 0.1832489647230989 0 -0.28124953787461371 0.1935735916895788 0 -0.2659766044530758 0.19238405035351089 0 -0.27494974420821611 0.1793112011395637 0 -0.28522308967114912 0.20452327137286261 0 -0.28124953787461371 0.1935735916895788 0 -0.27431068871210279 0.20621206129374381 0 -0.28124953787461371 0.1935735916895788 0 -0.2659766044530758 0.19238405035351089 0 -0.27431068871210279 0.20621206129374381 0 -0.25427276080650663 0.20955058897277601 0 -0.24947341468037071 0.1874691479585941 0 -0.2659766044530758 0.19238405035351089 0 -0.25427276080650663 0.20955058897277601 0 -0.24947341468037071 0.1874691479585941 0 -0.2659766044530758 0.19238405035351089 0 -0.25427276080650663 0.20955058897277601 0 -0.27431068871210279 0.20621206129374381 0 -0.25427276080650663 0.20955058897277601 0 -0.27369133376421262 0.22284465576077489 0 -0.25427276080650663 0.20955058897277601 0 -0.25977281016601761 0.2185578892770178 0 -0.27369133376421262 0.22284465576077489 0 -0.25427276080650663 0.20955058897277601 0 -0.25561524088587501 0.21572724177218369 0 -0.25977281016601761 0.2185578892770178 0 -0.25427276080650663 0.20955058897277601 0 -0.25561524088587501 0.21572724177218369 0 -0.24333230173327219 0.21221501244476959 0 -0.25427276080650663 0.20955058897277601 0 -0.25561524088587501 0.21572724177218369 0 -0.25427276080650663 0.20955058897277601 0 -0.27431068871210279 0.20621206129374381 0 -0.27369133376421262 0.22284465576077489 0 -0.2838712618875629 0.21479465795795599 0 -0.27431068871210279 0.20621206129374381 0 -0.27369133376421262 0.22284465576077489 0 -0.2838712618875629 0.21479465795795599 0 -0.28522308967114912 0.20452327137286261 0 -0.27431068871210279 0.20621206129374381 0 -0.29310990672191722 0.23613872254877591 0 -0.27369133376421262 0.22284465576077489 0 -0.27131573767068418 0.22826101281380451 0 -0.27131573767068418 0.22826101281380451 0 -0.26439065681250729 0.2289784260688752 0 -0.26819560602517328 0.23507842756581021 0 -0.27131573767068418 0.22826101281380451 0 -0.26675876456119929 0.22568570462696191 0 -0.26439065681250729 0.2289784260688752 0 -0.27369133376421262 0.22284465576077489 0 -0.26675876456119929 0.22568570462696191 0 -0.26371349664181459 0.22286429712754721 0 -0.25977281016601761 0.2185578892770178 0 -0.27369133376421262 0.22284465576077489 0 -0.26371349664181459 0.22286429712754721 0 -0.27369133376421262 0.22284465576077489 0 -0.27131573767068418 0.22826101281380451 0 -0.26675876456119929 0.22568570462696191 0 -0.26675876456119929 0.22568570462696191 0 -0.26371349664181459 0.22286429712754721 0 -0.26068259791677789 0.22548013136380779 0 -0.26068259791677789 0.22548013136380779 0 -0.25678634991227811 0.22260498734460241 0 -0.2574101570832959 0.22971939663687391 0 -0.26371349664181459 0.22286429712754721 0 -0.26068259791677789 0.22548013136380779 0 -0.25678634991227811 0.22260498734460241 0 -0.25977281016601761 0.2185578892770178 0 -0.26371349664181459 0.22286429712754721 0 -0.25678634991227811 0.22260498734460241 0 -0.25561524088587501 0.21572724177218369 0 -0.25977281016601761 0.2185578892770178 0 -0.25678634991227811 0.22260498734460241 0 -0.25678634991227811 0.22260498734460241 0 -0.249817319625419 0.2274340479663062 0 -0.24904636230289101 0.22050689045355901 0 -0.25561524088587501 0.21572724177218369 0 -0.25678634991227811 0.22260498734460241 0 -0.24904636230289101 0.22050689045355901 0 -0.25109603964961891 0.234366577265785 0 -0.2574101570832959 0.22971939663687391 0 -0.249817319625419 0.2274340479663062 0 -0.25678634991227811 0.22260498734460241 0 -0.2574101570832959 0.22971939663687391 0 -0.249817319625419 0.2274340479663062 0 -0.2574101570832959 0.22971939663687391 0 -0.26439065681250729 0.2289784260688752 0 -0.26193406046231932 0.2344272911270443 0 -0.26068259791677789 0.22548013136380779 0 -0.2574101570832959 0.22971939663687391 0 -0.26439065681250729 0.2289784260688752 0 -0.26675876456119929 0.22568570462696191 0 -0.26068259791677789 0.22548013136380779 0 -0.26439065681250729 0.2289784260688752 0 -0.26439065681250729 0.2289784260688752 0 -0.26193406046231932 0.2344272911270443 0 -0.26819560602517328 0.23507842756581021 0 -0.26193406046231932 0.2344272911270443 0 -0.26614348890836192 0.24293385421211869 0 -0.26819560602517328 0.23507842756581021 0 -0.2574101570832959 0.22971939663687391 0 -0.26193406046231932 0.2344272911270443 0 -0.25699538715464082 0.23905233796863981 0 -0.26193406046231932 0.2344272911270443 0 -0.25699538715464082 0.23905233796863981 0 -0.26614348890836192 0.24293385421211869 0 -0.25109603964961891 0.234366577265785 0 -0.25699538715464082 0.23905233796863981 0 -0.2470081454867771 0.2422065880623451 0 -0.25109603964961891 0.234366577265785 0 -0.2574101570832959 0.22971939663687391 0 -0.25699538715464082 0.23905233796863981 0 -0.25699538715464082 0.23905233796863981 0 -0.25693865295534157 0.25278860643768353 0 -0.2470081454867771 0.2422065880623451 0 -0.25699538715464082 0.23905233796863981 0 -0.26614348890836192 0.24293385421211869 0 -0.25693865295534157 0.25278860643768353 0 -0.26614348890836192 0.24293385421211869 0 -0.2724296921133022 0.25217156250687062 0 -0.25693865295534157 0.25278860643768353 0 -0.26614348890836192 0.24293385421211869 0 -0.28058301219108422 0.24181621635705669 0 -0.2724296921133022 0.25217156250687062 0 -0.28058301219108422 0.24181621635705669 0 -0.28985028671148488 0.25537141990030859 0 -0.2724296921133022 0.25217156250687062 0 -0.26614348890836192 0.24293385421211869 0 -0.26819560602517328 0.23507842756581021 0 -0.28058301219108422 0.24181621635705669 0 -0.27131573767068418 0.22826101281380451 0 -0.26819560602517328 0.23507842756581021 0 -0.28058301219108422 0.24181621635705669 0 -0.27131573767068418 0.22826101281380451 0 -0.28058301219108422 0.24181621635705669 0 -0.29326612220823411 0.13512644163735801 0 -0.28648818467010168 0.15636331808772699 0 -0.27141175194646833 0.1445184244171912 0 -0.29326612220823411 0.13512644163735801 0 -0.30739524272803709 0.15185112365938391 0 -0.28648818467010168 0.15636331808772699 0 -0.30739524272803709 0.15185112365938391 0 -0.31211500736378339 0.1240031522641292 0 -0.29326612220823411 0.13512644163735801 0 -0.30739524272803709 0.15185112365938391 0 -0.31211500736378339 0.1240031522641292 0 -0.30739524272803709 0.15185112365938391 0 -0.28648818467010168 0.15636331808772699 0 -0.30739524272803709 0.15185112365938391 0 -0.30309072178415769 0.17724903761626601 0 -0.3167678101826048 0.16359462978275929 0 -0.30739524272803709 0.15185112365938391 0 -0.30309072178415769 0.17724903761626601 0 -0.30739524272803709 0.15185112365938391 0 -0.30309072178415769 0.17724903761626601 0 -0.28648818467010168 0.15636331808772699 0 -0.31632076704925127 0.18575639557221951 0 -0.3167678101826048 0.16359462978275929 0 -0.30309072178415769 0.17724903761626601 0 -0.30309072178415769 0.17724903761626601 0 -0.28752446549241689 0.1832489647230989 0 -0.28381669143151822 0.17107272026056419 0 -0.29379102496831272 0.19588048929947419 0 -0.30309072178415769 0.17724903761626601 0 -0.28752446549241689 0.1832489647230989 0 -0.28752446549241689 0.1832489647230989 0 -0.28381669143151822 0.17107272026056419 0 -0.27494974420821611 0.1793112011395637 0 -0.30309072178415769 0.17724903761626601 0 -0.28648818467010168 0.15636331808772699 0 -0.28381669143151822 0.17107272026056419 0 -0.28648818467010168 0.15636331808772699 0 -0.28381669143151822 0.17107272026056419 0 -0.26558112661216632 0.16087551251606999 0 -0.28381669143151822 0.17107272026056419 0 -0.27494974420821611 0.1793112011395637 0 -0.26558112661216632 0.16087551251606999 0 -0.28648818467010168 0.15636331808772699 0 -0.26558112661216632 0.16087551251606999 0 -0.27494974420821611 0.1793112011395637 0 -0.26084394980388648 0.17618123618614701 0 -0.26558112661216632 0.16087551251606999 0 -0.2659766044530758 0.19238405035351089 0 -0.27494974420821611 0.1793112011395637 0 -0.26084394980388648 0.17618123618614701 0 -0.28124953787461371 0.1935735916895788 0 -0.28752446549241689 0.1832489647230989 0 -0.27494974420821611 0.1793112011395637 0 -0.2659766044530758 0.19238405035351089 0 -0.26084394980388648 0.17618123618614701 0 -0.24947341468037071 0.1874691479585941 0 -0.26084394980388648 0.17618123618614701 0 -0.24467406855423091 0.1653877069444131 0 -0.24947341468037071 0.1874691479585941 0 -0.26558112661216632 0.16087551251606999 0 -0.24467406855423091 0.1653877069444131 0 -0.26558112661216632 0.16087551251606999 0 -0.2543915534089356 0.15018751405662761 0 -0.24467406855423091 0.1653877069444131 0 -0.26084394980388648 0.17618123618614701 0 -0.26558112661216632 0.16087551251606999 0 -0.24467406855423091 0.1653877069444131 0 -0.26558112661216632 0.16087551251606999 0 -0.2543915534089356 0.15018751405662761 0 -0.27141175194646833 0.1445184244171912 0 -0.2543915534089356 0.15018751405662761 0 -0.27141175194646833 0.1445184244171912 0 -0.25477231595188199 0.13792181725732239 0 -0.28648818467010168 0.15636331808772699 0 -0.26558112661216632 0.16087551251606999 0 -0.27141175194646833 0.1445184244171912 0 -0.29326612220823411 0.13512644163735801 0 -0.27141175194646833 0.1445184244171912 0 -0.27545980130109921 0.1239996051278405 0 -0.27141175194646833 0.1445184244171912 0 -0.25477231595188199 0.13792181725732239 0 -0.27545980130109921 0.1239996051278405 0 -0.25477231595188199 0.13792181725732239 0 -0.27545980130109921 0.1239996051278405 0 -0.25477231595188199 0.13792181725732239 0 -0.27545980130109921 0.1239996051278405 0 -0.2495823492922267 0.12121763785839371 0 -0.25610310449345419 0.1041046972302731 0 -0.27545980130109921 0.1239996051278405 0 -0.2495823492922267 0.12121763785839371 0 -0.25610310449345419 0.1041046972302731 0 -0.25413031243694739 0.089521027236778197 0 -0.2427234934652894 0.090762762990284518 0 -0.25610310449345419 0.1041046972302731 0 -0.26471001572300679 0.091779207982481292 0 -0.25413031243694739 0.089521027236778197 0 -0.25610310449345419 0.1041046972302731 0 -0.27632390472144541 0.10600366135062909 0 -0.26471001572300679 0.091779207982481292 0 -0.27632390472144541 0.10600366135062909 0 -0.27815219556391091 0.091433986845849968 0 -0.26471001572300679 0.091779207982481292 0 -0.27632390472144541 0.10600366135062909 0 -0.28783094919658059 0.096999283795453681 0 -0.27815219556391091 0.091433986845849968 0 -0.25610310449345419 0.1041046972302731 0 -0.27632390472144541 0.10600366135062909 0 -0.27545980130109921 0.1239996051278405 0 -0.27545980130109921 0.1239996051278405 0 -0.29614728665031642 0.1100773929983587 0 -0.29326612220823411 0.13512644163735801 0 -0.27545980130109921 0.1239996051278405 0 -0.29614728665031642 0.1100773929983587 0 -0.27632390472144541 0.10600366135062909 0 -0.27545980130109921 0.1239996051278405 0 -0.29614728665031642 0.1100773929983587 0 -0.27632390472144541 0.10600366135062909 0 -0.29614728665031642 0.1100773929983587 0 -0.28783094919658059 0.096999283795453681 0 -0.29614728665031642 0.1100773929983587 0 -0.28783094919658059 0.096999283795453681 0 -0.29903425758953422 0.090155638130954882 0 -0.29614728665031642 0.1100773929983587 0 -0.29903425758953422 0.090155638130954882 0 -0.31683477199953253 0.096155180868875256 0 -0.29614728665031642 0.1100773929983587 0 -0.31683477199953253 0.096155180868875256 0 -0.29614728665031642 0.1100773929983587 0 -0.31211500736378339 0.1240031522641292 0 -0.31683477199953253 0.096155180868875256 0 -0.29326612220823411 0.13512644163735801 0 -0.29614728665031642 0.1100773929983587 0 -0.31211500736378339 0.1240031522641292 0 -0.30635830999651792 0.07761242167179265 0 -0.30189037325813839 0.060543452134012458 0 -0.32146679815367007 0.068824891797761426 0 -0.30635830999651792 0.07761242167179265 0 -0.29256534898171721 0.072382945427359638 0 -0.30189037325813839 0.060543452134012458 0 -0.30635830999651792 0.07761242167179265 0 -0.29903425758953422 0.090155638130954882 0 -0.29256534898171721 0.072382945427359638 0 -0.30635830999651792 0.07761242167179265 0 -0.29903425758953422 0.090155638130954882 0 -0.31683477199953253 0.096155180868875256 0 -0.29903425758953422 0.090155638130954882 0 -0.28572263353681682 0.08337299634339973 0 -0.29256534898171721 0.072382945427359638 0 -0.28783094919658059 0.096999283795453681 0 -0.29903425758953422 0.090155638130954882 0 -0.28572263353681682 0.08337299634339973 0 -0.28783094919658059 0.096999283795453681 0 -0.28572263353681682 0.08337299634339973 0 -0.27815219556391091 0.091433986845849968 0 -0.28572263353681682 0.08337299634339973 0 -0.29256534898171721 0.072382945427359638 0 -0.28059357561043269 0.073644623599786935 0 -0.29256534898171721 0.072382945427359638 0 -0.29088471103165969 0.062671374321780771 0 -0.30189037325813839 0.060543452134012458 0 -0.29256534898171721 0.072382945427359638 0 -0.29088471103165969 0.062671374321780771 0 -0.28261649390190829 0.064291953838756216 0 -0.29256534898171721 0.072382945427359638 0 -0.28261649390190829 0.064291953838756216 0 -0.28059357561043269 0.073644623599786935 0 -0.28261649390190829 0.064291953838756216 0 -0.27678196032587499 0.069585006034529676 0 -0.27195195811963518 0.06635492754641531 0 -0.26855373331756138 0.063547936276670339 0 -0.27195195811963518 0.06635492754641531 0 -0.25743728825439521 0.07924270920583569 0 -0.28261649390190829 0.064291953838756216 0 -0.27678196032587499 0.069585006034529676 0 -0.28059357561043269 0.073644623599786935 0 -0.27678196032587499 0.069585006034529676 0 -0.27196581367152378 0.074048519153160283 0 -0.27195195811963518 0.06635492754641531 0 -0.27678196032587499 0.069585006034529676 0 -0.28059357561043269 0.073644623599786935 0 -0.27196581367152378 0.074048519153160283 0 -0.28059357561043269 0.073644623599786935 0 -0.27196581367152378 0.074048519153160283 0 -0.27303575277029413 0.081855029780232597 0 -0.27196581367152378 0.074048519153160283 0 -0.27195195811963518 0.06635492754641531 0 -0.25743728825439521 0.07924270920583569 0 -0.28572263353681682 0.08337299634339973 0 -0.27815219556391091 0.091433986845849968 0 -0.27303575277029413 0.081855029780232597 0 -0.28572263353681682 0.08337299634339973 0 -0.28059357561043269 0.073644623599786935 0 -0.27303575277029413 0.081855029780232597 0 -0.27196581367152378 0.074048519153160283 0 -0.27303575277029413 0.081855029780232597 0 -0.25743728825439521 0.07924270920583569 0 -0.27815219556391091 0.091433986845849968 0 -0.27303575277029413 0.081855029780232597 0 -0.26471001572300679 0.091779207982481292 0 -0.26471001572300679 0.091779207982481292 0 -0.25743728825439521 0.07924270920583569 0 -0.25413031243694739 0.089521027236778197 0 -0.27303575277029413 0.081855029780232597 0 -0.26471001572300679 0.091779207982481292 0 -0.25743728825439521 0.07924270920583569 0 -0.25743728825439521 0.07924270920583569 0 -0.25064083865024739 0.073628726666345984 0 -0.24857020570659841 0.081659589420377987 0 -0.25743728825439521 0.07924270920583569 0 -0.25413031243694739 0.089521027236778197 0 -0.24857020570659841 0.081659589420377987 0 -0.26855373331756138 0.063547936276670339 0 -0.25743728825439521 0.07924270920583569 0 -0.25064083865024739 0.073628726666345984 0 -0.26855373331756138 0.063547936276670339 0 -0.25064083865024739 0.073628726666345984 0 -0.2562734301216873 0.062061687155910393 0 -0.26855373331756138 0.063547936276670339 0 -0.25064083865024739 0.073628726666345984 0 -0.27195195811963518 0.06635492754641531 0 -0.25743728825439521 0.07924270920583569 0 -0.25064083865024739 0.073628726666345984 0 -0.2562734301216873 0.062061687155910393 0 -0.24829977196364941 0.065213336215906109 0 -0.2623477931936597 0.053657636987073307 0 -0.25116276906762952 0.054241108780248931 0 -0.26153642505613889 0.036367366133998442 0 -0.2562734301216873 0.062061687155910393 0 -0.2623477931936597 0.053657636987073307 0 -0.25116276906762952 0.054241108780248931 0 -0.2562734301216873 0.062061687155910393 0 -0.25116276906762952 0.054241108780248931 0 -0.24829977196364941 0.065213336215906109 0 -0.26855373331756138 0.063547936276670339 0 -0.2562734301216873 0.062061687155910393 0 -0.2623477931936597 0.053657636987073307 0 -0.25116276906762952 0.054241108780248931 0 -0.26153642505613889 0.036367366133998442 0 -0.239388393447095 0.04766651035075449 0 -0.2623477931936597 0.053657636987073307 0 -0.26153642505613889 0.036367366133998442 0 -0.27323710809808138 0.049716314049096537 0 -0.26153642505613889 0.036367366133998442 0 -0.28732673365434691 0.040933413293477772 0 -0.26153642505613889 0.036367366133998442 0 -0.2825074511423824 0.030310297232740709 0 -0.28732673365434691 0.040933413293477772 0 -0.26153642505613889 0.036367366133998442 0 -0.27323710809808138 0.049716314049096537 0 -0.28732673365434691 0.040933413293477772 0 -0.26855373331756138 0.063547936276670339 0 -0.27195195811963518 0.06635492754641531 0 -0.28646662798487532 0.053467145886994819 0 -0.26855373331756138 0.063547936276670339 0 -0.28646662798487532 0.053467145886994819 0 -0.26855373331756138 0.063547936276670339 0 -0.27323710809808138 0.049716314049096537 0 -0.28646662798487532 0.053467145886994819 0 -0.27195195811963518 0.06635492754641531 0 -0.28646662798487532 0.053467145886994819 0 -0.28261649390190829 0.064291953838756216 0 -0.27195195811963518 0.06635492754641531 0 -0.28646662798487532 0.053467145886994819 0 -0.26855373331756138 0.063547936276670339 0 -0.2623477931936597 0.053657636987073307 0 -0.27323710809808138 0.049716314049096537 0 -0.26176261374782622 0.0098260211376069873 0 -0.24854849079604721 0.020569936005881421 0 -0.24598119983726671 0.0037338506766126851 0 -0.26003022337954462 -0.0038093911555793728 0 -0.26176261374782622 0.0098260211376069873 0 -0.24598119983726671 0.0037338506766126851 0 -0.26003022337954462 -0.0038093911555793728 0 -0.27433688946420332 -0.0007833753365484626 0 -0.26176261374782622 0.0098260211376069873 0 -0.26153642505613889 0.036367366133998442 0 -0.26176261374782622 0.0098260211376069873 0 -0.24854849079604721 0.020569936005881421 0 -0.26153642505613889 0.036367366133998442 0 -0.26176261374782622 0.0098260211376069873 0 -0.27684491432135683 0.017453585025194441 0 -0.26153642505613889 0.036367366133998442 0 -0.27684491432135683 0.017453585025194441 0 -0.2825074511423824 0.030310297232740709 0 -0.27433688946420332 -0.0007833753365484626 0 -0.26176261374782622 0.0098260211376069873 0 -0.27684491432135683 0.017453585025194441 0 -0.27433688946420332 -0.0007833753365484626 0 -0.27684491432135683 0.017453585025194441 0 -0.28842838408131971 0.0076205693905790281 0 -0.28842838408131971 0.0076205693905790281 0 -0.29131927560690712 0.022062190579302341 0 -0.29989828236451899 0.011495108916467369 0 -0.27684491432135683 0.017453585025194441 0 -0.29131927560690712 0.022062190579302341 0 -0.2825074511423824 0.030310297232740709 0 -0.27684491432135683 0.017453585025194441 0 -0.28842838408131971 0.0076205693905790281 0 -0.29131927560690712 0.022062190579302341 0 -0.29131927560690712 0.022062190579302341 0 -0.2825074511423824 0.030310297232740709 0 -0.29550990707316249 0.034734931131730561 0 -0.29131927560690712 0.022062190579302341 0 -0.30587597075389272 0.02137954460474218 0 -0.29550990707316249 0.034734931131730561 0 -0.30587597075389272 0.02137954460474218 0 -0.29550990707316249 0.034734931131730561 0 -0.30859873922341308 0.03381572977126493 0 -0.29131927560690712 0.022062190579302341 0 -0.30587597075389272 0.02137954460474218 0 -0.29989828236451899 0.011495108916467369 0 -0.3025805037907468 -0.0027432771802810229 0 -0.3204068892458079 -0.0014125807301150939 0 -0.31128727758972891 0.0091565171879943417 0 -0.30587597075389272 0.02137954460474218 0 -0.29989828236451899 0.011495108916467369 0 -0.31128727758972891 0.0091565171879943417 0 -0.3025805037907468 -0.0027432771802810229 0 -0.29989828236451899 0.011495108916467369 0 -0.31128727758972891 0.0091565171879943417 0 -0.3025805037907468 -0.0027432771802810229 0 -0.28842838408131971 0.0076205693905790281 0 -0.29989828236451899 0.011495108916467369 0 -0.28646662798487532 0.053467145886994819 0 -0.304010183261538 0.043594207608826187 0 -0.29088471103165969 0.062671374321780771 0 -0.28646662798487532 0.053467145886994819 0 -0.30189037325813839 0.060543452134012458 0 -0.29088471103165969 0.062671374321780771 0 -0.28261649390190829 0.064291953838756216 0 -0.28646662798487532 0.053467145886994819 0 -0.27323710809808138 0.049716314049096537 0 -0.28646662798487532 0.053467145886994819 0 -0.28732673365434691 0.040933413293477772 0 -0.28646662798487532 0.053467145886994819 0 -0.29550990707316249 0.034734931131730561 0 -0.30859873922341308 0.03381572977126493 0 -0.28646662798487532 0.053467145886994819 0 -0.28732673365434691 0.040933413293477772 0 -0.29550990707316249 0.034734931131730561 0 -0.2825074511423824 0.030310297232740709 0 -0.28732673365434691 0.040933413293477772 0 -0.29550990707316249 0.034734931131730561 0 -0.28646662798487532 0.053467145886994819 0 -0.30859873922341308 0.03381572977126493 0 -0.28646662798487532 0.053467145886994819 0 -0.304010183261538 0.043594207608826187 0 -0.30859873922341308 0.03381572977126493 0 -0.304010183261538 0.043594207608826187 0 -0.30859873922341308 0.03381572977126493 0 -0.32155373853820057 0.033721269330657687 0 -0.304010183261538 0.043594207608826187 0 -0.3137915997446068 0.051476736654279882 0 -0.31549181974187701 0.042926529004151233 0 -0.28646662798487532 0.053467145886994819 0 -0.304010183261538 0.043594207608826187 0 -0.30189037325813839 0.060543452134012458 0 -0.30189037325813839 0.060543452134012458 0 -0.3137915997446068 0.051476736654279882 0 -0.32146679815367007 0.068824891797761426 0 -0.304010183261538 0.043594207608826187 0 -0.30189037325813839 0.060543452134012458 0 -0.3137915997446068 0.051476736654279882 0 -0.3137915997446068 0.051476736654279882 0 -0.32609882430781029 0.041494602726648067 0 -0.32146679815367007 0.068824891797761426 0 -0.32609882430781029 0.041494602726648067 0 -0.32146679815367007 0.068824891797761426 0 -0.3137915997446068 0.051476736654279882 0 -0.31549181974187701 0.042926529004151233 0 -0.32609882430781029 0.041494602726648067 0 -0.304010183261538 0.043594207608826187 0 -0.31549181974187701 0.042926529004151233 0 -0.32155373853820057 0.033721269330657687 0 -0.304010183261538 0.043594207608826187 0 -0.32155373853820057 0.033721269330657687 0 -0.31549181974187701 0.042926529004151233 0 -0.32155373853820057 0.033721269330657687 0 -0.32609882430781029 0.041494602726648067 0 -0.32609882430781029 0.041494602726648067 0 -0.34385517732675519 0.031131612817745031 0 -0.35163198926140088 0.046228739452983239 0 -0.32609882430781029 0.041494602726648067 0 -0.338272543408071 0.060603673933957783 0 -0.32146679815367007 0.068824891797761426 0 -0.32609882430781029 0.041494602726648067 0 -0.338272543408071 0.060603673933957783 0 -0.35163198926140088 0.046228739452983239 0 -0.3204068892458079 -0.0014125807301150939 0 -0.31128727758972891 0.0091565171879943417 0 -0.33073085046195078 0.01416431365553468 0 -0.30587597075389272 0.02137954460474218 0 -0.31128727758972891 0.0091565171879943417 0 -0.33073085046195078 0.01416431365553468 0 -0.30859873922341308 0.03381572977126493 0 -0.33073085046195078 0.01416431365553468 0 -0.30587597075389272 0.02137954460474218 0 -0.30859873922341308 0.03381572977126493 0 -0.33073085046195078 0.01416431365553468 0 -0.32155373853820057 0.033721269330657687 0 -0.32609882430781029 0.041494602726648067 0 -0.33073085046195078 0.01416431365553468 0 -0.30859873922341308 0.03381572977126493 0 -0.32155373853820057 0.033721269330657687 0 -0.33073085046195078 0.01416431365553468 0 -0.32609882430781029 0.041494602726648067 0 -0.33073085046195078 0.01416431365553468 0 -0.33073085046195078 0.01416431365553468 0 -0.34385517732675519 0.031131612817745031 0 -0.35381837275022032 0.01853105722209741 0 -0.32609882430781029 0.041494602726648067 0 -0.33073085046195078 0.01416431365553468 0 -0.34385517732675519 0.031131612817745031 0 -0.33540629353460438 -0.01342214774580049 0 -0.33073085046195078 0.01416431365553468 0 -0.35221409618436439 -0.0049109655465913588 0 -0.33073085046195078 0.01416431365553468 0 -0.35221409618436439 -0.0049109655465913588 0 -0.34857824671955512 -0.007874197240844389 0 -0.33073085046195078 0.01416431365553468 0 -0.35221409618436439 -0.0049109655465913588 0 -0.33073085046195078 0.01416431365553468 0 -0.34939877662876639 0.0070576099193848619 0 -0.33073085046195078 0.01416431365553468 0 -0.34939877662876639 0.0070576099193848619 0 -0.35381837275022032 0.01853105722209741 0 -0.35900139338342918 0.0020097317905480609 0 -0.34939877662876639 0.0070576099193848619 0 -0.35834074471334648 0.0096788928264882005 0 -0.35509488683577939 -0.0004162838960613095 0 -0.35900139338342918 0.0020097317905480609 0 -0.34939877662876639 0.0070576099193848619 0 -0.35509488683577939 -0.0004162838960613095 0 -0.35221409618436439 -0.0049109655465913588 0 -0.34939877662876639 0.0070576099193848619 0 -0.34939877662876639 0.0070576099193848619 0 -0.35834074471334648 0.0096788928264882005 0 -0.35381837275022032 0.01853105722209741 0 -0.34385517732675519 0.031131612817745031 0 -0.35381837275022032 0.01853105722209741 0 -0.36551724687399623 0.028318485711261141 0 -0.37937813184432773 0.031366277704107569 0 -0.36551724687399623 0.028318485711261141 0 -0.37479293228070759 0.022502646493578662 0 -0.36551724687399623 0.028318485711261141 0 -0.37479293228070759 0.022502646493578662 0 -0.36730783543836809 0.01519693074799966 0 -0.3778438638662554 0.014761087644765769 0 -0.37479293228070759 0.022502646493578662 0 -0.36730783543836809 0.01519693074799966 0 -0.35381837275022032 0.01853105722209741 0 -0.36551724687399623 0.028318485711261141 0 -0.36730783543836809 0.01519693074799966 0 -0.35834074471334648 0.0096788928264882005 0 -0.36730783543836809 0.01519693074799966 0 -0.36603012090457948 0.0050917054244422654 0 -0.35834074471334648 0.0096788928264882005 0 -0.35381837275022032 0.01853105722209741 0 -0.36730783543836809 0.01519693074799966 0 -0.36730783543836809 0.01519693074799966 0 -0.37464316483836829 0.0066416053135349984 0 -0.36603012090457948 0.0050917054244422654 0 -0.3778438638662554 0.014761087644765769 0 -0.36730783543836809 0.01519693074799966 0 -0.37464316483836829 0.0066416053135349984 0 -0.37126952376897032 -0.00085078512189483576 0 -0.37774077980655368 -0.001289555558904682 0 -0.37464316483836829 0.0066416053135349984 0 -0.37126952376897032 -0.00085078512189483576 0 -0.37464316483836829 0.0066416053135349984 0 -0.36603012090457948 0.0050917054244422654 0 -0.37126952376897032 -0.00085078512189483576 0 -0.36494834593608783 -0.001298186014321303 0 -0.36603012090457948 0.0050917054244422654 0 -0.36494834593608783 -0.001298186014321303 0 -0.35900139338342918 0.0020097317905480609 0 -0.36603012090457948 0.0050917054244422654 0 -0.35900139338342918 0.0020097317905480609 0 -0.35834074471334648 0.0096788928264882005 0 -0.36603012090457948 0.0050917054244422654 0 -0.35163198926140088 0.046228739452983239 0 -0.36891219827968119 0.060077996683558232 0 -0.35298131256760962 0.063034912088641357 0 -0.338272543408071 0.060603673933957783 0 -0.35163198926140088 0.046228739452983239 0 -0.35298131256760962 0.063034912088641357 0 -0.34385517732675519 0.031131612817745031 0 -0.36551724687399623 0.028318485711261141 0 -0.35163198926140088 0.046228739452983239 0 -0.36551724687399623 0.028318485711261141 0 -0.35163198926140088 0.046228739452983239 0 -0.37261014177358448 0.043145835856899219 0 -0.37937813184432773 0.031366277704107569 0 -0.36551724687399623 0.028318485711261141 0 -0.37261014177358448 0.043145835856899219 0 -0.35163198926140088 0.046228739452983239 0 -0.37261014177358448 0.043145835856899219 0 -0.36891219827968119 0.060077996683558232 0 -0.38207463336695202 0.051047668856640811 0 -0.37261014177358448 0.043145835856899219 0 -0.36891219827968119 0.060077996683558232 0 -0.37929074908003868 0.077603726490867345 0 -0.35694138538550352 0.073855345321458488 0 -0.37929074908003868 0.077603726490867345 0 -0.36891219827968119 0.060077996683558232 0 -0.35694138538550352 0.073855345321458488 0 -0.36891219827968119 0.060077996683558232 0 -0.35298131256760962 0.063034912088641357 0 -0.35694138538550352 0.073855345321458488 0 -0.35298131256760962 0.063034912088641357 0 -0.35694138538550352 0.073855345321458488 0 -0.34914844650339177 0.074408805051249083 0 -0.35694138538550352 0.073855345321458488 0 -0.34914844650339177 0.074408805051249083 0 -0.35387282561504041 0.085789381247760657 0 -0.338272543408071 0.060603673933957783 0 -0.35298131256760962 0.063034912088641357 0 -0.34914844650339177 0.074408805051249083 0 -0.34914844650339177 0.074408805051249083 0 -0.35387282561504041 0.085789381247760657 0 -0.33299160925146271 0.085281992960062933 0 -0.35694138538550352 0.073855345321458488 0 -0.35387282561504041 0.085789381247760657 0 -0.36438159895332511 0.085691586513687634 0 -0.35387282561504041 0.085789381247760657 0 -0.36438159895332511 0.085691586513687634 0 -0.35579278546844412 0.098564625017930646 0 -0.37929074908003868 0.077603726490867345 0 -0.35694138538550352 0.073855345321458488 0 -0.36438159895332511 0.085691586513687634 0 -0.37929074908003868 0.077603726490867345 0 -0.36438159895332511 0.085691586513687634 0 -0.37090825683648998 0.098456277756480637 0 -0.37090825683648998 0.098456277756480637 0 -0.36904533532088801 0.1177582563576956 0 -0.35579278546844412 0.098564625017930646 0 -0.36438159895332511 0.085691586513687634 0 -0.37090825683648998 0.098456277756480637 0 -0.35579278546844412 0.098564625017930646 0 -0.35823941519022368 0.13573745574644491 0 -0.36904533532088801 0.1177582563576956 0 -0.35158166360451942 0.11704707172714621 0 -0.36904533532088801 0.1177582563576956 0 -0.35158166360451942 0.11704707172714621 0 -0.35579278546844412 0.098564625017930646 0 -0.35158166360451942 0.11704707172714621 0 -0.35579278546844412 0.098564625017930646 0 -0.34047962299512569 0.099373871294989508 0 -0.35387282561504041 0.085789381247760657 0 -0.35579278546844412 0.098564625017930646 0 -0.34047962299512569 0.099373871294989508 0 -0.34047962299512569 0.099373871294989508 0 -0.33231339904552459 0.1171762944261375 0 -0.31683477199953253 0.096155180868875256 0 -0.34455851703438989 0.13305210298766909 0 -0.35158166360451942 0.11704707172714621 0 -0.33231339904552459 0.1171762944261375 0 -0.35158166360451942 0.11704707172714621 0 -0.34047962299512569 0.099373871294989508 0 -0.33231339904552459 0.1171762944261375 0 -0.31211500736378339 0.1240031522641292 0 -0.31683477199953253 0.096155180868875256 0 -0.31211500736378339 0.1240031522641292 0 -0.33231339904552459 0.1171762944261375 0 -0.31683477199953253 0.096155180868875256 0 -0.30635830999651792 0.07761242167179265 0 -0.31683477199953253 0.096155180868875256 0 -0.32146679815367007 0.068824891797761426 0 -0.31683477199953253 0.096155180868875256 0 -0.32146679815367007 0.068824891797761426 0 -0.33299160925146271 0.085281992960062933 0 -0.31683477199953253 0.096155180868875256 0 -0.32146679815367007 0.068824891797761426 0 -0.31683477199953253 0.096155180868875256 0 -0.33299160925146271 0.085281992960062933 0 -0.338272543408071 0.060603673933957783 0 -0.32146679815367007 0.068824891797761426 0 -0.33576809196089219 0.072507027900731907 0 -0.32146679815367007 0.068824891797761426 0 -0.33576809196089219 0.072507027900731907 0 -0.33299160925146271 0.085281992960062933 0 -0.34914844650339177 0.074408805051249083 0 -0.33576809196089219 0.072507027900731907 0 -0.33299160925146271 0.085281992960062933 0 -0.338272543408071 0.060603673933957783 0 -0.34914844650339177 0.074408805051249083 0 -0.33576809196089219 0.072507027900731907 0 -0.35387282561504041 0.085789381247760657 0 -0.34047962299512569 0.099373871294989508 0 -0.33299160925146271 0.085281992960062933 0 -0.34914844650339177 0.074408805051249083 0 -0.33299160925146271 0.085281992960062933 0 -0.34047962299512569 0.099373871294989508 0 -0.31683477199953253 0.096155180868875256 0 -0.33299160925146271 0.085281992960062933 0 -0.3938434845513461 0.48000301234504228 0 -0.4154786193197833 0.47000451851756458 0 -0.40908183102320411 0.4845696213484928 0 -0.3938434845513461 0.48000301234504228 0 -0.40110135887996978 0.47332954189399812 0 -0.4154786193197833 0.47000451851756458 0 -0.3938434845513461 0.48000301234504228 0 -0.4154786193197833 0.47000451851756458 0 -0.3938434845513461 0.48000301234504228 0 -0.40110135887996978 0.47332954189399812 0 -0.38930270813857232 0.46778113184491188 0 -0.3938434845513461 0.48000301234504228 0 -0.39546946259238258 0.49128185561313598 0 -0.40908183102320411 0.4845696213484928 0 -0.40521342881326272 0.5 0 -0.39546946259238258 0.49128185561313598 0 -0.37789332191386737 0.5 0 -0.40521342881326272 0.5 0 -0.39546946259238258 0.49128185561313598 0 -0.40908183102320411 0.4845696213484928 0 -0.3938434845513461 0.48000301234504228 0 -0.39546946259238258 0.49128185561313598 0 -0.38517353549973538 0.49039659604947999 0 -0.3938434845513461 0.48000301234504228 0 -0.37220834978290879 0.49000150617251997 0 -0.39546946259238258 0.49128185561313598 0 -0.38517353549973538 0.49039659604947999 0 -0.37789332191386737 0.5 0 -0.3938434845513461 0.48000301234504228 0 -0.38517353549973538 0.49039659604947999 0 -0.37220834978290879 0.49000150617251997 0 -0.38517353549973538 0.49039659604947999 0 -0.37789332191386737 0.5 0 -0.37220834978290879 0.49000150617251997 0 -0.3938434845513461 0.48000301234504228 0 -0.37805640255927542 0.47903421333972468 0 -0.3842367001720054 0.47454362448235632 0 -0.3938434845513461 0.48000301234504228 0 -0.37805640255927542 0.47903421333972468 0 -0.37220834978290879 0.49000150617251997 0 -0.3842367001720054 0.47454362448235632 0 -0.37701653082709469 0.46900635458093531 0 -0.38930270813857232 0.46778113184491188 0 -0.3938434845513461 0.48000301234504228 0 -0.3842367001720054 0.47454362448235632 0 -0.38930270813857232 0.46778113184491188 0 -0.37805640255927542 0.47903421333972468 0 -0.3842367001720054 0.47454362448235632 0 -0.37701653082709469 0.46900635458093531 0 -0.37701653082709469 0.46900635458093531 0 -0.38677844954541418 0.45747132953460651 0 -0.37376195539900242 0.45249759326054367 0 -0.37701653082709469 0.46900635458093531 0 -0.38677844954541418 0.45747132953460651 0 -0.38930270813857232 0.46778113184491188 0 -0.38473584783684761 0.44354080077547992 0 -0.36778315087773072 0.43214877602771662 0 -0.37376195539900242 0.45249759326054367 0 -0.38677844954541418 0.45747132953460651 0 -0.38473584783684761 0.44354080077547992 0 -0.37376195539900242 0.45249759326054367 0 -0.38677844954541418 0.45747132953460651 0 -0.38473584783684761 0.44354080077547992 0 -0.39843898125590987 0.45231631840454728 0 -0.39843898125590987 0.45231631840454728 0 -0.4072920944712265 0.44499890251068641 0 -0.39856520721893041 0.43647578570475237 0 -0.38473584783684761 0.44354080077547992 0 -0.39843898125590987 0.45231631840454728 0 -0.39856520721893041 0.43647578570475237 0 -0.39843898125590987 0.45231631840454728 0 -0.39841490533913748 0.46178879282826651 0 -0.41709791082295028 0.45456801136960878 0 -0.40110135887996978 0.47332954189399812 0 -0.39841490533913748 0.46178879282826651 0 -0.41709791082295028 0.45456801136960878 0 -0.38677844954541418 0.45747132953460651 0 -0.38930270813857232 0.46778113184491188 0 -0.39841490533913748 0.46178879282826651 0 -0.40110135887996978 0.47332954189399812 0 -0.38930270813857232 0.46778113184491188 0 -0.39841490533913748 0.46178879282826651 0 -0.38677844954541418 0.45747132953460651 0 -0.39843898125590987 0.45231631840454728 0 -0.39841490533913748 0.46178879282826651 0 -0.40110135887996978 0.47332954189399812 0 -0.41709791082295028 0.45456801136960878 0 -0.4154786193197833 0.47000451851756458 0 -0.40110135887996978 0.47332954189399812 0 -0.41709791082295028 0.45456801136960878 0 -0.41709791082295028 0.45456801136960878 0 -0.42692569345801529 0.46340213249295897 0 -0.4154786193197833 0.47000451851756458 0 -0.41709791082295028 0.45456801136960878 0 -0.43309446276593089 0.43580648084521972 0 -0.41506627858711548 0.4366354945638371 0 -0.39843898125590987 0.45231631840454728 0 -0.41709791082295028 0.45456801136960878 0 -0.4072920944712265 0.44499890251068641 0 -0.4072920944712265 0.44499890251068641 0 -0.41506627858711548 0.4366354945638371 0 -0.39856520721893041 0.43647578570475237 0 -0.41709791082295028 0.45456801136960878 0 -0.4072920944712265 0.44499890251068641 0 -0.41506627858711548 0.4366354945638371 0 -0.41709791082295028 0.45456801136960878 0 -0.43251943231727258 0.45189802077753072 0 -0.43309446276593089 0.43580648084521972 0 -0.41709791082295028 0.45456801136960878 0 -0.43309446276593089 0.43580648084521972 0 -0.43251943231727258 0.45189802077753072 0 -0.44285055445462801 0.44408738363144917 0 -0.43309446276593089 0.43580648084521972 0 -0.43251943231727258 0.45189802077753072 0 -0.42692569345801529 0.46340213249295897 0 -0.44262854008483871 0.46162609554841733 0 -0.42692569345801529 0.46340213249295897 0 -0.43014133963940671 0.47900644757454591 0 -0.44262854008483871 0.46162609554841733 0 -0.41709791082295028 0.45456801136960878 0 -0.43251943231727258 0.45189802077753072 0 -0.42692569345801529 0.46340213249295897 0 -0.42692569345801529 0.46340213249295897 0 -0.43014133963940671 0.47900644757454591 0 -0.4154786193197833 0.47000451851756458 0 -0.43014133963940671 0.47900644757454591 0 -0.4154786193197833 0.47000451851756458 0 -0.40908183102320411 0.4845696213484928 0 -0.40521342881326272 0.5 0 -0.40908183102320411 0.4845696213484928 0 -0.43253353571265801 0.5 0 -0.43014133963940671 0.47900644757454591 0 -0.40908183102320411 0.4845696213484928 0 -0.43253353571265801 0.5 0 -0.43014133963940671 0.47900644757454591 0 -0.43253353571265801 0.5 0 -0.44984012809851409 0.48033494727474779 0 -0.43253353571265801 0.5 0 -0.44984012809851409 0.48033494727474779 0 -0.45985364261205308 0.50000000000000111 0 -0.43014133963940671 0.47900644757454591 0 -0.44984012809851409 0.48033494727474779 0 -0.44262854008483871 0.46162609554841733 0 -0.44984012809851409 0.48033494727474779 0 -0.47312811744354261 0.47395110078869013 0 -0.45820768181792781 0.46325373185340701 0 -0.45985364261205308 0.50000000000000111 0 -0.47312811744354261 0.47395110078869013 0 -0.44984012809851409 0.48033494727474779 0 -0.45985364261205308 0.50000000000000111 0 -0.47312811744354261 0.47395110078869013 0 -0.5 0.5 0 -0.47312811744354261 0.47395110078869013 0 -0.49999999999999972 0.44664233614409321 0 -0.45985364261205308 0.50000000000000111 0 -0.5 0.5 0 -0.47312811744354261 0.47395110078869013 0 -0.48640259227503152 0.44790220157737892 0 -0.49999999999999972 0.44664233614409321 0 -0.47883616718389621 0.43347798499105172 0 -0.49999999999999972 0.44664233614409321 0 -0.47883616718389621 0.43347798499105172 0 -0.47312811744354261 0.47395110078869013 0 -0.48640259227503152 0.44790220157737892 0 -0.49999999999999972 0.44664233614409321 0 -0.47312811744354261 0.47395110078869013 0 -0.48640259227503152 0.44790220157737892 0 -0.47312811744354261 0.47395110078869013 0 -0.48640259227503152 0.44790220157737892 0 -0.46932328621444303 0.45009797021529852 0 -0.46932328621444303 0.45009797021529852 0 -0.46288197751253979 0.435741310408158 0 -0.47883616718389621 0.43347798499105172 0 -0.48640259227503152 0.44790220157737892 0 -0.46932328621444303 0.45009797021529852 0 -0.47883616718389621 0.43347798499105172 0 -0.46932328621444303 0.45009797021529852 0 -0.45653044061400749 0.44574373859450739 0 -0.46288197751253979 0.435741310408158 0 -0.46932328621444303 0.45009797021529852 0 -0.45653044061400749 0.44574373859450739 0 -0.45820768181792781 0.46325373185340701 0 -0.45653044061400749 0.44574373859450739 0 -0.44988321330808601 0.43264183945635343 0 -0.46288197751253979 0.435741310408158 0 -0.47312811744354261 0.47395110078869013 0 -0.46932328621444303 0.45009797021529852 0 -0.45820768181792781 0.46325373185340701 0 -0.45653044061400749 0.44574373859450739 0 -0.45820768181792781 0.46325373185340701 0 -0.44262854008483871 0.46162609554841733 0 -0.44984012809851409 0.48033494727474779 0 -0.45820768181792781 0.46325373185340701 0 -0.44262854008483871 0.46162609554841733 0 -0.43251943231727258 0.45189802077753072 0 -0.44262854008483871 0.46162609554841733 0 -0.44285055445462801 0.44408738363144917 0 -0.45653044061400749 0.44574373859450739 0 -0.44262854008483871 0.46162609554841733 0 -0.44285055445462801 0.44408738363144917 0 -0.44285055445462801 0.44408738363144917 0 -0.44988321330808601 0.43264183945635343 0 -0.43309446276593089 0.43580648084521972 0 -0.45653044061400749 0.44574373859450739 0 -0.44285055445462801 0.44408738363144917 0 -0.44988321330808601 0.43264183945635343 0 -0.44909101470891138 0.41704495032083061 0 -0.43309446276593089 0.43580648084521972 0 -0.44988321330808601 0.43264183945635343 0 -0.44909101470891138 0.41704495032083061 0 -0.43309446276593089 0.43580648084521972 0 -0.44988321330808601 0.43264183945635343 0 -0.44909101470891138 0.41704495032083061 0 -0.45767233436779298 0.42031363383801013 0 -0.44909101470891138 0.41704495032083061 0 -0.43642708593841462 0.41129790334070748 0 -0.43309446276593089 0.43580648084521972 0 -0.44909101470891138 0.41704495032083061 0 -0.44923652684218601 0.40651161443480333 0 -0.43642708593841462 0.41129790334070748 0 -0.44909101470891138 0.41704495032083061 0 -0.46310762304278369 0.4136785712167641 0 -0.46508756665189233 0.39828341979644161 0 -0.44909101470891138 0.41704495032083061 0 -0.46508756665189233 0.39828341979644161 0 -0.44909101470891138 0.41704495032083061 0 -0.44923652684218601 0.40651161443480333 0 -0.46508756665189233 0.39828341979644161 0 -0.44909101470891138 0.41704495032083061 0 -0.45767233436779298 0.42031363383801013 0 -0.46310762304278369 0.4136785712167641 0 -0.45767233436779298 0.42031363383801013 0 -0.46310762304278369 0.4136785712167641 0 -0.4689935185142321 0.42014913325858988 0 -0.46310762304278369 0.4136785712167641 0 -0.47635794946245552 0.41312634298853379 0 -0.46508756665189233 0.39828341979644161 0 -0.45767233436779298 0.42031363383801013 0 -0.47883616718389621 0.43347798499105172 0 -0.4689935185142321 0.42014913325858988 0 -0.45767233436779298 0.42031363383801013 0 -0.46288197751253979 0.435741310408158 0 -0.47883616718389621 0.43347798499105172 0 -0.45767233436779298 0.42031363383801013 0 -0.47883616718389621 0.43347798499105172 0 -0.44988321330808601 0.43264183945635343 0 -0.45767233436779298 0.42031363383801013 0 -0.46288197751253979 0.435741310408158 0 -0.47883616718389621 0.43347798499105172 0 -0.47635794946245552 0.41312634298853379 0 -0.48714440641974271 0.42351608680749347 0 -0.47883616718389621 0.43347798499105172 0 -0.4689935185142321 0.42014913325858988 0 -0.47635794946245552 0.41312634298853379 0 -0.46310762304278369 0.4136785712167641 0 -0.4689935185142321 0.42014913325858988 0 -0.47635794946245552 0.41312634298853379 0 -0.47635794946245552 0.41312634298853379 0 -0.48901457958177968 0.41012265573874179 0 -0.48254378332594611 0.39722493186941499 0 -0.47635794946245552 0.41312634298853379 0 -0.48901457958177968 0.41012265573874179 0 -0.48714440641974271 0.42351608680749347 0 -0.48901457958177968 0.41012265573874179 0 -0.5 0.42140439004324071 0 -0.49999999999999978 0.39616644394238798 0 -0.48901457958177968 0.41012265573874179 0 -0.5 0.42140439004324071 0 -0.48714440641974271 0.42351608680749347 0 -0.49999999999999972 0.44664233614409321 0 -0.47883616718389621 0.43347798499105172 0 -0.48714440641974271 0.42351608680749347 0 -0.49999999999999972 0.44664233614409321 0 -0.5 0.42140439004324071 0 -0.48714440641974271 0.42351608680749347 0 -0.49007778645481631 0.38142997617552599 0 -0.49999999999999978 0.39616644394238798 0 -0.50000000000000311 0.3685517992903854 0 -0.49007778645481631 0.38142997617552599 0 -0.47611467569506138 0.38535029247959018 0 -0.48714178473823078 0.37241716516273898 0 -0.49999999999999978 0.39616644394238798 0 -0.48254378332594611 0.39722493186941499 0 -0.48901457958177968 0.41012265573874179 0 -0.49999999999999978 0.39616644394238798 0 -0.48254378332594611 0.39722493186941499 0 -0.49007778645481631 0.38142997617552599 0 -0.49999999999999978 0.39616644394238798 0 -0.48254378332594611 0.39722493186941499 0 -0.48254378332594611 0.39722493186941499 0 -0.46508756665189233 0.39828341979644161 0 -0.47635794946245552 0.41312634298853379 0 -0.48254378332594611 0.39722493186941499 0 -0.46508756665189233 0.39828341979644161 0 -0.48254378332594611 0.39722493186941499 0 -0.47611467569506138 0.38535029247959018 0 -0.46508756665189233 0.39828341979644161 0 -0.47611467569506138 0.38535029247959018 0 -0.46508756665189233 0.39828341979644161 0 -0.49007778645481631 0.38142997617552599 0 -0.48254378332594611 0.39722493186941499 0 -0.47611467569506138 0.38535029247959018 0 -0.47611467569506138 0.38535029247959018 0 -0.47397397291215421 0.37493689296344251 0 -0.48714178473823078 0.37241716516273898 0 -0.47611467569506138 0.38535029247959018 0 -0.48714178473823078 0.37241716516273898 0 -0.46871814716203669 0.37906981455344119 0 -0.46360543106569913 0.37231654924431878 0 -0.47397397291215421 0.37493689296344251 0 -0.47611467569506138 0.38535029247959018 0 -0.46871814716203669 0.37906981455344119 0 -0.47397397291215421 0.37493689296344251 0 -0.46871814716203669 0.37906981455344119 0 -0.46117850897523233 0.38367552352641338 0 -0.46360543106569913 0.37231654924431878 0 -0.47611467569506138 0.38535029247959018 0 -0.46871814716203669 0.37906981455344119 0 -0.46117850897523233 0.38367552352641338 0 -0.47611467569506138 0.38535029247959018 0 -0.46117850897523233 0.38367552352641338 0 -0.46508756665189233 0.39828341979644161 0 -0.46117850897523233 0.38367552352641338 0 -0.45400385251667602 0.39093091030285698 0 -0.45110956684876158 0.38402681738971201 0 -0.46117850897523233 0.38367552352641338 0 -0.45110956684876158 0.38402681738971201 0 -0.44813402172652672 0.37354371539476261 0 -0.46117850897523233 0.38367552352641338 0 -0.44813402172652672 0.37354371539476261 0 -0.46360543106569913 0.37231654924431878 0 -0.44923652684218601 0.40651161443480333 0 -0.46508756665189233 0.39828341979644161 0 -0.44634044006952572 0.39942018428123321 0 -0.46508756665189233 0.39828341979644161 0 -0.45400385251667602 0.39093091030285698 0 -0.44634044006952572 0.39942018428123321 0 -0.46508756665189233 0.39828341979644161 0 -0.44634044006952572 0.39942018428123321 0 -0.46117850897523233 0.38367552352641338 0 -0.46508756665189233 0.39828341979644161 0 -0.45400385251667602 0.39093091030285698 0 -0.45400385251667602 0.39093091030285698 0 -0.44634044006952572 0.39942018428123321 0 -0.44518347515021223 0.38837251913440451 0 -0.44634044006952572 0.39942018428123321 0 -0.44518347515021223 0.38837251913440451 0 -0.43728617553129168 0.39370672697544878 0 -0.44923652684218601 0.40651161443480333 0 -0.44634044006952572 0.39942018428123321 0 -0.43642708593841462 0.41129790334070748 0 -0.45110956684876158 0.38402681738971201 0 -0.44480856609964842 0.38185924381796288 0 -0.44813402172652672 0.37354371539476261 0 -0.45400385251667602 0.39093091030285698 0 -0.45110956684876158 0.38402681738971201 0 -0.44518347515021223 0.38837251913440451 0 -0.45110956684876158 0.38402681738971201 0 -0.44518347515021223 0.38837251913440451 0 -0.44480856609964842 0.38185924381796288 0 -0.44518347515021223 0.38837251913440451 0 -0.43913693036841173 0.38484964203092692 0 -0.43002747341826991 0.3864772557201327 0 -0.44518347515021223 0.38837251913440451 0 -0.43002747341826991 0.3864772557201327 0 -0.44518347515021223 0.38837251913440451 0 -0.43913693036841173 0.38484964203092692 0 -0.44480856609964842 0.38185924381796288 0 -0.44480856609964842 0.38185924381796288 0 -0.4393591315165738 0.37762743775392832 0 -0.44813402172652672 0.37354371539476261 0 -0.43913693036841173 0.38484964203092692 0 -0.44480856609964842 0.38185924381796288 0 -0.4393591315165738 0.37762743775392832 0 -0.43913693036841173 0.38484964203092692 0 -0.43173797726570751 0.37658334167695551 0 -0.43913693036841173 0.38484964203092692 0 -0.43173797726570751 0.37658334167695551 0 -0.43002747341826991 0.3864772557201327 0 -0.43913693036841173 0.38484964203092692 0 -0.4393591315165738 0.37762743775392832 0 -0.43173797726570751 0.37658334167695551 0 -0.4393591315165738 0.37762743775392832 0 -0.43173797726570751 0.37658334167695551 0 -0.4325639091043616 0.37180597819459837 0 -0.43173797726570751 0.37658334167695551 0 -0.43002747341826991 0.3864772557201327 0 -0.44518347515021223 0.38837251913440451 0 -0.43002747341826991 0.3864772557201327 0 -0.43728617553129168 0.39370672697544878 0 -0.43002747341826991 0.3864772557201327 0 -0.41472776448615789 0.38456402166930481 0 -0.42117367656598032 0.39254991666010941 0 -0.43002747341826991 0.3864772557201327 0 -0.41472776448615789 0.38456402166930481 0 -0.43002747341826991 0.3864772557201327 0 -0.42328890360694349 0.38021744503538613 0 -0.41472776448615789 0.38456402166930481 0 -0.43173797726570751 0.37658334167695551 0 -0.43002747341826991 0.3864772557201327 0 -0.42328890360694349 0.38021744503538613 0 -0.43173797726570751 0.37658334167695551 0 -0.42328890360694349 0.38021744503538613 0 -0.42689564018809201 0.37117335838025439 0 -0.40881671944059661 0.37920357314115732 0 -0.42689564018809201 0.37117335838025439 0 -0.42328890360694349 0.38021744503538613 0 -0.40881671944059661 0.37920357314115732 0 -0.42689564018809201 0.37117335838025439 0 -0.42328890360694349 0.38021744503538613 0 -0.41472776448615789 0.38456402166930481 0 -0.40881671944059661 0.37920357314115732 0 -0.41472776448615789 0.38456402166930481 0 -0.40724106840129259 0.39428871981441299 0 -0.42117367656598032 0.39254991666010941 0 -0.41472776448615789 0.38456402166930481 0 -0.40826438028753348 0.3817067557430866 0 -0.39942805555404642 0.38265078761847338 0 -0.41472776448615789 0.38456402166930481 0 -0.40724106840129259 0.39428871981441299 0 -0.39942805555404642 0.38265078761847338 0 -0.41472776448615789 0.38456402166930481 0 -0.39942805555404642 0.38265078761847338 0 -0.40881671944059661 0.37920357314115732 0 -0.39942805555404642 0.38265078761847338 0 -0.41098055992701871 0.3693971202961519 0 -0.40826438028753348 0.3817067557430866 0 -0.40881671944059661 0.37920357314115732 0 -0.41472776448615789 0.38456402166930481 0 -0.40826438028753348 0.3817067557430866 0 -0.40881671944059661 0.37920357314115732 0 -0.40724106840129259 0.39428871981441299 0 -0.4157685575788832 0.40127396331749671 0 -0.40157856791931718 0.40704460823596672 0 -0.42117367656598032 0.39254991666010941 0 -0.4157685575788832 0.40127396331749671 0 -0.42759331348715912 0.40055694876602499 0 -0.40724106840129259 0.39428871981441299 0 -0.42117367656598032 0.39254991666010941 0 -0.4157685575788832 0.40127396331749671 0 -0.4157685575788832 0.40127396331749671 0 -0.42759331348715912 0.40055694876602499 0 -0.44634044006952572 0.39942018428123321 0 -0.42759331348715912 0.40055694876602499 0 -0.44634044006952572 0.39942018428123321 0 -0.42759331348715912 0.40055694876602499 0 -0.43728617553129168 0.39370672697544878 0 -0.44634044006952572 0.39942018428123321 0 -0.42759331348715912 0.40055694876602499 0 -0.43642708593841462 0.41129790334070748 0 -0.43002747341826991 0.3864772557201327 0 -0.42117367656598032 0.39254991666010941 0 -0.42759331348715912 0.40055694876602499 0 -0.43002747341826991 0.3864772557201327 0 -0.42759331348715912 0.40055694876602499 0 -0.43002747341826991 0.3864772557201327 0 -0.42759331348715912 0.40055694876602499 0 -0.43728617553129168 0.39370672697544878 0 -0.43642708593841462 0.41129790334070748 0 -0.42449994900394461 0.41844961959922572 0 -0.43309446276593089 0.43580648084521972 0 -0.42759331348715912 0.40055694876602499 0 -0.43642708593841462 0.41129790334070748 0 -0.42449994900394461 0.41844961959922572 0 -0.4157685575788832 0.40127396331749671 0 -0.42759331348715912 0.40055694876602499 0 -0.42449994900394461 0.41844961959922572 0 -0.42759331348715912 0.40055694876602499 0 -0.42449994900394461 0.41844961959922572 0 -0.42449994900394461 0.41844961959922572 0 -0.43309446276593089 0.43580648084521972 0 -0.41506627858711548 0.4366354945638371 0 -0.42449994900394461 0.41844961959922572 0 -0.41506627858711548 0.4366354945638371 0 -0.40746949035714619 0.42222882353716701 0 -0.41506627858711548 0.4366354945638371 0 -0.40746949035714619 0.42222882353716701 0 -0.39856520721893041 0.43647578570475237 0 -0.42449994900394461 0.41844961959922572 0 -0.40746949035714619 0.42222882353716701 0 -0.41232914121482278 0.41224925367246401 0 -0.4157685575788832 0.40127396331749671 0 -0.42449994900394461 0.41844961959922572 0 -0.41232914121482278 0.41224925367246401 0 -0.4157685575788832 0.40127396331749671 0 -0.41232914121482278 0.41224925367246401 0 -0.40157856791931718 0.40704460823596672 0 -0.40746949035714619 0.42222882353716701 0 -0.41232914121482278 0.41224925367246401 0 -0.40157856791931718 0.40704460823596672 0 -0.40746949035714619 0.42222882353716701 0 -0.40157856791931718 0.40704460823596672 0 -0.39298749241221759 0.42119507937603923 0 -0.40746949035714619 0.42222882353716701 0 -0.39298749241221759 0.42119507937603923 0 -0.39856520721893041 0.43647578570475237 0 -0.39298749241221759 0.42119507937603923 0 -0.39856520721893041 0.43647578570475237 0 -0.38373994498284608 0.43043669407259588 0 -0.38373994498284608 0.43043669407259588 0 -0.37668454372729859 0.41206883315114529 0 -0.36778315087773072 0.43214877602771662 0 -0.38473584783684761 0.44354080077547992 0 -0.38373994498284608 0.43043669407259588 0 -0.36778315087773072 0.43214877602771662 0 -0.38473584783684761 0.44354080077547992 0 -0.39856520721893041 0.43647578570475237 0 -0.38373994498284608 0.43043669407259588 0 -0.40157856791931718 0.40704460823596672 0 -0.39298749241221759 0.42119507937603923 0 -0.37668454372729859 0.41206883315114529 0 -0.39298749241221759 0.42119507937603923 0 -0.38373994498284608 0.43043669407259588 0 -0.37668454372729859 0.41206883315114529 0 -0.40157856791931718 0.40704460823596672 0 -0.37668454372729859 0.41206883315114529 0 -0.37668454372729859 0.41206883315114529 0 -0.37844474563582792 0.390355182046278 0 -0.39076978830337122 0.39764902138512792 0 -0.40157856791931718 0.40704460823596672 0 -0.37668454372729859 0.41206883315114529 0 -0.39076978830337122 0.39764902138512792 0 -0.38141148745950948 0.38039780936179463 0 -0.39942805555404642 0.38265078761847338 0 -0.37844474563582792 0.390355182046278 0 -0.39942805555404642 0.38265078761847338 0 -0.38141148745950948 0.38039780936179463 0 -0.37844474563582792 0.390355182046278 0 -0.39942805555404642 0.38265078761847338 0 -0.37844474563582792 0.390355182046278 0 -0.39942805555404642 0.38265078761847338 0 -0.39076978830337122 0.39764902138512792 0 -0.38141148745950948 0.38039780936179463 0 -0.39942805555404642 0.38265078761847338 0 -0.39128338495032239 0.36719877308275878 0 -0.40826438028753348 0.3817067557430866 0 -0.40881671944059661 0.37920357314115732 0 -0.39942805555404642 0.38265078761847338 0 -0.40881671944059661 0.37920357314115732 0 -0.39942805555404642 0.38265078761847338 0 -0.40724106840129259 0.39428871981441299 0 -0.40157856791931718 0.40704460823596672 0 -0.39076978830337122 0.39764902138512792 0 -0.40724106840129259 0.39428871981441299 0 -0.39942805555404642 0.38265078761847338 0 -0.39076978830337122 0.39764902138512792 0 -0.39259889148010241 0.34864188780489069 0 -0.39999637464883392 0.35559476271013252 0 -0.38966798311544332 0.35610238881872369 0 -0.39259889148010241 0.34864188780489069 0 -0.39999637464883392 0.35559476271013252 0 -0.40046159691170069 0.34164056661102238 0 -0.39999637464883392 0.35559476271013252 0 -0.40046159691170069 0.34164056661102238 0 -0.41381361947694889 0.35655778899711688 0 -0.39999637464883392 0.35559476271013252 0 -0.40397412088998857 0.3623881668075713 0 -0.41381361947694889 0.35655778899711688 0 -0.39128338495032239 0.36719877308275878 0 -0.41098055992701871 0.3693971202961519 0 -0.40397412088998857 0.3623881668075713 0 -0.39128338495032239 0.36719877308275878 0 -0.41098055992701871 0.3693971202961519 0 -0.39942805555404642 0.38265078761847338 0 -0.39128338495032239 0.36719877308275878 0 -0.41098055992701871 0.3693971202961519 0 -0.39999637464883392 0.35559476271013252 0 -0.39128338495032239 0.36719877308275878 0 -0.38966798311544332 0.35610238881872369 0 -0.39999637464883392 0.35559476271013252 0 -0.40397412088998857 0.3623881668075713 0 -0.39128338495032239 0.36719877308275878 0 -0.39128338495032239 0.36719877308275878 0 -0.38070440212728118 0.35956436367519867 0 -0.38966798311544332 0.35610238881872369 0 -0.39128338495032239 0.36719877308275878 0 -0.38070440212728118 0.35956436367519867 0 -0.37158620997362618 0.36500042586936587 0 -0.39128338495032239 0.36719877308275878 0 -0.37158620997362618 0.36500042586936587 0 -0.38141148745950948 0.38039780936179463 0 -0.39128338495032239 0.36719877308275878 0 -0.37158620997362618 0.36500042586936587 0 -0.38070440212728118 0.35956436367519867 0 -0.38259242285128608 0.34975193996759602 0 -0.36960199921418602 0.35731180584905542 0 -0.38259242285128608 0.34975193996759602 0 -0.37580907906339922 0.33647878059299557 0 -0.36960199921418602 0.35731180584905542 0 -0.38070440212728118 0.35956436367519867 0 -0.38966798311544332 0.35610238881872369 0 -0.38259242285128608 0.34975193996759602 0 -0.39259889148010241 0.34864188780489069 0 -0.38966798311544332 0.35610238881872369 0 -0.38259242285128608 0.34975193996759602 0 -0.39259889148010241 0.34864188780489069 0 -0.38259242285128608 0.34975193996759602 0 -0.38794720083446621 0.34059934721089508 0 -0.38259242285128608 0.34975193996759602 0 -0.37580907906339922 0.33647878059299557 0 -0.38794720083446621 0.34059934721089508 0 -0.37580907906339922 0.33647878059299557 0 -0.38794720083446621 0.34059934721089508 0 -0.38710957434645199 0.32672334422492838 0 -0.37580907906339922 0.33647878059299557 0 -0.38201615891261242 0.31564575533693578 0 -0.38201615891261242 0.31564575533693578 0 -0.38336946241093189 0.30974931290420182 0 -0.36531193472093021 0.32454274932608829 0 -0.37580907906339922 0.33647878059299557 0 -0.38201615891261242 0.31564575533693578 0 -0.38710957434645199 0.32672334422492838 0 -0.38201615891261242 0.31564575533693578 0 -0.39350880394476312 0.31593875705230262 0 -0.38336946241093189 0.30974931290420182 0 -0.38201615891261242 0.31564575533693578 0 -0.38710957434645199 0.32672334422492838 0 -0.39350880394476312 0.31593875705230262 0 -0.38710957434645199 0.32672334422492838 0 -0.39350880394476312 0.31593875705230262 0 -0.39921774374196328 0.327754485124091 0 -0.39350880394476312 0.31593875705230262 0 -0.39921774374196328 0.327754485124091 0 -0.40602554896887638 0.32011992980008452 0 -0.39921774374196328 0.327754485124091 0 -0.40602554896887638 0.32011992980008452 0 -0.40814721749945931 0.33505042297199122 0 -0.38794720083446621 0.34059934721089508 0 -0.38710957434645199 0.32672334422492838 0 -0.40046159691170069 0.34164056661102238 0 -0.39259889148010241 0.34864188780489069 0 -0.38794720083446621 0.34059934721089508 0 -0.40046159691170069 0.34164056661102238 0 -0.38710957434645199 0.32672334422492838 0 -0.39921774374196328 0.327754485124091 0 -0.40046159691170069 0.34164056661102238 0 -0.38710957434645199 0.32672334422492838 0 -0.40046159691170069 0.34164056661102238 0 -0.39921774374196328 0.327754485124091 0 -0.40046159691170069 0.34164056661102238 0 -0.40814721749945931 0.33505042297199122 0 -0.40814721749945931 0.33505042297199122 0 -0.41954562432067788 0.33058053440738988 0 -0.41381361947694889 0.35655778899711688 0 -0.41954562432067788 0.33058053440738988 0 -0.41381361947694889 0.35655778899711688 0 -0.40602554896887638 0.32011992980008452 0 -0.40814721749945931 0.33505042297199122 0 -0.41954562432067788 0.33058053440738988 0 -0.40602554896887638 0.32011992980008452 0 -0.41954562432067788 0.33058053440738988 0 -0.42527762916440792 0.30460327981766322 0 -0.41954562432067788 0.33058053440738988 0 -0.42527762916440792 0.30460327981766322 0 -0.41954562432067788 0.33058053440738988 0 -0.44001701522470671 0.31606260091672289 0 -0.42527762916440792 0.30460327981766322 0 -0.41954562432067788 0.33058053440738988 0 -0.42420657124029282 0.3485159257420361 0 -0.43843079740841773 0.33787066219507811 0 -0.41954562432067788 0.33058053440738988 0 -0.43843079740841773 0.33787066219507811 0 -0.44001701522470671 0.31606260091672289 0 -0.42420657124029282 0.3485159257420361 0 -0.43459164588172849 0.36007712215754689 0 -0.43843079740841773 0.33787066219507811 0 -0.42420657124029282 0.3485159257420361 0 -0.41381361947694889 0.35655778899711688 0 -0.43459164588172849 0.36007712215754689 0 -0.41381361947694889 0.35655778899711688 0 -0.43459164588172849 0.36007712215754689 0 -0.43459164588172849 0.36007712215754689 0 -0.43843079740841773 0.33787066219507811 0 -0.40046159691170069 0.34164056661102238 0 -0.40814721749945931 0.33505042297199122 0 -0.41381361947694889 0.35655778899711688 0 -0.41954562432067788 0.33058053440738988 0 -0.42420657124029282 0.3485159257420361 0 -0.41381361947694889 0.35655778899711688 0 -0.39999637464883392 0.35559476271013252 0 -0.41381361947694889 0.35655778899711688 0 -0.40046159691170069 0.34164056661102238 0 -0.41381361947694889 0.35655778899711688 0 -0.41381361947694889 0.35655778899711688 0 -0.41098055992701871 0.3693971202961519 0 -0.42689564018809201 0.37117335838025439 0 -0.41098055992701871 0.3693971202961519 0 -0.42689564018809201 0.37117335838025439 0 -0.40881671944059661 0.37920357314115732 0 -0.41098055992701871 0.3693971202961519 0 -0.42689564018809201 0.37117335838025439 0 -0.40881671944059661 0.37920357314115732 0 -0.41098055992701871 0.3693971202961519 0 -0.40397412088998857 0.3623881668075713 0 -0.41381361947694889 0.35655778899711688 0 -0.41098055992701871 0.3693971202961519 0 -0.41381361947694889 0.35655778899711688 0 -0.41098055992701871 0.3693971202961519 0 -0.41381361947694889 0.35655778899711688 0 -0.42689564018809201 0.37117335838025439 0 -0.41381361947694889 0.35655778899711688 0 -0.42907199843085347 0.36486274908666949 0 -0.43459164588172849 0.36007712215754689 0 -0.42689564018809201 0.37117335838025439 0 -0.42907199843085347 0.36486274908666949 0 -0.42980351636605002 0.37149789839679431 0 -0.43173797726570751 0.37658334167695551 0 -0.42689564018809201 0.37117335838025439 0 -0.43173797726570751 0.37658334167695551 0 -0.42689564018809201 0.37117335838025439 0 -0.42980351636605002 0.37149789839679431 0 -0.42689564018809201 0.37117335838025439 0 -0.42980351636605002 0.37149789839679431 0 -0.41381361947694889 0.35655778899711688 0 -0.42689564018809201 0.37117335838025439 0 -0.42907199843085347 0.36486274908666949 0 -0.43459164588172849 0.36007712215754689 0 -0.4325639091043616 0.37180597819459837 0 -0.42907199843085347 0.36486274908666949 0 -0.43459164588172849 0.36007712215754689 0 -0.4325639091043616 0.37180597819459837 0 -0.43173797726570751 0.37658334167695551 0 -0.4325639091043616 0.37180597819459837 0 -0.43173797726570751 0.37658334167695551 0 -0.4325639091043616 0.37180597819459837 0 -0.42980351636605002 0.37149789839679431 0 -0.4325639091043616 0.37180597819459837 0 -0.42980351636605002 0.37149789839679431 0 -0.42907199843085347 0.36486274908666949 0 -0.4325639091043616 0.37180597819459837 0 -0.42980351636605002 0.37149789839679431 0 -0.4393591315165738 0.37762743775392832 0 -0.4325639091043616 0.37180597819459837 0 -0.44813402172652672 0.37354371539476261 0 -0.4325639091043616 0.37180597819459837 0 -0.44813402172652672 0.37354371539476261 0 -0.4325639091043616 0.37180597819459837 0 -0.44813402172652672 0.37354371539476261 0 -0.45404419213644692 0.3625975043188554 0 -0.43459164588172849 0.36007712215754689 0 -0.45404419213644692 0.3625975043188554 0 -0.43459164588172849 0.36007712215754689 0 -0.4325639091043616 0.37180597819459837 0 -0.45404419213644692 0.3625975043188554 0 -0.4325639091043616 0.37180597819459837 0 -0.45404419213644692 0.3625975043188554 0 -0.43459164588172849 0.36007712215754689 0 -0.44549025602952702 0.35300777224981977 0 -0.45404419213644692 0.3625975043188554 0 -0.44549025602952702 0.35300777224981977 0 -0.45575207180717081 0.34762579988211101 0 -0.43843079740841773 0.33787066219507811 0 -0.43459164588172849 0.36007712215754689 0 -0.44549025602952702 0.35300777224981977 0 -0.43843079740841773 0.33787066219507811 0 -0.44549025602952702 0.35300777224981977 0 -0.45575207180717081 0.34762579988211101 0 -0.45404419213644692 0.3625975043188554 0 -0.45575207180717081 0.34762579988211101 0 -0.46674234051517471 0.35793515390827568 0 -0.45404419213644692 0.3625975043188554 0 -0.45575207180717081 0.34762579988211101 0 -0.46674234051517471 0.35793515390827568 0 -0.46933267881425472 0.34565439271282838 0 -0.45404419213644692 0.3625975043188554 0 -0.47441064506165659 0.36523629740895902 0 -0.46674234051517471 0.35793515390827568 0 -0.45404419213644692 0.3625975043188554 0 -0.47441064506165659 0.36523629740895902 0 -0.45404419213644692 0.3625975043188554 0 -0.46360543106569913 0.37231654924431878 0 -0.47441064506165659 0.36523629740895902 0 -0.44813402172652672 0.37354371539476261 0 -0.45404419213644692 0.3625975043188554 0 -0.46360543106569913 0.37231654924431878 0 -0.46674234051517471 0.35793515390827568 0 -0.45404419213644692 0.3625975043188554 0 -0.46360543106569913 0.37231654924431878 0 -0.47397397291215421 0.37493689296344251 0 -0.47441064506165659 0.36523629740895902 0 -0.47441064506165659 0.36523629740895902 0 -0.48058358620238051 0.35168401037216412 0 -0.49477709798686631 0.36787509049906381 0 -0.47397397291215421 0.37493689296344251 0 -0.47441064506165659 0.36523629740895902 0 -0.48714178473823078 0.37241716516273898 0 -0.46674234051517471 0.35793515390827568 0 -0.47441064506165659 0.36523629740895902 0 -0.48058358620238051 0.35168401037216412 0 -0.46674234051517471 0.35793515390827568 0 -0.46933267881425472 0.34565439271282838 0 -0.48058358620238051 0.35168401037216412 0 -0.46933267881425472 0.34565439271282838 0 -0.48058358620238051 0.35168401037216412 0 -0.48121002056386808 0.3369363626790518 0 -0.48058358620238051 0.35168401037216412 0 -0.49703354506598713 0.34759711953555122 0 -0.48121002056386808 0.3369363626790518 0 -0.49703354506598713 0.34759711953555122 0 -0.5 0.34812631329607491 0 -0.49477709798686631 0.36787509049906381 0 -0.48058358620238051 0.35168401037216412 0 -0.49703354506598713 0.34759711953555122 0 -0.49477709798686631 0.36787509049906381 0 -0.49703354506598713 0.34759711953555122 0 -0.49477709798686631 0.36787509049906381 0 -0.5 0.34812631329607491 0 -0.50000000000000311 0.3685517992903854 0 -0.49477709798686631 0.36787509049906381 0 -0.47441064506165659 0.36523629740895902 0 -0.49477709798686631 0.36787509049906381 0 -0.48714178473823078 0.37241716516273898 0 -0.47441064506165659 0.36523629740895902 0 -0.49477709798686631 0.36787509049906381 0 -0.49007778645481631 0.38142997617552599 0 -0.50000000000000311 0.3685517992903854 0 -0.49477709798686631 0.36787509049906381 0 -0.50000000000000311 0.3685517992903854 0 -0.49477709798686631 0.36787509049906381 0 -0.49007778645481631 0.38142997617552599 0 -0.49477709798686631 0.36787509049906381 0 -0.48714178473823078 0.37241716516273898 0 -0.4992899921451075 0.32731914857203848 0 -0.47890896772952718 0.31636292681222472 0 -0.4992899921451075 0.32731914857203848 0 -0.48121002056386808 0.3369363626790518 0 -0.47890896772952718 0.31636292681222472 0 -0.49999999999999989 0.32093853419885771 0 -0.47890896772952718 0.31636292681222472 0 -0.48920120729889771 0.30786362236022019 0 -0.49999999999999989 0.32093853419885771 0 -0.4992899921451075 0.32731914857203848 0 -0.47890896772952718 0.31636292681222472 0 -0.49999999999999989 0.32093853419885771 0 -0.4992899921451075 0.32731914857203848 0 -0.49703354506598713 0.34759711953555122 0 -0.4992899921451075 0.32731914857203848 0 -0.49703354506598713 0.34759711953555122 0 -0.4992899921451075 0.32731914857203848 0 -0.48121002056386808 0.3369363626790518 0 -0.49703354506598713 0.34759711953555122 0 -0.5 0.34812631329607491 0 -0.4992899921451075 0.32731914857203848 0 -0.46933267881425472 0.34565439271282838 0 -0.48121002056386808 0.3369363626790518 0 -0.46237537498267961 0.3340906367225393 0 -0.48121002056386808 0.3369363626790518 0 -0.47890896772952718 0.31636292681222472 0 -0.46237537498267961 0.3340906367225393 0 -0.47890896772952718 0.31636292681222472 0 -0.45636509730576869 0.32029680939338251 0 -0.45852794331394758 0.30540670505240958 0 -0.47890896772952718 0.31636292681222472 0 -0.45636509730576869 0.32029680939338251 0 -0.46237537498267961 0.3340906367225393 0 -0.45575207180717081 0.34762579988211101 0 -0.46933267881425472 0.34565439271282838 0 -0.46237537498267961 0.3340906367225393 0 -0.45575207180717081 0.34762579988211101 0 -0.46237537498267961 0.3340906367225393 0 -0.43843079740841773 0.33787066219507811 0 -0.45636509730576869 0.32029680939338251 0 -0.46237537498267961 0.3340906367225393 0 -0.43843079740841773 0.33787066219507811 0 -0.45636509730576869 0.32029680939338251 0 -0.43843079740841773 0.33787066219507811 0 -0.44001701522470671 0.31606260091672289 0 -0.45636509730576869 0.32029680939338251 0 -0.44001701522470671 0.31606260091672289 0 -0.45852794331394758 0.30540670505240958 0 -0.4381469188983681 0.2944504832925946 0 -0.45852794331394758 0.30540670505240958 0 -0.44001701522470671 0.31606260091672289 0 -0.4381469188983681 0.2944504832925946 0 -0.45852794331394758 0.30540670505240958 0 -0.4381469188983681 0.2944504832925946 0 -0.4447805513699985 0.27737231294201392 0 -0.43100963400813791 0.27862602522793672 0 -0.4381469188983681 0.2944504832925946 0 -0.45724976864254441 0.28334965182257721 0 -0.4447805513699985 0.27737231294201392 0 -0.4381469188983681 0.2944504832925946 0 -0.45724976864254441 0.28334965182257721 0 -0.45852794331394758 0.30540670505240958 0 -0.45724976864254441 0.28334965182257721 0 -0.45852794331394758 0.30540670505240958 0 -0.47789586146606378 0.29814868652574811 0 -0.47890896772952718 0.31636292681222472 0 -0.45852794331394758 0.30540670505240958 0 -0.47890896772952718 0.31636292681222472 0 -0.47789586146606378 0.29814868652574811 0 -0.48920120729889771 0.30786362236022019 0 -0.47890896772952718 0.31636292681222472 0 -0.45852794331394758 0.30540670505240958 0 -0.47789586146606378 0.29814868652574811 0 -0.45724976864254441 0.28334965182257721 0 -0.47789586146606378 0.29814868652574811 0 -0.48102565218130672 0.27929705551177292 0 -0.5 0.29600434190405073 0 -0.5 0.27107014960924369 0 -0.48102565218130672 0.27929705551177292 0 -0.47789586146606378 0.29814868652574811 0 -0.5 0.29600434190405073 0 -0.48102565218130672 0.27929705551177292 0 -0.47789586146606378 0.29814868652574811 0 -0.5 0.29600434190405073 0 -0.48920120729889771 0.30786362236022019 0 -0.49999999999999989 0.32093853419885771 0 -0.5 0.29600434190405073 0 -0.48920120729889771 0.30786362236022019 0 -0.48177750529808522 0.24619974485466931 0 -0.5 0.2461359573144368 0 -0.48654709528280549 0.26072196503438649 0 -0.5 0.2461359573144368 0 -0.48654709528280549 0.26072196503438649 0 -0.5 0.27107014960924369 0 -0.48654709528280549 0.26072196503438649 0 -0.5 0.27107014960924369 0 -0.48102565218130672 0.27929705551177292 0 -0.48654709528280549 0.26072196503438649 0 -0.48102565218130672 0.27929705551177292 0 -0.46993231893463527 0.26090691788180947 0 -0.45724976864254441 0.28334965182257721 0 -0.48102565218130672 0.27929705551177292 0 -0.46993231893463527 0.26090691788180947 0 -0.48177750529808522 0.24619974485466931 0 -0.48654709528280549 0.26072196503438649 0 -0.46993231893463527 0.26090691788180947 0 -0.45710504060219709 0.23686107433279269 0 -0.46993231893463527 0.26090691788180947 0 -0.44707755271196942 0.2637365605125353 0 -0.45724976864254441 0.28334965182257721 0 -0.46993231893463527 0.26090691788180947 0 -0.44707755271196942 0.2637365605125353 0 -0.45724976864254441 0.28334965182257721 0 -0.4447805513699985 0.27737231294201392 0 -0.44707755271196942 0.2637365605125353 0 -0.4447805513699985 0.27737231294201392 0 -0.44707755271196942 0.2637365605125353 0 -0.43100963400813791 0.27862602522793672 0 -0.45710504060219709 0.23686107433279269 0 -0.44707755271196942 0.2637365605125353 0 -0.44707755271196942 0.2637365605125353 0 -0.4367416388518679 0.25264877063821017 0 -0.43100963400813791 0.27862602522793672 0 -0.45710504060219709 0.23686107433279269 0 -0.44707755271196942 0.2637365605125353 0 -0.4367416388518679 0.25264877063821017 0 -0.4367416388518679 0.25264877063821017 0 -0.41175872593851298 0.2549478601346914 0 -0.41885046316002428 0.26850948483906401 0 -0.41175872593851298 0.2549478601346914 0 -0.41885046316002428 0.26850948483906401 0 -0.3976364837244763 0.27421361628784369 0 -0.41885046316002428 0.26850948483906401 0 -0.41710583327712653 0.28211115190663788 0 -0.3976364837244763 0.27421361628784369 0 -0.41885046316002428 0.26850948483906401 0 -0.43100963400813791 0.27862602522793672 0 -0.41710583327712653 0.28211115190663788 0 -0.4367416388518679 0.25264877063821017 0 -0.43100963400813791 0.27862602522793672 0 -0.4367416388518679 0.25264877063821017 0 -0.41885046316002428 0.26850948483906401 0 -0.43100963400813791 0.27862602522793672 0 -0.4381469188983681 0.2944504832925946 0 -0.43100963400813791 0.27862602522793672 0 -0.42527762916440792 0.30460327981766322 0 -0.43100963400813791 0.27862602522793672 0 -0.42527762916440792 0.30460327981766322 0 -0.41710583327712653 0.28211115190663788 0 -0.43100963400813791 0.27862602522793672 0 -0.42527762916440792 0.30460327981766322 0 -0.44001701522470671 0.31606260091672289 0 -0.4381469188983681 0.2944504832925946 0 -0.42527762916440792 0.30460327981766322 0 -0.40602554896887638 0.32011992980008452 0 -0.42527762916440792 0.30460327981766322 0 -0.4014269901009333 0.29495587648231503 0 -0.41710583327712653 0.28211115190663788 0 -0.4014269901009333 0.29495587648231503 0 -0.42527762916440792 0.30460327981766322 0 -0.41710583327712653 0.28211115190663788 0 -0.4014269901009333 0.29495587648231503 0 -0.41710583327712653 0.28211115190663788 0 -0.4014269901009333 0.29495587648231503 0 -0.3976364837244763 0.27421361628784369 0 -0.4014269901009333 0.29495587648231503 0 -0.38389766901197209 0.2919764357376447 0 -0.3976364837244763 0.27421361628784369 0 -0.4014269901009333 0.29495587648231503 0 -0.3976364837244763 0.27421361628784369 0 -0.39350880394476312 0.31593875705230262 0 -0.40602554896887638 0.32011992980008452 0 -0.4014269901009333 0.29495587648231503 0 -0.4014269901009333 0.29495587648231503 0 -0.38336946241093189 0.30974931290420182 0 -0.40602554896887638 0.32011992980008452 0 -0.4014269901009333 0.29495587648231503 0 -0.39350880394476312 0.31593875705230262 0 -0.4014269901009333 0.29495587648231503 0 -0.38336946241093189 0.30974931290420182 0 -0.38336946241093189 0.30974931290420182 0 -0.38389766901197209 0.2919764357376447 0 -0.36596935852520629 0.30787018431111951 0 -0.4014269901009333 0.29495587648231503 0 -0.38336946241093189 0.30974931290420182 0 -0.38389766901197209 0.2919764357376447 0 -0.38389766901197209 0.2919764357376447 0 -0.3839238193794226 0.27871888045260418 0 -0.3976364837244763 0.27421361628784369 0 -0.38389766901197209 0.2919764357376447 0 -0.3839238193794226 0.27871888045260418 0 -0.3703732677084236 0.2804332674389724 0 -0.3839238193794226 0.27871888045260418 0 -0.38378785707281859 0.2682522023459562 0 -0.3703732677084236 0.2804332674389724 0 -0.38378785707281859 0.2682522023459562 0 -0.37477717689163992 0.25299635056682518 0 -0.3703732677084236 0.2804332674389724 0 -0.3839238193794226 0.27871888045260418 0 -0.38378785707281859 0.2682522023459562 0 -0.3976364837244763 0.27421361628784369 0 -0.38378785707281859 0.2682522023459562 0 -0.39384597734802013 0.25347135609337229 0 -0.37477717689163992 0.25299635056682518 0 -0.39384597734802013 0.25347135609337229 0 -0.3976364837244763 0.27421361628784369 0 -0.41175872593851298 0.2549478601346914 0 -0.39384597734802013 0.25347135609337229 0 -0.3976364837244763 0.27421361628784369 0 -0.38378785707281859 0.2682522023459562 0 -0.39384597734802013 0.25347135609337229 0 -0.3976364837244763 0.27421361628784369 0 -0.35834524103505527 0.27479395617319979 0 -0.34490227433735798 0.27909378963084902 0 -0.35045174428906722 0.28677843618767362 0 -0.35834524103505527 0.27479395617319979 0 -0.34490227433735798 0.27909378963084902 0 -0.34728570068091402 0.2661688508290645 0 -0.34728570068091402 0.2661688508290645 0 -0.35464358931248319 0.25491115920099722 0 -0.34150965816976359 0.25817059719828012 0 -0.33845336435013867 0.242079554605789 0 -0.35464358931248319 0.25491115920099722 0 -0.34150965816976359 0.25817059719828012 0 -0.35834524103505527 0.27479395617319979 0 -0.34728570068091402 0.2661688508290645 0 -0.35464358931248319 0.25491115920099722 0 -0.35834524103505527 0.27479395617319979 0 -0.37477717689163992 0.25299635056682518 0 -0.35834524103505527 0.27479395617319979 0 -0.35464358931248319 0.25491115920099722 0 -0.37477717689163992 0.25299635056682518 0 -0.37477717689163992 0.25299635056682518 0 -0.3703732677084236 0.2804332674389724 0 -0.35834524103505527 0.27479395617319979 0 -0.37477717689163992 0.25299635056682518 0 -0.3703732677084236 0.2804332674389724 0 -0.3703732677084236 0.2804332674389724 0 -0.36596935852520629 0.30787018431111951 0 -0.38389766901197209 0.2919764357376447 0 -0.3703732677084236 0.2804332674389724 0 -0.36596935852520629 0.30787018431111951 0 -0.35834524103505527 0.27479395617319979 0 -0.3703732677084236 0.2804332674389724 0 -0.35925388220638338 0.290827281626163 0 -0.3703732677084236 0.2804332674389724 0 -0.36596935852520629 0.30787018431111951 0 -0.35925388220638338 0.290827281626163 0 -0.36596935852520629 0.30787018431111951 0 -0.35645499353340299 0.30154574554434233 0 -0.35925388220638338 0.290827281626163 0 -0.36596935852520629 0.30787018431111951 0 -0.35645499353340299 0.30154574554434233 0 -0.35774913989266272 0.31391262040183171 0 -0.35645499353340299 0.30154574554434233 0 -0.35013945535461871 0.3105838988596446 0 -0.35774913989266272 0.31391262040183171 0 -0.35645499353340299 0.30154574554434233 0 -0.34780240298166087 0.30288468022079579 0 -0.35285886900803182 0.29452238055293539 0 -0.34780240298166087 0.30288468022079579 0 -0.34622635383862083 0.29383585221412489 0 -0.33932813284697128 0.29730713825443927 0 -0.34780240298166087 0.30288468022079579 0 -0.35285886900803182 0.29452238055293539 0 -0.34622635383862083 0.29383585221412489 0 -0.34780240298166087 0.30288468022079579 0 -0.34514961405368982 0.30758965292055213 0 -0.33997231501418312 0.30473657218964828 0 -0.35645499353340299 0.30154574554434233 0 -0.34780240298166087 0.30288468022079579 0 -0.35013945535461871 0.3105838988596446 0 -0.34780240298166087 0.30288468022079579 0 -0.34514961405368982 0.30758965292055213 0 -0.35013945535461871 0.3105838988596446 0 -0.34514961405368982 0.30758965292055213 0 -0.35013945535461871 0.3105838988596446 0 -0.34268428286429659 0.31215346041211978 0 -0.35834524103505527 0.27479395617319979 0 -0.35925388220638338 0.290827281626163 0 -0.35045174428906722 0.28677843618767362 0 -0.35645499353340299 0.30154574554434233 0 -0.35925388220638338 0.290827281626163 0 -0.35285886900803182 0.29452238055293539 0 -0.35925388220638338 0.290827281626163 0 -0.35285886900803182 0.29452238055293539 0 -0.35045174428906722 0.28677843618767362 0 -0.35285886900803182 0.29452238055293539 0 -0.34622635383862083 0.29383585221412489 0 -0.35045174428906722 0.28677843618767362 0 -0.34622635383862083 0.29383585221412489 0 -0.35045174428906722 0.28677843618767362 0 -0.34088660642111013 0.2879281286912172 0 -0.34490227433735798 0.27909378963084902 0 -0.35045174428906722 0.28677843618767362 0 -0.34088660642111013 0.2879281286912172 0 -0.34490227433735798 0.27909378963084902 0 -0.34088660642111013 0.2879281286912172 0 -0.33262910378125132 0.278293493462413 0 -0.34088660642111013 0.2879281286912172 0 -0.33227483086849752 0.29261385498347509 0 -0.33932813284697128 0.29730713825443927 0 -0.34622635383862083 0.29383585221412489 0 -0.34088660642111013 0.2879281286912172 0 -0.33932813284697128 0.29730713825443927 0 -0.33227483086849752 0.29261385498347509 0 -0.32398535199451511 0.28524421774589648 0 -0.33262910378125132 0.278293493462413 0 -0.34088660642111013 0.2879281286912172 0 -0.33227483086849752 0.29261385498347509 0 -0.33262910378125132 0.278293493462413 0 -0.33718535734333338 0.30882123026638569 0 -0.34268428286429659 0.31215346041211978 0 -0.33477104767585758 0.31524888829805342 0 -0.33718535734333338 0.30882123026638569 0 -0.34268428286429659 0.31215346041211978 0 -0.33997231501418312 0.30473657218964828 0 -0.34514961405368982 0.30758965292055213 0 -0.34268428286429659 0.31215346041211978 0 -0.33997231501418312 0.30473657218964828 0 -0.33718535734333338 0.30882123026638569 0 -0.33997231501418312 0.30473657218964828 0 -0.33396296217470239 0.30554582684384218 0 -0.33997231501418312 0.30473657218964828 0 -0.33932813284697128 0.29730713825443927 0 -0.33396296217470239 0.30554582684384218 0 -0.34780240298166087 0.30288468022079579 0 -0.33997231501418312 0.30473657218964828 0 -0.33932813284697128 0.29730713825443927 0 -0.33227483086849752 0.29261385498347509 0 -0.33396296217470239 0.30554582684384218 0 -0.32251037119006698 0.3031431883822347 0 -0.33227483086849752 0.29261385498347509 0 -0.33932813284697128 0.29730713825443927 0 -0.33396296217470239 0.30554582684384218 0 -0.33718535734333338 0.30882123026638569 0 -0.33396296217470239 0.30554582684384218 0 -0.33477104767585758 0.31524888829805342 0 -0.33396296217470239 0.30554582684384218 0 -0.32251037119006698 0.3031431883822347 0 -0.33219148171911272 0.31730370811833031 0 -0.32251037119006698 0.3031431883822347 0 -0.31456388983813333 0.31636814557902659 0 -0.33219148171911272 0.31730370811833031 0 -0.32251037119006698 0.3031431883822347 0 -0.31282926066102218 0.28898266864613842 0 -0.30402337591517081 0.3051012194244167 0 -0.32251037119006698 0.3031431883822347 0 -0.30402337591517081 0.3051012194244167 0 -0.31456388983813333 0.31636814557902659 0 -0.32251037119006698 0.3031431883822347 0 -0.33219148171911272 0.31730370811833031 0 -0.33227483086849752 0.29261385498347509 0 -0.32251037119006698 0.3031431883822347 0 -0.32398535199451511 0.28524421774589648 0 -0.32251037119006698 0.3031431883822347 0 -0.32398535199451511 0.28524421774589648 0 -0.31282926066102218 0.28898266864613842 0 -0.32251037119006698 0.3031431883822347 0 -0.31282926066102218 0.28898266864613842 0 -0.31282926066102218 0.28898266864613842 0 -0.32065101258715689 0.274665503564473 0 -0.32398535199451511 0.28524421774589648 0 -0.31282926066102218 0.28898266864613842 0 -0.32065101258715689 0.274665503564473 0 -0.32065101258715689 0.274665503564473 0 -0.32847276451329022 0.26034833848280681 0 -0.31199410965335322 0.26463258327439948 0 -0.32065101258715689 0.274665503564473 0 -0.33262910378125132 0.278293493462413 0 -0.32847276451329022 0.26034833848280681 0 -0.31282926066102218 0.28898266864613842 0 -0.32065101258715689 0.274665503564473 0 -0.30403346053568642 0.27611708872161922 0 -0.32065101258715689 0.274665503564473 0 -0.32847276451329022 0.26034833848280681 0 -0.32398535199451511 0.28524421774589648 0 -0.32065101258715689 0.274665503564473 0 -0.33262910378125132 0.278293493462413 0 -0.33262910378125132 0.278293493462413 0 -0.33869287199199061 0.26734508287274228 0 -0.32847276451329022 0.26034833848280681 0 -0.34490227433735798 0.27909378963084902 0 -0.34728570068091402 0.2661688508290645 0 -0.33869287199199061 0.26734508287274228 0 -0.34490227433735798 0.27909378963084902 0 -0.33262910378125132 0.278293493462413 0 -0.33869287199199061 0.26734508287274228 0 -0.33845336435013867 0.242079554605789 0 -0.34150965816976359 0.25817059719828012 0 -0.32847276451329022 0.26034833848280681 0 -0.33845336435013867 0.242079554605789 0 -0.32847276451329022 0.26034833848280681 0 -0.34728570068091402 0.2661688508290645 0 -0.33869287199199061 0.26734508287274228 0 -0.34150965816976359 0.25817059719828012 0 -0.33869287199199061 0.26734508287274228 0 -0.34150965816976359 0.25817059719828012 0 -0.32847276451329022 0.26034833848280681 0 -0.33869287199199061 0.26734508287274228 0 -0.32847276451329022 0.26034833848280681 0 -0.311575650220281 0.24878047680599949 0 -0.32847276451329022 0.26034833848280681 0 -0.311575650220281 0.24878047680599949 0 -0.32847276451329022 0.26034833848280681 0 -0.31199410965335322 0.26463258327439948 0 -0.32455092720978362 0.24357057421839101 0 -0.311575650220281 0.24878047680599949 0 -0.32847276451329022 0.26034833848280681 0 -0.311575650220281 0.24878047680599949 0 -0.31199410965335322 0.26463258327439948 0 -0.29523766041035199 0.26325150879709891 0 -0.30403346053568642 0.27611708872161922 0 -0.29523766041035199 0.26325150879709891 0 -0.29574151564778611 0.28671646758259889 0 -0.31199410965335322 0.26463258327439948 0 -0.30403346053568642 0.27611708872161922 0 -0.29523766041035199 0.26325150879709891 0 -0.32065101258715689 0.274665503564473 0 -0.31199410965335322 0.26463258327439948 0 -0.30403346053568642 0.27611708872161922 0 -0.30403346053568642 0.27611708872161922 0 -0.29523766041035199 0.26325150879709891 0 -0.28985028671148488 0.25537141990030859 0 -0.26863301980023729 0.26794771562718522 0 -0.28534189936007232 0.28197220440765719 0 -0.29523766041035199 0.26325150879709891 0 -0.29574151564778611 0.28671646758259889 0 -0.29523766041035199 0.26325150879709891 0 -0.29574151564778611 0.28671646758259889 0 -0.28534189936007232 0.28197220440765719 0 -0.28985028671148488 0.25537141990030859 0 -0.29523766041035199 0.26325150879709891 0 -0.28534189936007232 0.28197220440765719 0 -0.28985028671148488 0.25537141990030859 0 -0.28534189936007232 0.28197220440765719 0 -0.29467853592727078 0.23721261512919359 0 -0.29523766041035199 0.26325150879709891 0 -0.29467853592727078 0.23721261512919359 0 -0.28985028671148488 0.25537141990030859 0 -0.29523766041035199 0.26325150879709891 0 -0.28985028671148488 0.25537141990030859 0 -0.29523766041035199 0.26325150879709891 0 -0.28985028671148488 0.25537141990030859 0 -0.2724296921133022 0.25217156250687062 0 -0.26863301980023729 0.26794771562718522 0 -0.2724296921133022 0.25217156250687062 0 -0.26863301980023729 0.26794771562718522 0 -0.25693865295534157 0.25278860643768353 0 -0.26863301980023729 0.26794771562718522 0 -0.26277913973510902 0.29023342414179659 0 -0.28534189936007232 0.28197220440765719 0 -0.26277913973510902 0.29023342414179659 0 -0.2447247674615598 0.2718938593685879 0 -0.26863301980023729 0.26794771562718522 0 -0.26277913973510902 0.29023342414179659 0 -0.2447247674615598 0.2718938593685879 0 -0.26863301980023729 0.26794771562718522 0 -0.25693865295534157 0.25278860643768353 0 -0.2447247674615598 0.2718938593685879 0 -0.26277913973510902 0.29023342414179659 0 -0.25757488899104952 0.31786411623381933 0 -0.2366570207200871 0.30010935915934539 0 -0.26277913973510902 0.29023342414179659 0 -0.28083351200865853 0.30857298891500562 0 -0.28534189936007232 0.28197220440765719 0 -0.26277913973510902 0.29023342414179659 0 -0.28083351200865853 0.30857298891500562 0 -0.26277913973510902 0.29023342414179659 0 -0.28083351200865853 0.30857298891500562 0 -0.25757488899104952 0.31786411623381933 0 -0.28083351200865853 0.30857298891500562 0 -0.29574151564778611 0.28671646758259889 0 -0.30402337591517081 0.3051012194244167 0 -0.28083351200865853 0.30857298891500562 0 -0.29574151564778611 0.28671646758259889 0 -0.28534189936007232 0.28197220440765719 0 -0.28083351200865853 0.30857298891500562 0 -0.28534189936007232 0.28197220440765719 0 -0.31282926066102218 0.28898266864613842 0 -0.29574151564778611 0.28671646758259889 0 -0.30402337591517081 0.3051012194244167 0 -0.31282926066102218 0.28898266864613842 0 -0.30403346053568642 0.27611708872161922 0 -0.29574151564778611 0.28671646758259889 0 -0.31282926066102218 0.28898266864613842 0 -0.30403346053568642 0.27611708872161922 0 -0.31282926066102218 0.28898266864613842 0 -0.30402337591517081 0.3051012194244167 0 -0.30402337591517081 0.3051012194244167 0 -0.29932851783868691 0.32736014762988469 0 -0.31456388983813333 0.31636814557902659 0 -0.29932851783868691 0.32736014762988469 0 -0.31400963374603508 0.33178692824556621 0 -0.31456388983813333 0.31636814557902659 0 -0.29582778577295937 0.3462701483728044 0 -0.31354931950312093 0.34747342072874071 0 -0.31400963374603508 0.33178692824556621 0 -0.29582778577295937 0.3462701483728044 0 -0.31400963374603508 0.33178692824556621 0 -0.29932851783868691 0.32736014762988469 0 -0.29582778577295937 0.3462701483728044 0 -0.31400963374603508 0.33178692824556621 0 -0.29932851783868691 0.32736014762988469 0 -0.27670802547122531 0.33291454828341721 0 -0.29582778577295937 0.3462701483728044 0 -0.27670802547122531 0.33291454828341721 0 -0.29582778577295937 0.3462701483728044 0 -0.28186865011063378 0.34863084123191301 0 -0.28083351200865853 0.30857298891500562 0 -0.30402337591517081 0.3051012194244167 0 -0.29932851783868691 0.32736014762988469 0 -0.28083351200865853 0.30857298891500562 0 -0.29932851783868691 0.32736014762988469 0 -0.28083351200865853 0.30857298891500562 0 -0.29932851783868691 0.32736014762988469 0 -0.27670802547122531 0.33291454828341721 0 -0.28083351200865853 0.30857298891500562 0 -0.27670802547122531 0.33291454828341721 0 -0.25757488899104952 0.31786411623381933 0 -0.28083351200865853 0.30857298891500562 0 -0.27670802547122531 0.33291454828341721 0 -0.27670802547122531 0.33291454828341721 0 -0.25757488899104952 0.31786411623381933 0 -0.25368472498167011 0.34420349485172652 0 -0.2613799420943046 0.36179346951182628 0 -0.25453646971320443 0.37462232419521813 0 -0.26689531734350652 0.36931705260985792 0 -0.2613799420943046 0.36179346951182628 0 -0.25453646971320443 0.37462232419521813 0 -0.24822911175635759 0.36217347122335058 0 -0.25368472498167011 0.34420349485172652 0 -0.27258253893379292 0.35725610765182902 0 -0.2613799420943046 0.36179346951182628 0 -0.25368472498167011 0.34420349485172652 0 -0.24822911175635759 0.36217347122335058 0 -0.2613799420943046 0.36179346951182628 0 -0.25368472498167011 0.34420349485172652 0 -0.27258253893379292 0.35725610765182902 0 -0.27670802547122531 0.33291454828341721 0 -0.27258253893379292 0.35725610765182902 0 -0.27670802547122531 0.33291454828341721 0 -0.27258253893379292 0.35725610765182902 0 -0.28186865011063378 0.34863084123191301 0 -0.27670802547122531 0.33291454828341721 0 -0.25368472498167011 0.34420349485172652 0 -0.27258253893379292 0.35725610765182902 0 -0.27258253893379292 0.35725610765182902 0 -0.27764593779988228 0.36075336850004069 0 -0.28186865011063378 0.34863084123191301 0 -0.27258253893379292 0.35725610765182902 0 -0.27764593779988228 0.36075336850004069 0 -0.27764593779988228 0.36075336850004069 0 -0.27110701654299552 0.36596211494311248 0 -0.28943519450698252 0.3688961411714532 0 -0.27110701654299552 0.36596211494311248 0 -0.28943519450698252 0.3688961411714532 0 -0.27110701654299552 0.36596211494311248 0 -0.28943519450698252 0.3688961411714532 0 -0.28084635904778937 0.37544065550995409 0 -0.27258253893379292 0.35725610765182902 0 -0.27764593779988228 0.36075336850004069 0 -0.27110701654299552 0.36596211494311248 0 -0.27764593779988228 0.36075336850004069 0 -0.27110701654299552 0.36596211494311248 0 -0.2613799420943046 0.36179346951182628 0 -0.27258253893379292 0.35725610765182902 0 -0.27110701654299552 0.36596211494311248 0 -0.2613799420943046 0.36179346951182628 0 -0.27110701654299552 0.36596211494311248 0 -0.26689531734350652 0.36931705260985792 0 -0.27258253893379292 0.35725610765182902 0 -0.27110701654299552 0.36596211494311248 0 -0.27110701654299552 0.36596211494311248 0 -0.26689531734350652 0.36931705260985792 0 -0.27110701654299552 0.36596211494311248 0 -0.28084635904778937 0.37544065550995409 0 -0.27663284499009211 0.37939207802828528 0 -0.28943519450698252 0.3688961411714532 0 -0.28685204816290072 0.37621819500323123 0 -0.28084635904778937 0.37544065550995409 0 -0.27764593779988228 0.36075336850004069 0 -0.28943519450698252 0.3688961411714532 0 -0.29551252006441958 0.37309371542857861 0 -0.28943519450698252 0.3688961411714532 0 -0.28685204816290072 0.37621819500323123 0 -0.29551252006441958 0.37309371542857861 0 -0.28943519450698252 0.3688961411714532 0 -0.27764593779988228 0.36075336850004069 0 -0.29582778577295937 0.3462701483728044 0 -0.27764593779988228 0.36075336850004069 0 -0.29582778577295937 0.3462701483728044 0 -0.28186865011063378 0.34863084123191301 0 -0.28943519450698252 0.3688961411714532 0 -0.29582778577295937 0.3462701483728044 0 -0.30300283950081008 0.36051339397403093 0 -0.27764593779988228 0.36075336850004069 0 -0.28943519450698252 0.3688961411714532 0 -0.29582778577295937 0.3462701483728044 0 -0.29582778577295937 0.3462701483728044 0 -0.30300283950081008 0.36051339397403093 0 -0.31354931950312093 0.34747342072874071 0 -0.28943519450698252 0.3688961411714532 0 -0.31408843612631249 0.37197903781600761 0 -0.28943519450698252 0.3688961411714532 0 -0.30300283950081008 0.36051339397403093 0 -0.31408843612631249 0.37197903781600761 0 -0.29551252006441958 0.37309371542857861 0 -0.28943519450698252 0.3688961411714532 0 -0.31408843612631249 0.37197903781600761 0 -0.30300283950081008 0.36051339397403093 0 -0.31408843612631249 0.37197903781600761 0 -0.32472866683278162 0.35786931268145811 0 -0.31408843612631249 0.37197903781600761 0 -0.32472866683278162 0.35786931268145811 0 -0.33874167774564268 0.3750619344605613 0 -0.31408843612631249 0.37197903781600761 0 -0.33874167774564268 0.3750619344605613 0 -0.33942470910854639 0.36092010030626542 0 -0.32472866683278162 0.35786931268145811 0 -0.33874167774564268 0.3750619344605613 0 -0.33942470910854639 0.36092010030626542 0 -0.3497530714632448 0.36534695126967459 0 -0.33874167774564268 0.3750619344605613 0 -0.33815763529499693 0.35089104021064632 0 -0.32472866683278162 0.35786931268145811 0 -0.33017767166301859 0.34092732036984391 0 -0.33815763529499693 0.35089104021064632 0 -0.33017767166301859 0.34092732036984391 0 -0.34251680356524339 0.34321741671518669 0 -0.33815763529499693 0.35089104021064632 0 -0.3460879504978186 0.35511096805544279 0 -0.34556584107983002 0.34849125976349993 0 -0.33815763529499693 0.35089104021064632 0 -0.34251680356524339 0.34321741671518669 0 -0.34556584107983002 0.34849125976349993 0 -0.33942470910854639 0.36092010030626542 0 -0.33815763529499693 0.35089104021064632 0 -0.3460879504978186 0.35511096805544279 0 -0.33942470910854639 0.36092010030626542 0 -0.33815763529499693 0.35089104021064632 0 -0.32472866683278162 0.35786931268145811 0 -0.31354931950312093 0.34747342072874071 0 -0.32472866683278162 0.35786931268145811 0 -0.33017767166301859 0.34092732036984391 0 -0.30300283950081008 0.36051339397403093 0 -0.31354931950312093 0.34747342072874071 0 -0.32472866683278162 0.35786931268145811 0 -0.31400963374603508 0.33178692824556621 0 -0.33219148171911272 0.31730370811833031 0 -0.33017767166301859 0.34092732036984391 0 -0.31354931950312093 0.34747342072874071 0 -0.31400963374603508 0.33178692824556621 0 -0.33017767166301859 0.34092732036984391 0 -0.31400963374603508 0.33178692824556621 0 -0.33219148171911272 0.31730370811833031 0 -0.31400963374603508 0.33178692824556621 0 -0.31456388983813333 0.31636814557902659 0 -0.33219148171911272 0.31730370811833031 0 -0.33477104767585758 0.31524888829805342 0 -0.33219148171911272 0.31730370811833031 0 -0.34795343649956839 0.3209401758966518 0 -0.33219148171911272 0.31730370811833031 0 -0.34725440703092858 0.33933618574797492 0 -0.34795343649956839 0.3209401758966518 0 -0.33396296217470239 0.30554582684384218 0 -0.33477104767585758 0.31524888829805342 0 -0.33219148171911272 0.31730370811833031 0 -0.33477104767585758 0.31524888829805342 0 -0.33219148171911272 0.31730370811833031 0 -0.34268428286429659 0.31215346041211978 0 -0.33477104767585758 0.31524888829805342 0 -0.34795343649956839 0.3209401758966518 0 -0.33219148171911272 0.31730370811833031 0 -0.34725440703092858 0.33933618574797492 0 -0.33219148171911272 0.31730370811833031 0 -0.33017767166301859 0.34092732036984391 0 -0.34725440703092858 0.33933618574797492 0 -0.33017767166301859 0.34092732036984391 0 -0.34251680356524339 0.34321741671518669 0 -0.34725440703092858 0.33933618574797492 0 -0.34725440703092858 0.33933618574797492 0 -0.34795343649956839 0.3209401758966518 0 -0.36531193472093021 0.32454274932608829 0 -0.34251680356524339 0.34321741671518669 0 -0.35002774160894051 0.34339273059465159 0 -0.34725440703092858 0.33933618574797492 0 -0.34725440703092858 0.33933618574797492 0 -0.35848812135385522 0.33902175933596412 0 -0.36531193472093021 0.32454274932608829 0 -0.34725440703092858 0.33933618574797492 0 -0.36531193472093021 0.32454274932608829 0 -0.34251680356524339 0.34321741671518669 0 -0.34725440703092858 0.33933618574797492 0 -0.35002774160894051 0.34339273059465159 0 -0.34725440703092858 0.33933618574797492 0 -0.35002774160894051 0.34339273059465159 0 -0.35848812135385522 0.33902175933596412 0 -0.35712059876301439 0.34740413424876382 0 -0.35002774160894051 0.34339273059465159 0 -0.34725440703092858 0.33933618574797492 0 -0.35848812135385522 0.33902175933596412 0 -0.34795343649956839 0.3209401758966518 0 -0.35774913989266272 0.31391262040183171 0 -0.36531193472093021 0.32454274932608829 0 -0.35013945535461871 0.3105838988596446 0 -0.34268428286429659 0.31215346041211978 0 -0.34795343649956839 0.3209401758966518 0 -0.35013945535461871 0.3105838988596446 0 -0.34795343649956839 0.3209401758966518 0 -0.35774913989266272 0.31391262040183171 0 -0.38336946241093189 0.30974931290420182 0 -0.36596935852520629 0.30787018431111951 0 -0.36531193472093021 0.32454274932608829 0 -0.36596935852520629 0.30787018431111951 0 -0.35774913989266272 0.31391262040183171 0 -0.36531193472093021 0.32454274932608829 0 -0.37580907906339922 0.33647878059299557 0 -0.38201615891261242 0.31564575533693578 0 -0.36531193472093021 0.32454274932608829 0 -0.38336946241093189 0.30974931290420182 0 -0.36531193472093021 0.32454274932608829 0 -0.35848812135385522 0.33902175933596412 0 -0.36629538785756799 0.33494858662202331 0 -0.36491865814174967 0.34450616947628299 0 -0.35848812135385522 0.33902175933596412 0 -0.36491865814174967 0.34450616947628299 0 -0.35712059876301439 0.34740413424876382 0 -0.35848812135385522 0.33902175933596412 0 -0.36531193472093021 0.32454274932608829 0 -0.36629538785756799 0.33494858662202331 0 -0.37580907906339922 0.33647878059299557 0 -0.36531193472093021 0.32454274932608829 0 -0.36629538785756799 0.33494858662202331 0 -0.37580907906339922 0.33647878059299557 0 -0.36629538785756799 0.33494858662202331 0 -0.36491865814174967 0.34450616947628299 0 -0.37580907906339922 0.33647878059299557 0 -0.36491865814174967 0.34450616947628299 0 -0.36960199921418602 0.35731180584905542 0 -0.37580907906339922 0.33647878059299557 0 -0.36960199921418602 0.35731180584905542 0 -0.36491865814174967 0.34450616947628299 0 -0.36204010283369881 0.35293053614415609 0 -0.35712059876301439 0.34740413424876382 0 -0.36491865814174967 0.34450616947628299 0 -0.36204010283369881 0.35293053614415609 0 -0.36960199921418602 0.35731180584905542 0 -0.36231373349064938 0.3583368008115923 0 -0.36204010283369881 0.35293053614415609 0 -0.35577634304253192 0.35617190760009498 0 -0.36231373349064938 0.3583368008115923 0 -0.36204010283369881 0.35293053614415609 0 -0.36960199921418602 0.35731180584905542 0 -0.36960199921418602 0.35731180584905542 0 -0.36339491936497281 0.37814483110511521 0 -0.36960199921418602 0.35731180584905542 0 -0.37158620997362618 0.36500042586936587 0 -0.36339491936497281 0.37814483110511521 0 -0.36960199921418602 0.35731180584905542 0 -0.36108579844600058 0.36545797327707619 0 -0.36339491936497281 0.37814483110511521 0 -0.38141148745950948 0.38039780936179463 0 -0.37158620997362618 0.36500042586936587 0 -0.36339491936497281 0.37814483110511521 0 -0.38070440212728118 0.35956436367519867 0 -0.36960199921418602 0.35731180584905542 0 -0.37158620997362618 0.36500042586936587 0 -0.36231373349064938 0.3583368008115923 0 -0.36108579844600058 0.36545797327707619 0 -0.35577634304253192 0.35617190760009498 0 -0.36231373349064938 0.3583368008115923 0 -0.36960199921418602 0.35731180584905542 0 -0.36108579844600058 0.36545797327707619 0 -0.36108579844600058 0.36545797327707619 0 -0.3497530714632448 0.36534695126967459 0 -0.35577634304253192 0.35617190760009498 0 -0.3497530714632448 0.36534695126967459 0 -0.36339491936497281 0.37814483110511521 0 -0.33874167774564268 0.3750619344605613 0 -0.36108579844600058 0.36545797327707619 0 -0.3497530714632448 0.36534695126967459 0 -0.36339491936497281 0.37814483110511521 0 -0.33942470910854639 0.36092010030626542 0 -0.3497530714632448 0.36534695126967459 0 -0.3460879504978186 0.35511096805544279 0 -0.3497530714632448 0.36534695126967459 0 -0.3460879504978186 0.35511096805544279 0 -0.35577634304253192 0.35617190760009498 0 -0.3460879504978186 0.35511096805544279 0 -0.35103907443215082 0.34984414324157243 0 -0.35577634304253192 0.35617190760009498 0 -0.3460879504978186 0.35511096805544279 0 -0.34556584107983002 0.34849125976349993 0 -0.35103907443215082 0.34984414324157243 0 -0.34251680356524339 0.34321741671518669 0 -0.35002774160894051 0.34339273059465159 0 -0.34556584107983002 0.34849125976349993 0 -0.35002774160894051 0.34339273059465159 0 -0.34556584107983002 0.34849125976349993 0 -0.35103907443215082 0.34984414324157243 0 -0.35103907443215082 0.34984414324157243 0 -0.35712059876301439 0.34740413424876382 0 -0.35577634304253192 0.35617190760009498 0 -0.35002774160894051 0.34339273059465159 0 -0.35103907443215082 0.34984414324157243 0 -0.35712059876301439 0.34740413424876382 0 -0.36204010283369881 0.35293053614415609 0 -0.35712059876301439 0.34740413424876382 0 -0.35577634304253192 0.35617190760009498 0 -0.35746143571760969 0.39805957647408341 0 -0.33700984602307921 0.4055687403903776 0 -0.35746143571760969 0.39805957647408341 0 -0.36339491936497281 0.37814483110511521 0 -0.33874167774564268 0.3750619344605613 0 -0.36339491936497281 0.37814483110511521 0 -0.33874167774564268 0.3750619344605613 0 -0.38141148745950948 0.38039780936179463 0 -0.37844474563582792 0.390355182046278 0 -0.36339491936497281 0.37814483110511521 0 -0.37844474563582792 0.390355182046278 0 -0.35746143571760969 0.39805957647408341 0 -0.36339491936497281 0.37814483110511521 0 -0.35746143571760969 0.39805957647408341 0 -0.36339491936497281 0.37814483110511521 0 -0.38141148745950948 0.38039780936179463 0 -0.36339491936497281 0.37814483110511521 0 -0.37668454372729859 0.41206883315114529 0 -0.37844474563582792 0.390355182046278 0 -0.35746143571760969 0.39805957647408341 0 -0.37844474563582792 0.390355182046278 0 -0.35746143571760969 0.39805957647408341 0 -0.37668454372729859 0.41206883315114529 0 -0.36778315087773072 0.43214877602771662 0 -0.35179051953527918 0.41709305806631919 0 -0.37668454372729859 0.41206883315114529 0 -0.35746143571760969 0.39805957647408341 0 -0.35179051953527918 0.41709305806631919 0 -0.37668454372729859 0.41206883315114529 0 -0.35179051953527918 0.41709305806631919 0 -0.36778315087773072 0.43214877602771662 0 -0.35179051953527918 0.41709305806631919 0 -0.34355933144160938 0.44471966407244162 0 -0.35179051953527918 0.41709305806631919 0 -0.34355933144160938 0.44471966407244162 0 -0.35746143571760969 0.39805957647408341 0 -0.35179051953527918 0.41709305806631919 0 -0.33700984602307921 0.4055687403903776 0 -0.35746143571760969 0.39805957647408341 0 -0.35179051953527918 0.41709305806631919 0 -0.35179051953527918 0.41709305806631919 0 -0.33092261172728182 0.42130471390500562 0 -0.33700984602307921 0.4055687403903776 0 -0.35179051953527918 0.41709305806631919 0 -0.33092261172728182 0.42130471390500562 0 -0.33092261172728182 0.42130471390500562 0 -0.31655825632854873 0.41307790430667191 0 -0.33700984602307921 0.4055687403903776 0 -0.35179051953527918 0.41709305806631919 0 -0.33092261172728182 0.42130471390500562 0 -0.34355933144160938 0.44471966407244162 0 -0.33092261172728182 0.42130471390500562 0 -0.32304151796324199 0.43794530689545591 0 -0.34355933144160938 0.44471966407244162 0 -0.33092261172728182 0.42130471390500562 0 -0.31005470391928353 0.42551636974368717 0 -0.32304151796324199 0.43794530689545591 0 -0.33092261172728182 0.42130471390500562 0 -0.31005470391928353 0.42551636974368717 0 -0.31005470391928353 0.42551636974368717 0 -0.30636015846579262 0.44081646755455739 0 -0.32304151796324199 0.43794530689545591 0 -0.31655825632854873 0.41307790430667191 0 -0.32178824989383492 0.40044082628072353 0 -0.33700984602307921 0.4055687403903776 0 -0.33092261172728182 0.42130471390500562 0 -0.31655825632854873 0.41307790430667191 0 -0.31005470391928353 0.42551636974368717 0 -0.31655825632854873 0.41307790430667191 0 -0.33700984602307921 0.4055687403903776 0 -0.31655825632854873 0.41307790430667191 0 -0.32178824989383492 0.40044082628072353 0 -0.30820761894760612 0.40180007281058999 0 -0.31589124725359768 0.39098578459502642 0 -0.32178824989383492 0.40044082628072353 0 -0.30820761894760612 0.40180007281058999 0 -0.31589124725359768 0.39098578459502642 0 -0.32178824989383492 0.40044082628072353 0 -0.33127428091634248 0.39077162930095188 0 -0.35746143571760969 0.39805957647408341 0 -0.33127428091634248 0.39077162930095188 0 -0.33700984602307921 0.4055687403903776 0 -0.32178824989383492 0.40044082628072353 0 -0.33127428091634248 0.39077162930095188 0 -0.33700984602307921 0.4055687403903776 0 -0.35746143571760969 0.39805957647408341 0 -0.33127428091634248 0.39077162930095188 0 -0.33874167774564268 0.3750619344605613 0 -0.31408843612631249 0.37197903781600761 0 -0.33127428091634248 0.39077162930095188 0 -0.33874167774564268 0.3750619344605613 0 -0.31408843612631249 0.37197903781600761 0 -0.31589124725359768 0.39098578459502642 0 -0.33127428091634248 0.39077162930095188 0 -0.29551252006441958 0.37309371542857861 0 -0.31408843612631249 0.37197903781600761 0 -0.30568017353146049 0.38157918508743732 0 -0.31408843612631249 0.37197903781600761 0 -0.31589124725359768 0.39098578459502642 0 -0.30568017353146049 0.38157918508743732 0 -0.31589124725359768 0.39098578459502642 0 -0.30568017353146049 0.38157918508743732 0 -0.30603649680964828 0.39194203915736708 0 -0.30568017353146049 0.38157918508743732 0 -0.29743858983336929 0.38628170497916159 0 -0.30603649680964828 0.39194203915736708 0 -0.29551252006441958 0.37309371542857861 0 -0.30568017353146049 0.38157918508743732 0 -0.29743858983336929 0.38628170497916159 0 -0.31589124725359768 0.39098578459502642 0 -0.30820761894760612 0.40180007281058999 0 -0.30603649680964828 0.39194203915736708 0 -0.30820761894760612 0.40180007281058999 0 -0.30603649680964828 0.39194203915736708 0 -0.29604813782321171 0.40003827384795049 0 -0.29743858983336929 0.38628170497916159 0 -0.30603649680964828 0.39194203915736708 0 -0.29604813782321171 0.40003827384795049 0 -0.30820761894760612 0.40180007281058999 0 -0.29604813782321171 0.40003827384795049 0 -0.2987408814332651 0.40933989620534528 0 -0.29604813782321171 0.40003827384795049 0 -0.28905057763704689 0.40562835892549581 0 -0.28392778011776681 0.39892722844600809 0 -0.29604813782321171 0.40003827384795049 0 -0.28905057763704689 0.40562835892549581 0 -0.2987408814332651 0.40933989620534528 0 -0.29604813782321171 0.40003827384795049 0 -0.28980128107673031 0.39400368344191522 0 -0.28392778011776681 0.39892722844600809 0 -0.29743858983336929 0.38628170497916159 0 -0.29604813782321171 0.40003827384795049 0 -0.28980128107673031 0.39400368344191522 0 -0.28980128107673031 0.39400368344191522 0 -0.28179061653257348 0.3907675264945405 0 -0.28392778011776681 0.39892722844600809 0 -0.28905057763704689 0.40562835892549581 0 -0.28392778011776681 0.39892722844600809 0 -0.27817781655911977 0.40726136879628272 0 -0.29743858983336929 0.38628170497916159 0 -0.28980128107673031 0.39400368344191522 0 -0.28179061653257348 0.3907675264945405 0 -0.29743858983336929 0.38628170497916159 0 -0.28179061653257348 0.3907675264945405 0 -0.28819376848868639 0.38228739672622841 0 -0.29743858983336929 0.38628170497916159 0 -0.28179061653257348 0.3907675264945405 0 -0.29551252006441958 0.37309371542857861 0 -0.29743858983336929 0.38628170497916159 0 -0.28819376848868639 0.38228739672622841 0 -0.29551252006441958 0.37309371542857861 0 -0.28819376848868639 0.38228739672622841 0 -0.28685204816290072 0.37621819500323123 0 -0.28179061653257348 0.3907675264945405 0 -0.28158428542699082 0.38279668863870758 0 -0.28819376848868639 0.38228739672622841 0 -0.28158428542699082 0.38279668863870758 0 -0.28819376848868639 0.38228739672622841 0 -0.28685204816290072 0.37621819500323123 0 -0.28158428542699082 0.38279668863870758 0 -0.28685204816290072 0.37621819500323123 0 -0.28084635904778937 0.37544065550995409 0 -0.27110701654299552 0.36596211494311248 0 -0.26614264323177789 0.39525334800991979 0 -0.27110701654299552 0.36596211494311248 0 -0.27663284499009211 0.37939207802828528 0 -0.27229768174870289 0.38438446135480281 0 -0.27110701654299552 0.36596211494311248 0 -0.27229768174870289 0.38438446135480281 0 -0.26614264323177789 0.39525334800991979 0 -0.27110701654299552 0.36596211494311248 0 -0.26689531734350652 0.36931705260985792 0 -0.26614264323177789 0.39525334800991979 0 -0.28158428542699082 0.38279668863870758 0 -0.28084635904778937 0.37544065550995409 0 -0.27663284499009211 0.37939207802828528 0 -0.27229768174870289 0.38438446135480281 0 -0.27641046434025379 0.38710393959788297 0 -0.26614264323177789 0.39525334800991979 0 -0.28179061653257348 0.3907675264945405 0 -0.28158428542699082 0.38279668863870758 0 -0.27641046434025379 0.38710393959788297 0 -0.27663284499009211 0.37939207802828528 0 -0.27229768174870289 0.38438446135480281 0 -0.27641046434025379 0.38710393959788297 0 -0.28158428542699082 0.38279668863870758 0 -0.27663284499009211 0.37939207802828528 0 -0.27641046434025379 0.38710393959788297 0 -0.28179061653257348 0.3907675264945405 0 -0.27641046434025379 0.38710393959788297 0 -0.26614264323177789 0.39525334800991979 0 -0.28179061653257348 0.3907675264945405 0 -0.27661435207820328 0.39472461325581981 0 -0.26614264323177789 0.39525334800991979 0 -0.28179061653257348 0.3907675264945405 0 -0.28392778011776681 0.39892722844600809 0 -0.27661435207820328 0.39472461325581981 0 -0.28179061653257348 0.3907675264945405 0 -0.26614264323177789 0.39525334800991979 0 -0.28392778011776681 0.39892722844600809 0 -0.27661435207820328 0.39472461325581981 0 -0.27572094251528112 0.40196054452149499 0 -0.28392778011776681 0.39892722844600809 0 -0.27572094251528112 0.40196054452149499 0 -0.27817781655911977 0.40726136879628272 0 -0.27572094251528112 0.40196054452149499 0 -0.26416382130603389 0.40692896758786917 0 -0.27817781655911977 0.40726136879628272 0 -0.27661435207820328 0.39472461325581981 0 -0.27572094251528112 0.40196054452149499 0 -0.26416382130603389 0.40692896758786917 0 -0.27661435207820328 0.39472461325581981 0 -0.26614264323177789 0.39525334800991979 0 -0.26416382130603389 0.40692896758786917 0 -0.27661435207820328 0.39472461325581981 0 -0.26416382130603389 0.40692896758786917 0 -0.26614264323177789 0.39525334800991979 0 -0.24781733580734391 0.38604582424895789 0 -0.24388213391773941 0.40163479241199579 0 -0.26614264323177789 0.39525334800991979 0 -0.25157066981256843 0.40894445920752592 0 -0.24388213391773941 0.40163479241199579 0 -0.26614264323177789 0.39525334800991979 0 -0.24388213391773941 0.40163479241199579 0 -0.26614264323177789 0.39525334800991979 0 -0.26416382130603389 0.40692896758786917 0 -0.26614264323177789 0.39525334800991979 0 -0.25157066981256843 0.40894445920752592 0 -0.26416382130603389 0.40692896758786917 0 -0.25453646971320443 0.37462232419521813 0 -0.26614264323177789 0.39525334800991979 0 -0.24781733580734391 0.38604582424895789 0 -0.25453646971320443 0.37462232419521813 0 -0.26689531734350652 0.36931705260985792 0 -0.26614264323177789 0.39525334800991979 0 -0.26107936510946472 0.42512814796255138 0 -0.25799490891289278 0.4433273283372331 0 -0.26107936510946472 0.42512814796255138 0 -0.27138668263498972 0.43431468825499642 0 -0.25799490891289278 0.4433273283372331 0 -0.26107936510946472 0.42512814796255138 0 -0.25799490891289278 0.4433273283372331 0 -0.24263019791012411 0.42803682032005991 0 -0.25799490891289278 0.4433273283372331 0 -0.24263019791012411 0.42803682032005991 0 -0.26107936510946472 0.42512814796255138 0 -0.26416382130603389 0.40692896758786917 0 -0.26107936510946472 0.42512814796255138 0 -0.26416382130603389 0.40692896758786917 0 -0.24263019791012411 0.42803682032005991 0 -0.26416382130603389 0.40692896758786917 0 -0.24263019791012411 0.42803682032005991 0 -0.25157066981256843 0.40894445920752592 0 -0.26416382130603389 0.40692896758786917 0 -0.24263019791012411 0.42803682032005991 0 -0.26107936510946472 0.42512814796255138 0 -0.26416382130603389 0.40692896758786917 0 -0.27370875903762831 0.41905129137381081 0 -0.26416382130603389 0.40692896758786917 0 -0.27817781655911977 0.40726136879628272 0 -0.27370875903762831 0.41905129137381081 0 -0.27817781655911977 0.40726136879628272 0 -0.27370875903762831 0.41905129137381081 0 -0.28647403122915938 0.41490769911839809 0 -0.27370875903762831 0.41905129137381081 0 -0.27138668263498972 0.43431468825499642 0 -0.28359142860916292 0.42646623900898489 0 -0.26107936510946472 0.42512814796255138 0 -0.27370875903762831 0.41905129137381081 0 -0.27138668263498972 0.43431468825499642 0 -0.27138668263498972 0.43431468825499642 0 -0.28359142860916292 0.42646623900898489 0 -0.28426041238301858 0.43930471826406531 0 -0.28359142860916292 0.42646623900898489 0 -0.29576073289665422 0.43347565529899762 0 -0.28426041238301858 0.43930471826406531 0 -0.28359142860916292 0.42646623900898489 0 -0.29576073289665422 0.43347565529899762 0 -0.29610666663401819 0.4205870682229661 0 -0.28905057763704689 0.40562835892549581 0 -0.27817781655911977 0.40726136879628272 0 -0.28647403122915938 0.41490769911839809 0 -0.27370875903762831 0.41905129137381081 0 -0.28359142860916292 0.42646623900898489 0 -0.28647403122915938 0.41490769911839809 0 -0.28359142860916292 0.42646623900898489 0 -0.28647403122915938 0.41490769911839809 0 -0.29610666663401819 0.4205870682229661 0 -0.28647403122915938 0.41490769911839809 0 -0.29610666663401819 0.4205870682229661 0 -0.2987408814332651 0.40933989620534528 0 -0.28905057763704689 0.40562835892549581 0 -0.28647403122915938 0.41490769911839809 0 -0.2987408814332651 0.40933989620534528 0 -0.31655825632854873 0.41307790430667191 0 -0.29610666663401819 0.4205870682229661 0 -0.2987408814332651 0.40933989620534528 0 -0.31655825632854873 0.41307790430667191 0 -0.29610666663401819 0.4205870682229661 0 -0.31005470391928353 0.42551636974368717 0 -0.31655825632854873 0.41307790430667191 0 -0.29610666663401819 0.4205870682229661 0 -0.31655825632854873 0.41307790430667191 0 -0.30820761894760612 0.40180007281058999 0 -0.2987408814332651 0.40933989620534528 0 -0.29576073289665422 0.43347565529899762 0 -0.31005470391928353 0.42551636974368717 0 -0.30636015846579262 0.44081646755455739 0 -0.29576073289665422 0.43347565529899762 0 -0.29610666663401819 0.4205870682229661 0 -0.31005470391928353 0.42551636974368717 0 -0.29576073289665422 0.43347565529899762 0 -0.30636015846579262 0.44081646755455739 0 -0.2944743431310044 0.45228094752776682 0 -0.30636015846579262 0.44081646755455739 0 -0.30512100021830008 0.46490456032657962 0 -0.30636015846579262 0.44081646755455739 0 -0.30512100021830008 0.46490456032657962 0 -0.2944743431310044 0.45228094752776682 0 -0.30636015846579262 0.44081646755455739 0 -0.30512100021830008 0.46490456032657962 0 -0.32381548421637429 0.45642326981327008 0 -0.30512100021830008 0.46490456032657962 0 -0.2944743431310044 0.45228094752776682 0 -0.28858619761816889 0.47377087817814589 0 -0.2944743431310044 0.45228094752776682 0 -0.27329055326553048 0.45854910325768988 0 -0.28858619761816889 0.47377087817814589 0 -0.2944743431310044 0.45228094752776682 0 -0.28426041238301858 0.43930471826406531 0 -0.27329055326553048 0.45854910325768988 0 -0.29576073289665422 0.43347565529899762 0 -0.2944743431310044 0.45228094752776682 0 -0.28426041238301858 0.43930471826406531 0 -0.27138668263498972 0.43431468825499642 0 -0.28426041238301858 0.43930471826406531 0 -0.27329055326553048 0.45854910325768988 0 -0.27138668263498972 0.43431468825499642 0 -0.27329055326553048 0.45854910325768988 0 -0.25799490891289278 0.4433273283372331 0 -0.27329055326553048 0.45854910325768988 0 -0.25799490891289278 0.4433273283372331 0 -0.27329055326553048 0.45854910325768988 0 -0.28858619761816889 0.47377087817814589 0 -0.27329055326553048 0.45854910325768988 0 -0.25438198006151169 0.46464464965965441 0 -0.25799490891289278 0.4433273283372331 0 -0.27329055326553048 0.45854910325768988 0 -0.25438198006151169 0.46464464965965441 0 -0.26859377699614329 0.4811575177290362 0 -0.25438198006151169 0.46464464965965441 0 -0.25799490891289278 0.4433273283372331 0 -0.25438198006151169 0.46464464965965441 0 -0.25799490891289278 0.4433273283372331 0 -0.24356894722331929 0.44821508210096461 0 -0.25080144613104921 0.5 0 -0.26859377699614329 0.4811575177290362 0 -0.2467553297522557 0.48147402383551691 0 -0.25080144613104921 0.5 0 -0.26859377699614329 0.4811575177290362 0 -0.27705851983630159 0.5 0 -0.25438198006151169 0.46464464965965441 0 -0.26859377699614329 0.4811575177290362 0 -0.2467553297522557 0.48147402383551691 0 -0.27329055326553048 0.45854910325768988 0 -0.26859377699614329 0.4811575177290362 0 -0.28858619761816889 0.47377087817814589 0 -0.26859377699614329 0.4811575177290362 0 -0.27705851983630159 0.5 0 -0.28830299895955541 0.48893487857068268 0 -0.27705851983630159 0.5 0 -0.28830299895955541 0.48893487857068268 0 -0.30331559354155391 0.49999999999999939 0 -0.26859377699614329 0.4811575177290362 0 -0.28830299895955541 0.48893487857068268 0 -0.28858619761816889 0.47377087817814589 0 -0.28830299895955541 0.48893487857068268 0 -0.28858619761816889 0.47377087817814589 0 -0.30388184197080759 0.48899265309860168 0 -0.28858619761816889 0.47377087817814589 0 -0.30388184197080759 0.48899265309860168 0 -0.30512100021830008 0.46490456032657962 0 -0.30388184197080759 0.48899265309860168 0 -0.30512100021830008 0.46490456032657962 0 -0.30388184197080759 0.48899265309860168 0 -0.31654611508668351 0.48621885406126381 0 -0.30512100021830008 0.46490456032657962 0 -0.28858619761816889 0.47377087817814589 0 -0.30388184197080759 0.48899265309860168 0 -0.30331559354155391 0.49999999999999939 0 -0.30388184197080759 0.48899265309860168 0 -0.28830299895955541 0.48893487857068268 0 -0.30331559354155391 0.49999999999999939 0 -0.30388184197080759 0.48899265309860168 0 -0.30388184197080759 0.48899265309860168 0 -0.31494260619507058 0.500000000000002 0 -0.31654611508668351 0.48621885406126381 0 -0.30331559354155391 0.49999999999999939 0 -0.30388184197080759 0.48899265309860168 0 -0.31494260619507058 0.500000000000002 0 -0.30388184197080759 0.48899265309860168 0 -0.31494260619507058 0.500000000000002 0 -0.31654611508668351 0.48621885406126381 0 -0.33275791060477139 0.5 0 -0.32602721644446891 0.47719705688113462 0 -0.31494260619507058 0.500000000000002 0 -0.31654611508668351 0.48621885406126381 0 -0.33275791060477139 0.5 0 -0.33275791060477139 0.5 0 -0.34200011506365208 0.48331572161184322 0 -0.32602721644446891 0.47719705688113462 0 -0.33275791060477139 0.5 0 -0.34200011506365208 0.48331572161184322 0 -0.35057321501447208 0.49999999999999872 0 -0.34200011506365208 0.48331572161184322 0 -0.32602721644446891 0.47719705688113462 0 -0.33593075250063148 0.46750731867274542 0 -0.34200011506365208 0.48331572161184322 0 -0.33593075250063148 0.46750731867274542 0 -0.35201810675435108 0.4676562019538536 0 -0.30512100021830008 0.46490456032657962 0 -0.31654611508668351 0.48621885406126381 0 -0.32602721644446891 0.47719705688113462 0 -0.30512100021830008 0.46490456032657962 0 -0.32602721644446891 0.47719705688113462 0 -0.32381548421637429 0.45642326981327008 0 -0.30636015846579262 0.44081646755455739 0 -0.32381548421637429 0.45642326981327008 0 -0.32304151796324199 0.43794530689545591 0 -0.32381548421637429 0.45642326981327008 0 -0.32304151796324199 0.43794530689545591 0 -0.34355933144160938 0.44471966407244162 0 -0.32381548421637429 0.45642326981327008 0 -0.34355933144160938 0.44471966407244162 0 -0.33593075250063148 0.46750731867274542 0 -0.32602721644446891 0.47719705688113462 0 -0.32381548421637429 0.45642326981327008 0 -0.33593075250063148 0.46750731867274542 0 -0.35201810675435108 0.4676562019538536 0 -0.36028404822733179 0.44939908513577981 0 -0.36566353784044697 0.46257036423753561 0 -0.34355933144160938 0.44471966407244162 0 -0.35201810675435108 0.4676562019538536 0 -0.36028404822733179 0.44939908513577981 0 -0.34355933144160938 0.44471966407244162 0 -0.33593075250063148 0.46750731867274542 0 -0.35201810675435108 0.4676562019538536 0 -0.36778315087773072 0.43214877602771662 0 -0.34355933144160938 0.44471966407244162 0 -0.36028404822733179 0.44939908513577981 0 -0.36778315087773072 0.43214877602771662 0 -0.36028404822733179 0.44939908513577981 0 -0.37376195539900242 0.45249759326054367 0 -0.37701653082709469 0.46900635458093531 0 -0.37376195539900242 0.45249759326054367 0 -0.36566353784044697 0.46257036423753561 0 -0.36028404822733179 0.44939908513577981 0 -0.37376195539900242 0.45249759326054367 0 -0.36566353784044697 0.46257036423753561 0 -0.36552159823955549 0.47691699748014749 0 -0.37220834978290879 0.49000150617251997 0 -0.35595833756876799 0.48470827593500232 0 -0.37701653082709469 0.46900635458093531 0 -0.36566353784044697 0.46257036423753561 0 -0.36552159823955549 0.47691699748014749 0 -0.37805640255927542 0.47903421333972468 0 -0.37701653082709469 0.46900635458093531 0 -0.36552159823955549 0.47691699748014749 0 -0.35201810675435108 0.4676562019538536 0 -0.36566353784044697 0.46257036423753561 0 -0.36552159823955549 0.47691699748014749 0 -0.37805640255927542 0.47903421333972468 0 -0.36552159823955549 0.47691699748014749 0 -0.37220834978290879 0.49000150617251997 0 -0.37220834978290879 0.49000150617251997 0 -0.35057321501447208 0.49999999999999872 0 -0.35595833756876799 0.48470827593500232 0 -0.37789332191386737 0.5 0 -0.37220834978290879 0.49000150617251997 0 -0.35057321501447208 0.49999999999999872 0 -0.37220834978290879 0.49000150617251997 0 -0.35057321501447208 0.49999999999999872 0 -0.34200011506365208 0.48331572161184322 0 -0.35057321501447208 0.49999999999999872 0 -0.35595833756876799 0.48470827593500232 0 -0.34200011506365208 0.48331572161184322 0 -0.35201810675435108 0.4676562019538536 0 -0.35595833756876799 0.48470827593500232 0 -0.35201810675435108 0.4676562019538536 0 -0.36552159823955549 0.47691699748014749 0 -0.35595833756876799 0.48470827593500232 0 -0.142080771754234 0.48212662116497451 0 -0.14744519938683801 0.47523243684594829 0 -0.1380962150490555 0.47248515407185221 0 -0.142080771754234 0.48212662116497451 0 -0.14744519938683801 0.47523243684594829 0 -0.15313912830386001 0.48632871978955722 0 -0.14744519938683801 0.47523243684594829 0 -0.1380962150490555 0.47248515407185221 0 -0.1446941887002707 0.46454185114692792 0 -0.14744519938683801 0.47523243684594829 0 -0.1446941887002707 0.46454185114692792 0 -0.15815775643206659 0.473198332503178 0 -0.14744519938683801 0.47523243684594829 0 -0.15313912830386001 0.48632871978955722 0 -0.15815775643206659 0.473198332503178 0 -0.142080771754234 0.48212662116497451 0 -0.15313912830386001 0.48632871978955722 0 -0.13803845513632401 0.5 0 -0.15313912830386001 0.48632871978955722 0 -0.13803845513632401 0.5 0 -0.1663114266205577 0.50000000000000011 0 -0.142080771754234 0.48212662116497451 0 -0.13803845513632401 0.5 0 -0.12908554574303099 0.47755934496718438 0 -0.13803845513632401 0.5 0 -0.12908554574303099 0.47755934496718438 0 -0.1160402402672886 0.48503019582547341 0 -0.142080771754234 0.48212662116497451 0 -0.12908554574303099 0.47755934496718438 0 -0.1380962150490555 0.47248515407185221 0 -0.12908554574303099 0.47755934496718438 0 -0.1380962150490555 0.47248515407185221 0 -0.13097929143795109 0.46459511115351071 0 -0.12908554574303099 0.47755934496718438 0 -0.13097929143795109 0.46459511115351071 0 -0.1176294132596279 0.46872710166108278 0 -0.13097929143795109 0.46459511115351071 0 -0.1351896940807357 0.45304119368279389 0 -0.1204057133641486 0.45504160574272429 0 -0.13097929143795109 0.46459511115351071 0 -0.1351896940807357 0.45304119368279389 0 -0.1446941887002707 0.46454185114692792 0 -0.1380962150490555 0.47248515407185221 0 -0.13097929143795109 0.46459511115351071 0 -0.1446941887002707 0.46454185114692792 0 -0.1351896940807357 0.45304119368279389 0 -0.13889501351409689 0.43598263237980822 0 -0.1242648033483075 0.43981492828754482 0 -0.1351896940807357 0.45304119368279389 0 -0.1242648033483075 0.43981492828754482 0 -0.1204057133641486 0.45504160574272429 0 -0.15017718620881049 0.45777983735391498 0 -0.13889501351409689 0.43598263237980822 0 -0.1351896940807357 0.45304119368279389 0 -0.15017718620881049 0.45777983735391498 0 -0.13889501351409689 0.43598263237980822 0 -0.15995177900170021 0.44572512983606088 0 -0.15376963845050121 0.4328235067909087 0 -0.13889501351409689 0.43598263237980822 0 -0.15017718620881049 0.45777983735391498 0 -0.15995177900170021 0.44572512983606088 0 -0.13889501351409689 0.43598263237980822 0 -0.15017718620881049 0.45777983735391498 0 -0.15995177900170021 0.44572512983606088 0 -0.1446941887002707 0.46454185114692792 0 -0.15017718620881049 0.45777983735391498 0 -0.1351896940807357 0.45304119368279389 0 -0.1446941887002707 0.46454185114692792 0 -0.15017718620881049 0.45777983735391498 0 -0.1446941887002707 0.46454185114692792 0 -0.15017718620881049 0.45777983735391498 0 -0.15815775643206659 0.473198332503178 0 -0.15017718620881049 0.45777983735391498 0 -0.15868634814382429 0.46531473325554851 0 -0.15815775643206659 0.473198332503178 0 -0.15017718620881049 0.45777983735391498 0 -0.15815775643206659 0.473198332503178 0 -0.160558198289461 0.46047642425523388 0 -0.1655661766345953 0.45099185016729298 0 -0.16585225164495951 0.46980433890986678 0 -0.1655661766345953 0.45099185016729298 0 -0.17867327812258871 0.46114583139567922 0 -0.16585225164495951 0.46980433890986678 0 -0.1655661766345953 0.45099185016729298 0 -0.16585225164495951 0.46980433890986678 0 -0.15868634814382429 0.46531473325554851 0 -0.160558198289461 0.46047642425523388 0 -0.16585225164495951 0.46980433890986678 0 -0.15017718620881049 0.45777983735391498 0 -0.15868634814382429 0.46531473325554851 0 -0.160558198289461 0.46047642425523388 0 -0.15017718620881049 0.45777983735391498 0 -0.160558198289461 0.46047642425523388 0 -0.15995177900170021 0.44572512983606088 0 -0.15995177900170021 0.44572512983606088 0 -0.1655661766345953 0.45099185016729298 0 -0.1697263717945888 0.43367042231820602 0 -0.160558198289461 0.46047642425523388 0 -0.15995177900170021 0.44572512983606088 0 -0.1655661766345953 0.45099185016729298 0 -0.15995177900170021 0.44572512983606088 0 -0.1697263717945888 0.43367042231820602 0 -0.1655661766345953 0.45099185016729298 0 -0.1926513277646352 0.45119866261047992 0 -0.1697263717945888 0.43367042231820602 0 -0.1926513277646352 0.45119866261047992 0 -0.1697263717945888 0.43367042231820602 0 -0.1926513277646352 0.45119866261047992 0 -0.18693863061853061 0.43491447939059907 0 -0.1697263717945888 0.43367042231820602 0 -0.1655661766345953 0.45099185016729298 0 -0.17867327812258871 0.46114583139567922 0 -0.1926513277646352 0.45119866261047992 0 -0.17867327812258871 0.46114583139567922 0 -0.17876854714149509 0.47093865696285842 0 -0.16585225164495951 0.46980433890986678 0 -0.17867327812258871 0.46114583139567922 0 -0.1899884502156329 0.46461586120334353 0 -0.1926513277646352 0.45119866261047992 0 -0.17867327812258871 0.46114583139567922 0 -0.17876854714149509 0.47093865696285842 0 -0.1899884502156329 0.46461586120334353 0 -0.17876854714149509 0.47093865696285842 0 -0.19138341924764241 0.47827032896460842 0 -0.1899884502156329 0.46461586120334353 0 -0.1757986315986971 0.48088398659212228 0 -0.17876854714149509 0.47093865696285842 0 -0.19138341924764241 0.47827032896460842 0 -0.1757986315986971 0.48088398659212228 0 -0.17876854714149509 0.47093865696285842 0 -0.16585225164495951 0.46980433890986678 0 -0.16585225164495951 0.46980433890986678 0 -0.16613832665532341 0.48861682765244069 0 -0.16585225164495951 0.46980433890986678 0 -0.15815775643206659 0.473198332503178 0 -0.16613832665532341 0.48861682765244069 0 -0.1757986315986971 0.48088398659212228 0 -0.16585225164495951 0.46980433890986678 0 -0.16613832665532341 0.48861682765244069 0 -0.15313912830386001 0.48632871978955722 0 -0.15815775643206659 0.473198332503178 0 -0.16613832665532341 0.48861682765244069 0 -0.15815775643206659 0.473198332503178 0 -0.16613832665532341 0.48861682765244069 0 -0.15868634814382429 0.46531473325554851 0 -0.16585225164495951 0.46980433890986678 0 -0.15815775643206659 0.473198332503178 0 -0.15313912830386001 0.48632871978955722 0 -0.16613832665532341 0.48861682765244069 0 -0.1663114266205577 0.50000000000000011 0 -0.16613832665532341 0.48861682765244069 0 -0.1720302250152923 0.50000000000000022 0 -0.16613832665532341 0.48861682765244069 0 -0.1663114266205577 0.50000000000000011 0 -0.1720302250152923 0.50000000000000022 0 -0.16613832665532341 0.48861682765244069 0 -0.1663114266205577 0.50000000000000011 0 -0.16613832665532341 0.48861682765244069 0 -0.17430115969348189 0.49501483184612438 0 -0.1720302250152923 0.50000000000000022 0 -0.17430115969348189 0.49501483184612438 0 -0.1720302250152923 0.50000000000000022 0 -0.1982872987205446 0.5 0 -0.1757986315986971 0.48088398659212228 0 -0.17430115969348189 0.49501483184612438 0 -0.19138341924764241 0.47827032896460842 0 -0.17430115969348189 0.49501483184612438 0 -0.19138341924764241 0.47827032896460842 0 -0.1757986315986971 0.48088398659212228 0 -0.16613832665532341 0.48861682765244069 0 -0.17430115969348189 0.49501483184612438 0 -0.17430115969348189 0.49501483184612438 0 -0.1982872987205446 0.5 0 -0.19138341924764241 0.47827032896460842 0 -0.1982872987205446 0.5 0 -0.19138341924764241 0.47827032896460842 0 -0.21217809917650449 0.48030286392854288 0 -0.19138341924764241 0.47827032896460842 0 -0.208465678801803 0.46152582608309223 0 -0.19138341924764241 0.47827032896460842 0 -0.21217809917650449 0.48030286392854288 0 -0.208465678801803 0.46152582608309223 0 -0.1982872987205446 0.5 0 -0.21217809917650449 0.48030286392854288 0 -0.22454437242579681 0.5 0 -0.22454437242579681 0.5 0 -0.2288960980978284 0.47674808914996208 0 -0.2467553297522557 0.48147402383551691 0 -0.21217809917650449 0.48030286392854288 0 -0.22454437242579681 0.5 0 -0.2288960980978284 0.47674808914996208 0 -0.21217809917650449 0.48030286392854288 0 -0.2288960980978284 0.47674808914996208 0 -0.22325063631842021 0.46203708915627778 0 -0.25438198006151169 0.46464464965965441 0 -0.2467553297522557 0.48147402383551691 0 -0.2372897108761052 0.46028528898629889 0 -0.2288960980978284 0.47674808914996208 0 -0.2467553297522557 0.48147402383551691 0 -0.2372897108761052 0.46028528898629889 0 -0.25080144613104921 0.5 0 -0.22454437242579681 0.5 0 -0.2467553297522557 0.48147402383551691 0 -0.24356894722331929 0.44821508210096461 0 -0.22554793835596351 0.44478132320157598 0 -0.24263019791012411 0.42803682032005991 0 -0.24356894722331929 0.44821508210096461 0 -0.2372897108761052 0.46028528898629889 0 -0.22554793835596351 0.44478132320157598 0 -0.25799490891289278 0.4433273283372331 0 -0.24356894722331929 0.44821508210096461 0 -0.24263019791012411 0.42803682032005991 0 -0.25438198006151169 0.46464464965965441 0 -0.24356894722331929 0.44821508210096461 0 -0.2372897108761052 0.46028528898629889 0 -0.2288960980978284 0.47674808914996208 0 -0.2372897108761052 0.46028528898629889 0 -0.22325063631842021 0.46203708915627778 0 -0.2372897108761052 0.46028528898629889 0 -0.22325063631842021 0.46203708915627778 0 -0.22554793835596351 0.44478132320157598 0 -0.22325063631842021 0.46203708915627778 0 -0.22554793835596351 0.44478132320157598 0 -0.208465678801803 0.46152582608309223 0 -0.22554793835596351 0.44478132320157598 0 -0.20785557032720109 0.44518798724498809 0 -0.21437917226951189 0.43588067273166847 0 -0.22554793835596351 0.44478132320157598 0 -0.20785557032720109 0.44518798724498809 0 -0.208465678801803 0.46152582608309223 0 -0.22554793835596351 0.44478132320157598 0 -0.208465678801803 0.46152582608309223 0 -0.21217809917650449 0.48030286392854288 0 -0.22325063631842021 0.46203708915627778 0 -0.208465678801803 0.46152582608309223 0 -0.19138341924764241 0.47827032896460842 0 -0.208465678801803 0.46152582608309223 0 -0.1899884502156329 0.46461586120334353 0 -0.208465678801803 0.46152582608309223 0 -0.1899884502156329 0.46461586120334353 0 -0.1926513277646352 0.45119866261047992 0 -0.20785557032720109 0.44518798724498809 0 -0.1926513277646352 0.45119866261047992 0 -0.18693863061853061 0.43491447939059907 0 -0.20785557032720109 0.44518798724498809 0 -0.208465678801803 0.46152582608309223 0 -0.1926513277646352 0.45119866261047992 0 -0.19176926968858449 0.42488004754311998 0 -0.20430089696141959 0.42856004989685992 0 -0.18693863061853061 0.43491447939059907 0 -0.20785557032720109 0.44518798724498809 0 -0.20430089696141959 0.42856004989685992 0 -0.18693863061853061 0.43491447939059907 0 -0.19176926968858449 0.42488004754311998 0 -0.19667758679306771 0.41738623802377928 0 -0.20430089696141959 0.42856004989685992 0 -0.19667758679306771 0.41738623802377928 0 -0.19460267291041519 0.40299123798476227 0 -0.182164522352502 0.41833083015148409 0 -0.19460267291041519 0.40299123798476227 0 -0.182164522352502 0.41833083015148409 0 -0.19176926968858449 0.42488004754311998 0 -0.19667758679306771 0.41738623802377928 0 -0.182164522352502 0.41833083015148409 0 -0.19667758679306771 0.41738623802377928 0 -0.2074030129404133 0.4163894186605448 0 -0.20430089696141959 0.42856004989685992 0 -0.19667758679306771 0.41738623802377928 0 -0.2074030129404133 0.4163894186605448 0 -0.19460267291041519 0.40299123798476227 0 -0.2074030129404133 0.4163894186605448 0 -0.21981228343346321 0.42499333058324978 0 -0.22162162460370111 0.40801623681407218 0 -0.2074030129404133 0.4163894186605448 0 -0.22162162460370111 0.40801623681407218 0 -0.19460267291041519 0.40299123798476227 0 -0.20785557032720109 0.44518798724498809 0 -0.20430089696141959 0.42856004989685992 0 -0.21437917226951189 0.43588067273166847 0 -0.2074030129404133 0.4163894186605448 0 -0.20430089696141959 0.42856004989685992 0 -0.21981228343346321 0.42499333058324978 0 -0.20430089696141959 0.42856004989685992 0 -0.21437917226951189 0.43588067273166847 0 -0.21981228343346321 0.42499333058324978 0 -0.22554793835596351 0.44478132320157598 0 -0.24263019791012411 0.42803682032005991 0 -0.22554793835596351 0.44478132320157598 0 -0.2313941741476824 0.42795323546389102 0 -0.24263019791012411 0.42803682032005991 0 -0.22554793835596351 0.44478132320157598 0 -0.21437917226951189 0.43588067273166847 0 -0.21981228343346321 0.42499333058324978 0 -0.22554793835596351 0.44478132320157598 0 -0.2313941741476824 0.42795323546389102 0 -0.21981228343346321 0.42499333058324978 0 -0.2313941741476824 0.42795323546389102 0 -0.21981228343346321 0.42499333058324978 0 -0.2301621318308705 0.41771135234831969 0 -0.2313941741476824 0.42795323546389102 0 -0.2301621318308705 0.41771135234831969 0 -0.23881831920799079 0.42424335086624981 0 -0.21981228343346321 0.42499333058324978 0 -0.22162162460370111 0.40801623681407218 0 -0.2301621318308705 0.41771135234831969 0 -0.22162162460370111 0.40801623681407218 0 -0.2301621318308705 0.41771135234831969 0 -0.241034552697166 0.41286836770778501 0 -0.25157066981256843 0.40894445920752592 0 -0.241034552697166 0.41286836770778501 0 -0.24263019791012411 0.42803682032005991 0 -0.241034552697166 0.41286836770778501 0 -0.24263019791012411 0.42803682032005991 0 -0.23881831920799079 0.42424335086624981 0 -0.22162162460370111 0.40801623681407218 0 -0.241034552697166 0.41286836770778501 0 -0.24388213391773941 0.40163479241199579 0 -0.2301621318308705 0.41771135234831969 0 -0.241034552697166 0.41286836770778501 0 -0.23881831920799079 0.42424335086624981 0 -0.25157066981256843 0.40894445920752592 0 -0.241034552697166 0.41286836770778501 0 -0.24388213391773941 0.40163479241199579 0 -0.2313941741476824 0.42795323546389102 0 -0.24263019791012411 0.42803682032005991 0 -0.23881831920799079 0.42424335086624981 0 -0.24263019791012411 0.42803682032005991 0 -0.23881831920799079 0.42424335086624981 0 -0.25453646971320443 0.37462232419521813 0 -0.24781733580734391 0.38604582424895789 0 -0.23735930512057779 0.37349779701461089 0 -0.2365264908337599 0.38834162546439549 0 -0.24781733580734391 0.38604582424895789 0 -0.23735930512057779 0.37349779701461089 0 -0.2365264908337599 0.38834162546439549 0 -0.24781733580734391 0.38604582424895789 0 -0.24388213391773941 0.40163479241199579 0 -0.22162162460370111 0.40801623681407218 0 -0.24388213391773941 0.40163479241199579 0 -0.22162162460370111 0.40801623681407218 0 -0.2365264908337599 0.38834162546439549 0 -0.2225569648072106 0.38059728391652659 0 -0.22162162460370111 0.40801623681407218 0 -0.2365264908337599 0.38834162546439549 0 -0.24388213391773941 0.40163479241199579 0 -0.2365264908337599 0.38834162546439549 0 -0.2225569648072106 0.38059728391652659 0 -0.23735930512057779 0.37349779701461089 0 -0.2225569648072106 0.38059728391652659 0 -0.20545957084956781 0.38789926664213359 0 -0.1994770785436861 0.36691897370504389 0 -0.22162162460370111 0.40801623681407218 0 -0.2225569648072106 0.38059728391652659 0 -0.20545957084956781 0.38789926664213359 0 -0.22162162460370111 0.40801623681407218 0 -0.20545957084956781 0.38789926664213359 0 -0.19460267291041519 0.40299123798476227 0 -0.20545957084956781 0.38789926664213359 0 -0.19460267291041519 0.40299123798476227 0 -0.18736095772118591 0.3836472042370111 0 -0.20545957084956781 0.38789926664213359 0 -0.18736095772118591 0.3836472042370111 0 -0.1994770785436861 0.36691897370504389 0 -0.18736095772118591 0.3836472042370111 0 -0.16248792359233191 0.38534127627451031 0 -0.17644948136236779 0.3976803029940168 0 -0.18736095772118591 0.3836472042370111 0 -0.16248792359233191 0.38534127627451031 0 -0.1741500565645078 0.37123080613525078 0 -0.16248792359233191 0.38534127627451031 0 -0.16330635783110381 0.4038062271485704 0 -0.14438589058212131 0.3948348353259919 0 -0.16248792359233191 0.38534127627451031 0 -0.16330635783110381 0.4038062271485704 0 -0.17644948136236779 0.3976803029940168 0 -0.19460267291041519 0.40299123798476227 0 -0.17644948136236779 0.3976803029940168 0 -0.17778078602166139 0.40821888849324761 0 -0.19460267291041519 0.40299123798476227 0 -0.18736095772118591 0.3836472042370111 0 -0.17644948136236779 0.3976803029940168 0 -0.16330635783110381 0.4038062271485704 0 -0.17644948136236779 0.3976803029940168 0 -0.17778078602166139 0.40821888849324761 0 -0.19460267291041519 0.40299123798476227 0 -0.182164522352502 0.41833083015148409 0 -0.17778078602166139 0.40821888849324761 0 -0.182164522352502 0.41833083015148409 0 -0.1723808956519178 0.41828584418740389 0 -0.17778078602166139 0.40821888849324761 0 -0.19176926968858449 0.42488004754311998 0 -0.182164522352502 0.41833083015148409 0 -0.18693863061853061 0.43491447939059907 0 -0.182164522352502 0.41833083015148409 0 -0.18693863061853061 0.43491447939059907 0 -0.1697263717945888 0.43367042231820602 0 -0.182164522352502 0.41833083015148409 0 -0.1697263717945888 0.43367042231820602 0 -0.182164522352502 0.41833083015148409 0 -0.1723808956519178 0.41828584418740389 0 -0.1697263717945888 0.43367042231820602 0 -0.15995177900170021 0.44572512983606088 0 -0.1697263717945888 0.43367042231820602 0 -0.15376963845050121 0.4328235067909087 0 -0.1697263717945888 0.43367042231820602 0 -0.14650538949161929 0.41591584262955861 0 -0.15376963845050121 0.4328235067909087 0 -0.1697263717945888 0.43367042231820602 0 -0.14650538949161929 0.41591584262955861 0 -0.1723808956519178 0.41828584418740389 0 -0.1697263717945888 0.43367042231820602 0 -0.14650538949161929 0.41591584262955861 0 -0.1723808956519178 0.41828584418740389 0 -0.14650538949161929 0.41591584262955861 0 -0.16330635783110381 0.4038062271485704 0 -0.1723808956519178 0.41828584418740389 0 -0.14650538949161929 0.41591584262955861 0 -0.16330635783110381 0.4038062271485704 0 -0.1723808956519178 0.41828584418740389 0 -0.17778078602166139 0.40821888849324761 0 -0.14650538949161929 0.41591584262955861 0 -0.15376963845050121 0.4328235067909087 0 -0.13889501351409689 0.43598263237980822 0 -0.13889501351409689 0.43598263237980822 0 -0.12761284081938409 0.41418542740570108 0 -0.14650538949161929 0.41591584262955861 0 -0.13889501351409689 0.43598263237980822 0 -0.12761284081938409 0.41418542740570108 0 -0.13889501351409689 0.43598263237980822 0 -0.12761284081938409 0.41418542740570108 0 -0.1242648033483075 0.43981492828754482 0 -0.14650538949161929 0.41591584262955861 0 -0.12761284081938409 0.41418542740570108 0 -0.12644786621320531 0.40058001872868543 0 -0.14650538949161929 0.41591584262955861 0 -0.12644786621320531 0.40058001872868543 0 -0.14650538949161929 0.41591584262955861 0 -0.12761284081938409 0.41418542740570108 0 -0.14650538949161929 0.41591584262955861 0 -0.12644786621320531 0.40058001872868543 0 -0.14438589058212131 0.3948348353259919 0 -0.12644786621320531 0.40058001872868543 0 -0.12826940643264259 0.38638828685515292 0 -0.14438589058212131 0.3948348353259919 0 -0.1399268433138337 0.37661104245066729 0 -0.12826940643264259 0.38638828685515292 0 -0.1198206075896991 0.37069234566290138 0 -0.1399268433138337 0.37661104245066729 0 -0.12826940643264259 0.38638828685515292 0 -0.14438589058212131 0.3948348353259919 0 -0.16248792359233191 0.38534127627451031 0 -0.1399268433138337 0.37661104245066729 0 -0.1571746455416145 0.36408416689185819 0 -0.16248792359233191 0.38534127627451031 0 -0.1399268433138337 0.37661104245066729 0 -0.14438589058212131 0.3948348353259919 0 -0.16330635783110381 0.4038062271485704 0 -0.14650538949161929 0.41591584262955861 0 -0.14438589058212131 0.3948348353259919 0 -0.1367685514822152 0.35851885971508118 0 -0.13367478836053351 0.33932016938713638 0 -0.15331730601663701 0.3395623532820784 0 -0.1367685514822152 0.35851885971508118 0 -0.15331730601663701 0.3395623532820784 0 -0.1571746455416145 0.36408416689185819 0 -0.1399268433138337 0.37661104245066729 0 -0.1367685514822152 0.35851885971508118 0 -0.1571746455416145 0.36408416689185819 0 -0.1399268433138337 0.37661104245066729 0 -0.1367685514822152 0.35851885971508118 0 -0.1198206075896991 0.37069234566290138 0 -0.1367685514822152 0.35851885971508118 0 -0.13367478836053351 0.33932016938713638 0 -0.1173066256070304 0.35104950557859033 0 -0.13367478836053351 0.33932016938713638 0 -0.1262409447270301 0.3211703831111522 0 -0.1175879007316586 0.33497855513245622 0 -0.13367478836053351 0.33932016938713638 0 -0.1262409447270301 0.3211703831111522 0 -0.14995133854557879 0.31573290008088639 0 -0.1262409447270301 0.3211703831111522 0 -0.14995133854557879 0.31573290008088639 0 -0.13170636281121431 0.30540396541675668 0 -0.13367478836053351 0.33932016938713638 0 -0.14995133854557879 0.31573290008088639 0 -0.15331730601663701 0.3395623532820784 0 -0.15331730601663701 0.3395623532820784 0 -0.17079439025487569 0.32494122108339912 0 -0.1763971922801616 0.3532406634935612 0 -0.14995133854557879 0.31573290008088639 0 -0.17079439025487569 0.32494122108339912 0 -0.167164841548782 0.29891422322321631 0 -0.14995133854557879 0.31573290008088639 0 -0.15331730601663701 0.3395623532820784 0 -0.17079439025487569 0.32494122108339912 0 -0.17079439025487569 0.32494122108339912 0 -0.19256976679114979 0.33165381796875049 0 -0.19699128312530151 0.30504565645142051 0 -0.17079439025487569 0.32494122108339912 0 -0.1763971922801616 0.3532406634935612 0 -0.19256976679114979 0.33165381796875049 0 -0.15331730601663701 0.3395623532820784 0 -0.1763971922801616 0.3532406634935612 0 -0.1571746455416145 0.36408416689185819 0 -0.15331730601663701 0.3395623532820784 0 -0.1763971922801616 0.3532406634935612 0 -0.1763971922801616 0.3532406634935612 0 -0.1571746455416145 0.36408416689185819 0 -0.1741500565645078 0.37123080613525078 0 -0.16248792359233191 0.38534127627451031 0 -0.1571746455416145 0.36408416689185819 0 -0.1741500565645078 0.37123080613525078 0 -0.18736095772118591 0.3836472042370111 0 -0.1741500565645078 0.37123080613525078 0 -0.1994770785436861 0.36691897370504389 0 -0.1763971922801616 0.3532406634935612 0 -0.1741500565645078 0.37123080613525078 0 -0.1994770785436861 0.36691897370504389 0 -0.1763971922801616 0.3532406634935612 0 -0.1994770785436861 0.36691897370504389 0 -0.1763971922801616 0.3532406634935612 0 -0.20127160642404629 0.34878804965207372 0 -0.19256976679114979 0.33165381796875049 0 -0.1763971922801616 0.3532406634935612 0 -0.1994770785436861 0.36691897370504389 0 -0.20127160642404629 0.34878804965207372 0 -0.1994770785436861 0.36691897370504389 0 -0.20127160642404629 0.34878804965207372 0 -0.22480168799342179 0.35512276170724633 0 -0.20127160642404629 0.34878804965207372 0 -0.22480168799342179 0.35512276170724633 0 -0.2131123065118124 0.33700403138576668 0 -0.2225569648072106 0.38059728391652659 0 -0.1994770785436861 0.36691897370504389 0 -0.2225569648072106 0.38059728391652659 0 -0.1994770785436861 0.36691897370504389 0 -0.22480168799342179 0.35512276170724633 0 -0.2225569648072106 0.38059728391652659 0 -0.22480168799342179 0.35512276170724633 0 -0.23735930512057779 0.37349779701461089 0 -0.25368472498167011 0.34420349485172652 0 -0.22480168799342179 0.35512276170724633 0 -0.24822911175635759 0.36217347122335058 0 -0.22480168799342179 0.35512276170724633 0 -0.24822911175635759 0.36217347122335058 0 -0.23735930512057779 0.37349779701461089 0 -0.25453646971320443 0.37462232419521813 0 -0.24822911175635759 0.36217347122335058 0 -0.23735930512057779 0.37349779701461089 0 -0.25757488899104952 0.31786411623381933 0 -0.23478691102954721 0.33115088205162452 0 -0.2366570207200871 0.30010935915934539 0 -0.25368472498167011 0.34420349485172652 0 -0.22480168799342179 0.35512276170724633 0 -0.23478691102954721 0.33115088205162452 0 -0.25368472498167011 0.34420349485172652 0 -0.23478691102954721 0.33115088205162452 0 -0.25757488899104952 0.31786411623381933 0 -0.25368472498167011 0.34420349485172652 0 -0.23478691102954721 0.33115088205162452 0 -0.23478691102954721 0.33115088205162452 0 -0.2158890970774244 0.31809826925152251 0 -0.2131123065118124 0.33700403138576668 0 -0.22480168799342179 0.35512276170724633 0 -0.23478691102954721 0.33115088205162452 0 -0.2131123065118124 0.33700403138576668 0 -0.23478691102954721 0.33115088205162452 0 -0.2158890970774244 0.31809826925152251 0 -0.2366570207200871 0.30010935915934539 0 -0.23478691102954721 0.33115088205162452 0 -0.2158890970774244 0.31809826925152251 0 -0.2158890970774244 0.31809826925152251 0 -0.2131123065118124 0.33700403138576668 0 -0.19256976679114979 0.33165381796875049 0 -0.20127160642404629 0.34878804965207372 0 -0.2131123065118124 0.33700403138576668 0 -0.19256976679114979 0.33165381796875049 0 -0.2158890970774244 0.31809826925152251 0 -0.19256976679114979 0.33165381796875049 0 -0.19699128312530151 0.30504565645142051 0 -0.19699128312530151 0.30504565645142051 0 -0.2044220976180971 0.2747921468301005 0 -0.18537993383704029 0.28397978744787411 0 -0.19699128312530151 0.30504565645142051 0 -0.21636901433909059 0.29447561219915308 0 -0.2044220976180971 0.2747921468301005 0 -0.2158890970774244 0.31809826925152251 0 -0.19699128312530151 0.30504565645142051 0 -0.21636901433909059 0.29447561219915308 0 -0.2158890970774244 0.31809826925152251 0 -0.19699128312530151 0.30504565645142051 0 -0.2158890970774244 0.31809826925152251 0 -0.21636901433909059 0.29447561219915308 0 -0.2366570207200871 0.30010935915934539 0 -0.21636901433909059 0.29447561219915308 0 -0.2366570207200871 0.30010935915934539 0 -0.2235041758045673 0.27405874977876837 0 -0.26277913973510902 0.29023342414179659 0 -0.2366570207200871 0.30010935915934539 0 -0.2447247674615598 0.2718938593685879 0 -0.2366570207200871 0.30010935915934539 0 -0.2447247674615598 0.2718938593685879 0 -0.2235041758045673 0.27405874977876837 0 -0.25693865295534157 0.25278860643768353 0 -0.2416444700809012 0.25186566196455601 0 -0.2447247674615598 0.2718938593685879 0 -0.2416444700809012 0.25186566196455601 0 -0.2447247674615598 0.2718938593685879 0 -0.22667039518801041 0.25355429459537898 0 -0.2447247674615598 0.2718938593685879 0 -0.22667039518801041 0.25355429459537898 0 -0.2447247674615598 0.2718938593685879 0 -0.2235041758045673 0.27405874977876837 0 -0.22667039518801041 0.25355429459537898 0 -0.2235041758045673 0.27405874977876837 0 -0.22667039518801041 0.25355429459537898 0 -0.21218175950055909 0.24952722652004439 0 -0.2044220976180971 0.2747921468301005 0 -0.1929026130837673 0.25762258695206858 0 -0.21218175950055909 0.24952722652004439 0 -0.2044220976180971 0.2747921468301005 0 -0.21218175950055909 0.24952722652004439 0 -0.2235041758045673 0.27405874977876837 0 -0.2044220976180971 0.2747921468301005 0 -0.21218175950055909 0.24952722652004439 0 -0.21636901433909059 0.29447561219915308 0 -0.2235041758045673 0.27405874977876837 0 -0.2044220976180971 0.2747921468301005 0 -0.2044220976180971 0.2747921468301005 0 -0.1929026130837673 0.25762258695206858 0 -0.18537993383704029 0.28397978744787411 0 -0.1929026130837673 0.25762258695206858 0 -0.16582228118094081 0.26466105519565358 0 -0.18651378479530609 0.23505073182760211 0 -0.1929026130837673 0.25762258695206858 0 -0.16582228118094081 0.26466105519565358 0 -0.18537993383704029 0.28397978744787411 0 -0.16582228118094081 0.26466105519565358 0 -0.167164841548782 0.29891422322321631 0 -0.14136362158270599 0.28508793949713551 0 -0.16582228118094081 0.26466105519565358 0 -0.18537993383704029 0.28397978744787411 0 -0.167164841548782 0.29891422322321631 0 -0.19699128312530151 0.30504565645142051 0 -0.18537993383704029 0.28397978744787411 0 -0.167164841548782 0.29891422322321631 0 -0.17079439025487569 0.32494122108339912 0 -0.19699128312530151 0.30504565645142051 0 -0.167164841548782 0.29891422322321631 0 -0.167164841548782 0.29891422322321631 0 -0.14136362158270599 0.28508793949713551 0 -0.14995133854557879 0.31573290008088639 0 -0.167164841548782 0.29891422322321631 0 -0.14136362158270599 0.28508793949713551 0 -0.14995133854557879 0.31573290008088639 0 -0.14136362158270599 0.28508793949713551 0 -0.13170636281121431 0.30540396541675668 0 -0.1262409447270301 0.3211703831111522 0 -0.13170636281121431 0.30540396541675668 0 -0.1173504618646501 0.30916380798395637 0 -0.14136362158270599 0.28508793949713551 0 -0.13170636281121431 0.30540396541675668 0 -0.1202787732923796 0.29457691953651272 0 -0.14136362158270599 0.28508793949713551 0 -0.1196693143642453 0.28329908912575552 0 -0.1202787732923796 0.29457691953651272 0 -0.14136362158270599 0.28508793949713551 0 -0.1155624016166297 0.27126165577105521 0 -0.1196693143642453 0.28329908912575552 0 -0.14136362158270599 0.28508793949713551 0 -0.1155624016166297 0.27126165577105521 0 -0.12872708527658799 0.25991420809329241 0 -0.1416417428525672 0.26777243923482702 0 -0.1155624016166297 0.27126165577105521 0 -0.14136362158270599 0.28508793949713551 0 -0.1416417428525672 0.26777243923482702 0 -0.1155624016166297 0.27126165577105521 0 -0.12872708527658799 0.25991420809329241 0 -0.14534546737678511 0.25129379472131641 0 -0.1416417428525672 0.26777243923482702 0 -0.12872708527658799 0.25991420809329241 0 -0.14534546737678511 0.25129379472131641 0 -0.12470300375741469 0.2457033751303839 0 -0.16582228118094081 0.26466105519565358 0 -0.14534546737678511 0.25129379472131641 0 -0.1416417428525672 0.26777243923482702 0 -0.16582228118094081 0.26466105519565358 0 -0.14136362158270599 0.28508793949713551 0 -0.1416417428525672 0.26777243923482702 0 -0.1083690905562489 0.27746201143443072 0 -0.10470287070229969 0.27376422074294909 0 -0.09206590757372593 0.27740472432850488 0 -0.099741497972773749 0.27068482051400677 0 -0.1098053558875477 0.27272524579145851 0 -0.092391857727521592 0.25884509119311472 0 -0.1155624016166297 0.27126165577105521 0 -0.1098053558875477 0.27272524579145851 0 -0.092391857727521592 0.25884509119311472 0 -0.099741497972773749 0.27068482051400677 0 -0.09206590757372593 0.27740472432850488 0 -0.092391857727521592 0.25884509119311472 0 -0.10470287070229969 0.27376422074294909 0 -0.099741497972773749 0.27068482051400677 0 -0.1098053558875477 0.27272524579145851 0 -0.1083690905562489 0.27746201143443072 0 -0.1098053558875477 0.27272524579145851 0 -0.1083690905562489 0.27746201143443072 0 -0.10470287070229969 0.27376422074294909 0 -0.1098053558875477 0.27272524579145851 0 -0.10470287070229969 0.27376422074294909 0 -0.099741497972773749 0.27068482051400677 0 -0.09206590757372593 0.27740472432850488 0 -0.1155624016166297 0.27126165577105521 0 -0.092391857727521592 0.25884509119311472 0 -0.11076524853809321 0.25238606884059173 0 -0.1155624016166297 0.27126165577105521 0 -0.092391857727521592 0.25884509119311472 0 -0.11076524853809321 0.25238606884059173 0 -0.1199394347971814 0.25731632695883078 0 -0.1155624016166297 0.27126165577105521 0 -0.12872708527658799 0.25991420809329241 0 -0.1199394347971814 0.25731632695883078 0 -0.12470300375741469 0.2457033751303839 0 -0.11076524853809321 0.25238606884059173 0 -0.1199394347971814 0.25731632695883078 0 -0.12470300375741469 0.2457033751303839 0 -0.12872708527658799 0.25991420809329241 0 -0.1199394347971814 0.25731632695883078 0 -0.1155624016166297 0.27126165577105521 0 -0.12872708527658799 0.25991420809329241 0 -0.1155624016166297 0.27126165577105521 0 -0.1083690905562489 0.27746201143443072 0 -0.1155624016166297 0.27126165577105521 0 -0.1196693143642453 0.28329908912575552 0 -0.1083690905562489 0.27746201143443072 0 -0.1155624016166297 0.27126165577105521 0 -0.1098053558875477 0.27272524579145851 0 -0.1083690905562489 0.27746201143443072 0 -0.1155624016166297 0.27126165577105521 0 -0.1083690905562489 0.27746201143443072 0 -0.1202787732923796 0.29457691953651272 0 -0.1003457715998239 0.30392270831765028 0 -0.1083690905562489 0.27746201143443072 0 -0.1196693143642453 0.28329908912575552 0 -0.1202787732923796 0.29457691953651272 0 -0.1202787732923796 0.29457691953651272 0 -0.1173504618646501 0.30916380798395637 0 -0.1003457715998239 0.30392270831765028 0 -0.13170636281121431 0.30540396541675668 0 -0.1202787732923796 0.29457691953651272 0 -0.1173504618646501 0.30916380798395637 0 -0.1173504618646501 0.30916380798395637 0 -0.1003457715998239 0.30392270831765028 0 -0.1081804568928026 0.32074506353771021 0 -0.1083690905562489 0.27746201143443072 0 -0.08834593029567378 0.29472120043351602 0 -0.09206590757372593 0.27740472432850488 0 -0.1083690905562489 0.27746201143443072 0 -0.1003457715998239 0.30392270831765028 0 -0.08834593029567378 0.29472120043351602 0 -0.1083690905562489 0.27746201143443072 0 -0.1003457715998239 0.30392270831765028 0 -0.1083690905562489 0.27746201143443072 0 -0.08834593029567378 0.29472120043351602 0 -0.08834593029567378 0.29472120043351602 0 -0.079344374197139078 0.28508182268507098 0 -0.09206590757372593 0.27740472432850488 0 -0.08834593029567378 0.29472120043351602 0 -0.072463929930227558 0.29930610977545041 0 -0.077617967212061698 0.29366907382828078 0 -0.08834593029567378 0.29472120043351602 0 -0.079344374197139078 0.28508182268507098 0 -0.077617967212061698 0.29366907382828078 0 -0.08834593029567378 0.29472120043351602 0 -0.087527931766016032 0.31235393694025021 0 -0.08121949171140587 0.31012908581564408 0 -0.08834593029567378 0.29472120043351602 0 -0.068322770035098762 0.31198038943260148 0 -0.1003457715998239 0.30392270831765028 0 -0.08834593029567378 0.29472120043351602 0 -0.087527931766016032 0.31235393694025021 0 -0.08834593029567378 0.29472120043351602 0 -0.08121949171140587 0.31012908581564408 0 -0.069852456288818351 0.31207980665071 0 -0.08834593029567378 0.29472120043351602 0 -0.068322770035098762 0.31198038943260148 0 -0.069852456288818351 0.31207980665071 0 -0.08834593029567378 0.29472120043351602 0 -0.072463929930227558 0.29930610977545041 0 -0.068322770035098762 0.31198038943260148 0 -0.072463929930227558 0.29930610977545041 0 -0.064179569528432873 0.29754197169583518 0 -0.063962500348327456 0.30379626580195229 0 -0.072463929930227558 0.29930610977545041 0 -0.063962500348327456 0.30379626580195229 0 -0.068322770035098762 0.31198038943260148 0 -0.068322770035098762 0.31198038943260148 0 -0.069852456288818351 0.31207980665071 0 -0.079344374197139078 0.28508182268507098 0 -0.070510141993048517 0.29225124769799787 0 -0.067485792004003509 0.28106498521306011 0 -0.079344374197139078 0.28508182268507098 0 -0.077617967212061698 0.29366907382828078 0 -0.070510141993048517 0.29225124769799787 0 -0.072463929930227558 0.29930610977545041 0 -0.077617967212061698 0.29366907382828078 0 -0.070510141993048517 0.29225124769799787 0 -0.064179569528432873 0.29754197169583518 0 -0.070510141993048517 0.29225124769799787 0 -0.059799020663136082 0.29068729405280619 0 -0.072463929930227558 0.29930610977545041 0 -0.064179569528432873 0.29754197169583518 0 -0.070510141993048517 0.29225124769799787 0 -0.070510141993048517 0.29225124769799787 0 -0.067485792004003509 0.28106498521306011 0 -0.059799020663136082 0.29068729405280619 0 -0.079344374197139078 0.28508182268507098 0 -0.077112635008727601 0.26938653581869981 0 -0.067485792004003509 0.28106498521306011 0 -0.077112635008727601 0.26938653581869981 0 -0.067485792004003509 0.28106498521306011 0 -0.060296114269721542 0.26705395206363342 0 -0.079344374197139078 0.28508182268507098 0 -0.077112635008727601 0.26938653581869981 0 -0.09206590757372593 0.27740472432850488 0 -0.077112635008727601 0.26938653581869981 0 -0.09206590757372593 0.27740472432850488 0 -0.092391857727521592 0.25884509119311472 0 -0.092391857727521592 0.25884509119311472 0 -0.069221313838413207 0.24642852661517459 0 -0.077112635008727601 0.26938653581869981 0 -0.092391857727521592 0.25884509119311472 0 -0.069221313838413207 0.24642852661517459 0 -0.077112635008727601 0.26938653581869981 0 -0.060296114269721542 0.26705395206363342 0 -0.069221313838413207 0.24642852661517459 0 -0.048126263350958612 0.25465777805589501 0 -0.060296114269721542 0.26705395206363342 0 -0.069221313838413207 0.24642852661517459 0 -0.048126263350958612 0.25465777805589501 0 -0.060296114269721542 0.26705395206363342 0 -0.041784573477856593 0.2719242686623195 0 -0.055384127889045079 0.27986410773994991 0 -0.060296114269721542 0.26705395206363342 0 -0.041784573477856593 0.2719242686623195 0 -0.055384127889045079 0.27986410773994991 0 -0.041784573477856593 0.2719242686623195 0 -0.044370237993260717 0.29032640624232281 0 -0.067485792004003509 0.28106498521306011 0 -0.055384127889045079 0.27986410773994991 0 -0.060296114269721542 0.26705395206363342 0 -0.041784573477856593 0.2719242686623195 0 -0.028053557715267439 0.25838243531431121 0 -0.02550209953536561 0.27186686885002359 0 -0.041784573477856593 0.2719242686623195 0 -0.02550209953536561 0.27186686885002359 0 -0.031040102747703489 0.28267752730564011 0 -0.048126263350958612 0.25465777805589501 0 -0.041784573477856593 0.2719242686623195 0 -0.028053557715267439 0.25838243531431121 0 -0.048126263350958612 0.25465777805589501 0 -0.028053557715267439 0.25838243531431121 0 -0.033382390283993792 0.24359412621706661 0 -0.028053557715267439 0.25838243531431121 0 -0.01504563196256534 0.26333196488375049 0 -0.01778818590069102 0.2421293126167848 0 -0.01504563196256534 0.26333196488375049 0 -0.01778818590069102 0.2421293126167848 0 -0.028053557715267439 0.25838243531431121 0 -0.02550209953536561 0.27186686885002359 0 -0.01504563196256534 0.26333196488375049 0 -0.028053557715267439 0.25838243531431121 0 -0.01504563196256534 0.26333196488375049 0 -0.02550209953536561 0.27186686885002359 0 -0.01214761008608776 0.28573653795517551 0 -0.031040102747703489 0.28267752730564011 0 -0.02550209953536561 0.27186686885002359 0 -0.01504563196256534 0.26333196488375049 0 -0.01214761008608776 0.28573653795517551 0 -0.001267499687089951 0.2776013217203892 0 -0.01504563196256534 0.26333196488375049 0 -0.01214761008608776 0.28573653795517551 0 -0.01504563196256534 0.26333196488375049 0 -0.01214761008608776 0.28573653795517551 0 -0.00067809962666212902 0.26216505597133072 0 -0.01504563196256534 0.26333196488375049 0 0.010965700908337589 0.27322930467739909 0 -0.001267499687089951 0.2776013217203892 0 -0.01504563196256534 0.26333196488375049 0 0.010965700908337589 0.27322930467739909 0 -0.01504563196256534 0.26333196488375049 0 0.010965700908337589 0.27322930467739909 0 -0.0087132352456033638 0.25173417187717928 0 -0.01504563196256534 0.26333196488375049 0 -0.01778818590069102 0.2421293126167848 0 -0.00067809962666212902 0.26216505597133072 0 -0.0087132352456033638 0.25173417187717928 0 0.0027594708259384838 0.25829047161104352 0 -0.00067809962666212902 0.26216505597133072 0 -0.0087132352456033638 0.25173417187717928 0 -0.01504563196256534 0.26333196488375049 0 -0.009249588209606344 0.30814111102660002 0 -0.01214761008608776 0.28573653795517551 0 0.0038021096493471361 0.29689124930627131 0 -0.009249588209606344 0.30814111102660002 0 -0.01214761008608776 0.28573653795517551 0 -0.01214761008608776 0.28573653795517551 0 0.002380999114604244 0.28599596302517022 0 0.0038021096493471361 0.29689124930627131 0 -0.001267499687089951 0.2776013217203892 0 -0.01214761008608776 0.28573653795517551 0 0.002380999114604244 0.28599596302517022 0 -0.009249588209606344 0.30814111102660002 0 -0.01214761008608776 0.28573653795517551 0 -0.02711874363180217 0.2953884665518679 0 -0.01214761008608776 0.28573653795517551 0 -0.031040102747703489 0.28267752730564011 0 -0.02711874363180217 0.2953884665518679 0 -0.009249588209606344 0.30814111102660002 0 -0.02711874363180217 0.2953884665518679 0 -0.038786179122352507 0.31006075022960111 0 -0.009249588209606344 0.30814111102660002 0 -0.038786179122352507 0.31006075022960111 0 -0.02711874363180217 0.2953884665518679 0 -0.038786179122352507 0.31006075022960111 0 -0.044370237993260717 0.29032640624232281 0 -0.038786179122352507 0.31006075022960111 0 -0.044370237993260717 0.29032640624232281 0 -0.054162254707424723 0.30166894115096898 0 -0.031040102747703489 0.28267752730564011 0 -0.02711874363180217 0.2953884665518679 0 -0.044370237993260717 0.29032640624232281 0 -0.041784573477856593 0.2719242686623195 0 -0.031040102747703489 0.28267752730564011 0 -0.044370237993260717 0.29032640624232281 0 -0.055384127889045079 0.27986410773994991 0 -0.044370237993260717 0.29032640624232281 0 -0.059799020663136082 0.29068729405280619 0 -0.044370237993260717 0.29032640624232281 0 -0.059799020663136082 0.29068729405280619 0 -0.054162254707424723 0.30166894115096898 0 -0.064179569528432873 0.29754197169583518 0 -0.059799020663136082 0.29068729405280619 0 -0.054162254707424723 0.30166894115096898 0 -0.067485792004003509 0.28106498521306011 0 -0.055384127889045079 0.27986410773994991 0 -0.059799020663136082 0.29068729405280619 0 -0.068322770035098762 0.31198038943260148 0 -0.038786179122352507 0.31006075022960111 0 -0.068322770035098762 0.31198038943260148 0 -0.038786179122352507 0.31006075022960111 0 -0.054162254707424723 0.30166894115096898 0 -0.064179569528432873 0.29754197169583518 0 -0.063962500348327456 0.30379626580195229 0 -0.054162254707424723 0.30166894115096898 0 -0.063962500348327456 0.30379626580195229 0 -0.068322770035098762 0.31198038943260148 0 -0.054162254707424723 0.30166894115096898 0 -0.068322770035098762 0.31198038943260148 0 -0.038786179122352507 0.31006075022960111 0 -0.053879496619987192 0.32442993198196868 0 -0.068322770035098762 0.31198038943260148 0 -0.053879496619987192 0.32442993198196868 0 -0.059045099567240703 0.33862263320968672 0 -0.059976501396798443 0.34640013057040159 0 -0.068046633572776155 0.34513696516333192 0 -0.053879496619987192 0.32442993198196868 0 -0.059045099567240703 0.33862263320968672 0 -0.06815446288386498 0.3263880450875648 0 -0.053879496619987192 0.32442993198196868 0 -0.059045099567240703 0.33862263320968672 0 -0.049717572699208172 0.33977374392884352 0 -0.053879496619987192 0.32442993198196868 0 -0.049717572699208172 0.33977374392884352 0 -0.039436223204876379 0.33687947453133682 0 -0.059045099567240703 0.33862263320968672 0 -0.049717572699208172 0.33977374392884352 0 -0.052933118771744558 0.34753778728834739 0 -0.049717572699208172 0.33977374392884352 0 -0.039436223204876379 0.33687947453133682 0 -0.045752302425533672 0.34929255203680049 0 -0.053879496619987192 0.32442993198196868 0 -0.039436223204876379 0.33687947453133682 0 -0.039359444206513459 0.32419621080282812 0 -0.053879496619987192 0.32442993198196868 0 -0.039436223204876379 0.33687947453133682 0 -0.039436223204876379 0.33687947453133682 0 -0.039359444206513459 0.32419621080282812 0 -0.02531264429424256 0.33765677836634578 0 -0.039436223204876379 0.33687947453133682 0 -0.02531264429424256 0.33765677836634578 0 -0.034795741464765127 0.3466441775467104 0 -0.038786179122352507 0.31006075022960111 0 -0.053879496619987192 0.32442993198196868 0 -0.039359444206513459 0.32419621080282812 0 -0.038786179122352507 0.31006075022960111 0 -0.039359444206513459 0.32419621080282812 0 -0.024068293084679539 0.32272721199300619 0 -0.009249588209606344 0.30814111102660002 0 -0.038786179122352507 0.31006075022960111 0 -0.024068293084679539 0.32272721199300619 0 -0.024068293084679539 0.32272721199300619 0 -0.02531264429424256 0.33765677836634578 0 -0.005758602284471958 0.33512988219008361 0 -0.039359444206513459 0.32419621080282812 0 -0.024068293084679539 0.32272721199300619 0 -0.02531264429424256 0.33765677836634578 0 -0.005758602284471958 0.33512988219008361 0 -0.0077202170519437719 0.34710906184019069 0 0.0082446038140756572 0.34376242611402219 0 -0.02531264429424256 0.33765677836634578 0 -0.005758602284471958 0.33512988219008361 0 -0.0077202170519437719 0.34710906184019069 0 -0.009249588209606344 0.30814111102660002 0 -0.005758602284471958 0.33512988219008361 0 0.0094307060340404689 0.32376070079746733 0 -0.009249588209606344 0.30814111102660002 0 -0.005758602284471958 0.33512988219008361 0 -0.009249588209606344 0.30814111102660002 0 -0.024068293084679539 0.32272721199300619 0 -0.005758602284471958 0.33512988219008361 0 -0.0045677851665312944 0.36532665559408428 0 -0.0087141207398781558 0.37710904293520409 0 0.0077169544749549623 0.36306791211952738 0 -0.0045677851665312944 0.36532665559408428 0 -0.019623601183504629 0.35541479533684739 0 -0.0087141207398781558 0.37710904293520409 0 -0.0087141207398781558 0.37710904293520409 0 0.0077169544749549623 0.36306791211952738 0 -0.0077202170519437719 0.34710906184019069 0 -0.019623601183504629 0.35541479533684739 0 0.0038095970876644218 0.35606187191015221 0 -0.019623601183504629 0.35541479533684739 0 0.0038095970876644218 0.35606187191015221 0 -0.0045677851665312944 0.36532665559408428 0 -0.019623601183504629 0.35541479533684739 0 0.0038095970876644218 0.35606187191015221 0 -0.02531264429424256 0.33765677836634578 0 -0.019623601183504629 0.35541479533684739 0 -0.034795741464765127 0.3466441775467104 0 -0.02531264429424256 0.33765677836634578 0 -0.0077202170519437719 0.34710906184019069 0 -0.019623601183504629 0.35541479533684739 0 -0.019623601183504629 0.35541479533684739 0 -0.034100997704691827 0.37295894625721099 0 -0.0087141207398781558 0.37710904293520409 0 -0.019623601183504629 0.35541479533684739 0 -0.034100997704691827 0.37295894625721099 0 -0.043056799454673583 0.35476771876354157 0 -0.034100997704691827 0.37295894625721099 0 -0.047131069669461997 0.36807368878450081 0 -0.054593457040109393 0.3822816536988497 0 -0.034100997704691827 0.37295894625721099 0 -0.043056799454673583 0.35476771876354157 0 -0.034100997704691827 0.37295894625721099 0 -0.043056799454673583 0.35476771876354157 0 -0.047131069669461997 0.36807368878450081 0 -0.019623601183504629 0.35541479533684739 0 -0.043056799454673583 0.35476771876354157 0 -0.019623601183504629 0.35541479533684739 0 -0.034795741464765127 0.3466441775467104 0 -0.043056799454673583 0.35476771876354157 0 -0.043056799454673583 0.35476771876354157 0 -0.045752302425533672 0.34929255203680049 0 -0.039436223204876379 0.33687947453133682 0 -0.034795741464765127 0.3466441775467104 0 -0.045752302425533672 0.34929255203680049 0 -0.034795741464765127 0.3466441775467104 0 -0.043056799454673583 0.35476771876354157 0 -0.045752302425533672 0.34929255203680049 0 -0.043056799454673583 0.35476771876354157 0 -0.052933118771744558 0.34753778728834739 0 -0.059881153675432383 0.35430313662024071 0 -0.043056799454673583 0.35476771876354157 0 -0.059881153675432383 0.35430313662024071 0 -0.051828064233363932 0.36038047858465339 0 -0.043056799454673583 0.35476771876354157 0 -0.059881153675432383 0.35430313662024071 0 -0.043056799454673583 0.35476771876354157 0 -0.045752302425533672 0.34929255203680049 0 -0.052933118771744558 0.34753778728834739 0 -0.049717572699208172 0.33977374392884352 0 -0.045752302425533672 0.34929255203680049 0 -0.052933118771744558 0.34753778728834739 0 -0.059881153675432383 0.35430313662024071 0 -0.051828064233363932 0.36038047858465339 0 -0.058626870601395778 0.36023180910453118 0 -0.059045099567240703 0.33862263320968672 0 -0.052933118771744558 0.34753778728834739 0 -0.059976501396798443 0.34640013057040159 0 -0.052933118771744558 0.34753778728834739 0 -0.059881153675432383 0.35430313662024071 0 -0.059976501396798443 0.34640013057040159 0 -0.047131069669461997 0.36807368878450081 0 -0.054116187566776573 0.36544526432200969 0 -0.058148679921659119 0.37186744297544022 0 -0.047131069669461997 0.36807368878450081 0 -0.058148679921659119 0.37186744297544022 0 -0.054593457040109393 0.3822816536988497 0 -0.043056799454673583 0.35476771876354157 0 -0.047131069669461997 0.36807368878450081 0 -0.051828064233363932 0.36038047858465339 0 -0.047131069669461997 0.36807368878450081 0 -0.051828064233363932 0.36038047858465339 0 -0.054116187566776573 0.36544526432200969 0 -0.054116187566776573 0.36544526432200969 0 -0.058626870601395778 0.36023180910453118 0 -0.058148679921659119 0.37186744297544022 0 -0.051828064233363932 0.36038047858465339 0 -0.054116187566776573 0.36544526432200969 0 -0.058626870601395778 0.36023180910453118 0 -0.058626870601395778 0.36023180910453118 0 -0.058148679921659119 0.37186744297544022 0 -0.076275814730551866 0.38330479896731001 0 -0.058626870601395778 0.36023180910453118 0 -0.071157696118109362 0.36170448025062218 0 -0.076275814730551866 0.38330479896731001 0 -0.071157696118109362 0.36170448025062218 0 -0.084299133686975572 0.35684410208409001 0 -0.076275814730551866 0.38330479896731001 0 -0.058626870601395778 0.36023180910453118 0 -0.076275814730551866 0.38330479896731001 0 -0.084299133686975572 0.35684410208409001 0 -0.089436666146690338 0.3774527594588406 0 -0.076275814730551866 0.38330479896731001 0 -0.084299133686975572 0.35684410208409001 0 -0.076275814730551866 0.38330479896731001 0 -0.093494049974744503 0.36523362229143391 0 -0.084299133686975572 0.35684410208409001 0 -0.089436666146690338 0.3774527594588406 0 -0.084299133686975572 0.35684410208409001 0 -0.076705507896191183 0.35383855447693902 0 -0.080753986599573127 0.33990497651870988 0 -0.084299133686975572 0.35684410208409001 0 -0.092322452643399749 0.33038340520087017 0 -0.095141502753968779 0.35097174187852381 0 -0.093494049974744503 0.36523362229143391 0 -0.084299133686975572 0.35684410208409001 0 -0.095141502753968779 0.35097174187852381 0 -0.059881153675432383 0.35430313662024071 0 -0.071157696118109362 0.36170448025062218 0 -0.076705507896191183 0.35383855447693902 0 -0.076705507896191183 0.35383855447693902 0 -0.068046633572776155 0.34513696516333192 0 -0.080753986599573127 0.33990497651870988 0 -0.059881153675432383 0.35430313662024071 0 -0.076705507896191183 0.35383855447693902 0 -0.068046633572776155 0.34513696516333192 0 -0.059881153675432383 0.35430313662024071 0 -0.076705507896191183 0.35383855447693902 0 -0.071157696118109362 0.36170448025062218 0 -0.084299133686975572 0.35684410208409001 0 -0.076705507896191183 0.35383855447693902 0 -0.059881153675432383 0.35430313662024071 0 -0.058626870601395778 0.36023180910453118 0 -0.071157696118109362 0.36170448025062218 0 -0.059881153675432383 0.35430313662024071 0 -0.059976501396798443 0.34640013057040159 0 -0.068046633572776155 0.34513696516333192 0 -0.06815446288386498 0.3263880450875648 0 -0.079151648495115301 0.32136139923810009 0 -0.080753986599573127 0.33990497651870988 0 -0.068046633572776155 0.34513696516333192 0 -0.06815446288386498 0.3263880450875648 0 -0.080753986599573127 0.33990497651870988 0 -0.059045099567240703 0.33862263320968672 0 -0.068046633572776155 0.34513696516333192 0 -0.06815446288386498 0.3263880450875648 0 -0.068322770035098762 0.31198038943260148 0 -0.069852456288818351 0.31207980665071 0 -0.06815446288386498 0.3263880450875648 0 -0.068322770035098762 0.31198038943260148 0 -0.053879496619987192 0.32442993198196868 0 -0.06815446288386498 0.3263880450875648 0 -0.08121949171140587 0.31012908581564408 0 -0.069852456288818351 0.31207980665071 0 -0.079151648495115301 0.32136139923810009 0 -0.069852456288818351 0.31207980665071 0 -0.06815446288386498 0.3263880450875648 0 -0.079151648495115301 0.32136139923810009 0 -0.087527931766016032 0.31235393694025021 0 -0.079151648495115301 0.32136139923810009 0 -0.092322452643399749 0.33038340520087017 0 -0.1003457715998239 0.30392270831765028 0 -0.087527931766016032 0.31235393694025021 0 -0.092322452643399749 0.33038340520087017 0 -0.087527931766016032 0.31235393694025021 0 -0.08121949171140587 0.31012908581564408 0 -0.079151648495115301 0.32136139923810009 0 -0.084299133686975572 0.35684410208409001 0 -0.092322452643399749 0.33038340520087017 0 -0.079151648495115301 0.32136139923810009 0 -0.092322452643399749 0.33038340520087017 0 -0.080753986599573127 0.33990497651870988 0 -0.084299133686975572 0.35684410208409001 0 -0.092322452643399749 0.33038340520087017 0 -0.080753986599573127 0.33990497651870988 0 -0.092322452643399749 0.33038340520087017 0 -0.10472406897533799 0.34168768652513631 0 -0.095141502753968779 0.35097174187852381 0 -0.092322452643399749 0.33038340520087017 0 -0.10472406897533799 0.34168768652513631 0 -0.1081804568928026 0.32074506353771021 0 -0.1003457715998239 0.30392270831765028 0 -0.092322452643399749 0.33038340520087017 0 -0.1003457715998239 0.30392270831765028 0 -0.092322452643399749 0.33038340520087017 0 -0.1081804568928026 0.32074506353771021 0 -0.1262409447270301 0.3211703831111522 0 -0.1173504618646501 0.30916380798395637 0 -0.1081804568928026 0.32074506353771021 0 -0.1262409447270301 0.3211703831111522 0 -0.1081804568928026 0.32074506353771021 0 -0.1175879007316586 0.33497855513245622 0 -0.13367478836053351 0.33932016938713638 0 -0.1175879007316586 0.33497855513245622 0 -0.1173066256070304 0.35104950557859033 0 -0.10472406897533799 0.34168768652513631 0 -0.1081804568928026 0.32074506353771021 0 -0.1175879007316586 0.33497855513245622 0 -0.10472406897533799 0.34168768652513631 0 -0.1175879007316586 0.33497855513245622 0 -0.1173066256070304 0.35104950557859033 0 -0.1173066256070304 0.35104950557859033 0 -0.1198206075896991 0.37069234566290138 0 -0.1030551893938276 0.35978992576853291 0 -0.1367685514822152 0.35851885971508118 0 -0.1173066256070304 0.35104950557859033 0 -0.1198206075896991 0.37069234566290138 0 -0.1198206075896991 0.37069234566290138 0 -0.1030551893938276 0.35978992576853291 0 -0.10026372758235801 0.37465761506622741 0 -0.093494049974744503 0.36523362229143391 0 -0.10026372758235801 0.37465761506622741 0 -0.089436666146690338 0.3774527594588406 0 -0.093494049974744503 0.36523362229143391 0 -0.1030551893938276 0.35978992576853291 0 -0.10026372758235801 0.37465761506622741 0 -0.10472406897533799 0.34168768652513631 0 -0.1030551893938276 0.35978992576853291 0 -0.095141502753968779 0.35097174187852381 0 -0.093494049974744503 0.36523362229143391 0 -0.1030551893938276 0.35978992576853291 0 -0.095141502753968779 0.35097174187852381 0 -0.10472406897533799 0.34168768652513631 0 -0.1173066256070304 0.35104950557859033 0 -0.1030551893938276 0.35978992576853291 0 -0.101128536279416 0.3977608810528192 0 -0.11378235269799521 0.38746486633725291 0 -0.11258596611237601 0.40408595479252452 0 -0.101128536279416 0.3977608810528192 0 -0.095244926421122186 0.38729621463576269 0 -0.11378235269799521 0.38746486633725291 0 -0.101128536279416 0.3977608810528192 0 -0.11258596611237601 0.40408595479252452 0 -0.097808874238227678 0.41145560844912898 0 -0.101128536279416 0.3977608810528192 0 -0.097808874238227678 0.41145560844912898 0 -0.087042344484389883 0.39738020370821953 0 -0.101128536279416 0.3977608810528192 0 -0.095244926421122186 0.38729621463576269 0 -0.087042344484389883 0.39738020370821953 0 -0.10026372758235801 0.37465761506622741 0 -0.095244926421122186 0.38729621463576269 0 -0.11378235269799521 0.38746486633725291 0 -0.10026372758235801 0.37465761506622741 0 -0.095244926421122186 0.38729621463576269 0 -0.089436666146690338 0.3774527594588406 0 -0.1198206075896991 0.37069234566290138 0 -0.10026372758235801 0.37465761506622741 0 -0.11378235269799521 0.38746486633725291 0 -0.12826940643264259 0.38638828685515292 0 -0.1198206075896991 0.37069234566290138 0 -0.11378235269799521 0.38746486633725291 0 -0.12644786621320531 0.40058001872868543 0 -0.12826940643264259 0.38638828685515292 0 -0.11378235269799521 0.38746486633725291 0 -0.12761284081938409 0.41418542740570108 0 -0.11378235269799521 0.38746486633725291 0 -0.12761284081938409 0.41418542740570108 0 -0.12644786621320531 0.40058001872868543 0 -0.11378235269799521 0.38746486633725291 0 -0.12761284081938409 0.41418542740570108 0 -0.11378235269799521 0.38746486633725291 0 -0.11258596611237601 0.40408595479252452 0 -0.12761284081938409 0.41418542740570108 0 -0.11258596611237601 0.40408595479252452 0 -0.097808874238227678 0.41145560844912898 0 -0.12761284081938409 0.41418542740570108 0 -0.1126245701039178 0.4308246085444013 0 -0.097808874238227678 0.41145560844912898 0 -0.12761284081938409 0.41418542740570108 0 -0.097808874238227678 0.41145560844912898 0 -0.12761284081938409 0.41418542740570108 0 -0.1126245701039178 0.4308246085444013 0 -0.1242648033483075 0.43981492828754482 0 -0.1126245701039178 0.4308246085444013 0 -0.096605527178418776 0.42311346390882398 0 -0.097170403390676049 0.43571281837191522 0 -0.1126245701039178 0.4308246085444013 0 -0.097170403390676049 0.43571281837191522 0 -0.10338783084247161 0.44098956532991213 0 -0.1126245701039178 0.4308246085444013 0 -0.097808874238227678 0.41145560844912898 0 -0.1126245701039178 0.4308246085444013 0 -0.096605527178418776 0.42311346390882398 0 -0.097808874238227678 0.41145560844912898 0 -0.096605527178418776 0.42311346390882398 0 -0.097808874238227678 0.41145560844912898 0 -0.090623427087895073 0.41079747558654428 0 -0.097808874238227678 0.41145560844912898 0 -0.090623427087895073 0.41079747558654428 0 -0.096605527178418776 0.42311346390882398 0 -0.090623427087895073 0.41079747558654428 0 -0.084800361071377284 0.4267768085921303 0 -0.090623427087895073 0.41079747558654428 0 -0.084347825254610875 0.40943513047528779 0 -0.084800361071377284 0.4267768085921303 0 -0.084800361071377284 0.4267768085921303 0 -0.074925168374781331 0.40278603401425761 0 -0.084347825254610875 0.40943513047528779 0 -0.084800361071377284 0.4267768085921303 0 -0.074925168374781331 0.40278603401425761 0 -0.097808874238227678 0.41145560844912898 0 -0.090623427087895073 0.41079747558654428 0 -0.087042344484389883 0.39738020370821953 0 -0.096605527178418776 0.42311346390882398 0 -0.097170403390676049 0.43571281837191522 0 -0.084800361071377284 0.4267768085921303 0 -0.084800361071377284 0.4267768085921303 0 -0.077689053426030094 0.43734830183904833 0 -0.073740177733494089 0.43015549729097768 0 -0.084800361071377284 0.4267768085921303 0 -0.077689053426030094 0.43734830183904833 0 -0.085627028266785254 0.44117175463919189 0 -0.077689053426030094 0.43734830183904833 0 -0.073740177733494089 0.43015549729097768 0 -0.069373851585076945 0.43677151010665521 0 -0.084800361071377284 0.4267768085921303 0 -0.073740177733494089 0.43015549729097768 0 -0.074963529381557356 0.42372471124402672 0 -0.084800361071377284 0.4267768085921303 0 -0.074963529381557356 0.42372471124402672 0 -0.074207610301873977 0.415826985147286 0 -0.073740177733494089 0.43015549729097768 0 -0.07134827269677288 0.42521816639912852 0 -0.067010261651664849 0.42692585223643509 0 -0.073740177733494089 0.43015549729097768 0 -0.074963529381557356 0.42372471124402672 0 -0.07134827269677288 0.42521816639912852 0 -0.074963529381557356 0.42372471124402672 0 -0.07134827269677288 0.42521816639912852 0 -0.069903249343569923 0.42035209495099629 0 -0.06803153127557314 0.42418340705062968 0 -0.063864341410284964 0.42423751461595932 0 -0.069903249343569923 0.42035209495099629 0 -0.07134827269677288 0.42521816639912852 0 -0.06803153127557314 0.42418340705062968 0 -0.067010261651664849 0.42692585223643509 0 -0.07134827269677288 0.42521816639912852 0 -0.06803153127557314 0.42418340705062968 0 -0.069903249343569923 0.42035209495099629 0 -0.06803153127557314 0.42418340705062968 0 -0.063864341410284964 0.42423751461595932 0 -0.067010261651664849 0.42692585223643509 0 -0.063864341410284964 0.42423751461595932 0 -0.067010261651664849 0.42692585223643509 0 -0.067010261651664849 0.42692585223643509 0 -0.06657591115514655 0.43192586875325267 0 -0.062357688865182517 0.42920641545622512 0 -0.063864341410284964 0.42423751461595932 0 -0.067010261651664849 0.42692585223643509 0 -0.062357688865182517 0.42920641545622512 0 -0.063864341410284964 0.42423751461595932 0 -0.062357688865182517 0.42920641545622512 0 -0.073740177733494089 0.43015549729097768 0 -0.067010261651664849 0.42692585223643509 0 -0.06657591115514655 0.43192586875325267 0 -0.073740177733494089 0.43015549729097768 0 -0.06657591115514655 0.43192586875325267 0 -0.069373851585076945 0.43677151010665521 0 -0.06657591115514655 0.43192586875325267 0 -0.062750456602468974 0.43554137489064498 0 -0.062357688865182517 0.42920641545622512 0 -0.06657591115514655 0.43192586875325267 0 -0.062750456602468974 0.43554137489064498 0 -0.069373851585076945 0.43677151010665521 0 -0.063864341410284964 0.42423751461595932 0 -0.069903249343569923 0.42035209495099629 0 -0.070070078070418332 0.40377115679163461 0 -0.074207610301873977 0.415826985147286 0 -0.069903249343569923 0.42035209495099629 0 -0.070070078070418332 0.40377115679163461 0 -0.063864341410284964 0.42423751461595932 0 -0.070070078070418332 0.40377115679163461 0 -0.058881304157308093 0.40804381518971672 0 -0.063864341410284964 0.42423751461595932 0 -0.070070078070418332 0.40377115679163461 0 -0.084800361071377284 0.4267768085921303 0 -0.074207610301873977 0.415826985147286 0 -0.074925168374781331 0.40278603401425761 0 -0.074207610301873977 0.415826985147286 0 -0.070070078070418332 0.40377115679163461 0 -0.074925168374781331 0.40278603401425761 0 -0.074963529381557356 0.42372471124402672 0 -0.074207610301873977 0.415826985147286 0 -0.069903249343569923 0.42035209495099629 0 -0.070070078070418332 0.40377115679163461 0 -0.064506344576777661 0.39145758865641178 0 -0.076275814730551866 0.38330479896731001 0 -0.070070078070418332 0.40377115679163461 0 -0.074925168374781331 0.40278603401425761 0 -0.076275814730551866 0.38330479896731001 0 -0.070070078070418332 0.40377115679163461 0 -0.076275814730551866 0.38330479896731001 0 -0.070070078070418332 0.40377115679163461 0 -0.064506344576777661 0.39145758865641178 0 -0.057086028466031037 0.39647274516785291 0 -0.074925168374781331 0.40278603401425761 0 -0.087042344484389883 0.39738020370821953 0 -0.076275814730551866 0.38330479896731001 0 -0.084347825254610875 0.40943513047528779 0 -0.074925168374781331 0.40278603401425761 0 -0.087042344484389883 0.39738020370821953 0 -0.097808874238227678 0.41145560844912898 0 -0.087042344484389883 0.39738020370821953 0 -0.090623427087895073 0.41079747558654428 0 -0.084347825254610875 0.40943513047528779 0 -0.087042344484389883 0.39738020370821953 0 -0.087042344484389883 0.39738020370821953 0 -0.089436666146690338 0.3774527594588406 0 -0.076275814730551866 0.38330479896731001 0 -0.095244926421122186 0.38729621463576269 0 -0.087042344484389883 0.39738020370821953 0 -0.089436666146690338 0.3774527594588406 0 -0.087042344484389883 0.39738020370821953 0 -0.076275814730551866 0.38330479896731001 0 -0.064506344576777661 0.39145758865641178 0 -0.076275814730551866 0.38330479896731001 0 -0.054593457040109393 0.3822816536988497 0 -0.058148679921659119 0.37186744297544022 0 -0.076275814730551866 0.38330479896731001 0 -0.054593457040109393 0.3822816536988497 0 -0.064506344576777661 0.39145758865641178 0 -0.054593457040109393 0.3822816536988497 0 -0.057086028466031037 0.39647274516785291 0 -0.054593457040109393 0.3822816536988497 0 -0.057086028466031037 0.39647274516785291 0 -0.042391572779214973 0.39096282696345341 0 -0.057086028466031037 0.39647274516785291 0 -0.042391572779214973 0.39096282696345341 0 -0.044504768682498037 0.40769384418342008 0 -0.070070078070418332 0.40377115679163461 0 -0.057086028466031037 0.39647274516785291 0 -0.058881304157308093 0.40804381518971672 0 -0.057086028466031037 0.39647274516785291 0 -0.044504768682498037 0.40769384418342008 0 -0.058881304157308093 0.40804381518971672 0 -0.02514519595471108 0.39115017375088101 0 -0.044504768682498037 0.40769384418342008 0 -0.042391572779214973 0.39096282696345341 0 -0.02514519595471108 0.39115017375088101 0 -0.044504768682498037 0.40769384418342008 0 -0.034100997704691827 0.37295894625721099 0 -0.054593457040109393 0.3822816536988497 0 -0.042391572779214973 0.39096282696345341 0 -0.034100997704691827 0.37295894625721099 0 -0.042391572779214973 0.39096282696345341 0 -0.02514519595471108 0.39115017375088101 0 -0.034100997704691827 0.37295894625721099 0 -0.02514519595471108 0.39115017375088101 0 -0.034100997704691827 0.37295894625721099 0 -0.02514519595471108 0.39115017375088101 0 -0.0087141207398781558 0.37710904293520409 0 -0.02514519595471108 0.39115017375088101 0 -0.0087141207398781558 0.37710904293520409 0 -0.02514519595471108 0.39115017375088101 0 -0.014810785045769751 0.41214166341376801 0 -0.02514519595471108 0.39115017375088101 0 -0.014810785045769751 0.41214166341376801 0 -0.044504768682498037 0.40769384418342008 0 -0.0068648610501423502 0.39382000907293813 0 -0.014810785045769751 0.41214166341376801 0 0.0046995574085186929 0.41194005205042061 0 -0.02514519595471108 0.39115017375088101 0 -0.0068648610501423502 0.39382000907293813 0 -0.014810785045769751 0.41214166341376801 0 -0.02514519595471108 0.39115017375088101 0 -0.0068648610501423502 0.39382000907293813 0 -0.0087141207398781558 0.37710904293520409 0 -0.0068648610501423502 0.39382000907293813 0 -0.0087141207398781558 0.37710904293520409 0 0.0053185270157129726 0.37689571945341471 0 -0.0044763741368290672 0.43313315307665529 0 -0.014810785045769751 0.41214166341376801 0 -0.0044763741368290672 0.43313315307665529 0 -0.014810785045769751 0.41214166341376801 0 -0.026116443713473419 0.4246575807879529 0 -0.0044763741368290672 0.43313315307665529 0 -0.014810785045769751 0.41214166341376801 0 0.0046995574085186929 0.41194005205042061 0 -0.014810785045769751 0.41214166341376801 0 -0.026116443713473419 0.4246575807879529 0 -0.044504768682498037 0.40769384418342008 0 -0.0044763741368290672 0.43313315307665529 0 -0.026116443713473419 0.4246575807879529 0 -0.02623027688729573 0.44118750916919391 0 -0.026116443713473419 0.4246575807879529 0 -0.040560013814974517 0.42913173409672722 0 -0.02623027688729573 0.44118750916919391 0 -0.040560013814974517 0.42913173409672722 0 -0.048293098329248912 0.43867666423002288 0 -0.039090066940739521 0.44352471403713711 0 -0.026116443713473419 0.4246575807879529 0 -0.040560013814974517 0.42913173409672722 0 -0.044504768682498037 0.40769384418342008 0 -0.040560013814974517 0.42913173409672722 0 -0.044504768682498037 0.40769384418342008 0 -0.051886787429848112 0.42350176277299723 0 -0.063864341410284964 0.42423751461595932 0 -0.044504768682498037 0.40769384418342008 0 -0.058881304157308093 0.40804381518971672 0 -0.063864341410284964 0.42423751461595932 0 -0.044504768682498037 0.40769384418342008 0 -0.051886787429848112 0.42350176277299723 0 -0.063864341410284964 0.42423751461595932 0 -0.044504768682498037 0.40769384418342008 0 -0.053936434918908913 0.43159717611494758 0 -0.057641003333182179 0.44086754716312743 0 -0.048293098329248912 0.43867666423002288 0 -0.040560013814974517 0.42913173409672722 0 -0.053936434918908913 0.43159717611494758 0 -0.048293098329248912 0.43867666423002288 0 -0.040560013814974517 0.42913173409672722 0 -0.053936434918908913 0.43159717611494758 0 -0.051886787429848112 0.42350176277299723 0 -0.053936434918908913 0.43159717611494758 0 -0.051886787429848112 0.42350176277299723 0 -0.062357688865182517 0.42920641545622512 0 -0.063864341410284964 0.42423751461595932 0 -0.051886787429848112 0.42350176277299723 0 -0.062357688865182517 0.42920641545622512 0 -0.062750456602468974 0.43554137489064498 0 -0.053936434918908913 0.43159717611494758 0 -0.062357688865182517 0.42920641545622512 0 -0.062750456602468974 0.43554137489064498 0 -0.053936434918908913 0.43159717611494758 0 -0.057641003333182179 0.44086754716312743 0 -0.062750456602468974 0.43554137489064498 0 -0.057641003333182179 0.44086754716312743 0 -0.065491549478626135 0.44200233464982802 0 -0.057641003333182179 0.44086754716312743 0 -0.062398417199954148 0.4499603094023914 0 -0.065491549478626135 0.44200233464982802 0 -0.057641003333182179 0.44086754716312743 0 -0.062398417199954148 0.4499603094023914 0 -0.050237972638439453 0.44826214973817502 0 -0.057641003333182179 0.44086754716312743 0 -0.050237972638439453 0.44826214973817502 0 -0.048293098329248912 0.43867666423002288 0 -0.062398417199954148 0.4499603094023914 0 -0.050230730183752688 0.46259696058471089 0 -0.064501224992871267 0.46542691543905351 0 -0.062398417199954148 0.4499603094023914 0 -0.050237972638439453 0.44826214973817502 0 -0.050230730183752688 0.46259696058471089 0 -0.050230730183752688 0.46259696058471089 0 -0.035748626011326709 0.45858167758110602 0 -0.046040344352481867 0.47841272498986082 0 -0.050237972638439453 0.44826214973817502 0 -0.050230730183752688 0.46259696058471089 0 -0.035748626011326709 0.45858167758110602 0 -0.035748626011326709 0.45858167758110602 0 -0.039090066940739521 0.44352471403713711 0 -0.02623027688729573 0.44118750916919391 0 -0.050237972638439453 0.44826214973817502 0 -0.048293098329248912 0.43867666423002288 0 -0.039090066940739521 0.44352471403713711 0 -0.050237972638439453 0.44826214973817502 0 -0.035748626011326709 0.45858167758110602 0 -0.039090066940739521 0.44352471403713711 0 -0.040560013814974517 0.42913173409672722 0 -0.039090066940739521 0.44352471403713711 0 -0.02623027688729573 0.44118750916919391 0 -0.035748626011326709 0.45858167758110602 0 -0.02623027688729573 0.44118750916919391 0 -0.01728298942402769 0.45556140426229003 0 -0.0044763741368290672 0.43313315307665529 0 -0.02623027688729573 0.44118750916919391 0 -0.01728298942402769 0.45556140426229003 0 -0.035748626011326709 0.45858167758110602 0 -0.01728298942402769 0.45556140426229003 0 -0.022784747477638551 0.4775754860453762 0 -0.01728298942402769 0.45556140426229003 0 -0.0062093312902834459 0.46527566221073008 0 0.006403582431216831 0.45126676372832991 0 -0.01728298942402769 0.45556140426229003 0 -0.0062093312902834459 0.46527566221073008 0 -0.022784747477638551 0.4775754860453762 0 -0.0044763741368290672 0.43313315307665529 0 -0.01728298942402769 0.45556140426229003 0 0.006403582431216831 0.45126676372832991 0 -0.0062093312902834459 0.46527566221073008 0 -0.022784747477638551 0.4775754860453762 0 0.0095498935665802413 0.47810272379952351 0 -0.022784747477638551 0.4775754860453762 0 -0.021427984417146221 0.5 0 0.0095498935665802413 0.47810272379952351 0 -0.021427984417146221 0.5 0 0.0095498935665802413 0.47810272379952351 0 0.0086042794582089632 0.5 0 -0.022784747477638551 0.4775754860453762 0 -0.021427984417146221 0.5 0 -0.046040344352481867 0.47841272498986082 0 -0.021427984417146221 0.5 0 -0.046040344352481867 0.47841272498986082 0 -0.051460248292501398 0.5 0 -0.035748626011326709 0.45858167758110602 0 -0.022784747477638551 0.4775754860453762 0 -0.046040344352481867 0.47841272498986082 0 -0.046040344352481867 0.47841272498986082 0 -0.067939054777113927 0.48291587414950521 0 -0.064501224992871267 0.46542691543905351 0 -0.050230730183752688 0.46259696058471089 0 -0.046040344352481867 0.47841272498986082 0 -0.064501224992871267 0.46542691543905351 0 -0.046040344352481867 0.47841272498986082 0 -0.051460248292501398 0.5 0 -0.067939054777113927 0.48291587414950521 0 -0.051460248292501398 0.5 0 -0.081492512167856565 0.50000000000000011 0 -0.067939054777113927 0.48291587414950521 0 -0.081492512167856565 0.50000000000000011 0 -0.085878896958769185 0.47675925450649242 0 -0.067939054777113927 0.48291587414950521 0 -0.081492512167856565 0.50000000000000011 0 -0.085878896958769185 0.47675925450649242 0 -0.099362977551805121 0.48745008538217821 0 -0.081492512167856565 0.50000000000000011 0 -0.085878896958769185 0.47675925450649242 0 -0.085878896958769185 0.47675925450649242 0 -0.075452149305044958 0.46933040044586682 0 -0.067939054777113927 0.48291587414950521 0 -0.075452149305044958 0.46933040044586682 0 -0.067939054777113927 0.48291587414950521 0 -0.064501224992871267 0.46542691543905351 0 -0.064501224992871267 0.46542691543905351 0 -0.075214053997903707 0.45912990264989012 0 -0.070315415620740368 0.45334812155980347 0 -0.062398417199954148 0.4499603094023914 0 -0.064501224992871267 0.46542691543905351 0 -0.070315415620740368 0.45334812155980347 0 -0.075214053997903707 0.45912990264989012 0 -0.070315415620740368 0.45334812155980347 0 -0.081419329692844739 0.44979703694502599 0 -0.075452149305044958 0.46933040044586682 0 -0.064501224992871267 0.46542691543905351 0 -0.075214053997903707 0.45912990264989012 0 -0.075452149305044958 0.46933040044586682 0 -0.075214053997903707 0.45912990264989012 0 -0.082509194984251868 0.46007906520350089 0 -0.069373851585076945 0.43677151010665521 0 -0.065491549478626135 0.44200233464982802 0 -0.073041418115067244 0.44511613748665291 0 -0.062750456602468974 0.43554137489064498 0 -0.069373851585076945 0.43677151010665521 0 -0.065491549478626135 0.44200233464982802 0 -0.062398417199954148 0.4499603094023914 0 -0.065491549478626135 0.44200233464982802 0 -0.073041418115067244 0.44511613748665291 0 -0.062398417199954148 0.4499603094023914 0 -0.070315415620740368 0.45334812155980347 0 -0.073041418115067244 0.44511613748665291 0 -0.070315415620740368 0.45334812155980347 0 -0.073041418115067244 0.44511613748665291 0 -0.081419329692844739 0.44979703694502599 0 -0.073041418115067244 0.44511613748665291 0 -0.07941018481149445 0.44345804230003222 0 -0.081419329692844739 0.44979703694502599 0 -0.077689053426030094 0.43734830183904833 0 -0.069373851585076945 0.43677151010665521 0 -0.073041418115067244 0.44511613748665291 0 -0.077689053426030094 0.43734830183904833 0 -0.073041418115067244 0.44511613748665291 0 -0.07941018481149445 0.44345804230003222 0 -0.097170403390676049 0.43571281837191522 0 -0.084800361071377284 0.4267768085921303 0 -0.094675553767973264 0.45076758317000298 0 -0.084800361071377284 0.4267768085921303 0 -0.094675553767973264 0.45076758317000298 0 -0.084800361071377284 0.4267768085921303 0 -0.085627028266785254 0.44117175463919189 0 -0.094675553767973264 0.45076758317000298 0 -0.085627028266785254 0.44117175463919189 0 -0.07941018481149445 0.44345804230003222 0 -0.081419329692844739 0.44979703694502599 0 -0.077689053426030094 0.43734830183904833 0 -0.085627028266785254 0.44117175463919189 0 -0.07941018481149445 0.44345804230003222 0 -0.085627028266785254 0.44117175463919189 0 -0.081419329692844739 0.44979703694502599 0 -0.088082484801868088 0.44854024150695748 0 -0.081419329692844739 0.44979703694502599 0 -0.086047819819581178 0.45134535453790131 0 -0.088082484801868088 0.44854024150695748 0 -0.085627028266785254 0.44117175463919189 0 -0.088082484801868088 0.44854024150695748 0 -0.094675553767973264 0.45076758317000298 0 -0.086047819819581178 0.45134535453790131 0 -0.088082484801868088 0.44854024150695748 0 -0.090265281749681819 0.45351850901298468 0 -0.088082484801868088 0.44854024150695748 0 -0.090265281749681819 0.45351850901298468 0 -0.094675553767973264 0.45076758317000298 0 -0.085878896958769185 0.47675925450649242 0 -0.075452149305044958 0.46933040044586682 0 -0.082509194984251868 0.46007906520350089 0 -0.085878896958769185 0.47675925450649242 0 -0.090265281749681819 0.45351850901298468 0 -0.085878896958769185 0.47675925450649242 0 -0.090265281749681819 0.45351850901298468 0 -0.093944937474792503 0.46462082789344678 0 -0.085878896958769185 0.47675925450649242 0 -0.082509194984251868 0.46007906520350089 0 -0.090265281749681819 0.45351850901298468 0 -0.081419329692844739 0.44979703694502599 0 -0.086047819819581178 0.45134535453790131 0 -0.082509194984251868 0.46007906520350089 0 -0.075214053997903707 0.45912990264989012 0 -0.081419329692844739 0.44979703694502599 0 -0.082509194984251868 0.46007906520350089 0 -0.090265281749681819 0.45351850901298468 0 -0.093944937474792503 0.46462082789344678 0 -0.094675553767973264 0.45076758317000298 0 -0.086047819819581178 0.45134535453790131 0 -0.082509194984251868 0.46007906520350089 0 -0.090265281749681819 0.45351850901298468 0 -0.093944937474792503 0.46462082789344678 0 -0.094675553767973264 0.45076758317000298 0 -0.1045507464645692 0.47475835774787573 0 -0.094675553767973264 0.45076758317000298 0 -0.1045507464645692 0.47475835774787573 0 -0.1087715055698807 0.4588247561088431 0 -0.094675553767973264 0.45076758317000298 0 -0.1045507464645692 0.47475835774787573 0 -0.1126245701039178 0.4308246085444013 0 -0.1090807961073193 0.44665325123332839 0 -0.10338783084247161 0.44098956532991213 0 -0.097170403390676049 0.43571281837191522 0 -0.094675553767973264 0.45076758317000298 0 -0.10338783084247161 0.44098956532991213 0 -0.1087715055698807 0.4588247561088431 0 -0.094675553767973264 0.45076758317000298 0 -0.1090807961073193 0.44665325123332839 0 -0.094675553767973264 0.45076758317000298 0 -0.1090807961073193 0.44665325123332839 0 -0.10338783084247161 0.44098956532991213 0 -0.1126245701039178 0.4308246085444013 0 -0.1090807961073193 0.44665325123332839 0 -0.1242648033483075 0.43981492828754482 0 -0.1090807961073193 0.44665325123332839 0 -0.1242648033483075 0.43981492828754482 0 -0.1204057133641486 0.45504160574272429 0 -0.1087715055698807 0.4588247561088431 0 -0.1176294132596279 0.46872710166108278 0 -0.1045507464645692 0.47475835774787573 0 -0.1087715055698807 0.4588247561088431 0 -0.1204057133641486 0.45504160574272429 0 -0.1176294132596279 0.46872710166108278 0 -0.1087715055698807 0.4588247561088431 0 -0.1090807961073193 0.44665325123332839 0 -0.1204057133641486 0.45504160574272429 0 -0.13097929143795109 0.46459511115351071 0 -0.1204057133641486 0.45504160574272429 0 -0.1176294132596279 0.46872710166108278 0 -0.12908554574303099 0.47755934496718438 0 -0.1176294132596279 0.46872710166108278 0 -0.1160402402672886 0.48503019582547341 0 -0.1176294132596279 0.46872710166108278 0 -0.1160402402672886 0.48503019582547341 0 -0.1045507464645692 0.47475835774787573 0 -0.13803845513632401 0.5 0 -0.1097654836520903 0.5 0 -0.1160402402672886 0.48503019582547341 0 -0.1097654836520903 0.5 0 -0.1160402402672886 0.48503019582547341 0 -0.099362977551805121 0.48745008538217821 0 -0.081492512167856565 0.50000000000000011 0 -0.1097654836520903 0.5 0 -0.099362977551805121 0.48745008538217821 0 -0.085878896958769185 0.47675925450649242 0 -0.093944937474792503 0.46462082789344678 0 -0.1045507464645692 0.47475835774787573 0 -0.085878896958769185 0.47675925450649242 0 -0.099362977551805121 0.48745008538217821 0 -0.1045507464645692 0.47475835774787573 0 -0.1160402402672886 0.48503019582547341 0 -0.099362977551805121 0.48745008538217821 0 -0.1045507464645692 0.47475835774787573 0 -0.15850742705232401 0.077073165420907211 0 -0.17832815471062741 0.080370175701138483 0 -0.15596223049933161 0.089669487892629185 0 -0.17128916945913089 0.092189477241546317 0 -0.17832815471062741 0.080370175701138483 0 -0.15596223049933161 0.089669487892629185 0 -0.17832815471062741 0.080370175701138483 0 -0.15596223049933161 0.089669487892629185 0 -0.15850742705232401 0.077073165420907211 0 -0.16907692184479731 0.071953328836937142 0 -0.17832815471062741 0.080370175701138483 0 -0.15850742705232401 0.077073165420907211 0 -0.15722519427174569 0.065058312825911402 0 -0.16907692184479731 0.071953328836937142 0 -0.16907692184479731 0.071953328836937142 0 -0.1809864334298861 0.069780609401686525 0 -0.17832815471062741 0.080370175701138483 0 -0.16907692184479731 0.071953328836937142 0 -0.1809864334298861 0.069780609401686525 0 -0.18167022033174851 0.056262687610226528 0 -0.1809864334298861 0.069780609401686525 0 -0.17832815471062741 0.080370175701138483 0 -0.20069407892192309 0.071070863509647808 0 -0.1809864334298861 0.069780609401686525 0 -0.18167022033174851 0.056262687610226528 0 -0.1876556690991136 0.063313821709693935 0 -0.17128916945913089 0.092189477241546317 0 -0.18444466814129201 0.081023499242751457 0 -0.17631468167186989 0.1066384650542631 0 -0.17128916945913089 0.092189477241546317 0 -0.18444466814129201 0.081023499242751457 0 -0.17832815471062741 0.080370175701138483 0 -0.18444466814129201 0.081023499242751457 0 -0.17631468167186989 0.1066384650542631 0 -0.19937405773042491 0.1071019237599893 0 -0.17631468167186989 0.1066384650542631 0 -0.16393492635195239 0.1245978723337525 0 -0.1795193575176991 0.1294692331289829 0 -0.17631468167186989 0.1066384650542631 0 -0.19937405773042491 0.1071019237599893 0 -0.1795193575176991 0.1294692331289829 0 -0.16393492635195239 0.1245978723337525 0 -0.16139611227253359 0.1032457583169494 0 -0.15311233888185891 0.1152965378839053 0 -0.17631468167186989 0.1066384650542631 0 -0.16393492635195239 0.1245978723337525 0 -0.16139611227253359 0.1032457583169494 0 -0.17128916945913089 0.092189477241546317 0 -0.17631468167186989 0.1066384650542631 0 -0.16139611227253359 0.1032457583169494 0 -0.17128916945913089 0.092189477241546317 0 -0.16139611227253359 0.1032457583169494 0 -0.15596223049933161 0.089669487892629185 0 -0.16139611227253359 0.1032457583169494 0 -0.13359630628803579 0.098968800084119873 0 -0.15596223049933161 0.089669487892629185 0 -0.16139611227253359 0.1032457583169494 0 -0.15311233888185891 0.1152965378839053 0 -0.13359630628803579 0.098968800084119873 0 -0.13359630628803579 0.098968800084119873 0 -0.15596223049933161 0.089669487892629185 0 -0.15311233888185891 0.1152965378839053 0 -0.13930859898956699 0.1145050369687237 0 -0.153752621985453 0.14073392350839439 0 -0.15311233888185891 0.1152965378839053 0 -0.13930859898956699 0.1145050369687237 0 -0.13359630628803579 0.098968800084119873 0 -0.13930859898956699 0.1145050369687237 0 -0.12607259725238279 0.11330641960449821 0 -0.12916618827146031 0.12390190950899049 0 -0.13930859898956699 0.1145050369687237 0 -0.12607259725238279 0.11330641960449821 0 -0.13359630628803579 0.098968800084119873 0 -0.13359630628803579 0.098968800084119873 0 -0.12697672020224329 0.087309090757334687 0 -0.14089006822782121 0.082531143958766096 0 -0.12697672020224329 0.087309090757334687 0 -0.14089006822782121 0.082531143958766096 0 -0.12697985749263241 0.07630636069427757 0 -0.15850742705232401 0.077073165420907211 0 -0.14089006822782121 0.082531143958766096 0 -0.15596223049933161 0.089669487892629185 0 -0.13359630628803579 0.098968800084119873 0 -0.14089006822782121 0.082531143958766096 0 -0.15596223049933161 0.089669487892629185 0 -0.15850742705232401 0.077073165420907211 0 -0.14089006822782121 0.082531143958766096 0 -0.14764327064684279 0.071644858797684771 0 -0.15722519427174569 0.065058312825911402 0 -0.14764327064684279 0.071644858797684771 0 -0.1471722955607111 0.059591957907519158 0 -0.15850742705232401 0.077073165420907211 0 -0.15722519427174569 0.065058312825911402 0 -0.14764327064684279 0.071644858797684771 0 -0.14089006822782121 0.082531143958766096 0 -0.14764327064684279 0.071644858797684771 0 -0.13666502121529681 0.069478967649866344 0 -0.14764327064684279 0.071644858797684771 0 -0.13666502121529681 0.069478967649866344 0 -0.1471722955607111 0.059591957907519158 0 -0.14089006822782121 0.082531143958766096 0 -0.13666502121529681 0.069478967649866344 0 -0.12697985749263241 0.07630636069427757 0 -0.13666502121529681 0.069478967649866344 0 -0.12697985749263241 0.07630636069427757 0 -0.12509646681095879 0.065597408261105467 0 -0.13666502121529681 0.069478967649866344 0 -0.12509646681095879 0.065597408261105467 0 -0.13233523162579211 0.057527865090889828 0 -0.13233523162579211 0.057527865090889828 0 -0.1197320338084647 0.057760070231756527 0 -0.1244920148619628 0.050381604022983993 0 -0.12509646681095879 0.065597408261105467 0 -0.13233523162579211 0.057527865090889828 0 -0.1197320338084647 0.057760070231756527 0 -0.13666502121529681 0.069478967649866344 0 -0.13233523162579211 0.057527865090889828 0 -0.1471722955607111 0.059591957907519158 0 -0.13233523162579211 0.057527865090889828 0 -0.131277092146349 0.043237905602295942 0 -0.1435202772377579 0.047601805401877667 0 -0.13233523162579211 0.057527865090889828 0 -0.131277092146349 0.043237905602295942 0 -0.1244920148619628 0.050381604022983993 0 -0.131277092146349 0.043237905602295942 0 -0.14194951185496399 0.035172378083737049 0 -0.12424451236807239 0.027069144312366941 0 -0.131277092146349 0.043237905602295942 0 -0.12424451236807239 0.027069144312366941 0 -0.12075472355362291 0.04122338309529356 0 -0.131277092146349 0.043237905602295942 0 -0.12075472355362291 0.04122338309529356 0 -0.1244920148619628 0.050381604022983993 0 -0.131277092146349 0.043237905602295942 0 -0.14194951185496399 0.035172378083737049 0 -0.1435202772377579 0.047601805401877667 0 -0.14194951185496399 0.035172378083737049 0 -0.15126073753592009 0.02487777788828089 0 -0.1637260562540532 0.045028253166508762 0 -0.14194951185496399 0.035172378083737049 0 -0.1435202772377579 0.047601805401877667 0 -0.1637260562540532 0.045028253166508762 0 -0.15722519427174569 0.065058312825911402 0 -0.1471722955607111 0.059591957907519158 0 -0.1637260562540532 0.045028253166508762 0 -0.1471722955607111 0.059591957907519158 0 -0.1435202772377579 0.047601805401877667 0 -0.1637260562540532 0.045028253166508762 0 -0.13233523162579211 0.057527865090889828 0 -0.1471722955607111 0.059591957907519158 0 -0.1435202772377579 0.047601805401877667 0 -0.1244522405185825 -0.00038769298458709092 0 -0.1310798501921922 0.016754836893075501 0 -0.12424451236807239 0.027069144312366941 0 -0.1244522405185825 -0.00038769298458709092 0 -0.13302987177733741 0.0072862060594841918 0 -0.1310798501921922 0.016754836893075501 0 -0.13796817939809339 -7.5853332940862265e-05 0 -0.13302987177733741 0.0072862060594841918 0 -0.13861921700048169 0.01285353366238922 0 -0.1244522405185825 -0.00038769298458709092 0 -0.13796817939809339 -7.5853332940862265e-05 0 -0.13302987177733741 0.0072862060594841918 0 -0.13302987177733741 0.0072862060594841918 0 -0.13861921700048169 0.01285353366238922 0 -0.1310798501921922 0.016754836893075501 0 -0.14194951185496399 0.035172378083737049 0 -0.1395360945068517 0.023372288850015029 0 -0.12424451236807239 0.027069144312366941 0 -0.13861921700048169 0.01285353366238922 0 -0.1395360945068517 0.023372288850015029 0 -0.1310798501921922 0.016754836893075501 0 -0.1395360945068517 0.023372288850015029 0 -0.1310798501921922 0.016754836893075501 0 -0.12424451236807239 0.027069144312366941 0 -0.14194951185496399 0.035172378083737049 0 -0.1395360945068517 0.023372288850015029 0 -0.15126073753592009 0.02487777788828089 0 -0.15126073753592009 0.02487777788828089 0 -0.15188271994169991 0.01786916074884114 0 -0.14657132146084931 0.01677767438903701 0 -0.15126073753592009 0.02487777788828089 0 -0.15837519066330749 0.018103177496080571 0 -0.1567842680697151 0.017821512483746641 0 -0.15126073753592009 0.02487777788828089 0 -0.15188271994169991 0.01786916074884114 0 -0.1567842680697151 0.017821512483746641 0 -0.1543123506052223 0.01567032783345056 0 -0.15188271994169991 0.01786916074884114 0 -0.1567842680697151 0.017821512483746641 0 -0.13861921700048169 0.01285353366238922 0 -0.1395360945068517 0.023372288850015029 0 -0.14657132146084931 0.01677767438903701 0 -0.1395360945068517 0.023372288850015029 0 -0.15126073753592009 0.02487777788828089 0 -0.14657132146084931 0.01677767438903701 0 -0.15381676672243971 -0.0048344028756085976 0 -0.13796817939809339 -7.5853332940862265e-05 0 -0.14598604308907309 0.0075397954886723484 0 -0.15381676672243971 -0.0048344028756085976 0 -0.15837519066330749 0.018103177496080571 0 -0.15381676672243971 -0.0048344028756085976 0 -0.15182406541376531 0.011854288846745499 0 -0.15837519066330749 0.018103177496080571 0 -0.15381676672243971 -0.0048344028756085976 0 -0.15182406541376531 0.011854288846745499 0 -0.14598604308907309 0.0075397954886723484 0 -0.13861921700048169 0.01285353366238922 0 -0.14657132146084931 0.01677767438903701 0 -0.14598604308907309 0.0075397954886723484 0 -0.14657132146084931 0.01677767438903701 0 -0.15182406541376531 0.011854288846745499 0 -0.14598604308907309 0.0075397954886723484 0 -0.15188271994169991 0.01786916074884114 0 -0.14657132146084931 0.01677767438903701 0 -0.15182406541376531 0.011854288846745499 0 -0.1543123506052223 0.01567032783345056 0 -0.15182406541376531 0.011854288846745499 0 -0.15837519066330749 0.018103177496080571 0 -0.1543123506052223 0.01567032783345056 0 -0.15188271994169991 0.01786916074884114 0 -0.15182406541376531 0.011854288846745499 0 -0.13796817939809339 -7.5853332940862265e-05 0 -0.13861921700048169 0.01285353366238922 0 -0.14598604308907309 0.0075397954886723484 0 -0.15381676672243971 -0.0048344028756085976 0 -0.16872927738725291 0.0066655648670224509 0 -0.15837519066330749 0.018103177496080571 0 -0.16872927738725291 0.0066655648670224509 0 -0.15837519066330749 0.018103177496080571 0 -0.17312315274812851 0.016956976572924821 0 -0.15837519066330749 0.018103177496080571 0 -0.17088268452158301 0.030303691123205939 0 -0.18416549926151529 0.022669224655560441 0 -0.15837519066330749 0.018103177496080571 0 -0.17088268452158301 0.030303691123205939 0 -0.1637260562540532 0.045028253166508762 0 -0.15126073753592009 0.02487777788828089 0 -0.15837519066330749 0.018103177496080571 0 -0.1637260562540532 0.045028253166508762 0 -0.15837519066330749 0.018103177496080571 0 -0.18416549926151529 0.022669224655560441 0 -0.1543123506052223 0.01567032783345056 0 -0.15837519066330749 0.018103177496080571 0 -0.1567842680697151 0.017821512483746641 0 -0.15837519066330749 0.018103177496080571 0 -0.1567842680697151 0.017821512483746641 0 -0.15837519066330749 0.018103177496080571 0 -0.18416549926151529 0.022669224655560441 0 -0.17312315274812851 0.016956976572924821 0 -0.17088268452158301 0.030303691123205939 0 -0.18416549926151529 0.022669224655560441 0 -0.1815242396402782 0.037713578252632912 0 -0.18416549926151529 0.022669224655560441 0 -0.17919408738426101 0.017592611389363012 0 -0.18518118592807509 0.0154377595936586 0 -0.18416549926151529 0.022669224655560441 0 -0.17312315274812851 0.016956976572924821 0 -0.17919408738426101 0.017592611389363012 0 -0.1785064095432054 -0.0066611219507198768 0 -0.16872927738725291 0.0066655648670224509 0 -0.193034969706537 0.00064734206737222756 0 -0.16872927738725291 0.0066655648670224509 0 -0.193034969706537 0.00064734206737222756 0 -0.16872927738725291 0.0066655648670224509 0 -0.18518118592807509 0.0154377595936586 0 -0.193034969706537 0.00064734206737222756 0 -0.16872927738725291 0.0066655648670224509 0 -0.17919408738426101 0.017592611389363012 0 -0.18518118592807509 0.0154377595936586 0 -0.16872927738725291 0.0066655648670224509 0 -0.17312315274812851 0.016956976572924821 0 -0.17919408738426101 0.017592611389363012 0 -0.16907692184479731 0.071953328836937142 0 -0.1637260562540532 0.045028253166508762 0 -0.18167022033174851 0.056262687610226528 0 -0.15722519427174569 0.065058312825911402 0 -0.16907692184479731 0.071953328836937142 0 -0.1637260562540532 0.045028253166508762 0 -0.16907692184479731 0.071953328836937142 0 -0.1637260562540532 0.045028253166508762 0 -0.15837519066330749 0.018103177496080571 0 -0.1637260562540532 0.045028253166508762 0 -0.17088268452158301 0.030303691123205939 0 -0.1637260562540532 0.045028253166508762 0 -0.1815242396402782 0.037713578252632912 0 -0.1815242396402782 0.037713578252632912 0 -0.18167022033174851 0.056262687610226528 0 -0.1948999673891425 0.045815662425189529 0 -0.1637260562540532 0.045028253166508762 0 -0.1815242396402782 0.037713578252632912 0 -0.18167022033174851 0.056262687610226528 0 -0.18416549926151529 0.022669224655560441 0 -0.1815242396402782 0.037713578252632912 0 -0.19539241544158811 0.034915353149486399 0 -0.19598386328254799 0.058823167906541372 0 -0.20873259774339259 0.055173182954087172 0 -0.20069407892192309 0.071070863509647808 0 -0.18167022033174851 0.056262687610226528 0 -0.19598386328254799 0.058823167906541372 0 -0.1876556690991136 0.063313821709693935 0 -0.19598386328254799 0.058823167906541372 0 -0.1948999673891425 0.045815662425189529 0 -0.20873259774339259 0.055173182954087172 0 -0.18167022033174851 0.056262687610226528 0 -0.19598386328254799 0.058823167906541372 0 -0.1948999673891425 0.045815662425189529 0 -0.1815242396402782 0.037713578252632912 0 -0.1948999673891425 0.045815662425189529 0 -0.19539241544158811 0.034915353149486399 0 -0.1948999673891425 0.045815662425189529 0 -0.19539241544158811 0.034915353149486399 0 -0.20641656305728129 0.041143028599009299 0 -0.20641656305728129 0.041143028599009299 0 -0.20995580785972329 0.027235271815039791 0 -0.22080882119384479 0.043900986742667819 0 -0.19539241544158811 0.034915353149486399 0 -0.20641656305728129 0.041143028599009299 0 -0.20995580785972329 0.027235271815039791 0 -0.20641656305728129 0.041143028599009299 0 -0.20873259774339259 0.055173182954087172 0 -0.22080882119384479 0.043900986742667819 0 -0.20873259774339259 0.055173182954087172 0 -0.2267202713125637 0.058975611642501508 0 -0.2176358721649875 0.072186860311035453 0 -0.1948999673891425 0.045815662425189529 0 -0.20641656305728129 0.041143028599009299 0 -0.20873259774339259 0.055173182954087172 0 -0.20993853639106591 -0.0035380738047605968 0 -0.2009137908539024 0.01431144198083124 0 -0.193034969706537 0.00064734206737222756 0 -0.18518118592807509 0.0154377595936586 0 -0.2009137908539024 0.01431144198083124 0 -0.193034969706537 0.00064734206737222756 0 -0.18518118592807509 0.0154377595936586 0 -0.193034969706537 0.00064734206737222756 0 -0.18416549926151529 0.022669224655560441 0 -0.20995580785972329 0.027235271815039791 0 -0.18416549926151529 0.022669224655560441 0 -0.18518118592807509 0.0154377595936586 0 -0.2009137908539024 0.01431144198083124 0 -0.18416549926151529 0.022669224655560441 0 -0.2009137908539024 0.01431144198083124 0 -0.20995580785972329 0.027235271815039791 0 -0.18416549926151529 0.022669224655560441 0 -0.19539241544158811 0.034915353149486399 0 -0.20995580785972329 0.027235271815039791 0 -0.2009137908539024 0.01431144198083124 0 -0.20995580785972329 0.027235271815039791 0 -0.21568563774484731 0.0082874278720449449 0 -0.20993853639106591 -0.0035380738047605968 0 -0.2009137908539024 0.01431144198083124 0 -0.21568563774484731 0.0082874278720449449 0 -0.22684210307559549 -0.0077234896768903086 0 -0.21568563774484731 0.0082874278720449449 0 -0.23077795054394901 0.01115198904600462 0 -0.22684210307559549 -0.0077234896768903086 0 -0.23077795054394901 0.01115198904600462 0 -0.20995580785972329 0.027235271815039791 0 -0.21568563774484731 0.0082874278720449449 0 -0.23077795054394901 0.01115198904600462 0 -0.20995580785972329 0.027235271815039791 0 -0.2357461164579312 0.03180131897451912 0 -0.20995580785972329 0.027235271815039791 0 -0.23077795054394901 0.01115198904600462 0 -0.2357461164579312 0.03180131897451912 0 -0.23077795054394901 0.01115198904600462 0 -0.24854849079604721 0.020569936005881421 0 -0.2357461164579312 0.03180131897451912 0 -0.26153642505613889 0.036367366133998442 0 -0.24854849079604721 0.020569936005881421 0 -0.2357461164579312 0.03180131897451912 0 -0.23077795054394901 0.01115198904600462 0 -0.24854849079604721 0.020569936005881421 0 -0.24598119983726671 0.0037338506766126851 0 -0.22684210307559549 -0.0077234896768903086 0 -0.23077795054394901 0.01115198904600462 0 -0.24598119983726671 0.0037338506766126851 0 -0.20873259774339259 0.055173182954087172 0 -0.2267202713125637 0.058975611642501508 0 -0.22080882119384479 0.043900986742667819 0 -0.2267202713125637 0.058975611642501508 0 -0.22080882119384479 0.043900986742667819 0 -0.239388393447095 0.04766651035075449 0 -0.22080882119384479 0.043900986742667819 0 -0.2357461164579312 0.03180131897451912 0 -0.239388393447095 0.04766651035075449 0 -0.20995580785972329 0.027235271815039791 0 -0.22080882119384479 0.043900986742667819 0 -0.2357461164579312 0.03180131897451912 0 -0.26153642505613889 0.036367366133998442 0 -0.2357461164579312 0.03180131897451912 0 -0.26153642505613889 0.036367366133998442 0 -0.2357461164579312 0.03180131897451912 0 -0.239388393447095 0.04766651035075449 0 -0.25116276906762952 0.054241108780248931 0 -0.239388393447095 0.04766651035075449 0 -0.24035595759446179 0.060712669830591162 0 -0.2267202713125637 0.058975611642501508 0 -0.239388393447095 0.04766651035075449 0 -0.24035595759446179 0.060712669830591162 0 -0.25116276906762952 0.054241108780248931 0 -0.24035595759446179 0.060712669830591162 0 -0.24829977196364941 0.065213336215906109 0 -0.2267202713125637 0.058975611642501508 0 -0.24035595759446179 0.060712669830591162 0 -0.23791909572611269 0.075142721002645518 0 -0.24035595759446179 0.060712669830591162 0 -0.24829977196364941 0.065213336215906109 0 -0.23791909572611269 0.075142721002645518 0 -0.25064083865024739 0.073628726666345984 0 -0.23791909572611269 0.075142721002645518 0 -0.24857020570659841 0.081659589420377987 0 -0.25064083865024739 0.073628726666345984 0 -0.24829977196364941 0.065213336215906109 0 -0.23791909572611269 0.075142721002645518 0 -0.23791909572611269 0.075142721002645518 0 -0.2427234934652894 0.090762762990284518 0 -0.22646138453880821 0.085461994072224837 0 -0.25413031243694739 0.089521027236778197 0 -0.2427234934652894 0.090762762990284518 0 -0.24857020570659841 0.081659589420377987 0 -0.23791909572611269 0.075142721002645518 0 -0.2427234934652894 0.090762762990284518 0 -0.24857020570659841 0.081659589420377987 0 -0.2267202713125637 0.058975611642501508 0 -0.23791909572611269 0.075142721002645518 0 -0.2176358721649875 0.072186860311035453 0 -0.23791909572611269 0.075142721002645518 0 -0.22646138453880821 0.085461994072224837 0 -0.2176358721649875 0.072186860311035453 0 -0.20873259774339259 0.055173182954087172 0 -0.2176358721649875 0.072186860311035453 0 -0.20069407892192309 0.071070863509647808 0 -0.2176358721649875 0.072186860311035453 0 -0.20525373999263671 0.08640341449760941 0 -0.20069407892192309 0.071070863509647808 0 -0.22646138453880821 0.085461994072224837 0 -0.2176358721649875 0.072186860311035453 0 -0.20525373999263671 0.08640341449760941 0 -0.22646138453880821 0.085461994072224837 0 -0.20525373999263671 0.08640341449760941 0 -0.2161514522581473 0.1006972439961434 0 -0.18444466814129201 0.081023499242751457 0 -0.20525373999263671 0.08640341449760941 0 -0.20069407892192309 0.071070863509647808 0 -0.18444466814129201 0.081023499242751457 0 -0.20525373999263671 0.08640341449760941 0 -0.19937405773042491 0.1071019237599893 0 -0.17832815471062741 0.080370175701138483 0 -0.20069407892192309 0.071070863509647808 0 -0.18444466814129201 0.081023499242751457 0 -0.17832815471062741 0.080370175701138483 0 -0.20069407892192309 0.071070863509647808 0 -0.1809864334298861 0.069780609401686525 0 -0.1876556690991136 0.063313821709693935 0 -0.20069407892192309 0.071070863509647808 0 -0.19598386328254799 0.058823167906541372 0 -0.1876556690991136 0.063313821709693935 0 -0.20069407892192309 0.071070863509647808 0 -0.19937405773042491 0.1071019237599893 0 -0.2161514522581473 0.1006972439961434 0 -0.21430344731955769 0.133180348277227 0 -0.19937405773042491 0.1071019237599893 0 -0.19727411993202021 0.1275714443648302 0 -0.1795193575176991 0.1294692331289829 0 -0.18444466814129201 0.081023499242751457 0 -0.19937405773042491 0.1071019237599893 0 -0.20525373999263671 0.08640341449760941 0 -0.19937405773042491 0.1071019237599893 0 -0.2161514522581473 0.1006972439961434 0 -0.19937405773042491 0.1071019237599893 0 -0.21430344731955769 0.133180348277227 0 -0.19937405773042491 0.1071019237599893 0 -0.19727411993202021 0.1275714443648302 0 -0.21430344731955769 0.133180348277227 0 -0.2161514522581473 0.1006972439961434 0 -0.23231730930006211 0.10853516007106349 0 -0.21430344731955769 0.133180348277227 0 -0.2427234934652894 0.090762762990284518 0 -0.22646138453880821 0.085461994072224837 0 -0.23231730930006211 0.10853516007106349 0 -0.22646138453880821 0.085461994072224837 0 -0.2161514522581473 0.1006972439961434 0 -0.23231730930006211 0.10853516007106349 0 -0.25610310449345419 0.1041046972302731 0 -0.2427234934652894 0.090762762990284518 0 -0.23231730930006211 0.10853516007106349 0 -0.25610310449345419 0.1041046972302731 0 -0.23231730930006211 0.10853516007106349 0 -0.2495823492922267 0.12121763785839371 0 -0.23231730930006211 0.10853516007106349 0 -0.2495823492922267 0.12121763785839371 0 -0.23849568892714909 0.13696143350773771 0 -0.23231730930006211 0.10853516007106349 0 -0.23849568892714909 0.13696143350773771 0 -0.25477231595188199 0.13792181725732239 0 -0.2495823492922267 0.12121763785839371 0 -0.23849568892714909 0.13696143350773771 0 -0.23231730930006211 0.10853516007106349 0 -0.23849568892714909 0.13696143350773771 0 -0.21430344731955769 0.133180348277227 0 -0.23849568892714909 0.13696143350773771 0 -0.22923283690869051 0.15925877279446471 0 -0.21430344731955769 0.133180348277227 0 -0.22923283690869051 0.15925877279446471 0 -0.21430344731955769 0.133180348277227 0 -0.2543915534089356 0.15018751405662761 0 -0.23849568892714909 0.13696143350773771 0 -0.24467406855423091 0.1653877069444131 0 -0.23849568892714909 0.13696143350773771 0 -0.24467406855423091 0.1653877069444131 0 -0.22923283690869051 0.15925877279446471 0 -0.2543915534089356 0.15018751405662761 0 -0.25477231595188199 0.13792181725732239 0 -0.23849568892714909 0.13696143350773771 0 -0.23849568892714909 0.13696143350773771 0 -0.24467406855423091 0.1653877069444131 0 -0.24467406855423091 0.1653877069444131 0 -0.2350219134637796 0.18103954803765679 0 -0.22379977898383499 0.16989282922580509 0 -0.24467406855423091 0.1653877069444131 0 -0.24947341468037071 0.1874691479585941 0 -0.2350219134637796 0.18103954803765679 0 -0.24467406855423091 0.1653877069444131 0 -0.24947341468037071 0.1874691479585941 0 -0.2350219134637796 0.18103954803765679 0 -0.22004124654446131 0.18611549732905991 0 -0.22379977898383499 0.16989282922580509 0 -0.24467406855423091 0.1653877069444131 0 -0.22379977898383499 0.16989282922580509 0 -0.22923283690869051 0.15925877279446471 0 -0.22379977898383499 0.16989282922580509 0 -0.22923283690869051 0.15925877279446471 0 -0.20989634202023699 0.1560844752241346 0 -0.24467406855423091 0.1653877069444131 0 -0.22379977898383499 0.16989282922580509 0 -0.22379977898383499 0.16989282922580509 0 -0.20292548941343971 0.17439795150720031 0 -0.20989634202023699 0.1560844752241346 0 -0.20292548941343971 0.17439795150720031 0 -0.20989634202023699 0.1560844752241346 0 -0.17833905569944569 0.15756593750779829 0 -0.22379977898383499 0.16989282922580509 0 -0.20292548941343971 0.17439795150720031 0 -0.22004124654446131 0.18611549732905991 0 -0.22379977898383499 0.16989282922580509 0 -0.20292548941343971 0.17439795150720031 0 -0.22004124654446131 0.18611549732905991 0 -0.20292548941343971 0.17439795150720031 0 -0.22004124654446131 0.18611549732905991 0 -0.20292548941343971 0.17439795150720031 0 -0.20568385543668641 0.19260324117033031 0 -0.20292548941343971 0.17439795150720031 0 -0.1757122088887666 0.1802711648698879 0 -0.20292548941343971 0.17439795150720031 0 -0.1897130520823497 0.19444680225630501 0 -0.1757122088887666 0.1802711648698879 0 -0.20292548941343971 0.17439795150720031 0 -0.20568385543668641 0.19260324117033031 0 -0.1897130520823497 0.19444680225630501 0 -0.20292548941343971 0.17439795150720031 0 -0.17833905569944569 0.15756593750779829 0 -0.19589961716039911 0.1405342722931214 0 -0.20989634202023699 0.1560844752241346 0 -0.17833905569944569 0.15756593750779829 0 -0.19727411993202021 0.1275714443648302 0 -0.19589961716039911 0.1405342722931214 0 -0.1795193575176991 0.1294692331289829 0 -0.19727411993202021 0.1275714443648302 0 -0.19589961716039911 0.1405342722931214 0 -0.21430344731955769 0.133180348277227 0 -0.22923283690869051 0.15925877279446471 0 -0.21430344731955769 0.133180348277227 0 -0.20989634202023699 0.1560844752241346 0 -0.19589961716039911 0.1405342722931214 0 -0.21430344731955769 0.133180348277227 0 -0.20989634202023699 0.1560844752241346 0 -0.23288038931281729 0.23888496135878451 0 -0.21994142138302111 0.22426230620998819 0 -0.21218175950055909 0.24952722652004439 0 -0.22667039518801041 0.25355429459537898 0 -0.23288038931281729 0.23888496135878451 0 -0.21218175950055909 0.24952722652004439 0 -0.2416444700809012 0.25186566196455601 0 -0.22667039518801041 0.25355429459537898 0 -0.23288038931281729 0.23888496135878451 0 -0.2416444700809012 0.25186566196455601 0 -0.23288038931281729 0.23888496135878451 0 -0.2470081454867771 0.2422065880623451 0 -0.25693865295534157 0.25278860643768353 0 -0.2416444700809012 0.25186566196455601 0 -0.2470081454867771 0.2422065880623451 0 -0.25109603964961891 0.234366577265785 0 -0.2470081454867771 0.2422065880623451 0 -0.24424918889796191 0.23342051569475999 0 -0.23288038931281729 0.23888496135878451 0 -0.2470081454867771 0.2422065880623451 0 -0.24424918889796191 0.23342051569475999 0 -0.23288038931281729 0.23888496135878451 0 -0.24424918889796191 0.23342051569475999 0 -0.2396805993576108 0.22455316273993289 0 -0.24424918889796191 0.23342051569475999 0 -0.249817319625419 0.2274340479663062 0 -0.2396805993576108 0.22455316273993289 0 -0.25109603964961891 0.234366577265785 0 -0.24424918889796191 0.23342051569475999 0 -0.249817319625419 0.2274340479663062 0 -0.249817319625419 0.2274340479663062 0 -0.24904636230289101 0.22050689045355901 0 -0.2396805993576108 0.22455316273993289 0 -0.24904636230289101 0.22050689045355901 0 -0.2396805993576108 0.22455316273993289 0 -0.24333230173327219 0.21221501244476959 0 -0.2396805993576108 0.22455316273993289 0 -0.21994142138302111 0.22426230620998819 0 -0.23304733008138001 0.21339205942673259 0 -0.23288038931281729 0.23888496135878451 0 -0.2396805993576108 0.22455316273993289 0 -0.21994142138302111 0.22426230620998819 0 -0.21994142138302111 0.22426230620998819 0 -0.22770108326548311 0.19899738589993199 0 -0.210353022999335 0.20567537760669019 0 -0.21994142138302111 0.22426230620998819 0 -0.23304733008138001 0.21339205942673259 0 -0.22770108326548311 0.19899738589993199 0 -0.21994142138302111 0.22426230620998819 0 -0.22770108326548311 0.19899738589993199 0 -0.23304733008138001 0.21339205942673259 0 -0.2346933251094325 0.20523388649383931 0 -0.22770108326548311 0.19899738589993199 0 -0.25427276080650663 0.20955058897277601 0 -0.23715700367548431 0.1978330431509176 0 -0.2396805993576108 0.22455316273993289 0 -0.23304733008138001 0.21339205942673259 0 -0.24333230173327219 0.21221501244476959 0 -0.25427276080650663 0.20955058897277601 0 -0.24333230173327219 0.21221501244476959 0 -0.23715700367548431 0.1978330431509176 0 -0.25561524088587501 0.21572724177218369 0 -0.24904636230289101 0.22050689045355901 0 -0.24333230173327219 0.21221501244476959 0 -0.24333230173327219 0.21221501244476959 0 -0.2346933251094325 0.20523388649383931 0 -0.23715700367548431 0.1978330431509176 0 -0.23304733008138001 0.21339205942673259 0 -0.24333230173327219 0.21221501244476959 0 -0.2346933251094325 0.20523388649383931 0 -0.25427276080650663 0.20955058897277601 0 -0.24947341468037071 0.1874691479585941 0 -0.23715700367548431 0.1978330431509176 0 -0.24947341468037071 0.1874691479585941 0 -0.2350219134637796 0.18103954803765679 0 -0.23715700367548431 0.1978330431509176 0 -0.22004124654446131 0.18611549732905991 0 -0.23715700367548431 0.1978330431509176 0 -0.22004124654446131 0.18611549732905991 0 -0.23715700367548431 0.1978330431509176 0 -0.22770108326548311 0.19899738589993199 0 -0.2350219134637796 0.18103954803765679 0 -0.22004124654446131 0.18611549732905991 0 -0.23715700367548431 0.1978330431509176 0 -0.2346933251094325 0.20523388649383931 0 -0.23715700367548431 0.1978330431509176 0 -0.22770108326548311 0.19899738589993199 0 -0.22004124654446131 0.18611549732905991 0 -0.22770108326548311 0.19899738589993199 0 -0.21594480206149139 0.19584787550150309 0 -0.22770108326548311 0.19899738589993199 0 -0.21594480206149139 0.19584787550150309 0 -0.210353022999335 0.20567537760669019 0 -0.22004124654446131 0.18611549732905991 0 -0.21594480206149139 0.19584787550150309 0 -0.20568385543668641 0.19260324117033031 0 -0.21594480206149139 0.19584787550150309 0 -0.20568385543668641 0.19260324117033031 0 -0.210353022999335 0.20567537760669019 0 -0.20568385543668641 0.19260324117033031 0 -0.19800517532583911 0.2033181044808495 0 -0.210353022999335 0.20567537760669019 0 -0.20568385543668641 0.19260324117033031 0 -0.1897130520823497 0.19444680225630501 0 -0.19800517532583911 0.2033181044808495 0 -0.1897130520823497 0.19444680225630501 0 -0.19800517532583911 0.2033181044808495 0 -0.1863200837324982 0.20555600776477401 0 -0.19800517532583911 0.2033181044808495 0 -0.19795586237832599 0.21830909360614789 0 -0.210353022999335 0.20567537760669019 0 -0.19800517532583911 0.2033181044808495 0 -0.19795586237832599 0.21830909360614789 0 -0.1863200837324982 0.20555600776477401 0 -0.19795586237832599 0.21830909360614789 0 -0.18240126852579899 0.21930684119835961 0 -0.1863200837324982 0.20555600776477401 0 -0.21994142138302111 0.22426230620998819 0 -0.19795586237832599 0.21830909360614789 0 -0.210353022999335 0.20567537760669019 0 -0.21994142138302111 0.22426230620998819 0 -0.19795586237832599 0.21830909360614789 0 -0.20314208847108339 0.23556135501649109 0 -0.19795586237832599 0.21830909360614789 0 -0.18651378479530609 0.23505073182760211 0 -0.18240126852579899 0.21930684119835961 0 -0.19795586237832599 0.21830909360614789 0 -0.20314208847108339 0.23556135501649109 0 -0.18651378479530609 0.23505073182760211 0 -0.1929026130837673 0.25762258695206858 0 -0.20314208847108339 0.23556135501649109 0 -0.18651378479530609 0.23505073182760211 0 -0.1929026130837673 0.25762258695206858 0 -0.20314208847108339 0.23556135501649109 0 -0.21218175950055909 0.24952722652004439 0 -0.21994142138302111 0.22426230620998819 0 -0.21218175950055909 0.24952722652004439 0 -0.21994142138302111 0.22426230620998819 0 -0.20314208847108339 0.23556135501649109 0 -0.21218175950055909 0.24952722652004439 0 -0.16582228118094081 0.26466105519565358 0 -0.18651378479530609 0.23505073182760211 0 -0.1608218935138386 0.23306973899941771 0 -0.16582228118094081 0.26466105519565358 0 -0.14534546737678511 0.25129379472131641 0 -0.1608218935138386 0.23306973899941771 0 -0.18651378479530609 0.23505073182760211 0 -0.1608218935138386 0.23306973899941771 0 -0.18651378479530609 0.23505073182760211 0 -0.18240126852579899 0.21930684119835961 0 -0.1608218935138386 0.23306973899941771 0 -0.1608218935138386 0.23306973899941771 0 -0.16716432822862029 0.21469463307327219 0 -0.14537567171977789 0.21373021027012479 0 -0.18240126852579899 0.21930684119835961 0 -0.1608218935138386 0.23306973899941771 0 -0.16716432822862029 0.21469463307327219 0 -0.16716432822862029 0.21469463307327219 0 -0.15728284033457929 0.19872471446884221 0 -0.14537567171977789 0.21373021027012479 0 -0.16716432822862029 0.21469463307327219 0 -0.1863200837324982 0.20555600776477401 0 -0.15728284033457929 0.19872471446884221 0 -0.18240126852579899 0.21930684119835961 0 -0.16716432822862029 0.21469463307327219 0 -0.1863200837324982 0.20555600776477401 0 -0.1863200837324982 0.20555600776477401 0 -0.1747365466553682 0.1940095109997643 0 -0.15728284033457929 0.19872471446884221 0 -0.1897130520823497 0.19444680225630501 0 -0.1863200837324982 0.20555600776477401 0 -0.1747365466553682 0.1940095109997643 0 -0.1897130520823497 0.19444680225630501 0 -0.1747365466553682 0.1940095109997643 0 -0.1757122088887666 0.1802711648698879 0 -0.1747365466553682 0.1940095109997643 0 -0.16534449221108169 0.19019064904669619 0 -0.1757122088887666 0.1802711648698879 0 -0.1863200837324982 0.20555600776477401 0 -0.15728284033457929 0.19872471446884221 0 -0.1747365466553682 0.1940095109997643 0 -0.16534449221108169 0.19019064904669619 0 -0.15728284033457929 0.19872471446884221 0 -0.16534449221108169 0.19019064904669619 0 -0.15728284033457929 0.19872471446884221 0 -0.15629575781976141 0.184461654133797 0 -0.15728284033457929 0.19872471446884221 0 -0.12824559693666041 0.19189342117291039 0 -0.15629575781976141 0.184461654133797 0 -0.15728284033457929 0.19872471446884221 0 -0.12824559693666041 0.19189342117291039 0 -0.14537567171977789 0.21373021027012479 0 -0.15728284033457929 0.19872471446884221 0 -0.12824559693666041 0.19189342117291039 0 -0.12824559693666041 0.19189342117291039 0 -0.14537567171977789 0.21373021027012479 0 -0.1242544958201173 0.21504107598638081 0 -0.1608218935138386 0.23306973899941771 0 -0.14537567171977789 0.21373021027012479 0 -0.13513000223237101 0.23108874617123329 0 -0.1608218935138386 0.23306973899941771 0 -0.13513000223237101 0.23108874617123329 0 -0.14537567171977789 0.21373021027012479 0 -0.13513000223237101 0.23108874617123329 0 -0.1242544958201173 0.21504107598638081 0 -0.14534546737678511 0.25129379472131641 0 -0.13513000223237101 0.23108874617123329 0 -0.12470300375741469 0.2457033751303839 0 -0.14534546737678511 0.25129379472131641 0 -0.1608218935138386 0.23306973899941771 0 -0.13513000223237101 0.23108874617123329 0 -0.17833905569944569 0.15756593750779829 0 -0.1561619761378806 0.16047685630827471 0 -0.153752621985453 0.14073392350839439 0 -0.1795193575176991 0.1294692331289829 0 -0.17833905569944569 0.15756593750779829 0 -0.153752621985453 0.14073392350839439 0 -0.17833905569944569 0.15756593750779829 0 -0.153752621985453 0.14073392350839439 0 -0.16393492635195239 0.1245978723337525 0 -0.15311233888185891 0.1152965378839053 0 -0.153752621985453 0.14073392350839439 0 -0.16393492635195239 0.1245978723337525 0 -0.1795193575176991 0.1294692331289829 0 -0.153752621985453 0.14073392350839439 0 -0.19589961716039911 0.1405342722931214 0 -0.1795193575176991 0.1294692331289829 0 -0.17833905569944569 0.15756593750779829 0 -0.20292548941343971 0.17439795150720031 0 -0.17833905569944569 0.15756593750779829 0 -0.1757122088887666 0.1802711648698879 0 -0.1897130520823497 0.19444680225630501 0 -0.1757122088887666 0.1802711648698879 0 -0.16534449221108169 0.19019064904669619 0 -0.1757122088887666 0.1802711648698879 0 -0.15629575781976141 0.184461654133797 0 -0.1757122088887666 0.1802711648698879 0 -0.15629575781976141 0.184461654133797 0 -0.1757122088887666 0.1802711648698879 0 -0.15629575781976141 0.184461654133797 0 -0.1561619761378806 0.16047685630827471 0 -0.17833905569944569 0.15756593750779829 0 -0.1757122088887666 0.1802711648698879 0 -0.1561619761378806 0.16047685630827471 0 -0.1757122088887666 0.1802711648698879 0 -0.1561619761378806 0.16047685630827471 0 -0.1561619761378806 0.16047685630827471 0 -0.14126926821389521 0.17232478353634881 0 -0.1371080151487378 0.15864895140394189 0 -0.15629575781976141 0.184461654133797 0 -0.1561619761378806 0.16047685630827471 0 -0.14126926821389521 0.17232478353634881 0 -0.12824559693666041 0.19189342117291039 0 -0.15629575781976141 0.184461654133797 0 -0.14126926821389521 0.17232478353634881 0 -0.12824559693666041 0.19189342117291039 0 -0.14126926821389521 0.17232478353634881 0 -0.1248941403316576 0.1686438139500778 0 -0.14126926821389521 0.17232478353634881 0 -0.1371080151487378 0.15864895140394189 0 -0.1248941403316576 0.1686438139500778 0 -0.1371080151487378 0.15864895140394189 0 -0.1239269324459726 0.1539154783358255 0 -0.1248941403316576 0.1686438139500778 0 -0.1371080151487378 0.15864895140394189 0 -0.13661174338699569 0.1406825477466605 0 -0.1239269324459726 0.1539154783358255 0 -0.1561619761378806 0.16047685630827471 0 -0.13661174338699569 0.1406825477466605 0 -0.1561619761378806 0.16047685630827471 0 -0.13661174338699569 0.1406825477466605 0 -0.153752621985453 0.14073392350839439 0 -0.1561619761378806 0.16047685630827471 0 -0.1371080151487378 0.15864895140394189 0 -0.13661174338699569 0.1406825477466605 0 -0.12916618827146031 0.12390190950899049 0 -0.153752621985453 0.14073392350839439 0 -0.13930859898956699 0.1145050369687237 0 -0.12916618827146031 0.12390190950899049 0 -0.153752621985453 0.14073392350839439 0 -0.13661174338699569 0.1406825477466605 0 -0.11706151063611089 0.1208882391850464 0 -0.12916618827146031 0.12390190950899049 0 -0.13661174338699569 0.1406825477466605 0 -0.11706151063611089 0.1208882391850464 0 -0.12916618827146031 0.12390190950899049 0 -0.13661174338699569 0.1406825477466605 0 -0.153752621985453 0.14073392350839439 0 -0.13661174338699569 0.1406825477466605 0 -0.11473911200363 0.13153944404780621 0 -0.1132109842275667 0.1430328284895945 0 -0.13661174338699569 0.1406825477466605 0 -0.11473911200363 0.13153944404780621 0 -0.11706151063611089 0.1208882391850464 0 -0.11473911200363 0.13153944404780621 0 -0.1039338124667491 0.13009472872812991 0 -0.1132109842275667 0.1430328284895945 0 -0.11473911200363 0.13153944404780621 0 -0.1039338124667491 0.13009472872812991 0 -0.10601879130899509 0.12208205668825579 0 -0.1039338124667491 0.13009472872812991 0 -0.093398168270057425 0.14218175111966569 0 -0.093946486761182085 0.1175508364221631 0 -0.1039338124667491 0.13009472872812991 0 -0.1132109842275667 0.1430328284895945 0 -0.093398168270057425 0.14218175111966569 0 -0.1078097791349048 0.15856925008885259 0 -0.089544080768145809 0.16137822361845131 0 -0.093398168270057425 0.14218175111966569 0 -0.1132109842275667 0.1430328284895945 0 -0.1078097791349048 0.15856925008885259 0 -0.093398168270057425 0.14218175111966569 0 -0.13661174338699569 0.1406825477466605 0 -0.1132109842275667 0.1430328284895945 0 -0.1239269324459726 0.1539154783358255 0 -0.1132109842275667 0.1430328284895945 0 -0.1239269324459726 0.1539154783358255 0 -0.1078097791349048 0.15856925008885259 0 -0.1248941403316576 0.1686438139500778 0 -0.099208353538741523 0.18506212787697859 0 -0.1078097791349048 0.15856925008885259 0 -0.1239269324459726 0.1539154783358255 0 -0.1248941403316576 0.1686438139500778 0 -0.1078097791349048 0.15856925008885259 0 -0.12824559693666041 0.19189342117291039 0 -0.1248941403316576 0.1686438139500778 0 -0.099208353538741523 0.18506212787697859 0 -0.099208353538741523 0.18506212787697859 0 -0.1078097791349048 0.15856925008885259 0 -0.089544080768145809 0.16137822361845131 0 -0.089544080768145809 0.16137822361845131 0 -0.070171110140822543 0.1782308345810468 0 -0.074669823138777097 0.15727584041375819 0 -0.099208353538741523 0.18506212787697859 0 -0.089544080768145809 0.16137822361845131 0 -0.070171110140822543 0.1782308345810468 0 -0.099208353538741523 0.18506212787697859 0 -0.070171110140822543 0.1782308345810468 0 -0.070171110140822543 0.1782308345810468 0 -0.074669823138777097 0.15727584041375819 0 -0.057722578482997257 0.16273086802879619 0 -0.074669823138777097 0.15727584041375819 0 -0.066369438716585821 0.14892706699039879 0 -0.057722578482997257 0.16273086802879619 0 -0.074669823138777097 0.15727584041375819 0 -0.066369438716585821 0.14892706699039879 0 -0.074733199104357148 0.14603812585323231 0 -0.074669823138777097 0.15727584041375819 0 -0.074733199104357148 0.14603812585323231 0 -0.082756465015383474 0.1492386270883771 0 -0.074733199104357148 0.14603812585323231 0 -0.067315024607703278 0.13662092079142449 0 -0.081437053795579945 0.1393191944367777 0 -0.066369438716585821 0.14892706699039879 0 -0.074733199104357148 0.14603812585323231 0 -0.067315024607703278 0.13662092079142449 0 -0.066369438716585821 0.14892706699039879 0 -0.067315024607703278 0.13662092079142449 0 -0.054361576129613079 0.15178129246158931 0 -0.067315024607703278 0.13662092079142449 0 -0.088852304720190942 0.12644129241805541 0 -0.067315024607703278 0.13662092079142449 0 -0.088852304720190942 0.12644129241805541 0 -0.075786521408142987 0.12443322189858901 0 -0.067315024607703278 0.13662092079142449 0 -0.062016764747578973 0.12884034001808189 0 -0.075786521408142987 0.12443322189858901 0 -0.088852304720190942 0.12644129241805541 0 -0.093398168270057425 0.14218175111966569 0 -0.093946486761182085 0.1175508364221631 0 -0.067315024607703278 0.13662092079142449 0 -0.081437053795579945 0.1393191944367777 0 -0.088852304720190942 0.12644129241805541 0 -0.093398168270057425 0.14218175111966569 0 -0.093946486761182085 0.1175508364221631 0 -0.081437053795579945 0.1393191944367777 0 -0.088852304720190942 0.12644129241805541 0 -0.093398168270057425 0.14218175111966569 0 -0.089544080768145809 0.16137822361845131 0 -0.093398168270057425 0.14218175111966569 0 -0.082756465015383474 0.1492386270883771 0 -0.089544080768145809 0.16137822361845131 0 -0.074669823138777097 0.15727584041375819 0 -0.082756465015383474 0.1492386270883771 0 -0.074733199104357148 0.14603812585323231 0 -0.081437053795579945 0.1393191944367777 0 -0.082756465015383474 0.1492386270883771 0 -0.081437053795579945 0.1393191944367777 0 -0.093398168270057425 0.14218175111966569 0 -0.082756465015383474 0.1492386270883771 0 -0.11076524853809321 0.25238606884059173 0 -0.1094381109509034 0.22910775334304889 0 -0.091345724210048884 0.23566487628332011 0 -0.11076524853809321 0.25238606884059173 0 -0.092391857727521592 0.25884509119311472 0 -0.091345724210048884 0.23566487628332011 0 -0.13513000223237101 0.23108874617123329 0 -0.12470300375741469 0.2457033751303839 0 -0.1094381109509034 0.22910775334304889 0 -0.11076524853809321 0.25238606884059173 0 -0.12470300375741469 0.2457033751303839 0 -0.1094381109509034 0.22910775334304889 0 -0.13513000223237101 0.23108874617123329 0 -0.1094381109509034 0.22910775334304889 0 -0.13513000223237101 0.23108874617123329 0 -0.1094381109509034 0.22910775334304889 0 -0.1242544958201173 0.21504107598638081 0 -0.1094381109509034 0.22910775334304889 0 -0.10308309726087379 0.20938524897458621 0 -0.091345724210048884 0.23566487628332011 0 -0.1094381109509034 0.22910775334304889 0 -0.10308309726087379 0.20938524897458621 0 -0.1242544958201173 0.21504107598638081 0 -0.12824559693666041 0.19189342117291039 0 -0.10308309726087379 0.20938524897458621 0 -0.1242544958201173 0.21504107598638081 0 -0.12824559693666041 0.19189342117291039 0 -0.099208353538741523 0.18506212787697859 0 -0.12824559693666041 0.19189342117291039 0 -0.099208353538741523 0.18506212787697859 0 -0.10308309726087379 0.20938524897458621 0 -0.099208353538741523 0.18506212787697859 0 -0.070171110140822543 0.1782308345810468 0 -0.078220861930521898 0.21057701145176541 0 -0.070171110140822543 0.1782308345810468 0 -0.078220861930521898 0.21057701145176541 0 -0.056949983849450658 0.19269083667038239 0 -0.099208353538741523 0.18506212787697859 0 -0.10308309726087379 0.20938524897458621 0 -0.078220861930521898 0.21057701145176541 0 -0.078220861930521898 0.21057701145176541 0 -0.056178602179823331 0.21732906463454121 0 -0.056949983849450658 0.19269083667038239 0 -0.10308309726087379 0.20938524897458621 0 -0.078220861930521898 0.21057701145176541 0 -0.091345724210048884 0.23566487628332011 0 -0.078220861930521898 0.21057701145176541 0 -0.069221313838413207 0.24642852661517459 0 -0.091345724210048884 0.23566487628332011 0 -0.078220861930521898 0.21057701145176541 0 -0.069221313838413207 0.24642852661517459 0 -0.056178602179823331 0.21732906463454121 0 -0.092391857727521592 0.25884509119311472 0 -0.069221313838413207 0.24642852661517459 0 -0.091345724210048884 0.23566487628332011 0 -0.033382390283993792 0.24359412621706661 0 -0.046050769949304807 0.23401196203723451 0 -0.025866468353912139 0.2289639569827632 0 -0.048126263350958612 0.25465777805589501 0 -0.033382390283993792 0.24359412621706661 0 -0.046050769949304807 0.23401196203723451 0 -0.048126263350958612 0.25465777805589501 0 -0.069221313838413207 0.24642852661517459 0 -0.046050769949304807 0.23401196203723451 0 -0.069221313838413207 0.24642852661517459 0 -0.046050769949304807 0.23401196203723451 0 -0.069221313838413207 0.24642852661517459 0 -0.046050769949304807 0.23401196203723451 0 -0.056178602179823331 0.21732906463454121 0 -0.046050769949304807 0.23401196203723451 0 -0.03692704292774221 0.2147422921961073 0 -0.025866468353912139 0.2289639569827632 0 -0.046050769949304807 0.23401196203723451 0 -0.03692704292774221 0.2147422921961073 0 -0.056178602179823331 0.21732906463454121 0 -0.03692704292774221 0.2147422921961073 0 -0.056178602179823331 0.21732906463454121 0 -0.044221089124866657 0.20193605474889509 0 -0.03692704292774221 0.2147422921961073 0 -0.044221089124866657 0.20193605474889509 0 -0.032331133115066808 0.19858524020914661 0 -0.056178602179823331 0.21732906463454121 0 -0.056949983849450658 0.19269083667038239 0 -0.044221089124866657 0.20193605474889509 0 -0.056949983849450658 0.19269083667038239 0 -0.040360849617421202 0.18777351164107661 0 -0.044221089124866657 0.20193605474889509 0 -0.040360849617421202 0.18777351164107661 0 -0.032331133115066808 0.19858524020914661 0 -0.026751027678188599 0.18229597604057349 0 -0.040360849617421202 0.18777351164107661 0 -0.044221089124866657 0.20193605474889509 0 -0.032331133115066808 0.19858524020914661 0 -0.016914194843479571 0.2076274745640635 0 -0.026751027678188599 0.18229597604057349 0 -0.032331133115066808 0.19858524020914661 0 -0.016914194843479571 0.2076274745640635 0 -0.026751027678188599 0.18229597604057349 0 -0.01405220631290922 0.19352016069679451 0 -0.016914194843479571 0.2076274745640635 0 -0.026751027678188599 0.18229597604057349 0 -0.01405220631290922 0.19352016069679451 0 -0.0012364494800765971 0.1960628175593882 0 -0.01891215499648707 0.1765136475382359 0 -0.01405220631290922 0.19352016069679451 0 -0.0012364494800765971 0.1960628175593882 0 -0.0064787008301582438 0.20475797647738719 0 -0.0012364494800765971 0.1960628175593882 0 -0.0064787008301582438 0.20475797647738719 0 0.003893562275735573 0.2064819102401671 0 -0.01405220631290922 0.19352016069679451 0 -0.0064787008301582438 0.20475797647738719 0 -0.016914194843479571 0.2076274745640635 0 -0.0045317147067566524 0.21522543551468479 0 -0.016914194843479571 0.2076274745640635 0 -0.0070773620087705444 0.23295897308755351 0 -0.0064787008301582438 0.20475797647738719 0 -0.0045317147067566524 0.21522543551468479 0 -0.016914194843479571 0.2076274745640635 0 -0.0064787008301582438 0.20475797647738719 0 -0.0045317147067566524 0.21522543551468479 0 0.003893562275735573 0.2064819102401671 0 -0.03692704292774221 0.2147422921961073 0 -0.016914194843479571 0.2076274745640635 0 -0.025866468353912139 0.2289639569827632 0 -0.03692704292774221 0.2147422921961073 0 -0.032331133115066808 0.19858524020914661 0 -0.016914194843479571 0.2076274745640635 0 -0.016914194843479571 0.2076274745640635 0 -0.025866468353912139 0.2289639569827632 0 -0.0070773620087705444 0.23295897308755351 0 -0.016914194843479571 0.2076274745640635 0 -0.0070773620087705444 0.23295897308755351 0 -0.0045317147067566524 0.21522543551468479 0 -0.0070773620087705444 0.23295897308755351 0 0.0038866256090455522 0.2239579318999283 0 -0.0070773620087705444 0.23295897308755351 0 0.001894876929373096 0.24743045501984201 0 0.0027594708259384838 0.25829047161104352 0 -0.0070773620087705444 0.23295897308755351 0 0.0027594708259384838 0.25829047161104352 0 -0.0087132352456033638 0.25173417187717928 0 -0.0070773620087705444 0.23295897308755351 0 -0.01778818590069102 0.2421293126167848 0 -0.0087132352456033638 0.25173417187717928 0 -0.0070773620087705444 0.23295897308755351 0 0.0027594708259384838 0.25829047161104352 0 -0.025866468353912139 0.2289639569827632 0 -0.0070773620087705444 0.23295897308755351 0 -0.01778818590069102 0.2421293126167848 0 -0.028053557715267439 0.25838243531431121 0 -0.033382390283993792 0.24359412621706661 0 -0.01778818590069102 0.2421293126167848 0 -0.033382390283993792 0.24359412621706661 0 -0.025866468353912139 0.2289639569827632 0 -0.01778818590069102 0.2421293126167848 0 -0.044416936009294992 0.14744373737619401 0 -0.030319635528424791 0.14770209815471691 0 -0.021396469969749188 0.1374028974533886 0 -0.044416936009294992 0.14744373737619401 0 -0.030319635528424791 0.14770209815471691 0 -0.027639103276038759 0.15537380566908321 0 -0.044416936009294992 0.14744373737619401 0 -0.038116788675066252 0.15302723042411279 0 -0.027639103276038759 0.15537380566908321 0 -0.044416936009294992 0.14744373737619401 0 -0.041458398192443832 0.13942314763129199 0 -0.021396469969749188 0.1374028974533886 0 -0.044416936009294992 0.14744373737619401 0 -0.027639103276038759 0.15537380566908321 0 -0.044416936009294992 0.14744373737619401 0 -0.021396469969749188 0.1374028974533886 0 -0.044416936009294992 0.14744373737619401 0 -0.036587860512897558 0.15696447751708351 0 -0.044416936009294992 0.14744373737619401 0 -0.047012455662473793 0.15786975055381819 0 -0.036587860512897558 0.15696447751708351 0 -0.044416936009294992 0.14744373737619401 0 -0.038116788675066252 0.15302723042411279 0 -0.036587860512897558 0.15696447751708351 0 -0.038116788675066252 0.15302723042411279 0 -0.036587860512897558 0.15696447751708351 0 -0.027639103276038759 0.15537380566908321 0 -0.038116788675066252 0.15302723042411279 0 -0.036587860512897558 0.15696447751708351 0 -0.037500573576258918 0.13069979942664511 0 -0.041458398192443832 0.13942314763129199 0 -0.021396469969749188 0.1374028974533886 0 -0.037500573576258918 0.13069979942664511 0 -0.028643554108799551 0.12806760582925611 0 -0.034668926388748328 0.1237436995229996 0 -0.037500573576258918 0.13069979942664511 0 -0.047589673205635397 0.1324549890601831 0 -0.046884900963607742 0.11986348336078891 0 -0.037500573576258918 0.13069979942664511 0 -0.041458398192443832 0.13942314763129199 0 -0.047589673205635397 0.1324549890601831 0 -0.044416936009294992 0.14744373737619401 0 -0.041458398192443832 0.13942314763129199 0 -0.047589673205635397 0.1324549890601831 0 -0.067315024607703278 0.13662092079142449 0 -0.044416936009294992 0.14744373737619401 0 -0.062016764747578973 0.12884034001808189 0 -0.044416936009294992 0.14744373737619401 0 -0.062016764747578973 0.12884034001808189 0 -0.044416936009294992 0.14744373737619401 0 -0.047589673205635397 0.1324549890601831 0 -0.062016764747578973 0.12884034001808189 0 -0.047589673205635397 0.1324549890601831 0 -0.062016764747578973 0.12884034001808189 0 -0.046884900963607742 0.11986348336078891 0 -0.067315024607703278 0.13662092079142449 0 -0.044416936009294992 0.14744373737619401 0 -0.054361576129613079 0.15178129246158931 0 -0.067315024607703278 0.13662092079142449 0 -0.044416936009294992 0.14744373737619401 0 -0.044416936009294992 0.14744373737619401 0 -0.054361576129613079 0.15178129246158931 0 -0.044416936009294992 0.14744373737619401 0 -0.054361576129613079 0.15178129246158931 0 -0.047012455662473793 0.15786975055381819 0 -0.066369438716585821 0.14892706699039879 0 -0.054361576129613079 0.15178129246158931 0 -0.057722578482997257 0.16273086802879619 0 -0.057722578482997257 0.16273086802879619 0 -0.050411583818504503 0.1777900037548745 0 -0.045636115300606919 0.16650756778262649 0 -0.054361576129613079 0.15178129246158931 0 -0.057722578482997257 0.16273086802879619 0 -0.047012455662473793 0.15786975055381819 0 -0.057722578482997257 0.16273086802879619 0 -0.047012455662473793 0.15786975055381819 0 -0.045636115300606919 0.16650756778262649 0 -0.070171110140822543 0.1782308345810468 0 -0.056949983849450658 0.19269083667038239 0 -0.050411583818504503 0.1777900037548745 0 -0.070171110140822543 0.1782308345810468 0 -0.057722578482997257 0.16273086802879619 0 -0.050411583818504503 0.1777900037548745 0 -0.056949983849450658 0.19269083667038239 0 -0.040360849617421202 0.18777351164107661 0 -0.050411583818504503 0.1777900037548745 0 -0.040360849617421202 0.18777351164107661 0 -0.050411583818504503 0.1777900037548745 0 -0.039949487385523758 0.17426630734724691 0 -0.050411583818504503 0.1777900037548745 0 -0.039949487385523758 0.17426630734724691 0 -0.045636115300606919 0.16650756778262649 0 -0.040360849617421202 0.18777351164107661 0 -0.039949487385523758 0.17426630734724691 0 -0.026751027678188599 0.18229597604057349 0 -0.039949487385523758 0.17426630734724691 0 -0.036587860512897558 0.15696447751708351 0 -0.026751027678188599 0.18229597604057349 0 -0.036587860512897558 0.15696447751708351 0 -0.026751027678188599 0.18229597604057349 0 -0.039949487385523758 0.17426630734724691 0 -0.045636115300606919 0.16650756778262649 0 -0.036587860512897558 0.15696447751708351 0 -0.047012455662473793 0.15786975055381819 0 -0.045636115300606919 0.16650756778262649 0 -0.036587860512897558 0.15696447751708351 0 -0.01891215499648707 0.1765136475382359 0 -0.010861270542782259 0.1633038739619718 0 -0.027639103276038759 0.15537380566908321 0 -0.010861270542782259 0.1633038739619718 0 -0.027639103276038759 0.15537380566908321 0 -0.036587860512897558 0.15696447751708351 0 -0.01891215499648707 0.1765136475382359 0 -0.036587860512897558 0.15696447751708351 0 -0.01891215499648707 0.1765136475382359 0 -0.027639103276038759 0.15537380566908321 0 -0.01405220631290922 0.19352016069679451 0 -0.01891215499648707 0.1765136475382359 0 -0.026751027678188599 0.18229597604057349 0 -0.036587860512897558 0.15696447751708351 0 -0.01891215499648707 0.1765136475382359 0 -0.026751027678188599 0.18229597604057349 0 -0.01891215499648707 0.1765136475382359 0 -0.010861270542782259 0.1633038739619718 0 0.00061104658230836653 0.17769045695541219 0 -0.0012364494800765971 0.1960628175593882 0 -0.01891215499648707 0.1765136475382359 0 0.00061104658230836653 0.17769045695541219 0 -0.0012364494800765971 0.1960628175593882 0 -0.01891215499648707 0.1765136475382359 0 -0.010861270542782259 0.1633038739619718 0 0.001788155555331062 0.1557637096651584 0 0.00061104658230836653 0.17769045695541219 0 -0.01542264584752753 0.14956457798035719 0 -0.015783289274076458 0.13495459563681389 0 0.001788155555331062 0.1557637096651584 0 -0.015783289274076458 0.13495459563681389 0 0.001788155555331062 0.1557637096651584 0 0.01185912902997375 0.14130758542593569 0 -0.010861270542782259 0.1633038739619718 0 -0.01542264584752753 0.14956457798035719 0 0.001788155555331062 0.1557637096651584 0 -0.015783289274076458 0.13495459563681389 0 0.001788155555331062 0.1557637096651584 0 -0.01542264584752753 0.14956457798035719 0 -0.023159931299824549 0.14839209377580129 0 -0.027639103276038759 0.15537380566908321 0 -0.010861270542782259 0.1633038739619718 0 -0.01542264584752753 0.14956457798035719 0 -0.027639103276038759 0.15537380566908321 0 -0.01542264584752753 0.14956457798035719 0 -0.023159931299824549 0.14839209377580129 0 -0.021396469969749188 0.1374028974533886 0 -0.01542264584752753 0.14956457798035719 0 -0.021396469969749188 0.1374028974533886 0 -0.015783289274076458 0.13495459563681389 0 -0.030319635528424791 0.14770209815471691 0 -0.021396469969749188 0.1374028974533886 0 -0.023159931299824549 0.14839209377580129 0 -0.030319635528424791 0.14770209815471691 0 -0.021396469969749188 0.1374028974533886 0 -0.023159931299824549 0.14839209377580129 0 -0.030319635528424791 0.14770209815471691 0 -0.027639103276038759 0.15537380566908321 0 -0.028643554108799551 0.12806760582925611 0 -0.017506847497941139 0.13291345901070739 0 -0.032144953111298558 0.1155781737325411 0 -0.037500573576258918 0.13069979942664511 0 -0.028643554108799551 0.12806760582925611 0 -0.021396469969749188 0.1374028974533886 0 -0.021396469969749188 0.1374028974533886 0 -0.015783289274076458 0.13495459563681389 0 -0.017506847497941139 0.13291345901070739 0 -0.021396469969749188 0.1374028974533886 0 -0.015783289274076458 0.13495459563681389 0 -0.021396469969749188 0.1374028974533886 0 -0.017506847497941139 0.13291345901070739 0 -0.015783289274076458 0.13495459563681389 0 -0.017506847497941139 0.13291345901070739 0 -0.028643554108799551 0.12806760582925611 0 -0.021396469969749188 0.1374028974533886 0 -0.017506847497941139 0.13291345901070739 0 -0.015783289274076458 0.13495459563681389 0 -0.017506847497941139 0.13291345901070739 0 -0.0052228475358298988 0.1187351519746004 0 -0.015783289274076458 0.13495459563681389 0 -0.0052228475358298988 0.1187351519746004 0 0.0081407562022233586 0.1245196413435004 0 -0.017506847497941139 0.13291345901070739 0 -0.0052228475358298988 0.1187351519746004 0 -0.015783289274076458 0.13495459563681389 0 0.0081407562022233586 0.1245196413435004 0 -0.0052228475358298988 0.1187351519746004 0 -0.0040597014752050652 0.1051126182356364 0 -0.02761291541641378 0.1090435214711212 0 -0.017506847497941139 0.13291345901070739 0 -0.0052228475358298988 0.1187351519746004 0 -0.019344259015361451 0.119617058157429 0 -0.0040597014752050652 0.1051126182356364 0 -0.01533391803445322 0.09737838425916874 0 0.0051087594610210148 0.080527692295617709 0 -0.0052228475358298988 0.1187351519746004 0 -0.0040597014752050652 0.1051126182356364 0 0.0092582498306486675 0.1020209346744549 0 -0.0040597014752050652 0.1051126182356364 0 -0.01533391803445322 0.09737838425916874 0 -0.02761291541641378 0.1090435214711212 0 -0.01533391803445322 0.09737838425916874 0 -0.027797722535604891 0.095528124355643507 0 -0.02761291541641378 0.1090435214711212 0 -0.0052228475358298988 0.1187351519746004 0 -0.02761291541641378 0.1090435214711212 0 -0.019344259015361451 0.119617058157429 0 -0.017506847497941139 0.13291345901070739 0 -0.019344259015361451 0.119617058157429 0 -0.032144953111298558 0.1155781737325411 0 -0.02761291541641378 0.1090435214711212 0 -0.019344259015361451 0.119617058157429 0 -0.032144953111298558 0.1155781737325411 0 -0.0052228475358298988 0.1187351519746004 0 -0.02761291541641378 0.1090435214711212 0 -0.017506847497941139 0.13291345901070739 0 -0.032144953111298558 0.1155781737325411 0 -0.0012292332505543029 0.06378464068123596 0 -0.011084303888442551 0.081696622097620714 0 -0.018620569400409771 0.06708533464306303 0 -0.0012292332505543029 0.06378464068123596 0 -0.011084303888442551 0.081696622097620714 0 0.0051087594610210148 0.080527692295617709 0 -0.01533391803445322 0.09737838425916874 0 -0.011084303888442551 0.081696622097620714 0 0.0051087594610210148 0.080527692295617709 0 -0.01533391803445322 0.09737838425916874 0 0.0051087594610210148 0.080527692295617709 0 -0.011084303888442551 0.081696622097620714 0 0.0051087594610210148 0.080527692295617709 0 -0.027797722535604891 0.095528124355643507 0 -0.011084303888442551 0.081696622097620714 0 -0.032921925083363349 0.0833654898886593 0 -0.01533391803445322 0.09737838425916874 0 -0.027797722535604891 0.095528124355643507 0 -0.011084303888442551 0.081696622097620714 0 -0.018620569400409771 0.06708533464306303 0 -0.031868141831282552 0.069818555696904067 0 -0.028283535649973771 0.053358049395037133 0 -0.018620569400409771 0.06708533464306303 0 -0.031868141831282552 0.069818555696904067 0 -0.032921925083363349 0.0833654898886593 0 -0.011084303888442551 0.081696622097620714 0 -0.018620569400409771 0.06708533464306303 0 -0.032921925083363349 0.0833654898886593 0 -0.046276495737503101 0.06795068115397529 0 -0.032921925083363349 0.0833654898886593 0 -0.055882409073029139 0.082732437330199013 0 -0.046276495737503101 0.06795068115397529 0 -0.031868141831282552 0.069818555696904067 0 -0.028283535649973771 0.053358049395037133 0 -0.046276495737503101 0.06795068115397529 0 -0.031868141831282552 0.069818555696904067 0 -0.032921925083363349 0.0833654898886593 0 -0.027797722535604891 0.095528124355643507 0 -0.032921925083363349 0.0833654898886593 0 -0.050002983296997462 0.099351890967641507 0 -0.032921925083363349 0.0833654898886593 0 -0.055882409073029139 0.082732437330199013 0 -0.050002983296997462 0.099351890967641507 0 -0.055882409073029139 0.082732437330199013 0 -0.050002983296997462 0.099351890967641507 0 -0.072393051177581158 0.089660260464161839 0 -0.046276495737503101 0.06795068115397529 0 -0.055882409073029139 0.082732437330199013 0 -0.062589921296568873 0.06642957971461419 0 -0.032144953111298558 0.1155781737325411 0 -0.050002983296997462 0.099351890967641507 0 -0.046884900963607742 0.11986348336078891 0 -0.037500573576258918 0.13069979942664511 0 -0.034668926388748328 0.1237436995229996 0 -0.046884900963607742 0.11986348336078891 0 -0.028643554108799551 0.12806760582925611 0 -0.034668926388748328 0.1237436995229996 0 -0.032144953111298558 0.1155781737325411 0 -0.034668926388748328 0.1237436995229996 0 -0.032144953111298558 0.1155781737325411 0 -0.046884900963607742 0.11986348336078891 0 -0.027797722535604891 0.095528124355643507 0 -0.02761291541641378 0.1090435214711212 0 -0.050002983296997462 0.099351890967641507 0 -0.02761291541641378 0.1090435214711212 0 -0.050002983296997462 0.099351890967641507 0 -0.02761291541641378 0.1090435214711212 0 -0.032144953111298558 0.1155781737325411 0 -0.050002983296997462 0.099351890967641507 0 -0.050002983296997462 0.099351890967641507 0 -0.072393051177581158 0.089660260464161839 0 -0.050002983296997462 0.099351890967641507 0 -0.062115440392200259 0.1100516779477724 0 -0.072393051177581158 0.089660260464161839 0 -0.062016764747578973 0.12884034001808189 0 -0.062115440392200259 0.1100516779477724 0 -0.046884900963607742 0.11986348336078891 0 -0.050002983296997462 0.099351890967641507 0 -0.062115440392200259 0.1100516779477724 0 -0.046884900963607742 0.11986348336078891 0 -0.062016764747578973 0.12884034001808189 0 -0.062115440392200259 0.1100516779477724 0 -0.07825578499994286 0.1108801308713713 0 -0.062016764747578973 0.12884034001808189 0 -0.07825578499994286 0.1108801308713713 0 -0.062016764747578973 0.12884034001808189 0 -0.075786521408142987 0.12443322189858901 0 -0.07825578499994286 0.1108801308713713 0 -0.088852304720190942 0.12644129241805541 0 -0.075786521408142987 0.12443322189858901 0 -0.083719546898917335 0.119699814685821 0 -0.083719546898917335 0.119699814685821 0 -0.07825578499994286 0.1108801308713713 0 -0.093946486761182085 0.1175508364221631 0 -0.075786521408142987 0.12443322189858901 0 -0.083719546898917335 0.119699814685821 0 -0.07825578499994286 0.1108801308713713 0 -0.088852304720190942 0.12644129241805541 0 -0.083719546898917335 0.119699814685821 0 -0.093946486761182085 0.1175508364221631 0 -0.07825578499994286 0.1108801308713713 0 -0.072393051177581158 0.089660260464161839 0 -0.094494805252306774 0.092919921724660626 0 -0.07825578499994286 0.1108801308713713 0 -0.094494805252306774 0.092919921724660626 0 -0.093946486761182085 0.1175508364221631 0 -0.07825578499994286 0.1108801308713713 0 -0.094494805252306774 0.092919921724660626 0 -0.062115440392200259 0.1100516779477724 0 -0.07825578499994286 0.1108801308713713 0 -0.072393051177581158 0.089660260464161839 0 -0.055882409073029139 0.082732437330199013 0 -0.072393051177581158 0.089660260464161839 0 -0.062589921296568873 0.06642957971461419 0 -0.072393051177581158 0.089660260464161839 0 -0.062589921296568873 0.06642957971461419 0 -0.079461892795990779 0.070449194571112136 0 -0.062589921296568873 0.06642957971461419 0 -0.079461892795990779 0.070449194571112136 0 -0.072380178782229632 0.053292134703331731 0 -0.079461892795990779 0.070449194571112136 0 -0.094783119058163612 0.079968629960679383 0 -0.095163193665411511 0.062895368012773595 0 -0.072393051177581158 0.089660260464161839 0 -0.079461892795990779 0.070449194571112136 0 -0.094783119058163612 0.079968629960679383 0 -0.072393051177581158 0.089660260464161839 0 -0.094494805252306774 0.092919921724660626 0 -0.094783119058163612 0.079968629960679383 0 -0.072393051177581158 0.089660260464161839 0 -0.094783119058163612 0.079968629960679383 0 -0.094494805252306774 0.092919921724660626 0 -0.1072570836689255 0.074569224449017327 0 -0.1143352617609841 0.070976556735617355 0 -0.094494805252306774 0.092919921724660626 0 -0.094783119058163612 0.079968629960679383 0 -0.1072570836689255 0.074569224449017327 0 -0.094494805252306774 0.092919921724660626 0 -0.094783119058163612 0.079968629960679383 0 -0.094494805252306774 0.092919921724660626 0 -0.1143352617609841 0.070976556735617355 0 -0.11134444788944529 0.091345452974062963 0 -0.094494805252306774 0.092919921724660626 0 -0.1143352617609841 0.070976556735617355 0 -0.094783119058163612 0.079968629960679383 0 -0.095163193665411511 0.062895368012773595 0 -0.094783119058163612 0.079968629960679383 0 -0.095163193665411511 0.062895368012773595 0 -0.1072570836689255 0.074569224449017327 0 -0.095163193665411511 0.062895368012773595 0 -0.1143352617609841 0.070976556735617355 0 -0.1079186055395126 0.059947093390224047 0 -0.095163193665411511 0.062895368012773595 0 -0.1072570836689255 0.074569224449017327 0 -0.1143352617609841 0.070976556735617355 0 -0.095163193665411511 0.062895368012773595 0 -0.1143352617609841 0.070976556735617355 0 -0.094783119058163612 0.079968629960679383 0 -0.1072570836689255 0.074569224449017327 0 -0.1131683311422218 0.062814464837820119 0 -0.1163519950294771 0.068746068028026575 0 -0.1143352617609841 0.070976556735617355 0 -0.1131683311422218 0.062814464837820119 0 -0.1143352617609841 0.070976556735617355 0 -0.1079186055395126 0.059947093390224047 0 -0.1131683311422218 0.062814464837820119 0 -0.1163519950294771 0.068746068028026575 0 -0.1185872066977806 0.063729502839677182 0 -0.1163519950294771 0.068746068028026575 0 -0.1143352617609841 0.070976556735617355 0 -0.12697985749263241 0.07630636069427757 0 -0.1143352617609841 0.070976556735617355 0 -0.12697985749263241 0.07630636069427757 0 -0.1143352617609841 0.070976556735617355 0 -0.1200161930876608 0.081776906418299489 0 -0.12697985749263241 0.07630636069427757 0 -0.1163519950294771 0.068746068028026575 0 -0.1143352617609841 0.070976556735617355 0 -0.12697985749263241 0.07630636069427757 0 -0.12509646681095879 0.065597408261105467 0 -0.1163519950294771 0.068746068028026575 0 -0.12509646681095879 0.065597408261105467 0 -0.1163519950294771 0.068746068028026575 0 -0.1185872066977806 0.063729502839677182 0 -0.13359630628803579 0.098968800084119873 0 -0.12697672020224329 0.087309090757334687 0 -0.11134444788944529 0.091345452974062963 0 -0.1143352617609841 0.070976556735617355 0 -0.11134444788944529 0.091345452974062963 0 -0.1200161930876608 0.081776906418299489 0 -0.12697672020224329 0.087309090757334687 0 -0.11134444788944529 0.091345452974062963 0 -0.1200161930876608 0.081776906418299489 0 -0.12697672020224329 0.087309090757334687 0 -0.12697985749263241 0.07630636069427757 0 -0.1200161930876608 0.081776906418299489 0 -0.12607259725238279 0.11330641960449821 0 -0.13359630628803579 0.098968800084119873 0 -0.11123038207674001 0.1082681122756106 0 -0.13359630628803579 0.098968800084119873 0 -0.11134444788944529 0.091345452974062963 0 -0.11123038207674001 0.1082681122756106 0 -0.13359630628803579 0.098968800084119873 0 -0.11123038207674001 0.1082681122756106 0 -0.11134444788944529 0.091345452974062963 0 -0.11123038207674001 0.1082681122756106 0 -0.1057361510920251 0.099277959283072717 0 -0.12607259725238279 0.11330641960449821 0 -0.11123038207674001 0.1082681122756106 0 -0.11706151063611089 0.1208882391850464 0 -0.12607259725238279 0.11330641960449821 0 -0.12916618827146031 0.12390190950899049 0 -0.11706151063611089 0.1208882391850464 0 -0.11473911200363 0.13153944404780621 0 -0.11706151063611089 0.1208882391850464 0 -0.10601879130899509 0.12208205668825579 0 -0.1036345166478785 0.1154037657297244 0 -0.093946486761182085 0.1175508364221631 0 -0.097511277885226108 0.1010939306234323 0 -0.11123038207674001 0.1082681122756106 0 -0.11706151063611089 0.1208882391850464 0 -0.097511277885226108 0.1010939306234323 0 -0.11706151063611089 0.1208882391850464 0 -0.1036345166478785 0.1154037657297244 0 -0.097511277885226108 0.1010939306234323 0 -0.11706151063611089 0.1208882391850464 0 -0.097511277885226108 0.1010939306234323 0 -0.11706151063611089 0.1208882391850464 0 -0.1036345166478785 0.1154037657297244 0 -0.10601879130899509 0.12208205668825579 0 -0.1039338124667491 0.13009472872812991 0 -0.10601879130899509 0.12208205668825579 0 -0.093946486761182085 0.1175508364221631 0 -0.1036345166478785 0.1154037657297244 0 -0.10601879130899509 0.12208205668825579 0 -0.093946486761182085 0.1175508364221631 0 -0.094494805252306774 0.092919921724660626 0 -0.11134444788944529 0.091345452974062963 0 -0.1057361510920251 0.099277959283072717 0 -0.094494805252306774 0.092919921724660626 0 -0.093946486761182085 0.1175508364221631 0 -0.094494805252306774 0.092919921724660626 0 -0.093946486761182085 0.1175508364221631 0 -0.097511277885226108 0.1010939306234323 0 -0.094494805252306774 0.092919921724660626 0 -0.097511277885226108 0.1010939306234323 0 -0.1057361510920251 0.099277959283072717 0 -0.11123038207674001 0.1082681122756106 0 -0.097511277885226108 0.1010939306234323 0 -0.1057361510920251 0.099277959283072717 0 -0.1001339578063882 0.022436777626384768 0 -0.09536928659882779 0.01424719335382847 0 -0.1128440433065038 0.01636018592503535 0 -0.1001339578063882 0.022436777626384768 0 -0.1128440433065038 0.01636018592503535 0 -0.1012358460944251 0.033108064834657697 0 -0.1128440433065038 0.01636018592503535 0 -0.11393466639619521 0.035004472642448957 0 -0.1012358460944251 0.033108064834657697 0 -0.1128440433065038 0.01636018592503535 0 -0.1012358460944251 0.033108064834657697 0 -0.1001339578063882 0.022436777626384768 0 -0.1012358460944251 0.033108064834657697 0 -0.091086655225796079 0.026031666392017531 0 -0.1001339578063882 0.022436777626384768 0 -0.09536928659882779 0.01424719335382847 0 -0.091086655225796079 0.026031666392017531 0 -0.10394313851700079 0.0020556251079679459 0 -0.09536928659882779 0.01424719335382847 0 -0.085958893623968774 0.001514634656162053 0 -0.10394313851700079 0.0020556251079679459 0 -0.09536928659882779 0.01424719335382847 0 -0.1128440433065038 0.01636018592503535 0 -0.1244522405185825 -0.00038769298458709092 0 -0.12424451236807239 0.027069144312366941 0 -0.1244522405185825 -0.00038769298458709092 0 -0.1128440433065038 0.01636018592503535 0 -0.12424451236807239 0.027069144312366941 0 -0.1244522405185825 -0.00038769298458709092 0 -0.1128440433065038 0.01636018592503535 0 -0.1244522405185825 -0.00038769298458709092 0 -0.10394313851700079 0.0020556251079679459 0 -0.1128440433065038 0.01636018592503535 0 -0.1128440433065038 0.01636018592503535 0 -0.12424451236807239 0.027069144312366941 0 -0.11393466639619521 0.035004472642448957 0 -0.12424451236807239 0.027069144312366941 0 -0.12075472355362291 0.04122338309529356 0 -0.11393466639619521 0.035004472642448957 0 -0.12075472355362291 0.04122338309529356 0 -0.1244920148619628 0.050381604022983993 0 -0.1151670195775447 0.0482238646449 0 -0.11393466639619521 0.035004472642448957 0 -0.1151670195775447 0.0482238646449 0 -0.10635909785250069 0.04125385698526951 0 -0.12075472355362291 0.04122338309529356 0 -0.11393466639619521 0.035004472642448957 0 -0.1151670195775447 0.0482238646449 0 -0.12509646681095879 0.065597408261105467 0 -0.1185872066977806 0.063729502839677182 0 -0.1197320338084647 0.057760070231756527 0 -0.1197320338084647 0.057760070231756527 0 -0.1244920148619628 0.050381604022983993 0 -0.1151670195775447 0.0482238646449 0 -0.1151670195775447 0.0482238646449 0 -0.1125210466915524 0.054978807834542787 0 -0.1051700993263314 0.050476507920077678 0 -0.1197320338084647 0.057760070231756527 0 -0.1151670195775447 0.0482238646449 0 -0.1125210466915524 0.054978807834542787 0 -0.1131683311422218 0.062814464837820119 0 -0.1197320338084647 0.057760070231756527 0 -0.1125210466915524 0.054978807834542787 0 -0.1131683311422218 0.062814464837820119 0 -0.1125210466915524 0.054978807834542787 0 -0.1079186055395126 0.059947093390224047 0 -0.1131683311422218 0.062814464837820119 0 -0.1185872066977806 0.063729502839677182 0 -0.1197320338084647 0.057760070231756527 0 -0.095163193665411511 0.062895368012773595 0 -0.1051700993263314 0.050476507920077678 0 -0.095336714328198874 0.041619114628837717 0 -0.095163193665411511 0.062895368012773595 0 -0.095336714328198874 0.041619114628837717 0 -0.1125210466915524 0.054978807834542787 0 -0.1079186055395126 0.059947093390224047 0 -0.1051700993263314 0.050476507920077678 0 -0.095163193665411511 0.062895368012773595 0 -0.1079186055395126 0.059947093390224047 0 -0.1051700993263314 0.050476507920077678 0 -0.11393466639619521 0.035004472642448957 0 -0.10635909785250069 0.04125385698526951 0 -0.1012358460944251 0.033108064834657697 0 -0.1051700993263314 0.050476507920077678 0 -0.10635909785250069 0.04125385698526951 0 -0.095336714328198874 0.041619114628837717 0 -0.1151670195775447 0.0482238646449 0 -0.1051700993263314 0.050476507920077678 0 -0.10635909785250069 0.04125385698526951 0 -0.095336714328198874 0.041619114628837717 0 -0.1012358460944251 0.033108064834657697 0 -0.08853862327275358 0.036894035852943478 0 -0.10635909785250069 0.04125385698526951 0 -0.095336714328198874 0.041619114628837717 0 -0.1012358460944251 0.033108064834657697 0 -0.095336714328198874 0.041619114628837717 0 -0.1012358460944251 0.033108064834657697 0 -0.1012358460944251 0.033108064834657697 0 -0.08853862327275358 0.036894035852943478 0 -0.091086655225796079 0.026031666392017531 0 -0.08853862327275358 0.036894035852943478 0 -0.081088353484909961 0.032020518526829703 0 -0.091086655225796079 0.026031666392017531 0 -0.08853862327275358 0.036894035852943478 0 -0.079654612676290371 0.043453985766932421 0 -0.089627648882346422 0.049855943744280047 0 -0.095336714328198874 0.041619114628837717 0 -0.08853862327275358 0.036894035852943478 0 -0.089627648882346422 0.049855943744280047 0 -0.095336714328198874 0.041619114628837717 0 -0.089627648882346422 0.049855943744280047 0 -0.08853862327275358 0.036894035852943478 0 -0.079654612676290371 0.043453985766932421 0 -0.081088353484909961 0.032020518526829703 0 -0.095163193665411511 0.062895368012773595 0 -0.089627648882346422 0.049855943744280047 0 -0.072380178782229632 0.053292134703331731 0 -0.095163193665411511 0.062895368012773595 0 -0.095336714328198874 0.041619114628837717 0 -0.089627648882346422 0.049855943744280047 0 -0.095163193665411511 0.062895368012773595 0 -0.072380178782229632 0.053292134703331731 0 -0.079461892795990779 0.070449194571112136 0 -0.095163193665411511 0.062895368012773595 0 -0.072380178782229632 0.053292134703331731 0 -0.079654612676290371 0.043453985766932421 0 -0.089627648882346422 0.049855943744280047 0 -0.072380178782229632 0.053292134703331731 0 -0.079654612676290371 0.043453985766932421 0 -0.072380178782229632 0.053292134703331731 0 -0.065785112224924183 0.037111289768743512 0 -0.072380178782229632 0.053292134703331731 0 -0.065785112224924183 0.037111289768743512 0 -0.049597163899048183 0.043688901393888827 0 -0.079654612676290371 0.043453985766932421 0 -0.081088353484909961 0.032020518526829703 0 -0.065785112224924183 0.037111289768743512 0 -0.081088353484909961 0.032020518526829703 0 -0.065785112224924183 0.037111289768743512 0 -0.069646162847898541 0.026335067629459381 0 -0.069646162847898541 0.026335067629459381 0 -0.076118231742993758 0.01527396050979404 0 -0.05559295393876626 0.02093450171247024 0 -0.065785112224924183 0.037111289768743512 0 -0.069646162847898541 0.026335067629459381 0 -0.05559295393876626 0.02093450171247024 0 -0.081088353484909961 0.032020518526829703 0 -0.069646162847898541 0.026335067629459381 0 -0.076118231742993758 0.01527396050979404 0 -0.081088353484909961 0.032020518526829703 0 -0.091086655225796079 0.026031666392017531 0 -0.076118231742993758 0.01527396050979404 0 -0.09536928659882779 0.01424719335382847 0 -0.091086655225796079 0.026031666392017531 0 -0.076118231742993758 0.01527396050979404 0 -0.09536928659882779 0.01424719335382847 0 -0.085958893623968774 0.001514634656162053 0 -0.076118231742993758 0.01527396050979404 0 -0.076118231742993758 0.01527396050979404 0 -0.065648076432031049 0.00090955339710942099 0 -0.05559295393876626 0.02093450171247024 0 -0.085958893623968774 0.001514634656162053 0 -0.076118231742993758 0.01527396050979404 0 -0.065648076432031049 0.00090955339710942099 0 -0.045118160941850949 -0.00049033847668307538 0 -0.065648076432031049 0.00090955339710942099 0 -0.05559295393876626 0.02093450171247024 0 -0.05559295393876626 0.02093450171247024 0 -0.041197297059898302 0.028587588038626519 0 -0.049597163899048183 0.043688901393888827 0 -0.05559295393876626 0.02093450171247024 0 -0.032784921385912158 0.01564128096370114 0 -0.041197297059898302 0.028587588038626519 0 -0.032784921385912158 0.01564128096370114 0 -0.041197297059898302 0.028587588038626519 0 -0.02681414901586664 0.034085668084445887 0 -0.045118160941850949 -0.00049033847668307538 0 -0.05559295393876626 0.02093450171247024 0 -0.032784921385912158 0.01564128096370114 0 -0.045118160941850949 -0.00049033847668307538 0 -0.027025641752002061 -0.0079319500279313396 0 -0.032784921385912158 0.01564128096370114 0 -0.062589921296568873 0.06642957971461419 0 -0.072380178782229632 0.053292134703331731 0 -0.049597163899048183 0.043688901393888827 0 -0.046276495737503101 0.06795068115397529 0 -0.062589921296568873 0.06642957971461419 0 -0.049597163899048183 0.043688901393888827 0 -0.072380178782229632 0.053292134703331731 0 -0.049597163899048183 0.043688901393888827 0 -0.065785112224924183 0.037111289768743512 0 -0.05559295393876626 0.02093450171247024 0 -0.049597163899048183 0.043688901393888827 0 -0.049597163899048183 0.043688901393888827 0 -0.02681414901586664 0.034085668084445887 0 -0.041197297059898302 0.028587588038626519 0 -0.049597163899048183 0.043688901393888827 0 -0.02681414901586664 0.034085668084445887 0 -0.049597163899048183 0.043688901393888827 0 -0.028283535649973771 0.053358049395037133 0 -0.02681414901586664 0.034085668084445887 0 -0.046276495737503101 0.06795068115397529 0 -0.028283535649973771 0.053358049395037133 0 -0.046276495737503101 0.06795068115397529 0 -0.049597163899048183 0.043688901393888827 0 -0.028283535649973771 0.053358049395037133 0 -0.028283535649973771 0.053358049395037133 0 -0.010290575562444429 0.038765417636098962 0 -0.0097640400442320502 0.053032197103308337 0 -0.018620569400409771 0.06708533464306303 0 -0.028283535649973771 0.053358049395037133 0 -0.0097640400442320502 0.053032197103308337 0 -0.028283535649973771 0.053358049395037133 0 -0.010290575562444429 0.038765417636098962 0 -0.02681414901586664 0.034085668084445887 0 -0.010290575562444429 0.038765417636098962 0 -0.020835528804160591 0.022374223573919171 0 -0.028283535649973771 0.053358049395037133 0 -0.02681414901586664 0.034085668084445887 0 -0.010290575562444429 0.038765417636098962 0 -0.010290575562444429 0.038765417636098962 0 0.0077023845250848884 0.024172785877160811 0 -0.010290575562444429 0.038765417636098962 0 -0.0034349793211087142 0.044893397967285961 0 0.0047272217829380687 0.036246676438490527 0 -0.010290575562444429 0.038765417636098962 0 -0.0034349793211087142 0.044893397967285961 0 -0.0097640400442320502 0.053032197103308337 0 -0.0012292332505543029 0.06378464068123596 0 -0.018620569400409771 0.06708533464306303 0 -0.0097640400442320502 0.053032197103308337 0 -0.0034349793211087142 0.044893397967285961 0 -0.0097640400442320502 0.053032197103308337 0 0.0015874765393035599 0.051529300691246019 0 -0.0012292332505543029 0.06378464068123596 0 -0.0097640400442320502 0.053032197103308337 0 0.0015874765393035599 0.051529300691246019 0 -0.027025641752002061 -0.0079319500279313396 0 -0.032784921385912158 0.01564128096370114 0 -0.01566814095190756 0.010235570601176981 0 -0.032784921385912158 0.01564128096370114 0 -0.02681414901586664 0.034085668084445887 0 -0.020835528804160591 0.022374223573919171 0 -0.032784921385912158 0.01564128096370114 0 -0.01566814095190756 0.010235570601176981 0 -0.020835528804160591 0.022374223573919171 0 -0.010290575562444429 0.038765417636098962 0 -0.020835528804160591 0.022374223573919171 0 -0.0077262750329500059 0.02266504195052366 0 -0.01566814095190756 0.010235570601176981 0 -0.020835528804160591 0.022374223573919171 0 -0.0077262750329500059 0.02266504195052366 0 -0.010290575562444429 0.038765417636098962 0 -0.0077262750329500059 0.02266504195052366 0 0.0077023845250848884 0.024172785877160811 0 -0.0091716063734174208 -0.003332990253060792 0 -0.01566814095190756 0.010235570601176981 0 0.001118487675879971 0.0096665619175221752 0 -0.0091716063734174208 -0.003332990253060792 0 0.001118487675879971 0.0096665619175221752 0 0.006935528729737548 -0.0054826371559186567 0 -0.01566814095190756 0.010235570601176981 0 -0.0077262750329500059 0.02266504195052366 0 0.001118487675879971 0.0096665619175221752 0 0.001118487675879971 0.0096665619175221752 0 0.0077023845250848884 0.024172785877160811 0 0.025695344612614111 0.0095801541182225364 0 0.001118487675879971 0.0096665619175221752 0 0.025695344612614111 0.0095801541182225364 0 0.006935528729737548 -0.0054826371559186567 0 -0.0077262750329500059 0.02266504195052366 0 0.001118487675879971 0.0096665619175221752 0 0.0077023845250848884 0.024172785877160811 0 0.0077023845250848884 0.024172785877160811 0 0.024648998497944961 0.02642224341189468 0 0.015911730558903318 0.034762274935307848 0 0.024648998497944961 0.02642224341189468 0 0.025695344612614111 0.0095801541182225364 0 0.038363400138324961 0.019751697241263279 0 0.0077023845250848884 0.024172785877160811 0 0.024648998497944961 0.02642224341189468 0 0.025695344612614111 0.0095801541182225364 0 0.0077023845250848884 0.024172785877160811 0 0.025695344612614111 0.0095801541182225364 0 0.025695344612614111 0.0095801541182225364 0 0.006935528729737548 -0.0054826371559186567 0 0.01459521235494949 0.061710637509134872 0 0.0047272217829380687 0.036246676438490527 0 -0.0012292332505543029 0.06378464068123596 0 0.01459521235494949 0.061710637509134872 0 0.0015874765393035599 0.051529300691246019 0 0.01459521235494949 0.061710637509134872 0 0.0015874765393035599 0.051529300691246019 0 0.0047272217829380687 0.036246676438490527 0 0.01459521235494949 0.061710637509134872 0 0.0047272217829380687 0.036246676438490527 0 0.016570281580619739 0.045526930476817662 0 -0.010290575562444429 0.038765417636098962 0 0.0077023845250848884 0.024172785877160811 0 0.0047272217829380687 0.036246676438490527 0 -0.0034349793211087142 0.044893397967285961 0 0.0015874765393035599 0.051529300691246019 0 0.0047272217829380687 0.036246676438490527 0 0.0047272217829380687 0.036246676438490527 0 0.015911730558903318 0.034762274935307848 0 0.016570281580619739 0.045526930476817662 0 0.0077023845250848884 0.024172785877160811 0 0.0047272217829380687 0.036246676438490527 0 0.015911730558903318 0.034762274935307848 0 0.024648998497944961 0.02642224341189468 0 0.015911730558903318 0.034762274935307848 0 0.025892041879535671 0.039420421904702428 0 0.024648998497944961 0.02642224341189468 0 0.025892041879535671 0.039420421904702428 0 0.038236142792751733 0.035111405712831077 0 0.015911730558903318 0.034762274935307848 0 0.025892041879535671 0.039420421904702428 0 0.016570281580619739 0.045526930476817662 0 0.025892041879535671 0.039420421904702428 0 0.016570281580619739 0.045526930476817662 0 0.021716339062575678 0.05448348331271597 0 0.01459521235494949 0.061710637509134872 0 0.016570281580619739 0.045526930476817662 0 0.021716339062575678 0.05448348331271597 0 0.01459521235494949 0.061710637509134872 0 0.021716339062575678 0.05448348331271597 0 0.030459386295035529 0.05963142741263059 0 0.01459521235494949 0.061710637509134872 0 0.030459386295035529 0.05963142741263059 0 0.021716339062575678 0.05448348331271597 0 0.030459386295035529 0.05963142741263059 0 0.032703710623893968 0.046893395464013943 0 0.025892041879535671 0.039420421904702428 0 0.021716339062575678 0.05448348331271597 0 0.032703710623893968 0.046893395464013943 0 0.030459386295035529 0.05963142741263059 0 0.032703710623893968 0.046893395464013943 0 0.047214643089571059 0.045820238977188371 0 0.030459386295035529 0.05963142741263059 0 0.04797297407010033 0.057336039788577382 0 0.030459386295035529 0.05963142741263059 0 0.04797297407010033 0.057336039788577382 0 0.027635028654909001 0.06907575978797427 0 0.030459386295035529 0.05963142741263059 0 0.047214643089571059 0.045820238977188371 0 0.04797297407010033 0.057336039788577382 0 0.030459386295035529 0.05963142741263059 0 0.047214643089571059 0.045820238977188371 0 0.038236142792751733 0.035111405712831077 0 0.047214643089571059 0.045820238977188371 0 0.051031455664035288 0.029923240364304559 0 0.032703710623893968 0.046893395464013943 0 0.038236142792751733 0.035111405712831077 0 0.047214643089571059 0.045820238977188371 0 0.025892041879535671 0.039420421904702428 0 0.032703710623893968 0.046893395464013943 0 0.038236142792751733 0.035111405712831077 0 0.062359133547200143 0.040731400683572692 0 0.047214643089571059 0.045820238977188371 0 0.063969899884107562 0.032009050541747332 0 0.047214643089571059 0.045820238977188371 0 0.063969899884107562 0.032009050541747332 0 0.047214643089571059 0.045820238977188371 0 0.051031455664035288 0.029923240364304559 0 0.063969899884107562 0.032009050541747332 0 0.062359133547200143 0.040731400683572692 0 0.04797297407010033 0.057336039788577382 0 0.072379857481358154 0.054137194478101919 0 0.04797297407010033 0.057336039788577382 0 0.072379857481358154 0.054137194478101919 0 0.062359133547200143 0.040731400683572692 0 0.04797297407010033 0.057336039788577382 0 0.062359133547200143 0.040731400683572692 0 0.047214643089571059 0.045820238977188371 0 0.04797297407010033 0.057336039788577382 0 0.04797297407010033 0.057336039788577382 0 0.072379857481358154 0.054137194478101919 0 0.06072113176624426 0.066105246874810966 0 0.040835927619124697 0.0088703260301804514 0 0.038363400138324961 0.019751697241263279 0 0.051939500327619889 0.017318508583630769 0 0.040835927619124697 0.0088703260301804514 0 0.046640351189982193 0.001482106492276504 0 0.040314465242246092 -0.002276229875846851 0 0.025695344612614111 0.0095801541182225364 0 0.040314465242246092 -0.002276229875846851 0 0.025695344612614111 0.0095801541182225364 0 0.040835927619124697 0.0088703260301804514 0 0.040314465242246092 -0.002276229875846851 0 0.025695344612614111 0.0095801541182225364 0 0.040835927619124697 0.0088703260301804514 0 0.038363400138324961 0.019751697241263279 0 0.025695344612614111 0.0095801541182225364 0 0.038363400138324961 0.019751697241263279 0 0.024648998497944961 0.02642224341189468 0 0.038236142792751733 0.035111405712831077 0 0.038363400138324961 0.019751697241263279 0 0.038363400138324961 0.019751697241263279 0 0.051031455664035288 0.029923240364304559 0 0.038236142792751733 0.035111405712831077 0 0.038363400138324961 0.019751697241263279 0 0.051031455664035288 0.029923240364304559 0 0.038363400138324961 0.019751697241263279 0 0.051939500327619889 0.017318508583630769 0 0.051031455664035288 0.029923240364304559 0 0.051031455664035288 0.029923240364304559 0 0.062107590562420073 0.0228568457980407 0 0.063969899884107562 0.032009050541747332 0 0.051939500327619889 0.017318508583630769 0 0.062107590562420073 0.0228568457980407 0 0.064696567818308529 0.01472149906873369 0 0.051939500327619889 0.017318508583630769 0 0.051031455664035288 0.029923240364304559 0 0.062107590562420073 0.0228568457980407 0 0.055514373943813228 0.0067304088365214816 0 0.075461568133428525 0.0044331687040122013 0 0.049896637954744763 -0.0073960790217490677 0 0.051939500327619889 0.017318508583630769 0 0.055514373943813228 0.0067304088365214816 0 0.064696567818308529 0.01472149906873369 0 0.040835927619124697 0.0088703260301804514 0 0.051939500327619889 0.017318508583630769 0 0.055514373943813228 0.0067304088365214816 0 0.046640351189982193 0.001482106492276504 0 0.055514373943813228 0.0067304088365214816 0 0.049896637954744763 -0.0073960790217490677 0 0.040835927619124697 0.0088703260301804514 0 0.046640351189982193 0.001482106492276504 0 0.055514373943813228 0.0067304088365214816 0 0.075461568133428525 0.0044331687040122013 0 0.064696567818308529 0.01472149906873369 0 0.08072515667864405 0.018197862106306289 0 0.055514373943813228 0.0067304088365214816 0 0.075461568133428525 0.0044331687040122013 0 0.064696567818308529 0.01472149906873369 0 0.075461568133428525 0.0044331687040122013 0 0.1010264983121123 0.016262416429773479 0 0.075461568133428525 0.0044331687040122013 0 0.1010264983121123 0.016262416429773479 0 0.098011391193308373 -0.0056982583262641584 0 0.075461568133428525 0.0044331687040122013 0 0.08072515667864405 0.018197862106306289 0 0.1010264983121123 0.016262416429773479 0 0.088041666307225416 0.02743399724937181 0 0.08072515667864405 0.018197862106306289 0 0.1010264983121123 0.016262416429773479 0 0.088041666307225416 0.02743399724937181 0 0.08072515667864405 0.018197862106306289 0 0.076745293024301803 0.02412676157856956 0 0.088041666307225416 0.02743399724937181 0 0.076745293024301803 0.02412676157856956 0 0.082258845210710349 0.03253561428057717 0 0.08072515667864405 0.018197862106306289 0 0.076745293024301803 0.02412676157856956 0 0.063969899884107562 0.032009050541747332 0 0.062107590562420073 0.0228568457980407 0 0.064696567818308529 0.01472149906873369 0 0.08072515667864405 0.018197862106306289 0 0.08072515667864405 0.018197862106306289 0 0.063969899884107562 0.032009050541747332 0 0.062107590562420073 0.0228568457980407 0 0.08072515667864405 0.018197862106306289 0 0.063969899884107562 0.032009050541747332 0 0.062359133547200143 0.040731400683572692 0 0.076745293024301803 0.02412676157856956 0 0.062359133547200143 0.040731400683572692 0 0.076745293024301803 0.02412676157856956 0 0.076375628159171968 0.038405412939545532 0 0.062359133547200143 0.040731400683572692 0 0.076745293024301803 0.02412676157856956 0 0.063969899884107562 0.032009050541747332 0 0.062359133547200143 0.040731400683572692 0 0.076375628159171968 0.038405412939545532 0 0.072379857481358154 0.054137194478101919 0 0.072379857481358154 0.054137194478101919 0 0.087872793352142223 0.040176285354821803 0 0.096786740892615686 0.050938349167624693 0 0.072379857481358154 0.054137194478101919 0 0.096786740892615686 0.050938349167624693 0 0.072379857481358154 0.054137194478101919 0 0.096786740892615686 0.050938349167624693 0 0.089592915186254174 0.067390154600646832 0 0.076375628159171968 0.038405412939545532 0 0.072379857481358154 0.054137194478101919 0 0.087872793352142223 0.040176285354821803 0 0.076375628159171968 0.038405412939545532 0 0.082258845210710349 0.03253561428057717 0 0.087872793352142223 0.040176285354821803 0 0.076745293024301803 0.02412676157856956 0 0.076375628159171968 0.038405412939545532 0 0.082258845210710349 0.03253561428057717 0 0.088041666307225416 0.02743399724937181 0 0.087872793352142223 0.040176285354821803 0 0.098246025398924644 0.032379674771496843 0 0.088041666307225416 0.02743399724937181 0 0.082258845210710349 0.03253561428057717 0 0.087872793352142223 0.040176285354821803 0 0.098246025398924644 0.032379674771496843 0 0.09859813872304253 0.041737690340159041 0 0.1063796333462841 0.038668109643535398 0 0.087872793352142223 0.040176285354821803 0 0.098246025398924644 0.032379674771496843 0 0.09859813872304253 0.041737690340159041 0 0.087872793352142223 0.040176285354821803 0 0.09859813872304253 0.041737690340159041 0 0.096786740892615686 0.050938349167624693 0 0.09859813872304253 0.041737690340159041 0 0.1037055006252459 0.04652603276331644 0 0.096786740892615686 0.050938349167624693 0 0.1037055006252459 0.04652603276331644 0 0.1091701701315707 0.045405346223324289 0 0.1063796333462841 0.038668109643535398 0 0.09859813872304253 0.041737690340159041 0 0.1037055006252459 0.04652603276331644 0 0.1063796333462841 0.038668109643535398 0 0.098246025398924644 0.032379674771496843 0 0.1063796333462841 0.038668109643535398 0 0.1080469394596527 0.029312409717345649 0 0.1063796333462841 0.038668109643535398 0 0.11369005285381351 0.036564640387925021 0 0.1080469394596527 0.029312409717345649 0 0.10140855114010359 0.056741753968867333 0 0.1082136550722141 0.059696613986540442 0 0.089592915186254174 0.067390154600646832 0 0.10140855114010359 0.056741753968867333 0 0.096786740892615686 0.050938349167624693 0 0.089592915186254174 0.067390154600646832 0 0.10140855114010359 0.056741753968867333 0 0.096786740892615686 0.050938349167624693 0 0.1040187002827474 0.052009313231975308 0 0.1037055006252459 0.04652603276331644 0 0.096786740892615686 0.050938349167624693 0 0.1040187002827474 0.052009313231975308 0 0.1037055006252459 0.04652603276331644 0 0.10828434687670541 0.049049973369521209 0 0.1040187002827474 0.052009313231975308 0 0.1037055006252459 0.04652603276331644 0 0.1091701701315707 0.045405346223324289 0 0.10828434687670541 0.049049973369521209 0 0.10828434687670541 0.049049973369521209 0 0.1040187002827474 0.052009313231975308 0 0.1085923347430168 0.054888678040205661 0 0.10140855114010359 0.056741753968867333 0 0.1040187002827474 0.052009313231975308 0 0.1085923347430168 0.054888678040205661 0 0.10140855114010359 0.056741753968867333 0 0.1085923347430168 0.054888678040205661 0 0.1082136550722141 0.059696613986540442 0 0.1082136550722141 0.059696613986540442 0 0.12683439495817461 0.052003073372435288 0 0.1085923347430168 0.054888678040205661 0 0.1082136550722141 0.059696613986540442 0 0.12683439495817461 0.052003073372435288 0 0.1082136550722141 0.059696613986540442 0 0.1213053233293625 0.063977455960140386 0 0.12683439495817461 0.052003073372435288 0 0.1085923347430168 0.054888678040205661 0 0.11545296983014219 0.044674578582556468 0 0.12683439495817461 0.052003073372435288 0 0.1085923347430168 0.054888678040205661 0 0.11545296983014219 0.044674578582556468 0 0.10828434687670541 0.049049973369521209 0 0.1085923347430168 0.054888678040205661 0 0.11545296983014219 0.044674578582556468 0 0.11545296983014219 0.044674578582556468 0 0.12683439495817461 0.052003073372435288 0 0.11545296983014219 0.044674578582556468 0 0.12659142849079691 0.028091664155532971 0 0.13015300311198849 0.040381385354086502 0 0.11369005285381351 0.036564640387925021 0 0.11545296983014219 0.044674578582556468 0 0.12659142849079691 0.028091664155532971 0 0.11369005285381351 0.036564640387925021 0 0.1080469394596527 0.029312409717345649 0 0.12659142849079691 0.028091664155532971 0 0.11545296983014219 0.044674578582556468 0 0.12659142849079691 0.028091664155532971 0 0.1091701701315707 0.045405346223324289 0 0.1063796333462841 0.038668109643535398 0 0.11316657253878901 0.043202368340974628 0 0.11369005285381351 0.036564640387925021 0 0.11316657253878901 0.043202368340974628 0 0.11545296983014219 0.044674578582556468 0 0.1063796333462841 0.038668109643535398 0 0.11369005285381351 0.036564640387925021 0 0.11316657253878901 0.043202368340974628 0 0.1091701701315707 0.045405346223324289 0 0.10828434687670541 0.049049973369521209 0 0.11545296983014219 0.044674578582556468 0 0.1091701701315707 0.045405346223324289 0 0.11316657253878901 0.043202368340974628 0 0.11545296983014219 0.044674578582556468 0 0.11316657253878901 0.043202368340974628 0 0.11545296983014219 0.044674578582556468 0 0.11545296983014219 0.044674578582556468 0 0.13015300311198849 0.040381385354086502 0 0.12683439495817461 0.052003073372435288 0 0.11882011836095251 0.0065886106746579649 0 0.1010264983121123 0.016262416429773479 0 0.12659142849079691 0.028091664155532971 0 0.1010264983121123 0.016262416429773479 0 0.12659142849079691 0.028091664155532971 0 0.1010264983121123 0.016262416429773479 0 0.1080469394596527 0.029312409717345649 0 0.12659142849079691 0.028091664155532971 0 0.11882011836095251 0.0065886106746579649 0 0.1010264983121123 0.016262416429773479 0 0.098011391193308373 -0.0056982583262641584 0 0.088041666307225416 0.02743399724937181 0 0.098246025398924644 0.032379674771496843 0 0.1010264983121123 0.016262416429773479 0 0.098246025398924644 0.032379674771496843 0 0.1010264983121123 0.016262416429773479 0 0.1080469394596527 0.029312409717345649 0 0.102028599401492 0.1079210482782756 0 0.1185648575779607 0.095458187827811403 0 0.097454497296707604 0.093489332089851121 0 0.102028599401492 0.1079210482782756 0 0.094862282777670462 0.1196438628042634 0 0.1117522404438802 0.12667258555115829 0 0.123281054128593 0.11724462113534739 0 0.1117522404438802 0.12667258555115829 0 0.13947052033133081 0.1245003570974072 0 0.102028599401492 0.1079210482782756 0 0.123281054128593 0.11724462113534739 0 0.1117522404438802 0.12667258555115829 0 0.102028599401492 0.1079210482782756 0 0.123281054128593 0.11724462113534739 0 0.102028599401492 0.1079210482782756 0 0.123281054128593 0.11724462113534739 0 0.1185648575779607 0.095458187827811403 0 0.1185648575779607 0.095458187827811403 0 0.10766661625946521 0.081617344394697103 0 0.12679961534922851 0.075073796793526271 0 0.1127439035567581 0.069567645006608142 0 0.10766661625946521 0.081617344394697103 0 0.12679961534922851 0.075073796793526271 0 0.1213053233293625 0.063977455960140386 0 0.1127439035567581 0.069567645006608142 0 0.12679961534922851 0.075073796793526271 0 0.1082136550722141 0.059696613986540442 0 0.1213053233293625 0.063977455960140386 0 0.1127439035567581 0.069567645006608142 0 0.1082136550722141 0.059696613986540442 0 0.089592915186254174 0.067390154600646832 0 0.1014387622560044 0.070574023901201433 0 0.10766661625946521 0.081617344394697103 0 0.08998097741878798 0.081820185866337797 0 0.1082136550722141 0.059696613986540442 0 0.1014387622560044 0.070574023901201433 0 0.089592915186254174 0.067390154600646832 0 0.1082136550722141 0.059696613986540442 0 0.1127439035567581 0.069567645006608142 0 0.1014387622560044 0.070574023901201433 0 0.1127439035567581 0.069567645006608142 0 0.1014387622560044 0.070574023901201433 0 0.10766661625946521 0.081617344394697103 0 0.1185648575779607 0.095458187827811403 0 0.097454497296707604 0.093489332089851121 0 0.10766661625946521 0.081617344394697103 0 0.097454497296707604 0.093489332089851121 0 0.10766661625946521 0.081617344394697103 0 0.08998097741878798 0.081820185866337797 0 0.097454497296707604 0.093489332089851121 0 0.08998097741878798 0.081820185866337797 0 0.080776144674391009 0.098597475421203867 0 0.08998097741878798 0.081820185866337797 0 0.071888117261322881 0.075707086101057836 0 0.080776144674391009 0.098597475421203867 0 0.08998097741878798 0.081820185866337797 0 0.089592915186254174 0.067390154600646832 0 0.071888117261322881 0.075707086101057836 0 0.1014387622560044 0.070574023901201433 0 0.08998097741878798 0.081820185866337797 0 0.089592915186254174 0.067390154600646832 0 0.072379857481358154 0.054137194478101919 0 0.089592915186254174 0.067390154600646832 0 0.071888117261322881 0.075707086101057836 0 0.072379857481358154 0.054137194478101919 0 0.071888117261322881 0.075707086101057836 0 0.06072113176624426 0.066105246874810966 0 0.071888117261322881 0.075707086101057836 0 0.080776144674391009 0.098597475421203867 0 0.059523689947290133 0.089273902564132146 0 0.069834633883481517 0.1065625652268001 0 0.059315065316452309 0.1025539410383776 0 0.059523689947290133 0.089273902564132146 0 0.080776144674391009 0.098597475421203867 0 0.059523689947290133 0.089273902564132146 0 0.069834633883481517 0.1065625652268001 0 0.080776144674391009 0.098597475421203867 0 0.081634330708880196 0.1151370033827101 0 0.069834633883481517 0.1065625652268001 0 0.080776144674391009 0.098597475421203867 0 0.059523689947290133 0.089273902564132146 0 0.069834633883481517 0.1065625652268001 0 0.064307476710745728 0.1098785041095611 0 0.059315065316452309 0.1025539410383776 0 0.102028599401492 0.1079210482782756 0 0.080776144674391009 0.098597475421203867 0 0.081634330708880196 0.1151370033827101 0 0.102028599401492 0.1079210482782756 0 0.080776144674391009 0.098597475421203867 0 0.102028599401492 0.1079210482782756 0 0.097454497296707604 0.093489332089851121 0 0.080776144674391009 0.098597475421203867 0 0.102028599401492 0.1079210482782756 0 0.094862282777670462 0.1196438628042634 0 0.081634330708880196 0.1151370033827101 0 0.094862282777670462 0.1196438628042634 0 0.081634330708880196 0.1151370033827101 0 0.084033960556429532 0.12884481400490949 0 0.081634330708880196 0.1151370033827101 0 0.071861500007931359 0.1232467005620789 0 0.084033960556429532 0.12884481400490949 0 0.081634330708880196 0.1151370033827101 0 0.071861500007931359 0.1232467005620789 0 0.068543873750645412 0.1149277749384955 0 0.069834633883481517 0.1065625652268001 0 0.081634330708880196 0.1151370033827101 0 0.068543873750645412 0.1149277749384955 0 0.068543873750645412 0.1149277749384955 0 0.064307476710745728 0.1098785041095611 0 0.059536333892403683 0.1154697352345713 0 0.069834633883481517 0.1065625652268001 0 0.068543873750645412 0.1149277749384955 0 0.064307476710745728 0.1098785041095611 0 0.071861500007931359 0.1232467005620789 0 0.068543873750645412 0.1149277749384955 0 0.059536333892403683 0.1154697352345713 0 0.056458373241313059 0.1220229844831647 0 0.046980594318971967 0.103944553472415 0 0.044984286063853948 0.1144984098979744 0 0.056458373241313059 0.1220229844831647 0 0.059536333892403683 0.1154697352345713 0 0.047111977694586651 0.095143209078012936 0 0.056458373241313059 0.1220229844831647 0 0.047823074661834691 0.1229743903388081 0 0.044984286063853948 0.1144984098979744 0 0.056458373241313059 0.1220229844831647 0 0.047111977694586651 0.095143209078012936 0 0.056458373241313059 0.1220229844831647 0 0.047111977694586651 0.095143209078012936 0 0.046980594318971967 0.103944553472415 0 0.059536333892403683 0.1154697352345713 0 0.059315065316452309 0.1025539410383776 0 0.048250118395506067 0.092934788779969885 0 0.064307476710745728 0.1098785041095611 0 0.059536333892403683 0.1154697352345713 0 0.059315065316452309 0.1025539410383776 0 0.059536333892403683 0.1154697352345713 0 0.047111977694586651 0.095143209078012936 0 0.048250118395506067 0.092934788779969885 0 0.059536333892403683 0.1154697352345713 0 0.048250118395506067 0.092934788779969885 0 0.059315065316452309 0.1025539410383776 0 0.059523689947290133 0.089273902564132146 0 0.048250118395506067 0.092934788779969885 0 0.046980594318971967 0.103944553472415 0 0.031997015267580219 0.10661530464401089 0 0.044984286063853948 0.1144984098979744 0 0.046980594318971967 0.103944553472415 0 0.039592722901722707 0.099159129702000026 0 0.031997015267580219 0.10661530464401089 0 0.047111977694586651 0.095143209078012936 0 0.046980594318971967 0.103944553472415 0 0.044236279529428407 0.098362398272746204 0 0.043259823202432338 0.095202700838556822 0 0.039592722901722707 0.099159129702000026 0 0.040006298791842428 0.091064350555588536 0 0.047111977694586651 0.095143209078012936 0 0.043259823202432338 0.095202700838556822 0 0.043326765309194368 0.091114650811160686 0 0.047111977694586651 0.095143209078012936 0 0.043259823202432338 0.095202700838556822 0 0.044236279529428407 0.098362398272746204 0 0.046980594318971967 0.103944553472415 0 0.044236279529428407 0.098362398272746204 0 0.039592722901722707 0.099159129702000026 0 0.043259823202432338 0.095202700838556822 0 0.044236279529428407 0.098362398272746204 0 0.039592722901722707 0.099159129702000026 0 0.039592722901722707 0.099159129702000026 0 0.040006298791842428 0.091064350555588536 0 0.033999193661208522 0.092549709374426317 0 0.039592722901722707 0.099159129702000026 0 0.031997015267580219 0.10661530464401089 0 0.033999193661208522 0.092549709374426317 0 0.031997015267580219 0.10661530464401089 0 0.044984286063853948 0.1144984098979744 0 0.040254683338031831 0.12792389191371131 0 0.031997015267580219 0.10661530464401089 0 0.027418588341799281 0.11951208787462859 0 0.040254683338031831 0.12792389191371131 0 0.031997015267580219 0.10661530464401089 0 0.040254683338031831 0.12792389191371131 0 0.047823074661834691 0.1229743903388081 0 0.044984286063853948 0.1144984098979744 0 0.040254683338031831 0.12792389191371131 0 0.071888117261322881 0.075707086101057836 0 0.050643578252195447 0.077240667131504986 0 0.06072113176624426 0.066105246874810966 0 0.071888117261322881 0.075707086101057836 0 0.050643578252195447 0.077240667131504986 0 0.04797297407010033 0.057336039788577382 0 0.050643578252195447 0.077240667131504986 0 0.06072113176624426 0.066105246874810966 0 0.059523689947290133 0.089273902564132146 0 0.048250118395506067 0.092934788779969885 0 0.038271235220189187 0.079950329707060411 0 0.050643578252195447 0.077240667131504986 0 0.059523689947290133 0.089273902564132146 0 0.038271235220189187 0.079950329707060411 0 0.059523689947290133 0.089273902564132146 0 0.038271235220189187 0.079950329707060411 0 0.071888117261322881 0.075707086101057836 0 0.050643578252195447 0.077240667131504986 0 0.059523689947290133 0.089273902564132146 0 0.050643578252195447 0.077240667131504986 0 0.038271235220189187 0.079950329707060411 0 0.029399039243067929 0.078774248161950916 0 0.043326765309194368 0.091114650811160686 0 0.040006298791842428 0.091064350555588536 0 0.038271235220189187 0.079950329707060411 0 0.048250118395506067 0.092934788779969885 0 0.043326765309194368 0.091114650811160686 0 0.038271235220189187 0.079950329707060411 0 0.047111977694586651 0.095143209078012936 0 0.048250118395506067 0.092934788779969885 0 0.043326765309194368 0.091114650811160686 0 0.043259823202432338 0.095202700838556822 0 0.043326765309194368 0.091114650811160686 0 0.040006298791842428 0.091064350555588536 0 0.040006298791842428 0.091064350555588536 0 0.033999193661208522 0.092549709374426317 0 0.035112272261912547 0.085996705185296951 0 0.033999193661208522 0.092549709374426317 0 0.035112272261912547 0.085996705185296951 0 0.030562463090829231 0.085656845023995995 0 0.040006298791842428 0.091064350555588536 0 0.035112272261912547 0.085996705185296951 0 0.038271235220189187 0.079950329707060411 0 0.035112272261912547 0.085996705185296951 0 0.038271235220189187 0.079950329707060411 0 0.029399039243067929 0.078774248161950916 0 0.035112272261912547 0.085996705185296951 0 0.029399039243067929 0.078774248161950916 0 0.030562463090829231 0.085656845023995995 0 0.04797297407010033 0.057336039788577382 0 0.027635028654909001 0.06907575978797427 0 0.029399039243067929 0.078774248161950916 0 0.04797297407010033 0.057336039788577382 0 0.050643578252195447 0.077240667131504986 0 0.029399039243067929 0.078774248161950916 0 0.050643578252195447 0.077240667131504986 0 0.029399039243067929 0.078774248161950916 0 0.04797297407010033 0.057336039788577382 0 0.029399039243067929 0.078774248161950916 0 0.01459521235494949 0.061710637509134872 0 0.030459386295035529 0.05963142741263059 0 0.017825248683011649 0.070045619055208203 0 0.01459521235494949 0.061710637509134872 0 0.017825248683011649 0.070045619055208203 0 0.030459386295035529 0.05963142741263059 0 0.017825248683011649 0.070045619055208203 0 0.030459386295035529 0.05963142741263059 0 0.017825248683011649 0.070045619055208203 0 0.027635028654909001 0.06907575978797427 0 0.027635028654909001 0.06907575978797427 0 0.021430743364398389 0.07934945609652827 0 0.029399039243067929 0.078774248161950916 0 0.017825248683011649 0.070045619055208203 0 0.027635028654909001 0.06907575978797427 0 0.021430743364398389 0.07934945609652827 0 0.017825248683011649 0.070045619055208203 0 0.021430743364398389 0.07934945609652827 0 0.023739347197128589 0.085306717374310406 0 0.0092582498306486675 0.1020209346744549 0 0.021430743364398389 0.07934945609652827 0 0.023739347197128589 0.085306717374310406 0 0.01369104835205702 0.085774757015682671 0 0.021430743364398389 0.07934945609652827 0 0.023739347197128589 0.085306717374310406 0 0.021430743364398389 0.07934945609652827 0 0.029399039243067929 0.078774248161950916 0 0.023739347197128589 0.085306717374310406 0 0.021430743364398389 0.07934945609652827 0 0.029399039243067929 0.078774248161950916 0 0.029399039243067929 0.078774248161950916 0 0.030562463090829231 0.085656845023995995 0 0.023739347197128589 0.085306717374310406 0 0.029399039243067929 0.078774248161950916 0 0.023739347197128589 0.085306717374310406 0 0.033999193661208522 0.092549709374426317 0 0.030562463090829231 0.085656845023995995 0 0.023739347197128589 0.085306717374310406 0 0.023739347197128589 0.085306717374310406 0 0.01369104835205702 0.085774757015682671 0 0.0092582498306486675 0.1020209346744549 0 0.0051087594610210148 0.080527692295617709 0 0.01369104835205702 0.085774757015682671 0 0.0092582498306486675 0.1020209346744549 0 0.021430743364398389 0.07934945609652827 0 0.0051087594610210148 0.080527692295617709 0 0.021430743364398389 0.07934945609652827 0 0.0051087594610210148 0.080527692295617709 0 0.01369104835205702 0.085774757015682671 0 -0.0012292332505543029 0.06378464068123596 0 0.01459521235494949 0.061710637509134872 0 -0.0012292332505543029 0.06378464068123596 0 0.01459521235494949 0.061710637509134872 0 0.0080955592782806732 0.069159055867407046 0 0.017825248683011649 0.070045619055208203 0 0.021430743364398389 0.07934945609652827 0 0.0051087594610210148 0.080527692295617709 0 -0.0012292332505543029 0.06378464068123596 0 0.0051087594610210148 0.080527692295617709 0 0.0080955592782806732 0.069159055867407046 0 0.017825248683011649 0.070045619055208203 0 0.0051087594610210148 0.080527692295617709 0 0.0080955592782806732 0.069159055867407046 0 0.017825248683011649 0.070045619055208203 0 0.0051087594610210148 0.080527692295617709 0 0.01459521235494949 0.061710637509134872 0 0.017825248683011649 0.070045619055208203 0 0.0080955592782806732 0.069159055867407046 0 0.019482067178466251 0.1107491432724047 0 0.017356945103072018 0.1204998149293544 0 0.027418588341799281 0.11951208787462859 0 0.017356945103072018 0.1204998149293544 0 0.027418588341799281 0.11951208787462859 0 0.028136896369567631 0.1331750506540591 0 0.031997015267580219 0.10661530464401089 0 0.019482067178466251 0.1107491432724047 0 0.027418588341799281 0.11951208787462859 0 0.031997015267580219 0.10661530464401089 0 0.033999193661208522 0.092549709374426317 0 0.023739347197128589 0.085306717374310406 0 0.023739347197128589 0.085306717374310406 0 0.02108550348152554 0.10082233348119581 0 0.0092582498306486675 0.1020209346744549 0 0.031997015267580219 0.10661530464401089 0 0.023739347197128589 0.085306717374310406 0 0.031997015267580219 0.10661530464401089 0 0.023739347197128589 0.085306717374310406 0 0.02108550348152554 0.10082233348119581 0 0.031997015267580219 0.10661530464401089 0 0.019482067178466251 0.1107491432724047 0 0.02108550348152554 0.10082233348119581 0 0.019482067178466251 0.1107491432724047 0 0.02108550348152554 0.10082233348119581 0 0.0092582498306486675 0.1020209346744549 0 -0.0040597014752050652 0.1051126182356364 0 0.0051087594610210148 0.080527692295617709 0 0.0092582498306486675 0.1020209346744549 0 0.019482067178466251 0.1107491432724047 0 0.0092582498306486675 0.1020209346744549 0 0.0097761010461718117 0.1150243840307837 0 -0.0052228475358298988 0.1187351519746004 0 0.0092582498306486675 0.1020209346744549 0 -0.0052228475358298988 0.1187351519746004 0 0.0092582498306486675 0.1020209346744549 0 0.0097761010461718117 0.1150243840307837 0 0.019482067178466251 0.1107491432724047 0 0.017356945103072018 0.1204998149293544 0 0.0097761010461718117 0.1150243840307837 0 0.017356945103072018 0.1204998149293544 0 0.0081407562022233586 0.1245196413435004 0 0.017356945103072018 0.1204998149293544 0 0.0097761010461718117 0.1150243840307837 0 0.0081407562022233586 0.1245196413435004 0 -0.0052228475358298988 0.1187351519746004 0 0.0097761010461718117 0.1150243840307837 0 0.0081407562022233586 0.1245196413435004 0 -0.0052228475358298988 0.1187351519746004 0 0.0081407562022233586 0.1245196413435004 0 -0.015783289274076458 0.13495459563681389 0 0.0081407562022233586 0.1245196413435004 0 0.01185912902997375 0.14130758542593569 0 0.017356945103072018 0.1204998149293544 0 0.0081407562022233586 0.1245196413435004 0 0.028136896369567631 0.1331750506540591 0 0.0081407562022233586 0.1245196413435004 0 0.028136896369567631 0.1331750506540591 0 0.0081407562022233586 0.1245196413435004 0 0.028136896369567631 0.1331750506540591 0 0.01185912902997375 0.14130758542593569 0 0.028136896369567631 0.1331750506540591 0 0.0267736462585265 0.15269096182544131 0 0.035919394343652343 0.14075559589415579 0 0.028136896369567631 0.1331750506540591 0 0.0267736462585265 0.15269096182544131 0 0.01185912902997375 0.14130758542593569 0 0.0267736462585265 0.15269096182544131 0 0.001788155555331062 0.1557637096651584 0 0.01185912902997375 0.14130758542593569 0 0.001788155555331062 0.1557637096651584 0 0.00061104658230836653 0.17769045695541219 0 0.019359600384737739 0.17657282369350361 0 0.001788155555331062 0.1557637096651584 0 0.019359600384737739 0.17657282369350361 0 0.00061104658230836653 0.17769045695541219 0 0.019359600384737739 0.17657282369350361 0 0.017852612557627559 0.19656860209324539 0 0.019359600384737739 0.17657282369350361 0 0.036931045214144441 0.19738193772184889 0 0.0267736462585265 0.15269096182544131 0 0.001788155555331062 0.1557637096651584 0 0.019359600384737739 0.17657282369350361 0 0.0267736462585265 0.15269096182544131 0 0.019359600384737739 0.17657282369350361 0 0.038399134829123632 0.17159850230738899 0 0.0267736462585265 0.15269096182544131 0 0.038399134829123632 0.17159850230738899 0 0.048512351408483409 0.1492324791834117 0 0.019359600384737739 0.17657282369350361 0 0.038399134829123632 0.17159850230738899 0 0.036931045214144441 0.19738193772184889 0 0.038399134829123632 0.17159850230738899 0 0.053915020648589329 0.181809847856817 0 0.036931045214144441 0.19738193772184889 0 0.053915020648589329 0.181809847856817 0 0.056298621576963533 0.16595151756685289 0 0.075151164334765874 0.17578253529346821 0 0.038399134829123632 0.17159850230738899 0 0.053915020648589329 0.181809847856817 0 0.056298621576963533 0.16595151756685289 0 0.038399134829123632 0.17159850230738899 0 0.056298621576963533 0.16595151756685289 0 0.048512351408483409 0.1492324791834117 0 0.048512351408483409 0.1492324791834117 0 0.055211699142625699 0.13746009370018761 0 0.065804768788039439 0.14890275988831639 0 0.056298621576963533 0.16595151756685289 0 0.048512351408483409 0.1492324791834117 0 0.065804768788039439 0.14890275988831639 0 0.048512351408483409 0.1492324791834117 0 0.055211699142625699 0.13746009370018761 0 0.049904412172306151 0.13036597214331841 0 0.056458373241313059 0.1220229844831647 0 0.059536333892403683 0.1154697352345713 0 0.070822549389301243 0.1380046816891726 0 0.056458373241313059 0.1220229844831647 0 0.055211699142625699 0.13746009370018761 0 0.065804768788039439 0.14890275988831639 0 0.056458373241313059 0.1220229844831647 0 0.065804768788039439 0.14890275988831639 0 0.056458373241313059 0.1220229844831647 0 0.047823074661834691 0.1229743903388081 0 0.049904412172306151 0.13036597214331841 0 0.056458373241313059 0.1220229844831647 0 0.055211699142625699 0.13746009370018761 0 0.049904412172306151 0.13036597214331841 0 0.048512351408483409 0.1492324791834117 0 0.040254683338031831 0.12792389191371131 0 0.048512351408483409 0.1492324791834117 0 0.040254683338031831 0.12792389191371131 0 0.035919394343652343 0.14075559589415579 0 0.048512351408483409 0.1492324791834117 0 0.049904412172306151 0.13036597214331841 0 0.040254683338031831 0.12792389191371131 0 0.047823074661834691 0.1229743903388081 0 0.049904412172306151 0.13036597214331841 0 0.040254683338031831 0.12792389191371131 0 0.027418588341799281 0.11951208787462859 0 0.028136896369567631 0.1331750506540591 0 0.040254683338031831 0.12792389191371131 0 0.028136896369567631 0.1331750506540591 0 0.040254683338031831 0.12792389191371131 0 0.035919394343652343 0.14075559589415579 0 0.0267736462585265 0.15269096182544131 0 0.048512351408483409 0.1492324791834117 0 0.035919394343652343 0.14075559589415579 0 0.020197736684044801 0.2291273398277828 0 0.034114961552744377 0.23516115760169301 0 0.036501911092354018 0.25177276941539839 0 0.018629400856135309 0.24429501886194191 0 0.020197736684044801 0.2291273398277828 0 0.02692674034290404 0.25134916217479408 0 0.020197736684044801 0.2291273398277828 0 0.02692674034290404 0.25134916217479408 0 0.036501911092354018 0.25177276941539839 0 0.020197736684044801 0.2291273398277828 0 0.036501911092354018 0.25177276941539839 0 0.018629400856135309 0.24429501886194191 0 0.0082785766384091443 0.23618007315607359 0 0.020197736684044801 0.2291273398277828 0 0.018629400856135309 0.24429501886194191 0 0.012944211518790589 0.24639919126045251 0 0.0082785766384091443 0.23618007315607359 0 0.012944211518790589 0.24639919126045251 0 0.001894876929373096 0.24743045501984201 0 0.0082785766384091443 0.23618007315607359 0 -0.0070773620087705444 0.23295897308755351 0 0.001894876929373096 0.24743045501984201 0 0.0082785766384091443 0.23618007315607359 0 0.0082785766384091443 0.23618007315607359 0 0.0038866256090455522 0.2239579318999283 0 0.020197736684044801 0.2291273398277828 0 0.0038866256090455522 0.2239579318999283 0 0.020197736684044801 0.2291273398277828 0 0.003893562275735573 0.2064819102401671 0 -0.0070773620087705444 0.23295897308755351 0 0.0082785766384091443 0.23618007315607359 0 0.0038866256090455522 0.2239579318999283 0 0.01643925603633389 0.21561198758054059 0 0.035370792182188207 0.216260201755786 0 0.034114961552744377 0.23516115760169301 0 0.020197736684044801 0.2291273398277828 0 0.01643925603633389 0.21561198758054059 0 0.034114961552744377 0.23516115760169301 0 0.01643925603633389 0.21561198758054059 0 0.034114961552744377 0.23516115760169301 0 0.017852612557627559 0.19656860209324539 0 0.036931045214144441 0.19738193772184889 0 0.035370792182188207 0.216260201755786 0 0.01643925603633389 0.21561198758054059 0 0.017852612557627559 0.19656860209324539 0 0.035370792182188207 0.216260201755786 0 0.020197736684044801 0.2291273398277828 0 0.003893562275735573 0.2064819102401671 0 -0.0045317147067566524 0.21522543551468479 0 0.0038866256090455522 0.2239579318999283 0 0.003893562275735573 0.2064819102401671 0 -0.0012364494800765971 0.1960628175593882 0 0.01643925603633389 0.21561198758054059 0 -0.0012364494800765971 0.1960628175593882 0 0.01643925603633389 0.21561198758054059 0 0.003893562275735573 0.2064819102401671 0 0.020197736684044801 0.2291273398277828 0 0.01643925603633389 0.21561198758054059 0 0.003893562275735573 0.2064819102401671 0 -0.0012364494800765971 0.1960628175593882 0 0.01643925603633389 0.21561198758054059 0 0.017852612557627559 0.19656860209324539 0 -0.0012364494800765971 0.1960628175593882 0 0.00061104658230836653 0.17769045695541219 0 0.017852612557627559 0.19656860209324539 0 0.019359600384737739 0.17657282369350361 0 0.017852612557627559 0.19656860209324539 0 0.036931045214144441 0.19738193772184889 0 0.053915020648589329 0.181809847856817 0 0.036931045214144441 0.19738193772184889 0 0.062795137287949193 0.19833474639452611 0 0.036931045214144441 0.19738193772184889 0 0.054502490043551163 0.2181910517501941 0 0.062795137287949193 0.19833474639452611 0 0.036931045214144441 0.19738193772184889 0 0.054502490043551163 0.2181910517501941 0 0.036931045214144441 0.19738193772184889 0 0.054502490043551163 0.2181910517501941 0 0.035370792182188207 0.216260201755786 0 0.054502490043551163 0.2181910517501941 0 0.035370792182188207 0.216260201755786 0 0.034114961552744377 0.23516115760169301 0 0.054502490043551163 0.2181910517501941 0 0.055174909047777811 0.2396291133956362 0 0.034114961552744377 0.23516115760169301 0 0.054502490043551163 0.2181910517501941 0 0.055174909047777811 0.2396291133956362 0 0.072073934872957782 0.23900016577853919 0 0.055174909047777811 0.2396291133956362 0 0.034114961552744377 0.23516115760169301 0 0.051790667069154861 0.2547103276228454 0 0.055174909047777811 0.2396291133956362 0 0.051790667069154861 0.2547103276228454 0 0.063392491700480919 0.2510828642249095 0 0.034114961552744377 0.23516115760169301 0 0.036501911092354018 0.25177276941539839 0 0.051790667069154861 0.2547103276228454 0 0.034114961552744377 0.23516115760169301 0 0.051790667069154861 0.2547103276228454 0 0.072073934872957782 0.23900016577853919 0 0.093843955428218759 0.229542086103772 0 0.089645379702363526 0.25980927980688501 0 0.072073934872957782 0.23900016577853919 0 0.089645379702363526 0.25980927980688501 0 0.055174909047777811 0.2396291133956362 0 0.072073934872957782 0.23900016577853919 0 0.063392491700480919 0.2510828642249095 0 0.072073934872957782 0.23900016577853919 0 0.063392491700480919 0.2510828642249095 0 0.074261774750864804 0.25289133929391111 0 0.054502490043551163 0.2181910517501941 0 0.072073934872957782 0.23900016577853919 0 0.054502490043551163 0.2181910517501941 0 0.072073934872957782 0.23900016577853919 0 0.07691655231929137 0.22036312128655 0 0.072073934872957782 0.23900016577853919 0 0.07691655231929137 0.22036312128655 0 0.093843955428218759 0.229542086103772 0 0.084497559881492323 0.20266231069862009 0 0.1011551627426199 0.2154511434485995 0 0.093843955428218759 0.229542086103772 0 0.084497559881492323 0.20266231069862009 0 0.093843955428218759 0.229542086103772 0 0.07691655231929137 0.22036312128655 0 0.084497559881492323 0.20266231069862009 0 0.093843955428218759 0.229542086103772 0 0.07691655231929137 0.22036312128655 0 0.062795137287949193 0.19833474639452611 0 0.084497559881492323 0.20266231069862009 0 0.054502490043551163 0.2181910517501941 0 0.07691655231929137 0.22036312128655 0 0.062795137287949193 0.19833474639452611 0 0.062795137287949193 0.19833474639452611 0 0.084497559881492323 0.20266231069862009 0 0.075151164334765874 0.17578253529346821 0 0.084497559881492323 0.20266231069862009 0 0.075151164334765874 0.17578253529346821 0 0.084497559881492323 0.20266231069862009 0 0.10184565838461331 0.1924014028594688 0 0.093394980383096363 0.18307457459837531 0 0.084497559881492323 0.20266231069862009 0 0.10184565838461331 0.1924014028594688 0 0.10260278643249959 0.20376756124449391 0 0.10184565838461331 0.1924014028594688 0 0.1105875138732399 0.1994169567440035 0 0.10260278643249959 0.20376756124449391 0 0.10184565838461331 0.1924014028594688 0 0.1131184160342838 0.18994185980391479 0 0.1105875138732399 0.1994169567440035 0 0.10184565838461331 0.1924014028594688 0 0.1131184160342838 0.18994185980391479 0 0.1054525685194168 0.18020148819897211 0 0.1131184160342838 0.18994185980391479 0 0.1210814068145178 0.19423580856195369 0 0.1131184160342838 0.18994185980391479 0 0.1210814068145178 0.19423580856195369 0 0.1196286990311512 0.18236386641526309 0 0.1210814068145178 0.19423580856195369 0 0.11958782189190099 0.20227867846385961 0 0.13241563583181001 0.2003476577346209 0 0.1131184160342838 0.18994185980391479 0 0.1210814068145178 0.19423580856195369 0 0.11958782189190099 0.20227867846385961 0 0.1131184160342838 0.18994185980391479 0 0.11958782189190099 0.20227867846385961 0 0.1105875138732399 0.1994169567440035 0 0.11958782189190099 0.20227867846385961 0 0.1105875138732399 0.1994169567440035 0 0.11467542950451071 0.21015036581969679 0 0.11958782189190099 0.20227867846385961 0 0.11467542950451071 0.21015036581969679 0 0.12714211421566091 0.2115365522170618 0 0.11467542950451071 0.21015036581969679 0 0.1287590091161889 0.22454109023782651 0 0.12714211421566091 0.2115365522170618 0 0.11467542950451071 0.21015036581969679 0 0.1011551627426199 0.2154511434485995 0 0.1117838155087727 0.22779371718329239 0 0.084497559881492323 0.20266231069862009 0 0.10260278643249959 0.20376756124449391 0 0.1011551627426199 0.2154511434485995 0 0.1105875138732399 0.1994169567440035 0 0.11467542950451071 0.21015036581969679 0 0.10260278643249959 0.20376756124449391 0 0.11467542950451071 0.21015036581969679 0 0.10260278643249959 0.20376756124449391 0 0.1011551627426199 0.2154511434485995 0 0.1011551627426199 0.2154511434485995 0 0.093843955428218759 0.229542086103772 0 0.1117838155087727 0.22779371718329239 0 0.11467542950451071 0.21015036581969679 0 0.1117838155087727 0.22779371718329239 0 0.1287590091161889 0.22454109023782651 0 0.1117838155087727 0.22779371718329239 0 0.1287590091161889 0.22454109023782651 0 0.116065923487036 0.25155424759680489 0 0.093843955428218759 0.229542086103772 0 0.089645379702363526 0.25980927980688501 0 0.116065923487036 0.25155424759680489 0 0.093843955428218759 0.229542086103772 0 0.1117838155087727 0.22779371718329239 0 0.116065923487036 0.25155424759680489 0 0.085867858697711436 0.14453522140638461 0 0.070822549389301243 0.1380046816891726 0 0.082108764886198796 0.1605396281437739 0 0.085867858697711436 0.14453522140638461 0 0.082108764886198796 0.1605396281437739 0 0.098061838006449922 0.1524476624703702 0 0.085867858697711436 0.14453522140638461 0 0.084033960556429532 0.12884481400490949 0 0.098019367542785563 0.1407790739484335 0 0.085867858697711436 0.14453522140638461 0 0.084033960556429532 0.12884481400490949 0 0.070822549389301243 0.1380046816891726 0 0.071861500007931359 0.1232467005620789 0 0.059536333892403683 0.1154697352345713 0 0.070822549389301243 0.1380046816891726 0 0.059536333892403683 0.1154697352345713 0 0.070822549389301243 0.1380046816891726 0 0.056458373241313059 0.1220229844831647 0 0.070822549389301243 0.1380046816891726 0 0.065804768788039439 0.14890275988831639 0 0.071861500007931359 0.1232467005620789 0 0.084033960556429532 0.12884481400490949 0 0.070822549389301243 0.1380046816891726 0 0.070822549389301243 0.1380046816891726 0 0.082108764886198796 0.1605396281437739 0 0.070822549389301243 0.1380046816891726 0 0.065804768788039439 0.14890275988831639 0 0.082108764886198796 0.1605396281437739 0 0.056298621576963533 0.16595151756685289 0 0.065804768788039439 0.14890275988831639 0 0.075151164334765874 0.17578253529346821 0 0.065804768788039439 0.14890275988831639 0 0.075151164334765874 0.17578253529346821 0 0.082108764886198796 0.1605396281437739 0 0.065804768788039439 0.14890275988831639 0 0.075151164334765874 0.17578253529346821 0 0.053915020648589329 0.181809847856817 0 0.062795137287949193 0.19833474639452611 0 0.075151164334765874 0.17578253529346821 0 0.075151164334765874 0.17578253529346821 0 0.093394980383096363 0.18307457459837531 0 0.082108764886198796 0.1605396281437739 0 0.084497559881492323 0.20266231069862009 0 0.075151164334765874 0.17578253529346821 0 0.093394980383096363 0.18307457459837531 0 0.093394980383096363 0.18307457459837531 0 0.082108764886198796 0.1605396281437739 0 0.1017810834163356 0.16778327145988009 0 0.093394980383096363 0.18307457459837531 0 0.082108764886198796 0.1605396281437739 0 0.082108764886198796 0.1605396281437739 0 0.1017810834163356 0.16778327145988009 0 0.098061838006449922 0.1524476624703702 0 0.1017810834163356 0.16778327145988009 0 0.1094413004412432 0.1568441156191657 0 0.098061838006449922 0.1524476624703702 0 0.10184565838461331 0.1924014028594688 0 0.093394980383096363 0.18307457459837531 0 0.1054525685194168 0.18020148819897211 0 0.093394980383096363 0.18307457459837531 0 0.1017810834163356 0.16778327145988009 0 0.1054525685194168 0.18020148819897211 0 0.1017810834163356 0.16778327145988009 0 0.1054525685194168 0.18020148819897211 0 0.1143103312636523 0.17467474260035151 0 0.1131184160342838 0.18994185980391479 0 0.1132877880089454 0.18182979361660931 0 0.1196286990311512 0.18236386641526309 0 0.1131184160342838 0.18994185980391479 0 0.1054525685194168 0.18020148819897211 0 0.1132877880089454 0.18182979361660931 0 0.1054525685194168 0.18020148819897211 0 0.1132877880089454 0.18182979361660931 0 0.1143103312636523 0.17467474260035151 0 0.1132877880089454 0.18182979361660931 0 0.1143103312636523 0.17467474260035151 0 0.1196286990311512 0.18236386641526309 0 0.1143103312636523 0.17467474260035151 0 0.1229466648353691 0.17360959233997481 0 0.1196286990311512 0.18236386641526309 0 0.1229466648353691 0.17360959233997481 0 0.1196286990311512 0.18236386641526309 0 0.1315359285025598 0.17914174819028489 0 0.1210814068145178 0.19423580856195369 0 0.1196286990311512 0.18236386641526309 0 0.1315359285025598 0.17914174819028489 0 0.1017810834163356 0.16778327145988009 0 0.1143103312636523 0.17467474260035151 0 0.11826309888899959 0.1638296446882945 0 0.1017810834163356 0.16778327145988009 0 0.1094413004412432 0.1568441156191657 0 0.11826309888899959 0.1638296446882945 0 0.1094413004412432 0.1568441156191657 0 0.11826309888899959 0.1638296446882945 0 0.12116198843957229 0.15461983439099389 0 0.1143103312636523 0.17467474260035151 0 0.1229466648353691 0.17360959233997481 0 0.11826309888899959 0.1638296446882945 0 0.1229466648353691 0.17360959233997481 0 0.11826309888899959 0.1638296446882945 0 0.1286748755814317 0.16568949079043779 0 0.11826309888899959 0.1638296446882945 0 0.12116198843957229 0.15461983439099389 0 0.1286748755814317 0.16568949079043779 0 0.12116198843957229 0.15461983439099389 0 0.1235319134973574 0.14279740261083959 0 0.11069945258584669 0.14552439304262721 0 0.1094413004412432 0.1568441156191657 0 0.12116198843957229 0.15461983439099389 0 0.11069945258584669 0.14552439304262721 0 0.1094413004412432 0.1568441156191657 0 0.11069945258584669 0.14552439304262721 0 0.098061838006449922 0.1524476624703702 0 0.11069945258584669 0.14552439304262721 0 0.098019367542785563 0.1407790739484335 0 0.098061838006449922 0.1524476624703702 0 0.085867858697711436 0.14453522140638461 0 0.098019367542785563 0.1407790739484335 0 0.098061838006449922 0.1524476624703702 0 0.084033960556429532 0.12884481400490949 0 0.1117522404438802 0.12667258555115829 0 0.094862282777670462 0.1196438628042634 0 0.084033960556429532 0.12884481400490949 0 0.1117522404438802 0.12667258555115829 0 0.084033960556429532 0.12884481400490949 0 0.098019367542785563 0.1407790739484335 0 0.1117522404438802 0.12667258555115829 0 0.11069945258584669 0.14552439304262721 0 0.098019367542785563 0.1407790739484335 0 0.1117522404438802 0.12667258555115829 0 0.1235319134973574 0.14279740261083959 0 0.11069945258584669 0.14552439304262721 0 0.1117522404438802 0.12667258555115829 0 0.1235319134973574 0.14279740261083959 0 0.1117522404438802 0.12667258555115829 0 0.1338250830151082 0.13680555700437169 0 0.1117522404438802 0.12667258555115829 0 0.1338250830151082 0.13680555700437169 0 0.13947052033133081 0.1245003570974072 0 0.1117522404438802 0.12667258555115829 0 0.13947052033133081 0.1245003570974072 0 0.1338250830151082 0.13680555700437169 0 0.14773514824261011 0.13994704674368119 0 0.13947052033133081 0.1245003570974072 0 0.14773514824261011 0.13994704674368119 0 0.13947052033133081 0.1245003570974072 0 0.16718880021878149 0.12232812864365609 0 0.14773514824261011 0.13994704674368119 0 0.1492794596183103 0.15557552201751701 0 0.16307655427518189 0.1461583771030025 0 0.14773514824261011 0.13994704674368119 0 0.1492794596183103 0.15557552201751701 0 0.13636128964255501 0.15303395959459851 0 0.1235319134973574 0.14279740261083959 0 0.1338250830151082 0.13680555700437169 0 0.13636128964255501 0.15303395959459851 0 0.1338250830151082 0.13680555700437169 0 0.14773514824261011 0.13994704674368119 0 0.13636128964255501 0.15303395959459851 0 0.12116198843957229 0.15461983439099389 0 0.1235319134973574 0.14279740261083959 0 0.13636128964255501 0.15303395959459851 0 0.12116198843957229 0.15461983439099389 0 0.13636128964255501 0.15303395959459851 0 0.1286748755814317 0.16568949079043779 0 0.13636128964255501 0.15303395959459851 0 0.1286748755814317 0.16568949079043779 0 0.1402599975996246 0.1687496010839549 0 0.1286748755814317 0.16568949079043779 0 0.1402599975996246 0.1687496010839549 0 0.1315359285025598 0.17914174819028489 0 0.1210814068145178 0.19423580856195369 0 0.1315359285025598 0.17914174819028489 0 0.14172685770208041 0.18088834424850889 0 0.1229466648353691 0.17360959233997481 0 0.1286748755814317 0.16568949079043779 0 0.1315359285025598 0.17914174819028489 0 0.1402599975996246 0.1687496010839549 0 0.1315359285025598 0.17914174819028489 0 0.14172685770208041 0.18088834424850889 0 0.1315359285025598 0.17914174819028489 0 0.14172685770208041 0.18088834424850889 0 0.14172685770208041 0.18088834424850889 0 0.1589643083315804 0.1699886255623487 0 0.15664227980061579 0.1834446584897341 0 0.14172685770208041 0.18088834424850889 0 0.1589643083315804 0.1699886255623487 0 0.1402599975996246 0.1687496010839549 0 0.14172685770208041 0.18088834424850889 0 0.1589643083315804 0.1699886255623487 0 0.14172685770208041 0.18088834424850889 0 0.15664227980061579 0.1834446584897341 0 0.14735069213281321 0.19092796682168489 0 0.14172685770208041 0.18088834424850889 0 0.15664227980061579 0.1834446584897341 0 0.1492794596183103 0.15557552201751701 0 0.1402599975996246 0.1687496010839549 0 0.1589643083315804 0.1699886255623487 0 0.1492794596183103 0.15557552201751701 0 0.13636128964255501 0.15303395959459851 0 0.1402599975996246 0.1687496010839549 0 0.1492794596183103 0.15557552201751701 0 0.1589643083315804 0.1699886255623487 0 0.16307655427518189 0.1461583771030025 0 0.1589643083315804 0.1699886255623487 0 0.1832181015668064 0.15465227861531949 0 0.16307655427518189 0.1461583771030025 0 0.1589643083315804 0.1699886255623487 0 0.16307655427518189 0.1461583771030025 0 0.1589643083315804 0.1699886255623487 0 0.1832181015668064 0.15465227861531949 0 0.1589643083315804 0.1699886255623487 0 0.15664227980061579 0.1834446584897341 0 0.17367876449497299 0.17356388092826039 0 0.15664227980061579 0.1834446584897341 0 0.17803712215301101 0.18711146321258301 0 0.15664227980061579 0.1834446584897341 0 0.17367876449497299 0.17356388092826039 0 0.17803712215301101 0.18711146321258301 0 0.1589643083315804 0.1699886255623487 0 0.15664227980061579 0.1834446584897341 0 0.17367876449497299 0.17356388092826039 0 0.17803712215301101 0.18711146321258301 0 0.1915320106228488 0.17262237876131631 0 0.1589643083315804 0.1699886255623487 0 0.17367876449497299 0.17356388092826039 0 0.1832181015668064 0.15465227861531949 0 0.17367876449497299 0.17356388092826039 0 0.1832181015668064 0.15465227861531949 0 0.1915320106228488 0.17262237876131631 0 0.1832181015668064 0.15465227861531949 0 0.18154761934540289 0.13534417850528041 0 0.16307655427518189 0.1461583771030025 0 0.18154761934540289 0.13534417850528041 0 0.19370351113240411 0.1202502215829211 0 0.16718880021878149 0.12232812864365609 0 0.16307655427518189 0.1461583771030025 0 0.16718880021878149 0.12232812864365609 0 0.14773514824261011 0.13994704674368119 0 0.16307655427518189 0.1461583771030025 0 0.16718880021878149 0.12232812864365609 0 0.18154761934540289 0.13534417850528041 0 0.16307655427518189 0.1461583771030025 0 0.16718880021878149 0.12232812864365609 0 0.14248646727170791 0.24329921538672239 0 0.16890701105638031 0.23504418317664161 0 0.14248646727170791 0.24329921538672239 0 0.116065923487036 0.25155424759680489 0 0.14248646727170791 0.24329921538672239 0 0.1287590091161889 0.22454109023782651 0 0.116065923487036 0.25155424759680489 0 0.14248646727170791 0.24329921538672239 0 0.1287590091161889 0.22454109023782651 0 0.14216045677169509 0.2226427774354276 0 0.1287590091161889 0.22454109023782651 0 0.14216045677169509 0.2226427774354276 0 0.13903299807830019 0.21154409335764149 0 0.14248646727170791 0.24329921538672239 0 0.14216045677169509 0.2226427774354276 0 0.16890701105638031 0.23504418317664161 0 0.14216045677169509 0.2226427774354276 0 0.1513137794066001 0.21432303737238931 0 0.16890701105638031 0.23504418317664161 0 0.15183105921464751 0.210852851725322 0 0.13241563583181001 0.2003476577346209 0 0.15183105921464751 0.210852851725322 0 0.13903299807830019 0.21154409335764149 0 0.13241563583181001 0.2003476577346209 0 0.1513137794066001 0.21432303737238931 0 0.15183105921464751 0.210852851725322 0 0.14522842943996589 0.21534193400985699 0 0.1513137794066001 0.21432303737238931 0 0.15183105921464751 0.210852851725322 0 0.15183105921464751 0.210852851725322 0 0.14522842943996589 0.21534193400985699 0 0.13903299807830019 0.21154409335764149 0 0.14216045677169509 0.2226427774354276 0 0.1513137794066001 0.21432303737238931 0 0.14522842943996589 0.21534193400985699 0 0.14216045677169509 0.2226427774354276 0 0.14522842943996589 0.21534193400985699 0 0.13903299807830019 0.21154409335764149 0 0.1287590091161889 0.22454109023782651 0 0.13903299807830019 0.21154409335764149 0 0.12714211421566091 0.2115365522170618 0 0.11958782189190099 0.20227867846385961 0 0.12714211421566091 0.2115365522170618 0 0.13241563583181001 0.2003476577346209 0 0.13903299807830019 0.21154409335764149 0 0.12714211421566091 0.2115365522170618 0 0.13241563583181001 0.2003476577346209 0 0.1210814068145178 0.19423580856195369 0 0.13241563583181001 0.2003476577346209 0 0.13808072668616231 0.19149491569441959 0 0.1210814068145178 0.19423580856195369 0 0.14172685770208041 0.18088834424850889 0 0.13808072668616231 0.19149491569441959 0 0.1210814068145178 0.19423580856195369 0 0.14172685770208041 0.18088834424850889 0 0.1210814068145178 0.19423580856195369 0 0.13241563583181001 0.2003476577346209 0 0.15664227980061579 0.1834446584897341 0 0.15183105921464751 0.210852851725322 0 0.14735069213281321 0.19092796682168489 0 0.14172685770208041 0.18088834424850889 0 0.13808072668616231 0.19149491569441959 0 0.14735069213281321 0.19092796682168489 0 0.15183105921464751 0.210852851725322 0 0.13808072668616231 0.19149491569441959 0 0.14735069213281321 0.19092796682168489 0 0.15664227980061579 0.1834446584897341 0 0.15183105921464751 0.210852851725322 0 0.15183105921464751 0.210852851725322 0 0.13241563583181001 0.2003476577346209 0 0.13808072668616231 0.19149491569441959 0 0.15183105921464751 0.210852851725322 0 0.13808072668616231 0.19149491569441959 0 0.15664227980061579 0.1834446584897341 0 0.17803712215301101 0.18711146321258301 0 0.17078007948547791 0.20461318166966591 0 0.15664227980061579 0.1834446584897341 0 0.15183105921464751 0.210852851725322 0 0.17078007948547791 0.20461318166966591 0 0.17803712215301101 0.18711146321258301 0 0.18699821765939811 0.20575379358823331 0 0.17078007948547791 0.20461318166966591 0 0.18699821765939811 0.20575379358823331 0 0.18150256540618689 0.21619068467845909 0 0.17078007948547791 0.20461318166966591 0 0.18150256540618689 0.21619068467845909 0 0.17078007948547791 0.20461318166966591 0 0.1696832039875637 0.2204437538389574 0 0.15183105921464751 0.210852851725322 0 0.1696832039875637 0.2204437538389574 0 0.15183105921464751 0.210852851725322 0 0.17078007948547791 0.20461318166966591 0 0.1696832039875637 0.2204437538389574 0 0.15183105921464751 0.210852851725322 0 0.16890701105638031 0.23504418317664161 0 0.15183105921464751 0.210852851725322 0 0.1696832039875637 0.2204437538389574 0 0.16890701105638031 0.23504418317664161 0 0.1513137794066001 0.21432303737238931 0 0.15183105921464751 0.210852851725322 0 0.16890701105638031 0.23504418317664161 0 0.1696832039875637 0.2204437538389574 0 0.1730962958839812 0.23373525170759399 0 0.16890701105638031 0.23504418317664161 0 0.18150256540618689 0.21619068467845909 0 0.1696832039875637 0.2204437538389574 0 0.1874551123034256 0.23002704556275291 0 0.1696832039875637 0.2204437538389574 0 0.1874551123034256 0.23002704556275291 0 0.1730962958839812 0.23373525170759399 0 0.1696832039875637 0.2204437538389574 0 0.1874551123034256 0.23002704556275291 0 0.16890701105638031 0.23504418317664161 0 0.18564289691528729 0.25868749876629671 0 0.1821848497420967 0.24129823675235251 0 0.16890701105638031 0.23504418317664161 0 0.18564289691528729 0.25868749876629671 0 0.1730962958839812 0.23373525170759399 0 0.1821848497420967 0.24129823675235251 0 0.16890701105638031 0.23504418317664161 0 0.1874551123034256 0.23002704556275291 0 0.1730962958839812 0.23373525170759399 0 0.1821848497420967 0.24129823675235251 0 0.14248646727170791 0.24329921538672239 0 0.16890701105638031 0.23504418317664161 0 0.1631161995596529 0.25657386530356069 0 0.1730962958839812 0.23373525170759399 0 0.16890701105638031 0.23504418317664161 0 0.2052270206192876 0.23961033728654851 0 0.2245441737887168 0.23093760545441711 0 0.21458810326103989 0.25029177234766842 0 0.2052270206192876 0.23961033728654851 0 0.2050239072751949 0.2492833193895482 0 0.21458810326103989 0.25029177234766842 0 0.2052270206192876 0.23961033728654851 0 0.2050239072751949 0.2492833193895482 0 0.1956251304139873 0.24830732682566101 0 0.1874551123034256 0.23002704556275291 0 0.1821848497420967 0.24129823675235251 0 0.1956251304139873 0.24830732682566101 0 0.1874551123034256 0.23002704556275291 0 0.2052270206192876 0.23961033728654851 0 0.1821848497420967 0.24129823675235251 0 0.1956251304139873 0.24830732682566101 0 0.18564289691528729 0.25868749876629671 0 0.1874551123034256 0.23002704556275291 0 0.2052270206192876 0.23961033728654851 0 0.1956251304139873 0.24830732682566101 0 0.1874551123034256 0.23002704556275291 0 0.2052270206192876 0.23961033728654851 0 0.20110338325899621 0.22697869990708769 0 0.18150256540618689 0.21619068467845909 0 0.1874551123034256 0.23002704556275291 0 0.19422843088031849 0.2167901493339745 0 0.1874551123034256 0.23002704556275291 0 0.20110338325899621 0.22697869990708769 0 0.19422843088031849 0.2167901493339745 0 0.20110338325899621 0.22697869990708769 0 0.2086865974780466 0.21738525977654841 0 0.19422843088031849 0.2167901493339745 0 0.2052270206192876 0.23961033728654851 0 0.21155197229915221 0.22775520817690251 0 0.2245441737887168 0.23093760545441711 0 0.20110338325899621 0.22697869990708769 0 0.21155197229915221 0.22775520817690251 0 0.2086865974780466 0.21738525977654841 0 0.2052270206192876 0.23961033728654851 0 0.20110338325899621 0.22697869990708769 0 0.21155197229915221 0.22775520817690251 0 0.21155197229915221 0.22775520817690251 0 0.2086865974780466 0.21738525977654841 0 0.22156171208109349 0.2232889965660497 0 0.211417792929007 0.20448623071467029 0 0.2086865974780466 0.21738525977654841 0 0.22411523440486891 0.2128525325182862 0 0.2086865974780466 0.21738525977654841 0 0.22411523440486891 0.2128525325182862 0 0.22156171208109349 0.2232889965660497 0 0.211417792929007 0.20448623071467029 0 0.2086865974780466 0.21738525977654841 0 0.19996516513116139 0.20542151256053021 0 0.2086865974780466 0.21738525977654841 0 0.19422843088031849 0.2167901493339745 0 0.19996516513116139 0.20542151256053021 0 0.18699821765939811 0.20575379358823331 0 0.18150256540618689 0.21619068467845909 0 0.19422843088031849 0.2167901493339745 0 0.18699821765939811 0.20575379358823331 0 0.19422843088031849 0.2167901493339745 0 0.19996516513116139 0.20542151256053021 0 0.18699821765939811 0.20575379358823331 0 0.19996516513116139 0.20542151256053021 0 0.19943196450540629 0.19077826793543179 0 0.17803712215301101 0.18711146321258301 0 0.19943196450540629 0.19077826793543179 0 0.17803712215301101 0.18711146321258301 0 0.18699821765939811 0.20575379358823331 0 0.19943196450540629 0.19077826793543179 0 0.211417792929007 0.20448623071467029 0 0.19943196450540629 0.19077826793543179 0 0.22082680685780151 0.19444507265828059 0 0.19943196450540629 0.19077826793543179 0 0.22082680685780151 0.19444507265828059 0 0.211417792929007 0.20448623071467029 0 0.19996516513116139 0.20542151256053021 0 0.19943196450540629 0.19077826793543179 0 0.22082680685780151 0.19444507265828059 0 0.2418323282778008 0.1922485172988235 0 0.23200417938957321 0.20455559625434991 0 0.22082680685780151 0.19444507265828059 0 0.2418323282778008 0.1922485172988235 0 0.2298041727050075 0.1787595393801808 0 0.2418323282778008 0.1922485172988235 0 0.24124234801782149 0.21867626254200909 0 0.2418323282778008 0.1922485172988235 0 0.24124234801782149 0.21867626254200909 0 0.25471258750952741 0.20148162901819469 0 0.2418323282778008 0.1922485172988235 0 0.24124234801782149 0.21867626254200909 0 0.23200417938957321 0.20455559625434991 0 0.24124234801782149 0.21867626254200909 0 0.25357276657721323 0.21641202867955539 0 0.25471258750952741 0.20148162901819469 0 0.24124234801782149 0.21867626254200909 0 0.22411523440486891 0.2128525325182862 0 0.2303270751280653 0.22194856436908961 0 0.211417792929007 0.20448623071467029 0 0.22082680685780151 0.19444507265828059 0 0.22411523440486891 0.2128525325182862 0 0.22082680685780151 0.19444507265828059 0 0.23200417938957321 0.20455559625434991 0 0.22411523440486891 0.2128525325182862 0 0.24124234801782149 0.21867626254200909 0 0.23200417938957321 0.20455559625434991 0 0.22411523440486891 0.2128525325182862 0 0.22411523440486891 0.2128525325182862 0 0.22156171208109349 0.2232889965660497 0 0.2303270751280653 0.22194856436908961 0 0.22156171208109349 0.2232889965660497 0 0.2245441737887168 0.23093760545441711 0 0.2301452193877111 0.22885480910105491 0 0.21155197229915221 0.22775520817690251 0 0.22156171208109349 0.2232889965660497 0 0.2245441737887168 0.23093760545441711 0 0.2301452193877111 0.22885480910105491 0 0.23408043491912681 0.23335190051361199 0 0.23787356880598759 0.22384871304106421 0 0.2301452193877111 0.22885480910105491 0 0.23408043491912681 0.23335190051361199 0 0.2258394828391487 0.23585902185418811 0 0.2245441737887168 0.23093760545441711 0 0.2301452193877111 0.22885480910105491 0 0.2258394828391487 0.23585902185418811 0 0.2301452193877111 0.22885480910105491 0 0.2303270751280653 0.22194856436908961 0 0.23787356880598759 0.22384871304106421 0 0.22156171208109349 0.2232889965660497 0 0.2301452193877111 0.22885480910105491 0 0.2303270751280653 0.22194856436908961 0 0.24124234801782149 0.21867626254200909 0 0.2303270751280653 0.22194856436908961 0 0.23787356880598759 0.22384871304106421 0 0.24124234801782149 0.21867626254200909 0 0.23787356880598759 0.22384871304106421 0 0.25357276657721323 0.21641202867955539 0 0.23408043491912681 0.23335190051361199 0 0.24868260911088891 0.2303107595792985 0 0.25357276657721323 0.21641202867955539 0 0.23408043491912681 0.23335190051361199 0 0.23787356880598759 0.22384871304106421 0 0.25357276657721323 0.21641202867955539 0 0.23408043491912681 0.23335190051361199 0 0.25357276657721323 0.21641202867955539 0 0.24868260911088891 0.2303107595792985 0 0.2392512687495113 0.23539683186585869 0 0.2471090749199483 0.2357199094212839 0 0.23408043491912681 0.23335190051361199 0 0.24868260911088891 0.2303107595792985 0 0.2392512687495113 0.23539683186585869 0 0.23408043491912681 0.23335190051361199 0 0.2356673672060029 0.23553231024254659 0 0.23369101455560959 0.23545012385447089 0 0.2356673672060029 0.23553231024254659 0 0.23652425047500741 0.24096462129343871 0 0.23369101455560959 0.23545012385447089 0 0.23652425047500741 0.24096462129343871 0 0.2392512687495113 0.23539683186585869 0 0.24523436150048811 0.24199469982198529 0 0.2356673672060029 0.23553231024254659 0 0.23652425047500741 0.24096462129343871 0 0.2392512687495113 0.23539683186585869 0 0.23408043491912681 0.23335190051361199 0 0.2356673672060029 0.23553231024254659 0 0.2392512687495113 0.23539683186585869 0 0.24523436150048811 0.24199469982198529 0 0.2471090749199483 0.2357199094212839 0 0.25452501640087027 0.2374112721999547 0 0.2392512687495113 0.23539683186585869 0 0.24523436150048811 0.24199469982198529 0 0.2471090749199483 0.2357199094212839 0 0.24523436150048811 0.24199469982198529 0 0.23995652529561701 0.25039133628829258 0 0.25404003316197471 0.25208422786308371 0 0.23652425047500741 0.24096462129343871 0 0.24523436150048811 0.24199469982198529 0 0.23995652529561701 0.25039133628829258 0 0.23652425047500741 0.24096462129343871 0 0.23169913173193779 0.25404958449575432 0 0.23995652529561701 0.25039133628829258 0 0.23369101455560959 0.23545012385447089 0 0.2170338530129477 0.25958452376210089 0 0.21458810326103989 0.25029177234766842 0 0.23408043491912681 0.23335190051361199 0 0.23369101455560959 0.23545012385447089 0 0.21458810326103989 0.25029177234766842 0 0.23408043491912681 0.23335190051361199 0 0.21458810326103989 0.25029177234766842 0 0.2245441737887168 0.23093760545441711 0 0.21458810326103989 0.25029177234766842 0 0.23408043491912681 0.23335190051361199 0 0.2258394828391487 0.23585902185418811 0 0.21458810326103989 0.25029177234766842 0 0.23369101455560959 0.23545012385447089 0 0.2170338530129477 0.25958452376210089 0 0.23169913173193779 0.25404958449575432 0 0.23652425047500741 0.24096462129343871 0 0.23369101455560959 0.23545012385447089 0 0.23169913173193779 0.25404958449575432 0 0.23369101455560959 0.23545012385447089 0 0.2170338530129477 0.25958452376210089 0 0.2245441737887168 0.23093760545441711 0 0.2258394828391487 0.23585902185418811 0 0.21458810326103989 0.25029177234766842 0 0.2074718948020329 0.13931593166829101 0 0.2035930282546865 0.1573108976369578 0 0.22801201431925219 0.15227861461809999 0 0.2074718948020329 0.13931593166829101 0 0.22815060196587239 0.13250420183309389 0 0.2202182220460269 0.1181723145221887 0 0.2074718948020329 0.13931593166829101 0 0.2202182220460269 0.1181723145221887 0 0.19370351113240411 0.1202502215829211 0 0.18154761934540289 0.13534417850528041 0 0.2074718948020329 0.13931593166829101 0 0.19370351113240411 0.1202502215829211 0 0.1832181015668064 0.15465227861531949 0 0.2074718948020329 0.13931593166829101 0 0.1832181015668064 0.15465227861531949 0 0.18154761934540289 0.13534417850528041 0 0.2074718948020329 0.13931593166829101 0 0.1832181015668064 0.15465227861531949 0 0.2074718948020329 0.13931593166829101 0 0.2035930282546865 0.1573108976369578 0 0.1832181015668064 0.15465227861531949 0 0.1915320106228488 0.17262237876131631 0 0.2035930282546865 0.1573108976369578 0 0.1915320106228488 0.17262237876131631 0 0.21309098299550949 0.1707274381193544 0 0.2035930282546865 0.1573108976369578 0 0.19943196450540629 0.19077826793543179 0 0.1915320106228488 0.17262237876131631 0 0.21309098299550949 0.1707274381193544 0 0.17803712215301101 0.18711146321258301 0 0.19943196450540629 0.19077826793543179 0 0.1915320106228488 0.17262237876131631 0 0.19943196450540629 0.19077826793543179 0 0.22082680685780151 0.19444507265828059 0 0.21309098299550949 0.1707274381193544 0 0.21309098299550949 0.1707274381193544 0 0.2035930282546865 0.1573108976369578 0 0.22801201431925219 0.15227861461809999 0 0.2298041727050075 0.1787595393801808 0 0.2424223085377801 0.16582077205563811 0 0.22801201431925219 0.15227861461809999 0 0.21309098299550949 0.1707274381193544 0 0.2298041727050075 0.1787595393801808 0 0.22801201431925219 0.15227861461809999 0 0.22082680685780151 0.19444507265828059 0 0.21309098299550949 0.1707274381193544 0 0.2298041727050075 0.1787595393801808 0 0.2418323282778008 0.1922485172988235 0 0.2424223085377801 0.16582077205563811 0 0.2418323282778008 0.1922485172988235 0 0.2424223085377801 0.16582077205563811 0 0.26032431562704572 0.18342712708893841 0 0.2418323282778008 0.1922485172988235 0 0.2298041727050075 0.1787595393801808 0 0.2424223085377801 0.16582077205563811 0 0.2424223085377801 0.16582077205563811 0 0.24301228879775941 0.13939302681245261 0 0.2424223085377801 0.16582077205563811 0 0.24301228879775941 0.13939302681245261 0 0.25486404381895789 0.1523024957907583 0 0.22801201431925219 0.15227861461809999 0 0.23648687609860089 0.13476882232929049 0 0.24301228879775941 0.13939302681245261 0 0.2424223085377801 0.16582077205563811 0 0.22801201431925219 0.15227861461809999 0 0.24301228879775941 0.13939302681245261 0 0.2074718948020329 0.13931593166829101 0 0.22801201431925219 0.15227861461809999 0 0.22815060196587239 0.13250420183309389 0 0.22815060196587239 0.13250420183309389 0 0.24420216851797599 0.1292372680552665 0 0.2202182220460269 0.1181723145221887 0 0.22801201431925219 0.15227861461809999 0 0.22815060196587239 0.13250420183309389 0 0.23648687609860089 0.13476882232929049 0 0.22815060196587239 0.13250420183309389 0 0.23648687609860089 0.13476882232929049 0 0.24420216851797599 0.1292372680552665 0 0.23648687609860089 0.13476882232929049 0 0.24301228879775941 0.13939302681245261 0 0.24420216851797599 0.1292372680552665 0 0.24646482385440791 0.1109165710353929 0 0.23770217468454991 0.11680213067385049 0 0.255186127323073 0.11543194682551421 0 0.24420216851797599 0.1292372680552665 0 0.23770217468454991 0.11680213067385049 0 0.255186127323073 0.11543194682551421 0 0.23770217468454991 0.11680213067385049 0 0.255186127323073 0.11543194682551421 0 0.23770217468454991 0.11680213067385049 0 0.24055722746134861 0.1095612663226197 0 0.23538797832625211 0.10692464088038291 0 0.24646482385440791 0.1109165710353929 0 0.23770217468454991 0.11680213067385049 0 0.24055722746134861 0.1095612663226197 0 0.24174744587836799 0.1033548466348798 0 0.22816008327650389 0.097918375238235045 0 0.24736227196270541 0.090270970101712061 0 0.22816008327650389 0.097918375238235045 0 0.24736227196270541 0.090270970101712061 0 0.24174744587836799 0.1033548466348798 0 0.24736227196270541 0.090270970101712061 0 0.25459763100830068 0.096141582858552177 0 0.24174744587836799 0.1033548466348798 0 0.25459763100830068 0.096141582858552177 0 0.24646482385440791 0.1109165710353929 0 0.24174744587836799 0.1033548466348798 0 0.25655208948606423 0.10927836717886751 0 0.24174744587836799 0.1033548466348798 0 0.25655208948606423 0.10927836717886751 0 0.24646482385440791 0.1109165710353929 0 0.24055722746134861 0.1095612663226197 0 0.24174744587836799 0.1033548466348798 0 0.23538797832625211 0.10692464088038291 0 0.24174744587836799 0.1033548466348798 0 0.22816008327650389 0.097918375238235045 0 0.24055722746134861 0.1095612663226197 0 0.23538797832625211 0.10692464088038291 0 0.24174744587836799 0.1033548466348798 0 0.23538797832625211 0.10692464088038291 0 0.24174744587836799 0.1033548466348798 0 0.24174744587836799 0.1033548466348798 0 0.22816008327650389 0.097918375238235045 0 0.23538797832625211 0.10692464088038291 0 0.22816008327650389 0.097918375238235045 0 0.22436085098549791 0.1097634104313145 0 0.23770217468454991 0.11680213067385049 0 0.2202182220460269 0.1181723145221887 0 0.23770217468454991 0.11680213067385049 0 0.2202182220460269 0.1181723145221887 0 0.22436085098549791 0.1097634104313145 0 0.24420216851797599 0.1292372680552665 0 0.23770217468454991 0.11680213067385049 0 0.2202182220460269 0.1181723145221887 0 0.24420216851797599 0.1292372680552665 0 0.2202182220460269 0.1181723145221887 0 0.23770217468454991 0.11680213067385049 0 0.23538797832625211 0.10692464088038291 0 0.22436085098549791 0.1097634104313145 0 0.2202182220460269 0.1181723145221887 0 0.20033579659415629 0.10899959084191641 0 0.19370351113240411 0.1202502215829211 0 0.2202182220460269 0.1181723145221887 0 0.20033579659415629 0.10899959084191641 0 0.2202182220460269 0.1181723145221887 0 0.19370351113240411 0.1202502215829211 0 0.2202182220460269 0.1181723145221887 0 0.22436085098549791 0.1097634104313145 0 0.20033579659415629 0.10899959084191641 0 0.22816008327650389 0.097918375238235045 0 0.22436085098549791 0.1097634104313145 0 0.20033579659415629 0.10899959084191641 0 0.22816008327650389 0.097918375238235045 0 0.20033579659415629 0.10899959084191641 0 0.2016134769563831 0.087296750559026068 0 0.22816008327650389 0.097918375238235045 0 0.20033579659415629 0.10899959084191641 0 0.20033579659415629 0.10899959084191641 0 0.18422746814952201 0.1154148446289336 0 0.1860496622757298 0.1024087067025775 0 0.20033579659415629 0.10899959084191641 0 0.2016134769563831 0.087296750559026068 0 0.1860496622757298 0.1024087067025775 0 0.20033579659415629 0.10899959084191641 0 0.1860496622757298 0.1024087067025775 0 0.20033579659415629 0.10899959084191641 0 0.19370351113240411 0.1202502215829211 0 0.18422746814952201 0.1154148446289336 0 0.20033579659415629 0.10899959084191641 0 0.18422746814952201 0.1154148446289336 0 0.19220101611619109 0.069455466931817506 0 0.2016134769563831 0.087296750559026068 0 0.22553753830923129 0.072562856517635971 0 0.19220101611619109 0.069455466931817506 0 0.22553753830923129 0.072562856517635971 0 0.20371280465575431 0.054854742933563613 0 0.19220101611619109 0.069455466931817506 0 0.2016134769563831 0.087296750559026068 0 0.17506687063626211 0.076675125879817507 0 0.2016134769563831 0.087296750559026068 0 0.17506687063626211 0.076675125879817507 0 0.2016134769563831 0.087296750559026068 0 0.1860496622757298 0.1024087067025775 0 0.17954517331912459 0.085943521096986275 0 0.22816008327650389 0.097918375238235045 0 0.2016134769563831 0.087296750559026068 0 0.22553753830923129 0.072562856517635971 0 0.22816008327650389 0.097918375238235045 0 0.2016134769563831 0.087296750559026068 0 0.22553753830923129 0.072562856517635971 0 0.20371280465575431 0.054854742933563613 0 0.22816008327650389 0.097918375238235045 0 0.22553753830923129 0.072562856517635971 0 0.24736227196270541 0.090270970101712061 0 0.22553753830923129 0.072562856517635971 0 0.24736227196270541 0.090270970101712061 0 0.22553753830923129 0.072562856517635971 0 0.24736227196270541 0.090270970101712061 0 0.24874122334595 0.07170785510379532 0 0.22553753830923129 0.072562856517635971 0 0.24874122334595 0.07170785510379532 0 0.24629062771517271 0.052820950830226497 0 0.24629062771517271 0.052820950830226497 0 0.22540450977275331 0.044226989078737088 0 0.24629062771517271 0.052820950830226497 0 0.2492733855269578 0.041579555173777823 0 0.22540450977275331 0.044226989078737088 0 0.2492733855269578 0.041579555173777823 0 0.23050941707716249 0.025621187905106171 0 0.2492733855269578 0.041579555173777823 0 0.22540450977275331 0.044226989078737088 0 0.23050941707716249 0.025621187905106171 0 0.22540450977275331 0.044226989078737088 0 0.23050941707716249 0.025621187905106171 0 0.21805144048265651 0.031797176764528597 0 0.22553753830923129 0.072562856517635971 0 0.24629062771517271 0.052820950830226497 0 0.22540450977275331 0.044226989078737088 0 0.23790413247208811 0.0091049515404343275 0 0.25322369798355371 0.0032948183560677501 0 0.2464198669495459 -0.012097030270161889 0 0.23790413247208811 0.0091049515404343275 0 0.25442723867738032 0.016379625870619269 0 0.25322369798355371 0.0032948183560677501 0 0.2492733855269578 0.041579555173777823 0 0.24818833723327199 0.02644705719899533 0 0.23050941707716249 0.025621187905106171 0 0.23790413247208811 0.0091049515404343275 0 0.24818833723327199 0.02644705719899533 0 0.25442723867738032 0.016379625870619269 0 0.23790413247208811 0.0091049515404343275 0 0.24818833723327199 0.02644705719899533 0 0.23050941707716249 0.025621187905106171 0 0.23050941707716249 0.025621187905106171 0 0.2117734432503762 0.02170750274702346 0 0.21805144048265651 0.031797176764528597 0 0.23050941707716249 0.025621187905106171 0 0.21174544862736719 0.0096628206364345465 0 0.23050941707716249 0.025621187905106171 0 0.22518260227175371 0.0072623370788317187 0 0.21174544862736719 0.0096628206364345465 0 0.23790413247208811 0.0091049515404343275 0 0.22518260227175371 0.0072623370788317187 0 0.2300866381754704 -0.0072438550720441714 0 0.23790413247208811 0.0091049515404343275 0 0.23050941707716249 0.025621187905106171 0 0.22518260227175371 0.0072623370788317187 0 0.21174544862736719 0.0096628206364345465 0 0.2117734432503762 0.02170750274702346 0 0.20589386385567829 -0.0063134785331596111 0 0.2117734432503762 0.02170750274702346 0 0.19985428483697371 0.01027601627170664 0 0.20589386385567829 -0.0063134785331596111 0 0.2117734432503762 0.02170750274702346 0 0.20589386385567829 -0.0063134785331596111 0 0.22518260227175371 0.0072623370788317187 0 0.21174544862736719 0.0096628206364345465 0 0.2185782736923042 -0.0038367730406402641 0 0.23050941707716249 0.025621187905106171 0 0.21174544862736719 0.0096628206364345465 0 0.2117734432503762 0.02170750274702346 0 0.2117734432503762 0.02170750274702346 0 0.19994459845139961 0.023663902980434019 0 0.19985428483697371 0.01027601627170664 0 0.2117734432503762 0.02170750274702346 0 0.21805144048265651 0.031797176764528597 0 0.20451839183033399 0.035633027327247678 0 0.2117734432503762 0.02170750274702346 0 0.19994459845139961 0.023663902980434019 0 0.20451839183033399 0.035633027327247678 0 0.19994459845139961 0.023663902980434019 0 0.20451839183033399 0.035633027327247678 0 0.1836322738879155 0.027039065575756291 0 0.19994459845139961 0.023663902980434019 0 0.19985428483697371 0.01027601627170664 0 0.1836322738879155 0.027039065575756291 0 0.19985428483697371 0.01027601627170664 0 0.20589386385567829 -0.0063134785331596111 0 0.18863989258252481 -0.001979820774580698 0 0.19985428483697371 0.01027601627170664 0 0.1836322738879155 0.027039065575756291 0 0.18863989258252481 -0.001979820774580698 0 0.22553753830923129 0.072562856517635971 0 0.22540450977275331 0.044226989078737088 0 0.20371280465575431 0.054854742933563613 0 0.22540450977275331 0.044226989078737088 0 0.20451839183033399 0.035633027327247678 0 0.22540450977275331 0.044226989078737088 0 0.21805144048265651 0.031797176764528597 0 0.20451839183033399 0.035633027327247678 0 0.22540450977275331 0.044226989078737088 0 0.20371280465575431 0.054854742933563613 0 0.20451839183033399 0.035633027327247678 0 0.20451839183033399 0.035633027327247678 0 0.1818880710022803 0.03714662934948755 0 0.1836322738879155 0.027039065575756291 0 0.20371280465575431 0.054854742933563613 0 0.20451839183033399 0.035633027327247678 0 0.1818880710022803 0.03714662934948755 0 0.20371280465575431 0.054854742933563613 0 0.1818880710022803 0.03714662934948755 0 0.20451839183033399 0.035633027327247678 0 0.1836322738879155 0.027039065575756291 0 0.20371280465575431 0.054854742933563613 0 0.17847747081927551 0.05691087761465332 0 0.1818880710022803 0.03714662934948755 0 0.19220101611619109 0.069455466931817506 0 0.20371280465575431 0.054854742933563613 0 0.17847747081927551 0.05691087761465332 0 0.17847747081927551 0.05691087761465332 0 0.1818880710022803 0.03714662934948755 0 0.17847747081927551 0.05691087761465332 0 0.1818880710022803 0.03714662934948755 0 0.1636569447874848 0.036789081642687432 0 0.1818880710022803 0.03714662934948755 0 0.1836322738879155 0.027039065575756291 0 0.1818880710022803 0.03714662934948755 0 0.1636569447874848 0.036789081642687432 0 0.1620242678869008 0.02102957209859084 0 0.17847747081927551 0.05691087761465332 0 0.1636569447874848 0.036789081642687432 0 0.15962551614652079 0.053115759904931073 0 0.17847747081927551 0.05691087761465332 0 0.15962551614652079 0.053115759904931073 0 0.16641746421004469 0.065589342706300277 0 0.15962551614652079 0.053115759904931073 0 0.15045482833334159 0.067212260357143019 0 0.16641746421004469 0.065589342706300277 0 0.1716695151525548 0.011722155214289249 0 0.17506184651935949 -0.0021247232161890161 0 0.18863989258252481 -0.001979820774580698 0 0.1836322738879155 0.027039065575756291 0 0.18863989258252481 -0.001979820774580698 0 0.1836322738879155 0.027039065575756291 0 0.1716695151525548 0.011722155214289249 0 0.18863989258252481 -0.001979820774580698 0 0.1818880710022803 0.03714662934948755 0 0.1730573255808272 0.02268781650565178 0 0.1620242678869008 0.02102957209859084 0 0.1818880710022803 0.03714662934948755 0 0.1620242678869008 0.02102957209859084 0 0.1730573255808272 0.02268781650565178 0 0.1836322738879155 0.027039065575756291 0 0.1716695151525548 0.011722155214289249 0 0.1730573255808272 0.02268781650565178 0 0.1836322738879155 0.027039065575756291 0 0.1818880710022803 0.03714662934948755 0 0.1730573255808272 0.02268781650565178 0 0.1836322738879155 0.027039065575756291 0 0.1636569447874848 0.036789081642687432 0 0.1620242678869008 0.02102957209859084 0 0.15032019737810451 0.03113296745297477 0 0.1730573255808272 0.02268781650565178 0 0.1620242678869008 0.02102957209859084 0 0.1716695151525548 0.011722155214289249 0 0.1620242678869008 0.02102957209859084 0 0.1716695151525548 0.011722155214289249 0 0.15871689523486121 0.010399441389301141 0 0.1716695151525548 0.011722155214289249 0 0.15871689523486121 0.010399441389301141 0 0.1628037813635097 0.0015330777282007481 0 0.15871689523486121 0.010399441389301141 0 0.1628037813635097 0.0015330777282007481 0 0.15453230216132671 0.0032055715019124438 0 0.1716695151525548 0.011722155214289249 0 0.1628037813635097 0.0015330777282007481 0 0.17506184651935949 -0.0021247232161890161 0 0.1620242678869008 0.02102957209859084 0 0.14216046477152491 0.0049125148476896544 0 0.15871689523486121 0.010399441389301141 0 0.14216046477152491 0.0049125148476896544 0 0.15453230216132671 0.0032055715019124438 0 0.14216046477152491 0.0049125148476896544 0 0.15453230216132671 0.0032055715019124438 0 0.15849764294065671 -0.0060544572746906826 0 0.1620242678869008 0.02102957209859084 0 0.15871689523486121 0.010399441389301141 0 0.14216046477152491 0.0049125148476896544 0 0.1620242678869008 0.02102957209859084 0 0.14216046477152491 0.0049125148476896544 0 0.1432298655490542 0.02239521632663263 0 0.1620242678869008 0.02102957209859084 0 0.1432298655490542 0.02239521632663263 0 0.15032019737810451 0.03113296745297477 0 0.1432298655490542 0.02239521632663263 0 0.15032019737810451 0.03113296745297477 0 0.1366405524080008 0.032741533152345258 0 0.1432298655490542 0.02239521632663263 0 0.12659142849079691 0.028091664155532971 0 0.1366405524080008 0.032741533152345258 0 0.14216046477152491 0.0049125148476896544 0 0.1432298655490542 0.02239521632663263 0 0.12659142849079691 0.028091664155532971 0 0.14216046477152491 0.0049125148476896544 0 0.12659142849079691 0.028091664155532971 0 0.1323442420055404 0.014884056975098 0 0.14216046477152491 0.0049125148476896544 0 0.12659142849079691 0.028091664155532971 0 0.11882011836095251 0.0065886106746579649 0 0.12659142849079691 0.028091664155532971 0 0.1323442420055404 0.014884056975098 0 0.12659142849079691 0.028091664155532971 0 0.1366405524080008 0.032741533152345258 0 0.11882011836095251 0.0065886106746579649 0 0.1323442420055404 0.014884056975098 0 0.13735218555535891 0.001011181807127467 0 0.1323442420055404 0.014884056975098 0 0.13735218555535891 0.001011181807127467 0 0.14216046477152491 0.0049125148476896544 0 0.1323442420055404 0.014884056975098 0 0.13735218555535891 0.001011181807127467 0 0.14216046477152491 0.0049125148476896544 0 0.13735218555535891 0.001011181807127467 0 0.15962551614652079 0.053115759904931073 0 0.1452456698728295 0.044396077507560729 0 0.15045482833334159 0.067212260357143019 0 0.1452456698728295 0.044396077507560729 0 0.12683439495817461 0.052003073372435288 0 0.15045482833334159 0.067212260357143019 0 0.1636569447874848 0.036789081642687432 0 0.15032019737810451 0.03113296745297477 0 0.1452456698728295 0.044396077507560729 0 0.1636569447874848 0.036789081642687432 0 0.15962551614652079 0.053115759904931073 0 0.1452456698728295 0.044396077507560729 0 0.1636569447874848 0.036789081642687432 0 0.1452456698728295 0.044396077507560729 0 0.15032019737810451 0.03113296745297477 0 0.1452456698728295 0.044396077507560729 0 0.1366405524080008 0.032741533152345258 0 0.1452456698728295 0.044396077507560729 0 0.13015300311198849 0.040381385354086502 0 0.12683439495817461 0.052003073372435288 0 0.1452456698728295 0.044396077507560729 0 0.1366405524080008 0.032741533152345258 0 0.13015300311198849 0.040381385354086502 0 0.12659142849079691 0.028091664155532971 0 0.1366405524080008 0.032741533152345258 0 0.13015300311198849 0.040381385354086502 0 0.12683439495817461 0.052003073372435288 0 0.13134854049252651 0.064566646620811727 0 0.15045482833334159 0.067212260357143019 0 0.1452456698728295 0.044396077507560729 0 0.12683439495817461 0.052003073372435288 0 0.12683439495817461 0.052003073372435288 0 0.15045482833334159 0.067212260357143019 0 0.1213053233293625 0.063977455960140386 0 0.12683439495817461 0.052003073372435288 0 0.13134854049252651 0.064566646620811727 0 0.13134854049252651 0.064566646620811727 0 0.12679961534922851 0.075073796793526271 0 0.15045482833334159 0.067212260357143019 0 0.1213053233293625 0.063977455960140386 0 0.13134854049252651 0.064566646620811727 0 0.12679961534922851 0.075073796793526271 0 0.12679961534922851 0.075073796793526271 0 0.15045482833334159 0.067212260357143019 0 0.1492815716532653 0.085445809678383625 0 0.1185648575779607 0.095458187827811403 0 0.12679961534922851 0.075073796793526271 0 0.13332649773741079 0.089989738391902788 0 0.1492815716532653 0.085445809678383625 0 0.13332649773741079 0.089989738391902788 0 0.13865994636918871 0.10398115926788989 0 0.12679961534922851 0.075073796793526271 0 0.1492815716532653 0.085445809678383625 0 0.12679961534922851 0.075073796793526271 0 0.1492815716532653 0.085445809678383625 0 0.13332649773741079 0.089989738391902788 0 0.123281054128593 0.11724462113534739 0 0.1185648575779607 0.095458187827811403 0 0.13865994636918871 0.10398115926788989 0 0.1185648575779607 0.095458187827811403 0 0.13332649773741079 0.089989738391902788 0 0.13865994636918871 0.10398115926788989 0 0.123281054128593 0.11724462113534739 0 0.13865994636918871 0.10398115926788989 0 0.13947052033133081 0.1245003570974072 0 0.13947052033133081 0.1245003570974072 0 0.15026369300765779 0.1129544164764977 0 0.16718880021878149 0.12232812864365609 0 0.13947052033133081 0.1245003570974072 0 0.16718880021878149 0.12232812864365609 0 0.13865994636918871 0.10398115926788989 0 0.13947052033133081 0.1245003570974072 0 0.15026369300765779 0.1129544164764977 0 0.1492815716532653 0.085445809678383625 0 0.13865994636918871 0.10398115926788989 0 0.15573550511132991 0.1010080208970377 0 0.13865994636918871 0.10398115926788989 0 0.15026369300765779 0.1129544164764977 0 0.15573550511132991 0.1010080208970377 0 0.15573550511132991 0.1010080208970377 0 0.17176352795730221 0.095817822563241214 0 0.16718880021878149 0.12232812864365609 0 0.17176352795730221 0.095817822563241214 0 0.16718880021878149 0.12232812864365609 0 0.1492815716532653 0.085445809678383625 0 0.15573550511132991 0.1010080208970377 0 0.17176352795730221 0.095817822563241214 0 0.15026369300765779 0.1129544164764977 0 0.15573550511132991 0.1010080208970377 0 0.16718880021878149 0.12232812864365609 0 0.16718880021878149 0.12232812864365609 0 0.18422746814952201 0.1154148446289336 0 0.17176352795730221 0.095817822563241214 0 0.16718880021878149 0.12232812864365609 0 0.18422746814952201 0.1154148446289336 0 0.19370351113240411 0.1202502215829211 0 0.16718880021878149 0.12232812864365609 0 0.19370351113240411 0.1202502215829211 0 0.16718880021878149 0.12232812864365609 0 0.18422746814952201 0.1154148446289336 0 0.17176352795730221 0.095817822563241214 0 0.18422746814952201 0.1154148446289336 0 0.1860496622757298 0.1024087067025775 0 0.17176352795730221 0.095817822563241214 0 0.1860496622757298 0.1024087067025775 0 0.17954517331912459 0.085943521096986275 0 0.17176352795730221 0.095817822563241214 0 0.1860496622757298 0.1024087067025775 0 0.2016134769563831 0.087296750559026068 0 0.17954517331912459 0.085943521096986275 0 0.17506687063626211 0.076675125879817507 0 0.17176352795730221 0.095817822563241214 0 0.17407526170850959 0.082421447341849294 0 0.17176352795730221 0.095817822563241214 0 0.17954517331912459 0.085943521096986275 0 0.17407526170850959 0.082421447341849294 0 0.17954517331912459 0.085943521096986275 0 0.17407526170850959 0.082421447341849294 0 0.17506687063626211 0.076675125879817507 0 0.17407526170850959 0.082421447341849294 0 0.17506687063626211 0.076675125879817507 0 0.17954517331912459 0.085943521096986275 0 0.17407526170850959 0.082421447341849294 0 0.17847747081927551 0.05691087761465332 0 0.17506687063626211 0.076675125879817507 0 0.19220101611619109 0.069455466931817506 0 0.17847747081927551 0.05691087761465332 0 0.17506687063626211 0.076675125879817507 0 0.17847747081927551 0.05691087761465332 0 0.17506687063626211 0.076675125879817507 0 0.16641746421004469 0.065589342706300277 0 0.17407526170850959 0.082421447341849294 0 0.17506687063626211 0.076675125879817507 0 0.16846263511482451 0.074032689774956653 0 0.15045482833334159 0.067212260357143019 0 0.16846263511482451 0.074032689774956653 0 0.16641746421004469 0.065589342706300277 0 0.17506687063626211 0.076675125879817507 0 0.16846263511482451 0.074032689774956653 0 0.16641746421004469 0.065589342706300277 0 0.15045482833334159 0.067212260357143019 0 0.17407526170850959 0.082421447341849294 0 0.16846263511482451 0.074032689774956653 0 0.17506687063626211 0.076675125879817507 0 0.16846263511482451 0.074032689774956653 0 0.15045482833334159 0.067212260357143019 0 0.17407526170850959 0.082421447341849294 0 0.1492815716532653 0.085445809678383625 0 0.17176352795730221 0.095817822563241214 0 0.1492815716532653 0.085445809678383625 0 0.17176352795730221 0.095817822563241214 0 0.17407526170850959 0.082421447341849294 0 0.15045482833334159 0.067212260357143019 0 0.1492815716532653 0.085445809678383625 0 0.17407526170850959 0.082421447341849294 0 0.094789198081262169 0.47221984895451657 0 0.09870107108427445 0.5 0 0.1248616532684987 0.47476888169724352 0 0.09870107108427445 0.5 0 0.1248616532684987 0.47476888169724352 0 0.1287333349596296 0.50000000000000233 0 0.1248616532684987 0.47476888169724352 0 0.1154926134483955 0.45328817880533262 0 0.094789198081262169 0.47221984895451657 0 0.1248616532684987 0.47476888169724352 0 0.1154926134483955 0.45328817880533262 0 0.1248616532684987 0.47476888169724352 0 0.1205619018159948 0.44674810255646558 0 0.1248616532684987 0.47476888169724352 0 0.1154926134483955 0.45328817880533262 0 0.1205619018159948 0.44674810255646558 0 0.1154926134483955 0.45328817880533262 0 0.106123573628292 0.43180747591342172 0 0.1154926134483955 0.45328817880533262 0 0.1205619018159948 0.44674810255646558 0 0.106123573628292 0.43180747591342172 0 0.1154926134483955 0.45328817880533262 0 0.096722182691352548 0.44869154901932268 0 0.106123573628292 0.43180747591342172 0 0.094789198081262169 0.47221984895451657 0 0.1154926134483955 0.45328817880533262 0 0.096722182691352548 0.44869154901932268 0 0.094789198081262169 0.47221984895451657 0 0.077453222292990773 0.45016302493177879 0 0.067202034968243438 0.47028323083424428 0 0.094789198081262169 0.47221984895451657 0 0.096722182691352548 0.44869154901932268 0 0.077453222292990773 0.45016302493177879 0 0.096722182691352548 0.44869154901932268 0 0.077453222292990773 0.45016302493177879 0 0.085233479690329184 0.42595657570789891 0 0.077453222292990773 0.45016302493177879 0 0.085233479690329184 0.42595657570789891 0 0.077453222292990773 0.45016302493177879 0 0.055846149836862702 0.43889490050586683 0 0.065639666334966471 0.42409002317344818 0 0.077453222292990773 0.45016302493177879 0 0.067202034968243438 0.47028323083424428 0 0.051776939420019832 0.45519588853091181 0 0.094789198081262169 0.47221984895451657 0 0.067202034968243438 0.47028323083424428 0 0.068668807208919325 0.5 0 0.094789198081262169 0.47221984895451657 0 0.09870107108427445 0.5 0 0.068668807208919325 0.5 0 0.068668807208919325 0.5 0 0.043814234576468783 0.4752156274217324 0 0.038636543333564137 0.5 0 0.067202034968243438 0.47028323083424428 0 0.068668807208919325 0.5 0 0.043814234576468783 0.4752156274217324 0 0.038636543333564137 0.5 0 0.0095498935665802413 0.47810272379952351 0 0.0086042794582089632 0.5 0 0.043814234576468783 0.4752156274217324 0 0.038636543333564137 0.5 0 0.0095498935665802413 0.47810272379952351 0 0.043814234576468783 0.4752156274217324 0 0.0095498935665802413 0.47810272379952351 0 0.02936257191825143 0.45548825099001988 0 -0.0044763741368290672 0.43313315307665529 0 0.006403582431216831 0.45126676372832991 0 0.01131617767293759 0.43066417693356068 0 0.006403582431216831 0.45126676372832991 0 0.024585063983693121 0.43937755350337049 0 0.01131617767293759 0.43066417693356068 0 -0.0062093312902834459 0.46527566221073008 0 0.0095498935665802413 0.47810272379952351 0 0.006403582431216831 0.45126676372832991 0 0.0095498935665802413 0.47810272379952351 0 0.006403582431216831 0.45126676372832991 0 0.02936257191825143 0.45548825099001988 0 0.02936257191825143 0.45548825099001988 0 0.024585063983693121 0.43937755350337049 0 0.039439570502417587 0.44016889882154447 0 0.006403582431216831 0.45126676372832991 0 0.02936257191825143 0.45548825099001988 0 0.024585063983693121 0.43937755350337049 0 0.02936257191825143 0.45548825099001988 0 0.039439570502417587 0.44016889882154447 0 0.051776939420019832 0.45519588853091181 0 0.043814234576468783 0.4752156274217324 0 0.02936257191825143 0.45548825099001988 0 0.051776939420019832 0.45519588853091181 0 0.067202034968243438 0.47028323083424428 0 0.043814234576468783 0.4752156274217324 0 0.051776939420019832 0.45519588853091181 0 0.039439570502417587 0.44016889882154447 0 0.051776939420019832 0.45519588853091181 0 0.055846149836862702 0.43889490050586683 0 0.077453222292990773 0.45016302493177879 0 0.051776939420019832 0.45519588853091181 0 0.055846149836862702 0.43889490050586683 0 0.055846149836862702 0.43889490050586683 0 0.044352211855280779 0.42435697566478181 0 0.065639666334966471 0.42409002317344818 0 0.054179592762823331 0.4124556941646933 0 0.065774511826563423 0.40583773171119408 0 0.065639666334966471 0.42409002317344818 0 0.054179592762823331 0.4124556941646933 0 0.044352211855280779 0.42435697566478181 0 0.042551786202842029 0.40583695196884878 0 0.054179592762823331 0.4124556941646933 0 0.044352211855280779 0.42435697566478181 0 0.065639666334966471 0.42409002317344818 0 0.054179592762823331 0.4124556941646933 0 0.052579787594463898 0.40215678830519391 0 0.065774511826563423 0.40583773171119408 0 0.054179592762823331 0.4124556941646933 0 0.042551786202842029 0.40583695196884878 0 0.052579787594463898 0.40215678830519391 0 0.031615607723292562 0.41237007764590089 0 0.044352211855280779 0.42435697566478181 0 0.042551786202842029 0.40583695196884878 0 0.031615607723292562 0.41237007764590089 0 0.044352211855280779 0.42435697566478181 0 0.029348552931666359 0.42650056435783129 0 0.039439570502417587 0.44016889882154447 0 0.055846149836862702 0.43889490050586683 0 0.044352211855280779 0.42435697566478181 0 0.039439570502417587 0.44016889882154447 0 0.044352211855280779 0.42435697566478181 0 0.029348552931666359 0.42650056435783129 0 0.024585063983693121 0.43937755350337049 0 0.039439570502417587 0.44016889882154447 0 0.029348552931666359 0.42650056435783129 0 0.024585063983693121 0.43937755350337049 0 0.029348552931666359 0.42650056435783129 0 0.01131617767293759 0.43066417693356068 0 0.029348552931666359 0.42650056435783129 0 0.019479081626689841 0.41692126840220728 0 0.01131617767293759 0.43066417693356068 0 0.031615607723292562 0.41237007764590089 0 0.029348552931666359 0.42650056435783129 0 0.019479081626689841 0.41692126840220728 0 0.031615607723292562 0.41237007764590089 0 0.019479081626689841 0.41692126840220728 0 0.02210553341445062 0.40298972327242938 0 0.019479081626689841 0.41692126840220728 0 0.0046995574085186929 0.41194005205042061 0 0.02210553341445062 0.40298972327242938 0 0.019479081626689841 0.41692126840220728 0 0.0046995574085186929 0.41194005205042061 0 0.01131617767293759 0.43066417693356068 0 -0.0044763741368290672 0.43313315307665529 0 0.0046995574085186929 0.41194005205042061 0 0.01131617767293759 0.43066417693356068 0 -0.0068648610501423502 0.39382000907293813 0 0.0053185270157129726 0.37689571945341471 0 0.0079727676898529512 0.39395805239723503 0 0.0053185270157129726 0.37689571945341471 0 0.0079727676898529512 0.39395805239723503 0 0.017055050774382831 0.3783760363496293 0 0.0053185270157129726 0.37689571945341471 0 0.017055050774382831 0.3783760363496293 0 0.014905446519761849 0.37011919055753012 0 -0.0068648610501423502 0.39382000907293813 0 0.0046995574085186929 0.41194005205042061 0 0.0079727676898529512 0.39395805239723503 0 0.0046995574085186929 0.41194005205042061 0 0.0079727676898529512 0.39395805239723503 0 0.02210553341445062 0.40298972327242938 0 0.0079727676898529512 0.39395805239723503 0 0.02210553341445062 0.40298972327242938 0 0.02735486101880703 0.39232044610694311 0 0.031615607723292562 0.41237007764590089 0 0.02210553341445062 0.40298972327242938 0 0.03492587150599015 0.39714318271575322 0 0.02210553341445062 0.40298972327242938 0 0.02735486101880703 0.39232044610694311 0 0.03492587150599015 0.39714318271575322 0 0.0079727676898529512 0.39395805239723503 0 0.02735486101880703 0.39232044610694311 0 0.033420514628485373 0.38302977191180709 0 0.017055050774382831 0.3783760363496293 0 0.033420514628485373 0.38302977191180709 0 0.023779055828078009 0.37097747554075361 0 0.0079727676898529512 0.39395805239723503 0 0.017055050774382831 0.3783760363496293 0 0.033420514628485373 0.38302977191180709 0 0.0079727676898529512 0.39395805239723503 0 0.033420514628485373 0.38302977191180709 0 0.02735486101880703 0.39232044610694311 0 0.032859848824407727 0.38560668074253002 0 0.033420514628485373 0.38302977191180709 0 0.02735486101880703 0.39232044610694311 0 0.032859848824407727 0.38560668074253002 0 0.032844630049655758 0.3911952656019041 0 0.033420514628485373 0.38302977191180709 0 0.040531910439000007 0.38820627445006711 0 0.055078026168592691 0.37372917012189599 0 0.033420514628485373 0.38302977191180709 0 0.055078026168592691 0.37372917012189599 0 0.032859848824407727 0.38560668074253002 0 0.033420514628485373 0.38302977191180709 0 0.032859848824407727 0.38560668074253002 0 0.040531910439000007 0.38820627445006711 0 0.032844630049655758 0.3911952656019041 0 0.032859848824407727 0.38560668074253002 0 0.033420514628485373 0.38302977191180709 0 0.040531910439000007 0.38820627445006711 0 0.031615607723292562 0.41237007764590089 0 0.03492587150599015 0.39714318271575322 0 0.042551786202842029 0.40583695196884878 0 0.040531910439000007 0.38820627445006711 0 0.03492587150599015 0.39714318271575322 0 0.032844630049655758 0.3911952656019041 0 0.02735486101880703 0.39232044610694311 0 0.03492587150599015 0.39714318271575322 0 0.032844630049655758 0.3911952656019041 0 0.040531910439000007 0.38820627445006711 0 0.03492587150599015 0.39714318271575322 0 0.044409534997012647 0.39663533348309749 0 0.040531910439000007 0.38820627445006711 0 0.044409534997012647 0.39663533348309749 0 0.05145831924276717 0.38983346997562462 0 0.044409534997012647 0.39663533348309749 0 0.042551786202842029 0.40583695196884878 0 0.052579787594463898 0.40215678830519391 0 0.03492587150599015 0.39714318271575322 0 0.044409534997012647 0.39663533348309749 0 0.042551786202842029 0.40583695196884878 0 0.052579787594463898 0.40215678830519391 0 0.065929237187869999 0.38841376689227869 0 0.065774511826563423 0.40583773171119408 0 0.044409534997012647 0.39663533348309749 0 0.052579787594463898 0.40215678830519391 0 0.05145831924276717 0.38983346997562462 0 0.052579787594463898 0.40215678830519391 0 0.05145831924276717 0.38983346997562462 0 0.065929237187869999 0.38841376689227869 0 0.05145831924276717 0.38983346997562462 0 0.065929237187869999 0.38841376689227869 0 0.055078026168592691 0.37372917012189599 0 0.040531910439000007 0.38820627445006711 0 0.05145831924276717 0.38983346997562462 0 0.055078026168592691 0.37372917012189599 0 0.065929237187869999 0.38841376689227869 0 0.07065435961583541 0.37741521318853999 0 0.055078026168592691 0.37372917012189599 0 0.065929237187869999 0.38841376689227869 0 0.07065435961583541 0.37741521318853999 0 0.084874637398179506 0.3830893474080016 0 0.065929237187869999 0.38841376689227869 0 0.084874637398179506 0.3830893474080016 0 0.078183007061163587 0.39730645121706609 0 0.084874637398179506 0.3830893474080016 0 0.09301373708766289 0.40175012648401748 0 0.1017514530376761 0.37456476915266362 0 0.084874637398179506 0.3830893474080016 0 0.1017514530376761 0.37456476915266362 0 0.089894590955766338 0.37016501712229671 0 0.084874637398179506 0.3830893474080016 0 0.09301373708766289 0.40175012648401748 0 0.084874637398179506 0.3830893474080016 0 0.09301373708766289 0.40175012648401748 0 0.078183007061163587 0.39730645121706609 0 0.09301373708766289 0.40175012648401748 0 0.078183007061163587 0.39730645121706609 0 0.0779125114683729 0.4107996813321716 0 0.065929237187869999 0.38841376689227869 0 0.078183007061163587 0.39730645121706609 0 0.065774511826563423 0.40583773171119408 0 0.078183007061163587 0.39730645121706609 0 0.065774511826563423 0.40583773171119408 0 0.0779125114683729 0.4107996813321716 0 0.065774511826563423 0.40583773171119408 0 0.0779125114683729 0.4107996813321716 0 0.065639666334966471 0.42409002317344818 0 0.0779125114683729 0.4107996813321716 0 0.065639666334966471 0.42409002317344818 0 0.085233479690329184 0.42595657570789891 0 0.077453222292990773 0.45016302493177879 0 0.065639666334966471 0.42409002317344818 0 0.085233479690329184 0.42595657570789891 0 0.09301373708766289 0.40175012648401748 0 0.085233479690329184 0.42595657570789891 0 0.09301373708766289 0.40175012648401748 0 0.0779125114683729 0.4107996813321716 0 0.085233479690329184 0.42595657570789891 0 0.09301373708766289 0.40175012648401748 0 0.085233479690329184 0.42595657570789891 0 0.096641093798834857 0.4103746730739769 0 0.096641093798834857 0.4103746730739769 0 0.106123573628292 0.43180747591342172 0 0.096641093798834857 0.4103746730739769 0 0.1162621503634904 0.41872732341568758 0 0.11303311796937431 0.39768424579749467 0 0.096641093798834857 0.4103746730739769 0 0.106123573628292 0.43180747591342172 0 0.1162621503634904 0.41872732341568758 0 0.096641093798834857 0.4103746730739769 0 0.1162621503634904 0.41872732341568758 0 0.085233479690329184 0.42595657570789891 0 0.096641093798834857 0.4103746730739769 0 0.106123573628292 0.43180747591342172 0 0.096722182691352548 0.44869154901932268 0 0.085233479690329184 0.42595657570789891 0 0.106123573628292 0.43180747591342172 0 0.1205619018159948 0.44674810255646558 0 0.1162621503634904 0.41872732341568758 0 0.1205619018159948 0.44674810255646558 0 0.106123573628292 0.43180747591342172 0 0.1162621503634904 0.41872732341568758 0 0.1162621503634904 0.41872732341568758 0 0.11303311796937431 0.39768424579749467 0 0.11303311796937431 0.39768424579749467 0 0.1231373165426977 0.3806134049577457 0 0.1271742827044339 0.39597619803598749 0 0.1162621503634904 0.41872732341568758 0 0.11303311796937431 0.39768424579749467 0 0.1271742827044339 0.39597619803598749 0 0.11303311796937431 0.39768424579749467 0 0.1098040855752573 0.37664116817930182 0 0.11303311796937431 0.39768424579749467 0 0.1098040855752573 0.37664116817930182 0 0.1231373165426977 0.3806134049577457 0 0.09301373708766289 0.40175012648401748 0 0.10162794664532369 0.38287681265592 0 0.1017514530376761 0.37456476915266362 0 0.11303311796937431 0.39768424579749467 0 0.1098040855752573 0.37664116817930182 0 0.10162794664532369 0.38287681265592 0 0.09301373708766289 0.40175012648401748 0 0.1017514530376761 0.37456476915266362 0 0.09301373708766289 0.40175012648401748 0 0.096641093798834857 0.4103746730739769 0 0.10162794664532369 0.38287681265592 0 0.096641093798834857 0.4103746730739769 0 0.10162794664532369 0.38287681265592 0 0.096641093798834857 0.4103746730739769 0 0.11303311796937431 0.39768424579749467 0 0.10162794664532369 0.38287681265592 0 0.09301373708766289 0.40175012648401748 0 0.096641093798834857 0.4103746730739769 0 0.10657505318114149 0.3555980905611088 0 0.1040837309638282 0.33936254988137232 0 0.10657505318114149 0.3555980905611088 0 0.096269577202366938 0.34885221845001108 0 0.090674694454237537 0.35844253683721511 0 0.10657505318114149 0.3555980905611088 0 0.1081370103155585 0.34698533999968961 0 0.1040837309638282 0.33936254988137232 0 0.10657505318114149 0.3555980905611088 0 0.096269577202366938 0.34885221845001108 0 0.1040837309638282 0.33936254988137232 0 0.10657505318114149 0.3555980905611088 0 0.1081370103155585 0.34698533999968961 0 0.1081370103155585 0.34698533999968961 0 0.1105857944332822 0.35159063999376577 0 0.10657505318114149 0.3555980905611088 0 0.1081370103155585 0.34698533999968961 0 0.1105857944332822 0.35159063999376577 0 0.10657505318114149 0.3555980905611088 0 0.097223947907205094 0.36469260341832099 0 0.090674694454237537 0.35844253683721511 0 0.1098040855752573 0.37664116817930182 0 0.10657505318114149 0.3555980905611088 0 0.1098040855752573 0.37664116817930182 0 0.10162794664532369 0.38287681265592 0 0.10657505318114149 0.3555980905611088 0 0.10657505318114149 0.3555980905611088 0 0.097223947907205094 0.36469260341832099 0 0.1017514530376761 0.37456476915266362 0 0.10162794664532369 0.38287681265592 0 0.10657505318114149 0.3555980905611088 0 0.10162794664532369 0.38287681265592 0 0.10657505318114149 0.3555980905611088 0 0.1017514530376761 0.37456476915266362 0 0.097223947907205094 0.36469260341832099 0 0.1017514530376761 0.37456476915266362 0 0.089894590955766338 0.37016501712229671 0 0.1231373165426977 0.3806134049577457 0 0.1176766025370503 0.36283148293627721 0 0.13271547193899449 0.36524458735671972 0 0.1098040855752573 0.37664116817930182 0 0.10657505318114149 0.3555980905611088 0 0.1176766025370503 0.36283148293627721 0 0.1098040855752573 0.37664116817930182 0 0.1231373165426977 0.3806134049577457 0 0.1176766025370503 0.36283148293627721 0 0.1176766025370503 0.36283148293627721 0 0.1232256624926347 0.35239419723674059 0 0.13271547193899449 0.36524458735671972 0 0.10657505318114149 0.3555980905611088 0 0.1176766025370503 0.36283148293627721 0 0.1105857944332822 0.35159063999376577 0 0.1176766025370503 0.36283148293627721 0 0.1232256624926347 0.35239419723674059 0 0.1105857944332822 0.35159063999376577 0 0.1081370103155585 0.34698533999968961 0 0.1105857944332822 0.35159063999376577 0 0.1168368962248217 0.34531303274388031 0 0.1232256624926347 0.35239419723674059 0 0.1105857944332822 0.35159063999376577 0 0.1168368962248217 0.34531303274388031 0 0.1232256624926347 0.35239419723674059 0 0.1168368962248217 0.34531303274388031 0 0.1260676383484185 0.3399282146226113 0 0.1081370103155585 0.34698533999968961 0 0.1173014636805894 0.33730338313169689 0 0.1117137236550247 0.32726307032677399 0 0.1081370103155585 0.34698533999968961 0 0.1117137236550247 0.32726307032677399 0 0.1168368962248217 0.34531303274388031 0 0.1173014636805894 0.33730338313169689 0 0.1260676383484185 0.3399282146226113 0 0.1173014636805894 0.33730338313169689 0 0.12375204985912221 0.32702725796552912 0 0.1260676383484185 0.3399282146226113 0 0.1173014636805894 0.33730338313169689 0 0.12375204985912221 0.32702725796552912 0 0.1117137236550247 0.32726307032677399 0 0.1081370103155585 0.34698533999968961 0 0.1168368962248217 0.34531303274388031 0 0.1173014636805894 0.33730338313169689 0 0.1117137236550247 0.32726307032677399 0 0.11529043699448981 0.30754080065385803 0 0.1117137236550247 0.32726307032677399 0 0.1095765413243488 0.31862098055757049 0 0.11529043699448981 0.30754080065385803 0 0.1214195525311879 0.31440901896845502 0 0.1117137236550247 0.32726307032677399 0 0.11529043699448981 0.30754080065385803 0 0.1214195525311879 0.31440901896845502 0 0.12375204985912221 0.32702725796552912 0 0.12817088130983889 0.317450689473041 0 0.1214195525311879 0.31440901896845502 0 0.12375204985912221 0.32702725796552912 0 0.1117137236550247 0.32726307032677399 0 0.1040837309638282 0.33936254988137232 0 0.090103400857782137 0.31307047550514489 0 0.1040837309638282 0.33936254988137232 0 0.1025673515982234 0.32948055280164651 0 0.090103400857782137 0.31307047550514489 0 0.10278173829001019 0.3206216626476312 0 0.1025673515982234 0.32948055280164651 0 0.090103400857782137 0.31307047550514489 0 0.1095765413243488 0.31862098055757049 0 0.10278173829001019 0.3206216626476312 0 0.099947674014671917 0.31467323404701991 0 0.1095765413243488 0.31862098055757049 0 0.099947674014671917 0.31467323404701991 0 0.09732687347400408 0.30507295899279041 0 0.1117137236550247 0.32726307032677399 0 0.1095765413243488 0.31862098055757049 0 0.10278173829001019 0.3206216626476312 0 0.1117137236550247 0.32726307032677399 0 0.10278173829001019 0.3206216626476312 0 0.1025673515982234 0.32948055280164651 0 0.10278173829001019 0.3206216626476312 0 0.099947674014671917 0.31467323404701991 0 0.090103400857782137 0.31307047550514489 0 0.096269577202366938 0.34885221845001108 0 0.1040837309638282 0.33936254988137232 0 0.085896102217652828 0.34083244099607402 0 0.1081370103155585 0.34698533999968961 0 0.1117137236550247 0.32726307032677399 0 0.1040837309638282 0.33936254988137232 0 0.1081370103155585 0.34698533999968961 0 0.1040837309638282 0.33936254988137232 0 0.1117137236550247 0.32726307032677399 0 0.1040837309638282 0.33936254988137232 0 0.1025673515982234 0.32948055280164651 0 0.1040837309638282 0.33936254988137232 0 0.1025673515982234 0.32948055280164651 0 0.1040837309638282 0.33936254988137232 0 0.085896102217652828 0.34083244099607402 0 0.090103400857782137 0.31307047550514489 0 0.085896102217652828 0.34083244099607402 0 0.090103400857782137 0.31307047550514489 0 0.073944851781294785 0.32640562720437011 0 0.073944851781294785 0.32640562720437011 0 0.05926959110604698 0.32438382341666039 0 0.066452600317618793 0.30933520022964911 0 0.090103400857782137 0.31307047550514489 0 0.073944851781294785 0.32640562720437011 0 0.066452600317618793 0.30933520022964911 0 0.068002564407373206 0.3444061958743222 0 0.05926959110604698 0.32438382341666039 0 0.085896102217652828 0.34083244099607402 0 0.073944851781294785 0.32640562720437011 0 0.068002564407373206 0.3444061958743222 0 0.073944851781294785 0.32640562720437011 0 0.068002564407373206 0.3444061958743222 0 0.05926959110604698 0.32438382341666039 0 0.068002564407373206 0.3444061958743222 0 0.081709153938225559 0.35166937446406898 0 0.076735537708699481 0.364428568331984 0 0.068002564407373206 0.3444061958743222 0 0.076735537708699481 0.364428568331984 0 0.068002564407373206 0.3444061958743222 0 0.076735537708699481 0.364428568331984 0 0.058880509289504487 0.35752542115937253 0 0.085896102217652828 0.34083244099607402 0 0.068002564407373206 0.3444061958743222 0 0.081709153938225559 0.35166937446406898 0 0.081709153938225559 0.35166937446406898 0 0.090674694454237537 0.35844253683721511 0 0.076735537708699481 0.364428568331984 0 0.096269577202366938 0.34885221845001108 0 0.081709153938225559 0.35166937446406898 0 0.090674694454237537 0.35844253683721511 0 0.096269577202366938 0.34885221845001108 0 0.085896102217652828 0.34083244099607402 0 0.081709153938225559 0.35166937446406898 0 0.084874637398179506 0.3830893474080016 0 0.089894590955766338 0.37016501712229671 0 0.076735537708699481 0.364428568331984 0 0.084874637398179506 0.3830893474080016 0 0.076735537708699481 0.364428568331984 0 0.097223947907205094 0.36469260341832099 0 0.090674694454237537 0.35844253683721511 0 0.089894590955766338 0.37016501712229671 0 0.090674694454237537 0.35844253683721511 0 0.089894590955766338 0.37016501712229671 0 0.076735537708699481 0.364428568331984 0 0.090674694454237537 0.35844253683721511 0 0.076735537708699481 0.364428568331984 0 0.076735537708699481 0.364428568331984 0 0.055078026168592691 0.37372917012189599 0 0.058880509289504487 0.35752542115937253 0 0.07065435961583541 0.37741521318853999 0 0.084874637398179506 0.3830893474080016 0 0.076735537708699481 0.364428568331984 0 0.07065435961583541 0.37741521318853999 0 0.076735537708699481 0.364428568331984 0 0.055078026168592691 0.37372917012189599 0 0.076735537708699481 0.364428568331984 0 0.055078026168592691 0.37372917012189599 0 0.055078026168592691 0.37372917012189599 0 0.058880509289504487 0.35752542115937253 0 0.039125882353897343 0.35680699826087081 0 0.068002564407373206 0.3444061958743222 0 0.058880509289504487 0.35752542115937253 0 0.05148455776782021 0.34576385860545072 0 0.058880509289504487 0.35752542115937253 0 0.05148455776782021 0.34576385860545072 0 0.039125882353897343 0.35680699826087081 0 0.039125882353897343 0.35680699826087081 0 0.031548662582759998 0.36398682567210089 0 0.025752053585936779 0.33511492304397028 0 0.05148455776782021 0.34576385860545072 0 0.039125882353897343 0.35680699826087081 0 0.044831250079309708 0.3305842246099347 0 0.033420514628485373 0.38302977191180709 0 0.039125882353897343 0.35680699826087081 0 0.031548662582759998 0.36398682567210089 0 0.033420514628485373 0.38302977191180709 0 0.055078026168592691 0.37372917012189599 0 0.039125882353897343 0.35680699826087081 0 0.033420514628485373 0.38302977191180709 0 0.039125882353897343 0.35680699826087081 0 0.033420514628485373 0.38302977191180709 0 0.031548662582759998 0.36398682567210089 0 0.023779055828078009 0.37097747554075361 0 0.017055050774382831 0.3783760363496293 0 0.023779055828078009 0.37097747554075361 0 0.014905446519761849 0.37011919055753012 0 0.023779055828078009 0.37097747554075361 0 0.019349684376360511 0.36318206543595072 0 0.014905446519761849 0.37011919055753012 0 0.031548662582759998 0.36398682567210089 0 0.019349684376360511 0.36318206543595072 0 0.019690074755218789 0.35178644121934483 0 0.031548662582759998 0.36398682567210089 0 0.023779055828078009 0.37097747554075361 0 0.019349684376360511 0.36318206543595072 0 0.031548662582759998 0.36398682567210089 0 0.025752053585936779 0.33511492304397028 0 0.031548662582759998 0.36398682567210089 0 0.019690074755218789 0.35178644121934483 0 0.025752053585936779 0.33511492304397028 0 0.019349684376360511 0.36318206543595072 0 0.019690074755218789 0.35178644121934483 0 0.0119730942360182 0.35563939605115702 0 0.0119730942360182 0.35563939605115702 0 0.0038095970876644218 0.35606187191015221 0 0.0077169544749549623 0.36306791211952738 0 -0.0077202170519437719 0.34710906184019069 0 0.0082446038140756572 0.34376242611402219 0 0.0038095970876644218 0.35606187191015221 0 0.0119730942360182 0.35563939605115702 0 0.0082446038140756572 0.34376242611402219 0 0.0038095970876644218 0.35606187191015221 0 0.019690074755218789 0.35178644121934483 0 0.0119730942360182 0.35563939605115702 0 0.0082446038140756572 0.34376242611402219 0 -0.0045677851665312944 0.36532665559408428 0 0.0038095970876644218 0.35606187191015221 0 0.0077169544749549623 0.36306791211952738 0 -0.0087141207398781558 0.37710904293520409 0 0.0053185270157129726 0.37689571945341471 0 0.0077169544749549623 0.36306791211952738 0 0.0053185270157129726 0.37689571945341471 0 0.0077169544749549623 0.36306791211952738 0 0.014905446519761849 0.37011919055753012 0 0.019349684376360511 0.36318206543595072 0 0.0077169544749549623 0.36306791211952738 0 0.014905446519761849 0.37011919055753012 0 0.019349684376360511 0.36318206543595072 0 0.0119730942360182 0.35563939605115702 0 0.0077169544749549623 0.36306791211952738 0 -0.009249588209606344 0.30814111102660002 0 0.0094307060340404689 0.32376070079746733 0 0.01995544458911469 0.30624302041583928 0 -0.005758602284471958 0.33512988219008361 0 0.0082446038140756572 0.34376242611402219 0 0.0094307060340404689 0.32376070079746733 0 0.0082446038140756572 0.34376242611402219 0 0.0094307060340404689 0.32376070079746733 0 0.025752053585936779 0.33511492304397028 0 0.019690074755218789 0.35178644121934483 0 0.0082446038140756572 0.34376242611402219 0 0.025752053585936779 0.33511492304397028 0 0.025752053585936779 0.33511492304397028 0 0.01995544458911469 0.30624302041583928 0 0.025752053585936779 0.33511492304397028 0 0.034898059553693392 0.31581284699138767 0 0.01995544458911469 0.30624302041583928 0 0.0094307060340404689 0.32376070079746733 0 0.025752053585936779 0.33511492304397028 0 0.01995544458911469 0.30624302041583928 0 0.034898059553693392 0.31581284699138767 0 0.044831250079309708 0.3305842246099347 0 0.05053661780472133 0.30436145095899841 0 0.025752053585936779 0.33511492304397028 0 0.034898059553693392 0.31581284699138767 0 0.044831250079309708 0.3305842246099347 0 0.039125882353897343 0.35680699826087081 0 0.025752053585936779 0.33511492304397028 0 0.044831250079309708 0.3305842246099347 0 0.039125882353897343 0.35680699826087081 0 0.044831250079309708 0.3305842246099347 0 0.068002564407373206 0.3444061958743222 0 0.05148455776782021 0.34576385860545072 0 0.05926959110604698 0.32438382341666039 0 0.05148455776782021 0.34576385860545072 0 0.044831250079309708 0.3305842246099347 0 0.05926959110604698 0.32438382341666039 0 0.044831250079309708 0.3305842246099347 0 0.05053661780472133 0.30436145095899841 0 0.044831250079309708 0.3305842246099347 0 0.05926959110604698 0.32438382341666039 0 0.05053661780472133 0.30436145095899841 0 0.05926959110604698 0.32438382341666039 0 0.05053661780472133 0.30436145095899841 0 0.05926959110604698 0.32438382341666039 0 0.05053661780472133 0.30436145095899841 0 0.066452600317618793 0.30933520022964911 0 0.059204269303370749 0.30137448027593422 0 0.05053661780472133 0.30436145095899841 0 0.066452600317618793 0.30933520022964911 0 0.04765756321016474 0.29776054867416191 0 0.05053661780472133 0.30436145095899841 0 0.052561166870736087 0.29505630281458828 0 0.059204269303370749 0.30137448027593422 0 0.05053661780472133 0.30436145095899841 0 0.052561166870736087 0.29505630281458828 0 0.05053661780472133 0.30436145095899841 0 0.052561166870736087 0.29505630281458828 0 0.04765756321016474 0.29776054867416191 0 0.05053661780472133 0.30436145095899841 0 0.052561166870736087 0.29505630281458828 0 0.036977033779240318 0.28312664447104818 0 0.062988366650143207 0.29302398426469728 0 0.036977033779240318 0.28312664447104818 0 0.048149862160842181 0.27985089866820428 0 0.062988366650143207 0.29302398426469728 0 0.036977033779240318 0.28312664447104818 0 0.062988366650143207 0.29302398426469728 0 0.048149862160842181 0.27985089866820428 0 0.054778979573680928 0.27715841955607551 0 0.062988366650143207 0.29302398426469728 0 0.059204269303370749 0.30137448027593422 0 0.052561166870736087 0.29505630281458828 0 0.062988366650143207 0.29302398426469728 0 0.04765756321016474 0.29776054867416191 0 0.036186098738389023 0.29603891009636157 0 0.036977033779240318 0.28312664447104818 0 0.04765756321016474 0.29776054867416191 0 0.052561166870736087 0.29505630281458828 0 0.036977033779240318 0.28312664447104818 0 0.036186098738389023 0.29603891009636157 0 0.036977033779240318 0.28312664447104818 0 0.027757552790527541 0.29644954410470781 0 0.034898059553693392 0.31581284699138767 0 0.05053661780472133 0.30436145095899841 0 0.039754971674175903 0.30430037111620312 0 0.04765756321016474 0.29776054867416191 0 0.05053661780472133 0.30436145095899841 0 0.039754971674175903 0.30430037111620312 0 0.04765756321016474 0.29776054867416191 0 0.036186098738389023 0.29603891009636157 0 0.039754971674175903 0.30430037111620312 0 0.036186098738389023 0.29603891009636157 0 0.039754971674175903 0.30430037111620312 0 0.028740536311392211 0.30567206060121932 0 0.034898059553693392 0.31581284699138767 0 0.039754971674175903 0.30430037111620312 0 0.028740536311392211 0.30567206060121932 0 0.034898059553693392 0.31581284699138767 0 0.028740536311392211 0.30567206060121932 0 0.01995544458911469 0.30624302041583928 0 0.028740536311392211 0.30567206060121932 0 0.01995544458911469 0.30624302041583928 0 0.01995544458911469 0.30624302041583928 0 0.027757552790527541 0.29644954410470781 0 0.016928650534501429 0.29116708493907051 0 0.01995544458911469 0.30624302041583928 0 0.016928650534501429 0.29116708493907051 0 0.036186098738389023 0.29603891009636157 0 0.028740536311392211 0.30567206060121932 0 0.027757552790527541 0.29644954410470781 0 0.028740536311392211 0.30567206060121932 0 0.01995544458911469 0.30624302041583928 0 0.027757552790527541 0.29644954410470781 0 0.036977033779240318 0.28312664447104818 0 0.016928650534501429 0.29116708493907051 0 0.013901856479889301 0.2760911494623014 0 0.036977033779240318 0.28312664447104818 0 0.027757552790527541 0.29644954410470781 0 0.016928650534501429 0.29116708493907051 0 0.016928650534501429 0.29116708493907051 0 0.0075090435902615098 0.27971283806045072 0 0.013901856479889301 0.2760911494623014 0 0.016928650534501429 0.29116708493907051 0 0.013901856479889301 0.2760911494623014 0 0.016928650534501429 0.29116708493907051 0 0.002380999114604244 0.28599596302517022 0 0.0075090435902615098 0.27971283806045072 0 0.016928650534501429 0.29116708493907051 0 0.002380999114604244 0.28599596302517022 0 0.0038021096493471361 0.29689124930627131 0 0.01995544458911469 0.30624302041583928 0 0.016928650534501429 0.29116708493907051 0 0.0038021096493471361 0.29689124930627131 0 -0.009249588209606344 0.30814111102660002 0 0.01995544458911469 0.30624302041583928 0 -0.009249588209606344 0.30814111102660002 0 0.01995544458911469 0.30624302041583928 0 0.0038021096493471361 0.29689124930627131 0 0.012944211518790589 0.24639919126045251 0 0.001894876929373096 0.24743045501984201 0 0.027350481215018482 0.26092432701142793 0 0.001894876929373096 0.24743045501984201 0 0.01235577794179212 0.26160751525750708 0 0.027350481215018482 0.26092432701142793 0 0.001894876929373096 0.24743045501984201 0 0.027350481215018482 0.26092432701142793 0 0.01235577794179212 0.26160751525750708 0 0.0066431973405819862 0.26423936680728111 0 0.01332705073189009 0.26743114199411 0 0.001894876929373096 0.24743045501984201 0 0.01235577794179212 0.26160751525750708 0 0.0027594708259384838 0.25829047161104352 0 0.01235577794179212 0.26160751525750708 0 0.0027594708259384838 0.25829047161104352 0 0.0066431973405819862 0.26423936680728111 0 -0.00067809962666212902 0.26216505597133072 0 0.0027594708259384838 0.25829047161104352 0 0.0066431973405819862 0.26423936680728111 0 -0.00067809962666212902 0.26216505597133072 0 0.0066431973405819862 0.26423936680728111 0 0.010965700908337589 0.27322930467739909 0 -0.001267499687089951 0.2776013217203892 0 0.0075090435902615098 0.27971283806045072 0 0.010965700908337589 0.27322930467739909 0 -0.001267499687089951 0.2776013217203892 0 0.002380999114604244 0.28599596302517022 0 0.0075090435902615098 0.27971283806045072 0 0.0075090435902615098 0.27971283806045072 0 0.013901856479889301 0.2760911494623014 0 0.010965700908337589 0.27322930467739909 0 0.010965700908337589 0.27322930467739909 0 0.01332705073189009 0.26743114199411 0 0.022419763759722669 0.26962443384228668 0 0.0066431973405819862 0.26423936680728111 0 0.010965700908337589 0.27322930467739909 0 0.01332705073189009 0.26743114199411 0 0.036977033779240318 0.28312664447104818 0 0.010965700908337589 0.27322930467739909 0 0.022419763759722669 0.26962443384228668 0 0.01235577794179212 0.26160751525750708 0 0.01332705073189009 0.26743114199411 0 0.022419763759722669 0.26962443384228668 0 0.036977033779240318 0.28312664447104818 0 0.013901856479889301 0.2760911494623014 0 0.010965700908337589 0.27322930467739909 0 0.036977033779240318 0.28312664447104818 0 0.010965700908337589 0.27322930467739909 0 0.036977033779240318 0.28312664447104818 0 0.022419763759722669 0.26962443384228668 0 0.032397819765571212 0.27218151163944088 0 0.022419763759722669 0.26962443384228668 0 0.027350481215018482 0.26092432701142793 0 0.032397819765571212 0.27218151163944088 0 0.018629400856135309 0.24429501886194191 0 0.012944211518790589 0.24639919126045251 0 0.027350481215018482 0.26092432701142793 0 0.018629400856135309 0.24429501886194191 0 0.027350481215018482 0.26092432701142793 0 0.02692674034290404 0.25134916217479408 0 0.01235577794179212 0.26160751525750708 0 0.022419763759722669 0.26962443384228668 0 0.027350481215018482 0.26092432701142793 0 0.027350481215018482 0.26092432701142793 0 0.02692674034290404 0.25134916217479408 0 0.036501911092354018 0.25177276941539839 0 0.027350481215018482 0.26092432701142793 0 0.036501911092354018 0.25177276941539839 0 0.052806085500663583 0.27441819900301412 0 0.036501911092354018 0.25177276941539839 0 0.052806085500663583 0.27441819900301412 0 0.027350481215018482 0.26092432701142793 0 0.039536256484267153 0.27410031615862712 0 0.052806085500663583 0.27441819900301412 0 0.027350481215018482 0.26092432701142793 0 0.052806085500663583 0.27441819900301412 0 0.036977033779240318 0.28312664447104818 0 0.032397819765571212 0.27218151163944088 0 0.039536256484267153 0.27410031615862712 0 0.027350481215018482 0.26092432701142793 0 0.032397819765571212 0.27218151163944088 0 0.039536256484267153 0.27410031615862712 0 0.039536256484267153 0.27410031615862712 0 0.048149862160842181 0.27985089866820428 0 0.052806085500663583 0.27441819900301412 0 0.036977033779240318 0.28312664447104818 0 0.039536256484267153 0.27410031615862712 0 0.048149862160842181 0.27985089866820428 0 0.052806085500663583 0.27441819900301412 0 0.051790667069154861 0.2547103276228454 0 0.069466372585565969 0.27425949764399721 0 0.052806085500663583 0.27441819900301412 0 0.054778979573680928 0.27715841955607551 0 0.076123070751733898 0.28677840112891878 0 0.048149862160842181 0.27985089866820428 0 0.052806085500663583 0.27441819900301412 0 0.054778979573680928 0.27715841955607551 0 0.052806085500663583 0.27441819900301412 0 0.054778979573680928 0.27715841955607551 0 0.051790667069154861 0.2547103276228454 0 0.069466372585565969 0.27425949764399721 0 0.036501911092354018 0.25177276941539839 0 0.052806085500663583 0.27441819900301412 0 0.051790667069154861 0.2547103276228454 0 0.051790667069154861 0.2547103276228454 0 0.062472563593505302 0.26110660749064829 0 0.069466372585565969 0.27425949764399721 0 0.051790667069154861 0.2547103276228454 0 0.062472563593505302 0.26110660749064829 0 0.063392491700480919 0.2510828642249095 0 0.07090317009537217 0.25886987532900169 0 0.089645379702363526 0.25980927980688501 0 0.066829182329119829 0.26693814307945207 0 0.063392491700480919 0.2510828642249095 0 0.07090317009537217 0.25886987532900169 0 0.074261774750864804 0.25289133929391111 0 0.062472563593505302 0.26110660749064829 0 0.063392491700480919 0.2510828642249095 0 0.07090317009537217 0.25886987532900169 0 0.062472563593505302 0.26110660749064829 0 0.07090317009537217 0.25886987532900169 0 0.066829182329119829 0.26693814307945207 0 0.07090317009537217 0.25886987532900169 0 0.074261774750864804 0.25289133929391111 0 0.089645379702363526 0.25980927980688501 0 0.072073934872957782 0.23900016577853919 0 0.074261774750864804 0.25289133929391111 0 0.089645379702363526 0.25980927980688501 0 0.089645379702363526 0.25980927980688501 0 0.066829182329119829 0.26693814307945207 0 0.089645379702363526 0.25980927980688501 0 0.084738505220855201 0.27427167124983992 0 0.066829182329119829 0.26693814307945207 0 0.084738505220855201 0.27427167124983992 0 0.069466372585565969 0.27425949764399721 0 0.085077205623658711 0.29152493742801078 0 0.084738505220855201 0.27427167124983992 0 0.095910340366493346 0.28464594086445177 0 0.099818528257267281 0.27185690653089678 0 0.089645379702363526 0.25980927980688501 0 0.084738505220855201 0.27427167124983992 0 0.099818528257267281 0.27185690653089678 0 0.084738505220855201 0.27427167124983992 0 0.066829182329119829 0.26693814307945207 0 0.069466372585565969 0.27425949764399721 0 0.052806085500663583 0.27441819900301412 0 0.069466372585565969 0.27425949764399721 0 0.076123070751733898 0.28677840112891878 0 0.052806085500663583 0.27441819900301412 0 0.076123070751733898 0.28677840112891878 0 0.069466372585565969 0.27425949764399721 0 0.076123070751733898 0.28677840112891878 0 0.062472563593505302 0.26110660749064829 0 0.069466372585565969 0.27425949764399721 0 0.062472563593505302 0.26110660749064829 0 0.066829182329119829 0.26693814307945207 0 0.069466372585565969 0.27425949764399721 0 0.069466372585565969 0.27425949764399721 0 0.085077205623658711 0.29152493742801078 0 0.069466372585565969 0.27425949764399721 0 0.076123070751733898 0.28677840112891878 0 0.085077205623658711 0.29152493742801078 0 0.062988366650143207 0.29302398426469728 0 0.076123070751733898 0.28677840112891878 0 0.066452600317618793 0.30933520022964911 0 0.054778979573680928 0.27715841955607551 0 0.062988366650143207 0.29302398426469728 0 0.076123070751733898 0.28677840112891878 0 0.090103400857782137 0.31307047550514489 0 0.076123070751733898 0.28677840112891878 0 0.066452600317618793 0.30933520022964911 0 0.059204269303370749 0.30137448027593422 0 0.062988366650143207 0.29302398426469728 0 0.066452600317618793 0.30933520022964911 0 0.090103400857782137 0.31307047550514489 0 0.076123070751733898 0.28677840112891878 0 0.085077205623658711 0.29152493742801078 0 0.090103400857782137 0.31307047550514489 0 0.076123070751733898 0.28677840112891878 0 0.090103400857782137 0.31307047550514489 0 0.085077205623658711 0.29152493742801078 0 0.09732687347400408 0.30507295899279041 0 0.085077205623658711 0.29152493742801078 0 0.09732687347400408 0.30507295899279041 0 0.084738505220855201 0.27427167124983992 0 0.085077205623658711 0.29152493742801078 0 0.095910340366493346 0.28464594086445177 0 0.076123070751733898 0.28677840112891878 0 0.085077205623658711 0.29152493742801078 0 0.085077205623658711 0.29152493742801078 0 0.095910340366493346 0.28464594086445177 0 0.10018382130907411 0.29953286904093468 0 0.085077205623658711 0.29152493742801078 0 0.10018382130907411 0.29953286904093468 0 0.095910340366493346 0.28464594086445177 0 0.10809736708577181 0.28553666446189058 0 0.10018382130907411 0.29953286904093468 0 0.10809736708577181 0.28553666446189058 0 0.10018382130907411 0.29953286904093468 0 0.10959494141679089 0.29761357018739809 0 0.099947674014671917 0.31467323404701991 0 0.090103400857782137 0.31307047550514489 0 0.09732687347400408 0.30507295899279041 0 0.085077205623658711 0.29152493742801078 0 0.09732687347400408 0.30507295899279041 0 0.10018382130907411 0.29953286904093468 0 0.09732687347400408 0.30507295899279041 0 0.10018382130907411 0.29953286904093468 0 0.1055944182754792 0.3076919023112884 0 0.10018382130907411 0.29953286904093468 0 0.11529043699448981 0.30754080065385803 0 0.10959494141679089 0.29761357018739809 0 0.10018382130907411 0.29953286904093468 0 0.11529043699448981 0.30754080065385803 0 0.1095765413243488 0.31862098055757049 0 0.09732687347400408 0.30507295899279041 0 0.1055944182754792 0.3076919023112884 0 0.10018382130907411 0.29953286904093468 0 0.1055944182754792 0.3076919023112884 0 0.11529043699448981 0.30754080065385803 0 0.1095765413243488 0.31862098055757049 0 0.09732687347400408 0.30507295899279041 0 0.1095765413243488 0.31862098055757049 0 0.1055944182754792 0.3076919023112884 0 0.11529043699448981 0.30754080065385803 0 0.11529043699448981 0.30754080065385803 0 0.11637637905870279 0.30155283343175482 0 0.11810871752106521 0.30621928700195911 0 0.11529043699448981 0.30754080065385803 0 0.10959494141679089 0.29761357018739809 0 0.11637637905870279 0.30155283343175482 0 0.10959494141679089 0.29761357018739809 0 0.11637637905870279 0.30155283343175482 0 0.1164892219926046 0.29243334627748818 0 0.11529043699448981 0.30754080065385803 0 0.11637637905870279 0.30155283343175482 0 0.11637637905870279 0.30155283343175482 0 0.1222906650571363 0.2985709440566281 0 0.1164892219926046 0.29243334627748818 0 0.1222906650571363 0.2985709440566281 0 0.1206025954822835 0.30378795350269022 0 0.1243783730770044 0.30485679470236721 0 0.11637637905870279 0.30155283343175482 0 0.1222906650571363 0.2985709440566281 0 0.1206025954822835 0.30378795350269022 0 0.11637637905870279 0.30155283343175482 0 0.1206025954822835 0.30378795350269022 0 0.11810871752106521 0.30621928700195911 0 0.1206025954822835 0.30378795350269022 0 0.11810871752106521 0.30621928700195911 0 0.1213521300308707 0.30775440284793348 0 0.11529043699448981 0.30754080065385803 0 0.11810871752106521 0.30621928700195911 0 0.11930841490252821 0.30912172642276631 0 0.11810871752106521 0.30621928700195911 0 0.1213521300308707 0.30775440284793348 0 0.11930841490252821 0.30912172642276631 0 0.1243783730770044 0.30485679470236721 0 0.1213521300308707 0.30775440284793348 0 0.1244342991148414 0.30898461385241399 0 0.1206025954822835 0.30378795350269022 0 0.1243783730770044 0.30485679470236721 0 0.1213521300308707 0.30775440284793348 0 0.1214195525311879 0.31440901896845502 0 0.1244342991148414 0.30898461385241399 0 0.12900107104525951 0.30968741412501871 0 0.1214195525311879 0.31440901896845502 0 0.1213521300308707 0.30775440284793348 0 0.1244342991148414 0.30898461385241399 0 0.1214195525311879 0.31440901896845502 0 0.11529043699448981 0.30754080065385803 0 0.11930841490252821 0.30912172642276631 0 0.1214195525311879 0.31440901896845502 0 0.1213521300308707 0.30775440284793348 0 0.11930841490252821 0.30912172642276631 0 0.10809736708577181 0.28553666446189058 0 0.1164892219926046 0.29243334627748818 0 0.1210835213650209 0.28058702695229848 0 0.10809736708577181 0.28553666446189058 0 0.10959494141679089 0.29761357018739809 0 0.1164892219926046 0.29243334627748818 0 0.1222906650571363 0.2985709440566281 0 0.1164892219926046 0.29243334627748818 0 0.12596292383497329 0.28976449579057961 0 0.1164892219926046 0.29243334627748818 0 0.1210835213650209 0.28058702695229848 0 0.12596292383497329 0.28976449579057961 0 0.10809736708577181 0.28553666446189058 0 0.1210835213650209 0.28058702695229848 0 0.1147979612748997 0.2707881575742877 0 0.1210835213650209 0.28058702695229848 0 0.1147979612748997 0.2707881575742877 0 0.12791172371537049 0.26609555254785411 0 0.1147979612748997 0.2707881575742877 0 0.116065923487036 0.25155424759680489 0 0.099818528257267281 0.27185690653089678 0 0.1147979612748997 0.2707881575742877 0 0.116065923487036 0.25155424759680489 0 0.12791172371537049 0.26609555254785411 0 0.089645379702363526 0.25980927980688501 0 0.116065923487036 0.25155424759680489 0 0.089645379702363526 0.25980927980688501 0 0.116065923487036 0.25155424759680489 0 0.099818528257267281 0.27185690653089678 0 0.089645379702363526 0.25980927980688501 0 0.099818528257267281 0.27185690653089678 0 0.095910340366493346 0.28464594086445177 0 0.10809736708577181 0.28553666446189058 0 0.099818528257267281 0.27185690653089678 0 0.10809736708577181 0.28553666446189058 0 0.1147979612748997 0.2707881575742877 0 0.099818528257267281 0.27185690653089678 0 0.14627836463393121 0.26809473379089088 0 0.14256315404166739 0.2804585798755338 0 0.1332419302865058 0.27890394506169119 0 0.14627836463393121 0.26809473379089088 0 0.14256315404166739 0.2804585798755338 0 0.15383705453569649 0.27951082009548711 0 0.14627836463393121 0.26809473379089088 0 0.15383705453569649 0.27951082009548711 0 0.1609818760820641 0.2708255403471686 0 0.14248646727170791 0.24329921538672239 0 0.14627836463393121 0.26809473379089088 0 0.1631161995596529 0.25657386530356069 0 0.14248646727170791 0.24329921538672239 0 0.116065923487036 0.25155424759680489 0 0.12791172371537049 0.26609555254785411 0 0.14248646727170791 0.24329921538672239 0 0.14627836463393121 0.26809473379089088 0 0.12791172371537049 0.26609555254785411 0 0.14627836463393121 0.26809473379089088 0 0.12791172371537049 0.26609555254785411 0 0.1332419302865058 0.27890394506169119 0 0.1210835213650209 0.28058702695229848 0 0.12791172371537049 0.26609555254785411 0 0.1332419302865058 0.27890394506169119 0 0.1332419302865058 0.27890394506169119 0 0.12596292383497329 0.28976449579057961 0 0.13463915166403909 0.29011289163129678 0 0.1210835213650209 0.28058702695229848 0 0.1332419302865058 0.27890394506169119 0 0.12596292383497329 0.28976449579057961 0 0.1222906650571363 0.2985709440566281 0 0.12596292383497329 0.28976449579057961 0 0.12923992476061211 0.29615108028493942 0 0.12596292383497329 0.28976449579057961 0 0.12923992476061211 0.29615108028493942 0 0.13463915166403909 0.29011289163129678 0 0.13463915166403909 0.29011289163129678 0 0.13544399911061031 0.29845687749894129 0 0.1416447250157222 0.29544082675589128 0 0.12923992476061211 0.29615108028493942 0 0.13463915166403909 0.29011289163129678 0 0.13544399911061031 0.29845687749894129 0 0.14256315404166739 0.2804585798755338 0 0.1332419302865058 0.27890394506169119 0 0.13463915166403909 0.29011289163129678 0 0.1243783730770044 0.30485679470236721 0 0.1244342991148414 0.30898461385241399 0 0.12900107104525951 0.30968741412501871 0 0.1243783730770044 0.30485679470236721 0 0.12900107104525951 0.30968741412501871 0 0.1290658347258283 0.30205966601357243 0 0.12900107104525951 0.30968741412501871 0 0.1290658347258283 0.30205966601357243 0 0.1340409753043473 0.30463488541353972 0 0.1222906650571363 0.2985709440566281 0 0.1243783730770044 0.30485679470236721 0 0.1290658347258283 0.30205966601357243 0 0.1222906650571363 0.2985709440566281 0 0.12923992476061211 0.29615108028493942 0 0.1290658347258283 0.30205966601357243 0 0.12923992476061211 0.29615108028493942 0 0.1290658347258283 0.30205966601357243 0 0.13544399911061031 0.29845687749894129 0 0.13544399911061031 0.29845687749894129 0 0.14170706289926879 0.30357921339911909 0 0.1416447250157222 0.29544082675589128 0 0.13544399911061031 0.29845687749894129 0 0.1340409753043473 0.30463488541353972 0 0.14170706289926879 0.30357921339911909 0 0.1290658347258283 0.30205966601357243 0 0.13544399911061031 0.29845687749894129 0 0.1340409753043473 0.30463488541353972 0 0.13598458437900529 0.30983158877234418 0 0.14130712994747449 0.31140798331507108 0 0.14170706289926879 0.30357921339911909 0 0.12900107104525951 0.30968741412501871 0 0.1340409753043473 0.30463488541353972 0 0.13598458437900529 0.30983158877234418 0 0.1340409753043473 0.30463488541353972 0 0.13598458437900529 0.30983158877234418 0 0.14170706289926879 0.30357921339911909 0 0.13598458437900529 0.30983158877234418 0 0.14130712994747449 0.31140798331507108 0 0.13528824775885559 0.3155805734405937 0 0.12900107104525951 0.30968741412501871 0 0.13598458437900529 0.30983158877234418 0 0.13528824775885559 0.3155805734405937 0 0.1483486037307668 0.31106151759990119 0 0.14130712994747449 0.31140798331507108 0 0.14170706289926879 0.30357921339911909 0 0.1483486037307668 0.31106151759990119 0 0.14170706289926879 0.30357921339911909 0 0.1513591925520972 0.30423422291399321 0 0.14170706289926879 0.30357921339911909 0 0.14924189349128261 0.29698436464102829 0 0.1513591925520972 0.30423422291399321 0 0.14170706289926879 0.30357921339911909 0 0.14924189349128261 0.29698436464102829 0 0.1416447250157222 0.29544082675589128 0 0.1513591925520972 0.30423422291399321 0 0.15847128754916129 0.30901971199088751 0 0.1567398971697517 0.30020769771567818 0 0.14924189349128261 0.29698436464102829 0 0.1513591925520972 0.30423422291399321 0 0.1567398971697517 0.30020769771567818 0 0.1483486037307668 0.31106151759990119 0 0.1513591925520972 0.30423422291399321 0 0.15847128754916129 0.30901971199088751 0 0.1483486037307668 0.31106151759990119 0 0.15847128754916129 0.30901971199088751 0 0.1531779528472626 0.31690967251270458 0 0.14256315404166739 0.2804585798755338 0 0.15383705453569649 0.27951082009548711 0 0.14728728951424691 0.28871625735014939 0 0.14256315404166739 0.2804585798755338 0 0.13463915166403909 0.29011289163129678 0 0.14728728951424691 0.28871625735014939 0 0.14924189349128261 0.29698436464102829 0 0.14728728951424691 0.28871625735014939 0 0.1416447250157222 0.29544082675589128 0 0.13463915166403909 0.29011289163129678 0 0.14728728951424691 0.28871625735014939 0 0.1416447250157222 0.29544082675589128 0 0.14924189349128261 0.29698436464102829 0 0.1576814993112734 0.29111844862325259 0 0.1567398971697517 0.30020769771567818 0 0.14924189349128261 0.29698436464102829 0 0.14728728951424691 0.28871625735014939 0 0.1576814993112734 0.29111844862325259 0 0.15383705453569649 0.27951082009548711 0 0.14728728951424691 0.28871625735014939 0 0.1576814993112734 0.29111844862325259 0 0.15383705453569649 0.27951082009548711 0 0.1576814993112734 0.29111844862325259 0 0.16532030222413041 0.28061774918364429 0 0.1576814993112734 0.29111844862325259 0 0.1689979645595176 0.28949488405725932 0 0.16532030222413041 0.28061774918364429 0 0.1576814993112734 0.29111844862325259 0 0.1689979645595176 0.28949488405725932 0 0.16694561294494401 0.29968174040922901 0 0.1689979645595176 0.28949488405725932 0 0.16694561294494401 0.29968174040922901 0 0.17866142019044989 0.29199773726540068 0 0.1689979645595176 0.28949488405725932 0 0.17498255083596301 0.28300150235233201 0 0.16532030222413041 0.28061774918364429 0 0.1576814993112734 0.29111844862325259 0 0.1567398971697517 0.30020769771567818 0 0.16694561294494401 0.29968174040922901 0 0.15847128754916129 0.30901971199088751 0 0.1567398971697517 0.30020769771567818 0 0.16694561294494401 0.29968174040922901 0 0.16694561294494401 0.29968174040922901 0 0.17666858027807311 0.3015349886251833 0 0.1707678241303611 0.31259989648156872 0 0.15847128754916129 0.30901971199088751 0 0.16694561294494401 0.29968174040922901 0 0.1707678241303611 0.31259989648156872 0 0.17666858027807311 0.3015349886251833 0 0.18371952992762389 0.30785332357736089 0 0.1707678241303611 0.31259989648156872 0 0.16694561294494401 0.29968174040922901 0 0.17666858027807311 0.3015349886251833 0 0.17866142019044989 0.29199773726540068 0 0.17666858027807311 0.3015349886251833 0 0.18371952992762389 0.30785332357736089 0 0.1898902111984884 0.29891268329407239 0 0.18371952992762389 0.30785332357736089 0 0.1898902111984884 0.29891268329407239 0 0.17666858027807311 0.3015349886251833 0 0.17866142019044989 0.29199773726540068 0 0.1898902111984884 0.29891268329407239 0 0.17498255083596301 0.28300150235233201 0 0.17866142019044989 0.29199773726540068 0 0.1849298445554361 0.28099903695767547 0 0.1689979645595176 0.28949488405725932 0 0.17498255083596301 0.28300150235233201 0 0.17866142019044989 0.29199773726540068 0 0.17866142019044989 0.29199773726540068 0 0.18677859260729601 0.28760164196875848 0 0.1898902111984884 0.29891268329407239 0 0.17866142019044989 0.29199773726540068 0 0.18677859260729601 0.28760164196875848 0 0.1849298445554361 0.28099903695767547 0 0.1849298445554361 0.28099903695767547 0 0.17528279401001801 0.2714166079934146 0 0.19094745617081291 0.27038549871767581 0 0.17528279401001801 0.2714166079934146 0 0.18564289691528729 0.25868749876629671 0 0.19094745617081291 0.27038549871767581 0 0.17498255083596301 0.28300150235233201 0 0.1849298445554361 0.28099903695767547 0 0.17528279401001801 0.2714166079934146 0 0.17528279401001801 0.2714166079934146 0 0.16532030222413041 0.28061774918364429 0 0.1609818760820641 0.2708255403471686 0 0.17498255083596301 0.28300150235233201 0 0.17528279401001801 0.2714166079934146 0 0.16532030222413041 0.28061774918364429 0 0.17528279401001801 0.2714166079934146 0 0.1609818760820641 0.2708255403471686 0 0.1631161995596529 0.25657386530356069 0 0.15383705453569649 0.27951082009548711 0 0.16532030222413041 0.28061774918364429 0 0.1609818760820641 0.2708255403471686 0 0.14627836463393121 0.26809473379089088 0 0.1609818760820641 0.2708255403471686 0 0.1631161995596529 0.25657386530356069 0 0.16890701105638031 0.23504418317664161 0 0.1631161995596529 0.25657386530356069 0 0.18564289691528729 0.25868749876629671 0 0.17528279401001801 0.2714166079934146 0 0.1631161995596529 0.25657386530356069 0 0.18564289691528729 0.25868749876629671 0 0.1956251304139873 0.24830732682566101 0 0.18564289691528729 0.25868749876629671 0 0.20465537480646501 0.25892384109831479 0 0.18564289691528729 0.25868749876629671 0 0.19094745617081291 0.27038549871767581 0 0.20465537480646501 0.25892384109831479 0 0.2050239072751949 0.2492833193895482 0 0.1956251304139873 0.24830732682566101 0 0.20465537480646501 0.25892384109831479 0 0.19094745617081291 0.27038549871767581 0 0.20212350544635149 0.27452240688285762 0 0.1917381003592612 0.28136787577326228 0 0.1849298445554361 0.28099903695767547 0 0.19094745617081291 0.27038549871767581 0 0.1917381003592612 0.28136787577326228 0 0.19094745617081291 0.27038549871767581 0 0.20212350544635149 0.27452240688285762 0 0.20465537480646501 0.25892384109831479 0 0.21559138507808229 0.27635001083075639 0 0.2170338530129477 0.25958452376210089 0 0.2223889939606305 0.26849190584137572 0 0.20212350544635149 0.27452240688285762 0 0.2170338530129477 0.25958452376210089 0 0.20037669147028589 0.28371892366973078 0 0.2170338530129477 0.25958452376210089 0 0.20037669147028589 0.28371892366973078 0 0.21559138507808229 0.27635001083075639 0 0.2170338530129477 0.25958452376210089 0 0.20037669147028589 0.28371892366973078 0 0.20212350544635149 0.27452240688285762 0 0.20465537480646501 0.25892384109831479 0 0.21458810326103989 0.25029177234766842 0 0.20212350544635149 0.27452240688285762 0 0.2170338530129477 0.25958452376210089 0 0.21458810326103989 0.25029177234766842 0 0.20212350544635149 0.27452240688285762 0 0.21458810326103989 0.25029177234766842 0 0.2050239072751949 0.2492833193895482 0 0.20465537480646501 0.25892384109831479 0 0.21458810326103989 0.25029177234766842 0 0.20465537480646501 0.25892384109831479 0 0.21458810326103989 0.25029177234766842 0 0.23169913173193779 0.25404958449575432 0 0.22942687348362151 0.26728355318502178 0 0.24090080429007341 0.26281353644332878 0 0.23169913173193779 0.25404958449575432 0 0.2249153238939712 0.26221153605608138 0 0.22942687348362151 0.26728355318502178 0 0.2170338530129477 0.25958452376210089 0 0.2249153238939712 0.26221153605608138 0 0.2223889939606305 0.26849190584137572 0 0.2170338530129477 0.25958452376210089 0 0.23169913173193779 0.25404958449575432 0 0.2249153238939712 0.26221153605608138 0 0.2223889939606305 0.26849190584137572 0 0.2255322572178127 0.27738204478537232 0 0.22942687348362151 0.26728355318502178 0 0.2249153238939712 0.26221153605608138 0 0.2223889939606305 0.26849190584137572 0 0.22942687348362151 0.26728355318502178 0 0.21559138507808229 0.27635001083075639 0 0.2255322572178127 0.27738204478537232 0 0.21985426169801439 0.28935406669317137 0 0.21559138507808229 0.27635001083075639 0 0.2223889939606305 0.26849190584137572 0 0.2255322572178127 0.27738204478537232 0 0.2255322572178127 0.27738204478537232 0 0.23621117140834261 0.27732665952701641 0 0.23095623596381579 0.2876536505458 0 0.2255322572178127 0.27738204478537232 0 0.22942687348362151 0.26728355318502178 0 0.23621117140834261 0.27732665952701641 0 0.23621117140834261 0.27732665952701641 0 0.24818821145747599 0.27522177653690871 0 0.24090080429007341 0.26281353644332878 0 0.22942687348362151 0.26728355318502178 0 0.23621117140834261 0.27732665952701641 0 0.24090080429007341 0.26281353644332878 0 0.24818821145747599 0.27522177653690871 0 0.24090080429007341 0.26281353644332878 0 0.25530776412370298 0.26639583896058622 0 0.23995652529561701 0.25039133628829258 0 0.24090080429007341 0.26281353644332878 0 0.25404003316197471 0.25208422786308371 0 0.23169913173193779 0.25404958449575432 0 0.23995652529561701 0.25039133628829258 0 0.24090080429007341 0.26281353644332878 0 0.23765651747073049 0.31117848176507701 0 0.2454028482605469 0.29267792886045368 0 0.25114017462525878 0.31153615041935723 0 0.23765651747073049 0.31117848176507701 0 0.2454028482605469 0.29267792886045368 0 0.2283396740985745 0.30195705682751389 0 0.2454028482605469 0.29267792886045368 0 0.23095623596381579 0.2876536505458 0 0.2283396740985745 0.30195705682751389 0 0.23621117140834261 0.27732665952701641 0 0.24818821145747599 0.27522177653690871 0 0.2454028482605469 0.29267792886045368 0 0.23621117140834261 0.27732665952701641 0 0.2454028482605469 0.29267792886045368 0 0.23095623596381579 0.2876536505458 0 0.2255322572178127 0.27738204478537232 0 0.23095623596381579 0.2876536505458 0 0.21985426169801439 0.28935406669317137 0 0.23095623596381579 0.2876536505458 0 0.21985426169801439 0.28935406669317137 0 0.2283396740985745 0.30195705682751389 0 0.2283396740985745 0.30195705682751389 0 0.2184758680590754 0.31184724711422762 0 0.22801070301179061 0.32060690690137728 0 0.21985426169801439 0.28935406669317137 0 0.2283396740985745 0.30195705682751389 0 0.21670572119465931 0.30172893354768798 0 0.23765651747073049 0.31117848176507701 0 0.2283396740985745 0.30195705682751389 0 0.22801070301179061 0.32060690690137728 0 0.2283396740985745 0.30195705682751389 0 0.2184758680590754 0.31184724711422762 0 0.21670572119465931 0.30172893354768798 0 0.2184758680590754 0.31184724711422762 0 0.21670572119465931 0.30172893354768798 0 0.20632342479934371 0.30585855598863948 0 0.21670572119465931 0.30172893354768798 0 0.20632342479934371 0.30585855598863948 0 0.21141614329998781 0.29390938293380992 0 0.20632342479934371 0.30585855598863948 0 0.21141614329998781 0.29390938293380992 0 0.2042452804315445 0.29308429151921322 0 0.21559138507808229 0.27635001083075639 0 0.21985426169801439 0.28935406669317137 0 0.2104384150331686 0.28649738738125968 0 0.21985426169801439 0.28935406669317137 0 0.21141614329998781 0.29390938293380992 0 0.2104384150331686 0.28649738738125968 0 0.21985426169801439 0.28935406669317137 0 0.21670572119465931 0.30172893354768798 0 0.21141614329998781 0.29390938293380992 0 0.21141614329998781 0.29390938293380992 0 0.2042452804315445 0.29308429151921322 0 0.2104384150331686 0.28649738738125968 0 0.2042452804315445 0.29308429151921322 0 0.2104384150331686 0.28649738738125968 0 0.20037669147028589 0.28371892366973078 0 0.21559138507808229 0.27635001083075639 0 0.2104384150331686 0.28649738738125968 0 0.20037669147028589 0.28371892366973078 0 0.20212350544635149 0.27452240688285762 0 0.20037669147028589 0.28371892366973078 0 0.1898902111984884 0.29891268329407239 0 0.18677859260729601 0.28760164196875848 0 0.1917381003592612 0.28136787577326228 0 0.1898902111984884 0.29891268329407239 0 0.20037669147028589 0.28371892366973078 0 0.1976595376627992 0.29976589533378561 0 0.1898902111984884 0.29891268329407239 0 0.2042452804315445 0.29308429151921322 0 0.20037669147028589 0.28371892366973078 0 0.1976595376627992 0.29976589533378561 0 0.20212350544635149 0.27452240688285762 0 0.1898902111984884 0.29891268329407239 0 0.20212350544635149 0.27452240688285762 0 0.1917381003592612 0.28136787577326228 0 0.1898902111984884 0.29891268329407239 0 0.20037669147028589 0.28371892366973078 0 0.1898902111984884 0.29891268329407239 0 0.18677859260729601 0.28760164196875848 0 0.1849298445554361 0.28099903695767547 0 0.1917381003592612 0.28136787577326228 0 0.20632342479934371 0.30585855598863948 0 0.19412409721151189 0.30848045781950378 0 0.19635424873152091 0.31866253726922511 0 0.20632342479934371 0.30585855598863948 0 0.1976595376627992 0.29976589533378561 0 0.19412409721151189 0.30848045781950378 0 0.20632342479934371 0.30585855598863948 0 0.2042452804315445 0.29308429151921322 0 0.1976595376627992 0.29976589533378561 0 0.18371952992762389 0.30785332357736089 0 0.1976595376627992 0.29976589533378561 0 0.1898902111984884 0.29891268329407239 0 0.18371952992762389 0.30785332357736089 0 0.19412409721151189 0.30848045781950378 0 0.19635424873152091 0.31866253726922511 0 0.18371952992762389 0.30785332357736089 0 0.1976595376627992 0.29976589533378561 0 0.19412409721151189 0.30848045781950378 0 0.19635424873152091 0.31866253726922511 0 0.19329834396814641 0.33328399686629978 0 0.21150607161232149 0.3245036863190196 0 0.19635424873152091 0.31866253726922511 0 0.19329834396814641 0.33328399686629978 0 0.1818581672390053 0.32281790922797782 0 0.19329834396814641 0.33328399686629978 0 0.20841238186686439 0.34472105417207632 0 0.1876990638134575 0.35190483133425488 0 0.19329834396814641 0.33328399686629978 0 0.21150607161232149 0.3245036863190196 0 0.20841238186686439 0.34472105417207632 0 0.21150607161232149 0.3245036863190196 0 0.22736457019319431 0.33776348264759248 0 0.20841238186686439 0.34472105417207632 0 0.20632342479934371 0.30585855598863948 0 0.19635424873152091 0.31866253726922511 0 0.21150607161232149 0.3245036863190196 0 0.2184758680590754 0.31184724711422762 0 0.20632342479934371 0.30585855598863948 0 0.21150607161232149 0.3245036863190196 0 0.21150607161232149 0.3245036863190196 0 0.22801070301179061 0.32060690690137728 0 0.22736457019319431 0.33776348264759248 0 0.2184758680590754 0.31184724711422762 0 0.21150607161232149 0.3245036863190196 0 0.22801070301179061 0.32060690690137728 0 0.22801070301179061 0.32060690690137728 0 0.22736457019319431 0.33776348264759248 0 0.24490867605631639 0.32967072069511189 0 0.22736457019319431 0.33776348264759248 0 0.24490867605631639 0.32967072069511189 0 0.24521693247762111 0.35027114815259558 0 0.23765651747073049 0.31117848176507701 0 0.22801070301179061 0.32060690690137728 0 0.24490867605631639 0.32967072069511189 0 0.23765651747073049 0.31117848176507701 0 0.24490867605631639 0.32967072069511189 0 0.25114017462525878 0.31153615041935723 0 0.24305895760768401 0.36641304215893011 0 0.24521693247762111 0.35027114815259558 0 0.22613265613425179 0.35680737964537468 0 0.22736457019319431 0.33776348264759248 0 0.24521693247762111 0.35027114815259558 0 0.22613265613425179 0.35680737964537468 0 0.22736457019319431 0.33776348264759248 0 0.22613265613425179 0.35680737964537468 0 0.20841238186686439 0.34472105417207632 0 0.22613265613425179 0.35680737964537468 0 0.20200890290724041 0.36500873302905812 0 0.22860253219506471 0.37841014948266538 0 0.24305895760768401 0.36641304215893011 0 0.22613265613425179 0.35680737964537468 0 0.22860253219506471 0.37841014948266538 0 0.20200890290724041 0.36500873302905812 0 0.22860253219506471 0.37841014948266538 0 0.22613265613425179 0.35680737964537468 0 0.20841238186686439 0.34472105417207632 0 0.20200890290724041 0.36500873302905812 0 0.20841238186686439 0.34472105417207632 0 0.1876990638134575 0.35190483133425488 0 0.20200890290724041 0.36500873302905812 0 0.1876990638134575 0.35190483133425488 0 0.20200890290724041 0.36500873302905812 0 0.17637045729064621 0.37495278481954358 0 0.1876990638134575 0.35190483133425488 0 0.17637045729064621 0.37495278481954358 0 0.16909864488713719 0.35514267549568418 0 0.15975417249048229 0.36968310563447321 0 0.16909864488713719 0.35514267549568418 0 0.14990537096685039 0.36070173528474042 0 0.17637045729064621 0.37495278481954358 0 0.15975417249048229 0.36968310563447321 0 0.16909864488713719 0.35514267549568418 0 0.16909864488713719 0.35514267549568418 0 0.1770056519607103 0.33831974362286749 0 0.1619384281755652 0.34052596047808847 0 0.16909864488713719 0.35514267549568418 0 0.14990537096685039 0.36070173528474042 0 0.15416632756111201 0.34898696826244741 0 0.16909864488713719 0.35514267549568418 0 0.1619384281755652 0.34052596047808847 0 0.15416632756111201 0.34898696826244741 0 0.1876990638134575 0.35190483133425488 0 0.16909864488713719 0.35514267549568418 0 0.1770056519607103 0.33831974362286749 0 0.19329834396814641 0.33328399686629978 0 0.1770056519607103 0.33831974362286749 0 0.1818581672390053 0.32281790922797782 0 0.19329834396814641 0.33328399686629978 0 0.1876990638134575 0.35190483133425488 0 0.1770056519607103 0.33831974362286749 0 0.1770056519607103 0.33831974362286749 0 0.1818581672390053 0.32281790922797782 0 0.1657389141743941 0.32607447656151611 0 0.1818581672390053 0.32281790922797782 0 0.1707678241303611 0.31259989648156872 0 0.1657389141743941 0.32607447656151611 0 0.18371952992762389 0.30785332357736089 0 0.19635424873152091 0.31866253726922511 0 0.1818581672390053 0.32281790922797782 0 0.18371952992762389 0.30785332357736089 0 0.1818581672390053 0.32281790922797782 0 0.1707678241303611 0.31259989648156872 0 0.1707678241303611 0.31259989648156872 0 0.1657389141743941 0.32607447656151611 0 0.16084478468494731 0.31759224325908281 0 0.1657389141743941 0.32607447656151611 0 0.15632698434060879 0.32309477146443721 0 0.16084478468494731 0.31759224325908281 0 0.1657389141743941 0.32607447656151611 0 0.15632698434060879 0.32309477146443721 0 0.1534459738215358 0.33116830427909388 0 0.15847128754916129 0.30901971199088751 0 0.1707678241303611 0.31259989648156872 0 0.16084478468494731 0.31759224325908281 0 0.15847128754916129 0.30901971199088751 0 0.16084478468494731 0.31759224325908281 0 0.1531779528472626 0.31690967251270458 0 0.15632698434060879 0.32309477146443721 0 0.16084478468494731 0.31759224325908281 0 0.1531779528472626 0.31690967251270458 0 0.1770056519607103 0.33831974362286749 0 0.1657389141743941 0.32607447656151611 0 0.1619384281755652 0.34052596047808847 0 0.1657389141743941 0.32607447656151611 0 0.1619384281755652 0.34052596047808847 0 0.1534459738215358 0.33116830427909388 0 0.1619384281755652 0.34052596047808847 0 0.14537830609435001 0.34101383565047871 0 0.15416632756111201 0.34898696826244741 0 0.1619384281755652 0.34052596047808847 0 0.1534459738215358 0.33116830427909388 0 0.14537830609435001 0.34101383565047871 0 0.1534459738215358 0.33116830427909388 0 0.1427633336259623 0.33140140495610498 0 0.14842729617490411 0.32372916070978858 0 0.1534459738215358 0.33116830427909388 0 0.1427633336259623 0.33140140495610498 0 0.14537830609435001 0.34101383565047871 0 0.1427633336259623 0.33140140495610498 0 0.14537830609435001 0.34101383565047871 0 0.13654253772275141 0.33890423694427602 0 0.1483486037307668 0.31106151759990119 0 0.1531779528472626 0.31690967251270458 0 0.14487070829517959 0.31682928085866202 0 0.1531779528472626 0.31690967251270458 0 0.14842729617490411 0.32372916070978858 0 0.14487070829517959 0.31682928085866202 0 0.15632698434060879 0.32309477146443721 0 0.1534459738215358 0.33116830427909388 0 0.14842729617490411 0.32372916070978858 0 0.15632698434060879 0.32309477146443721 0 0.1531779528472626 0.31690967251270458 0 0.14842729617490411 0.32372916070978858 0 0.1427633336259623 0.33140140495610498 0 0.14842729617490411 0.32372916070978858 0 0.1402378637359267 0.32270884290342983 0 0.14842729617490411 0.32372916070978858 0 0.14487070829517959 0.31682928085866202 0 0.1402378637359267 0.32270884290342983 0 0.1483486037307668 0.31106151759990119 0 0.14130712994747449 0.31140798331507108 0 0.14487070829517959 0.31682928085866202 0 0.14130712994747449 0.31140798331507108 0 0.14487070829517959 0.31682928085866202 0 0.13528824775885559 0.3155805734405937 0 0.14487070829517959 0.31682928085866202 0 0.13528824775885559 0.3155805734405937 0 0.1402378637359267 0.32270884290342983 0 0.13528824775885559 0.3155805734405937 0 0.1330765722643745 0.32249408610517011 0 0.1402378637359267 0.32270884290342983 0 0.1330765722643745 0.32249408610517011 0 0.1402378637359267 0.32270884290342983 0 0.13309473665224339 0.33072661256584468 0 0.12375204985912221 0.32702725796552912 0 0.1330765722643745 0.32249408610517011 0 0.13309473665224339 0.33072661256584468 0 0.12375204985912221 0.32702725796552912 0 0.1330765722643745 0.32249408610517011 0 0.12817088130983889 0.317450689473041 0 0.13528824775885559 0.3155805734405937 0 0.1330765722643745 0.32249408610517011 0 0.12817088130983889 0.317450689473041 0 0.1214195525311879 0.31440901896845502 0 0.12900107104525951 0.30968741412501871 0 0.12817088130983889 0.317450689473041 0 0.12900107104525951 0.30968741412501871 0 0.13528824775885559 0.3155805734405937 0 0.12817088130983889 0.317450689473041 0 0.14537830609435001 0.34101383565047871 0 0.13654253772275141 0.33890423694427602 0 0.13685475473781181 0.34959577292381833 0 0.13654253772275141 0.33890423694427602 0 0.1260676383484185 0.3399282146226113 0 0.13685475473781181 0.34959577292381833 0 0.1427633336259623 0.33140140495610498 0 0.13654253772275141 0.33890423694427602 0 0.13309473665224339 0.33072661256584468 0 0.1427633336259623 0.33140140495610498 0 0.1402378637359267 0.32270884290342983 0 0.13309473665224339 0.33072661256584468 0 0.12375204985912221 0.32702725796552912 0 0.13309473665224339 0.33072661256584468 0 0.1260676383484185 0.3399282146226113 0 0.13654253772275141 0.33890423694427602 0 0.13309473665224339 0.33072661256584468 0 0.1260676383484185 0.3399282146226113 0 0.1232256624926347 0.35239419723674059 0 0.13685475473781181 0.34959577292381833 0 0.13271547193899449 0.36524458735671972 0 0.1232256624926347 0.35239419723674059 0 0.1260676383484185 0.3399282146226113 0 0.13685475473781181 0.34959577292381833 0 0.13685475473781181 0.34959577292381833 0 0.13271547193899449 0.36524458735671972 0 0.14990537096685039 0.36070173528474042 0 0.13271547193899449 0.36524458735671972 0 0.14727668153694909 0.37350977329143831 0 0.1384203385310763 0.3853027474406937 0 0.13271547193899449 0.36524458735671972 0 0.14727668153694909 0.37350977329143831 0 0.14990537096685039 0.36070173528474042 0 0.15975417249048229 0.36968310563447321 0 0.14727668153694909 0.37350977329143831 0 0.14990537096685039 0.36070173528474042 0 0.14537830609435001 0.34101383565047871 0 0.13685475473781181 0.34959577292381833 0 0.15416632756111201 0.34898696826244741 0 0.13685475473781181 0.34959577292381833 0 0.14990537096685039 0.36070173528474042 0 0.15416632756111201 0.34898696826244741 0 0.15196678808574959 0.39634912392256672 0 0.1402717845598023 0.40641241395674649 0 0.16129649351817349 0.40676751558544272 0 0.15196678808574959 0.39634912392256672 0 0.1384203385310763 0.3853027474406937 0 0.1402717845598023 0.40641241395674649 0 0.15196678808574959 0.39634912392256672 0 0.15611970777082879 0.38410855928095938 0 0.1384203385310763 0.3853027474406937 0 0.14727668153694909 0.37350977329143831 0 0.15611970777082879 0.38410855928095938 0 0.1384203385310763 0.3853027474406937 0 0.15975417249048229 0.36968310563447321 0 0.14727668153694909 0.37350977329143831 0 0.15611970777082879 0.38410855928095938 0 0.1231373165426977 0.3806134049577457 0 0.13271547193899449 0.36524458735671972 0 0.1384203385310763 0.3853027474406937 0 0.1231373165426977 0.3806134049577457 0 0.1384203385310763 0.3853027474406937 0 0.1271742827044339 0.39597619803598749 0 0.1384203385310763 0.3853027474406937 0 0.1271742827044339 0.39597619803598749 0 0.1402717845598023 0.40641241395674649 0 0.1162621503634904 0.41872732341568758 0 0.1271742827044339 0.39597619803598749 0 0.1402717845598023 0.40641241395674649 0 0.1162621503634904 0.41872732341568758 0 0.1402717845598023 0.40641241395674649 0 0.14380353536204241 0.43078456768362461 0 0.1162621503634904 0.41872732341568758 0 0.14380353536204241 0.43078456768362461 0 0.1205619018159948 0.44674810255646558 0 0.1162621503634904 0.41872732341568758 0 0.13914808732176639 0.43525501877606959 0 0.1162621503634904 0.41872732341568758 0 0.13914808732176639 0.43525501877606959 0 0.14380353536204241 0.43078456768362461 0 0.1402717845598023 0.40641241395674649 0 0.16129649351817349 0.40676751558544272 0 0.1583102357697074 0.42239552662274649 0 0.1402717845598023 0.40641241395674649 0 0.14380353536204241 0.43078456768362461 0 0.1583102357697074 0.42239552662274649 0 0.16129649351817349 0.40676751558544272 0 0.17483444504792359 0.42517132393635743 0 0.1767108048052333 0.40648620419478521 0 0.16129649351817349 0.40676751558544272 0 0.1583102357697074 0.42239552662274649 0 0.17483444504792359 0.42517132393635743 0 0.1583102357697074 0.42239552662274649 0 0.17483444504792359 0.42517132393635743 0 0.1713449203605947 0.44284181195156158 0 0.14380353536204241 0.43078456768362461 0 0.1713449203605947 0.44284181195156158 0 0.14380353536204241 0.43078456768362461 0 0.1583102357697074 0.42239552662274649 0 0.1713449203605947 0.44284181195156158 0 0.17483444504792359 0.42517132393635743 0 0.18216746451451801 0.43740730714955978 0 0.1713449203605947 0.44284181195156158 0 0.17483444504792359 0.42517132393635743 0 0.1713449203605947 0.44284181195156158 0 0.17483444504792359 0.42517132393635743 0 0.1894098998784805 0.41329321868770491 0 0.19020123220431809 0.42989189963497759 0 0.17483444504792359 0.42517132393635743 0 0.18216746451451801 0.43740730714955978 0 0.19020123220431809 0.42989189963497759 0 0.17483444504792359 0.42517132393635743 0 0.1767108048052333 0.40648620419478521 0 0.1894098998784805 0.41329321868770491 0 0.1767108048052333 0.40648620419478521 0 0.16971698500113649 0.39319336099264368 0 0.18829620058045249 0.39400560177177729 0 0.1767108048052333 0.40648620419478521 0 0.18829620058045249 0.39400560177177729 0 0.1894098998784805 0.41329321868770491 0 0.15196678808574959 0.39634912392256672 0 0.15611970777082879 0.38410855928095938 0 0.16971698500113649 0.39319336099264368 0 0.15196678808574959 0.39634912392256672 0 0.16129649351817349 0.40676751558544272 0 0.16971698500113649 0.39319336099264368 0 0.16129649351817349 0.40676751558544272 0 0.1767108048052333 0.40648620419478521 0 0.16971698500113649 0.39319336099264368 0 0.17637045729064621 0.37495278481954358 0 0.15975417249048229 0.36968310563447321 0 0.15611970777082879 0.38410855928095938 0 0.17637045729064621 0.37495278481954358 0 0.15611970777082879 0.38410855928095938 0 0.16971698500113649 0.39319336099264368 0 0.17637045729064621 0.37495278481954358 0 0.16971698500113649 0.39319336099264368 0 0.18829620058045249 0.39400560177177729 0 0.20200890290724041 0.36500873302905812 0 0.18829620058045249 0.39400560177177729 0 0.21022739730807871 0.38998636848418261 0 0.20200890290724041 0.36500873302905812 0 0.17637045729064621 0.37495278481954358 0 0.18829620058045249 0.39400560177177729 0 0.18829620058045249 0.39400560177177729 0 0.21022739730807871 0.38998636848418261 0 0.20498907662426999 0.40636669370009521 0 0.18829620058045249 0.39400560177177729 0 0.20498907662426999 0.40636669370009521 0 0.1894098998784805 0.41329321868770491 0 0.21022739730807871 0.38998636848418261 0 0.225418264115859 0.4045632601918206 0 0.20498907662426999 0.40636669370009521 0 0.20200890290724041 0.36500873302905812 0 0.21022739730807871 0.38998636848418261 0 0.22860253219506471 0.37841014948266538 0 0.21022739730807871 0.38998636848418261 0 0.22860253219506471 0.37841014948266538 0 0.225418264115859 0.4045632601918206 0 0.225418264115859 0.4045632601918206 0 0.2490748840761759 0.41447913741323361 0 0.25519616148288887 0.39181156593627298 0 0.22860253219506471 0.37841014948266538 0 0.225418264115859 0.4045632601918206 0 0.25519616148288887 0.39181156593627298 0 0.22860253219506471 0.37841014948266538 0 0.25519616148288887 0.39181156593627298 0 0.24305895760768401 0.36641304215893011 0 0.22860253219506471 0.37841014948266538 0 0.25519616148288887 0.39181156593627298 0 0.2490748840761759 0.41447913741323361 0 0.23040520055063371 0.42472223384156732 0 0.24517769652138269 0.43868647355565088 0 0.225418264115859 0.4045632601918206 0 0.2490748840761759 0.41447913741323361 0 0.23040520055063371 0.42472223384156732 0 0.225418264115859 0.4045632601918206 0 0.23040520055063371 0.42472223384156732 0 0.20794960100346549 0.42683021087399747 0 0.23040520055063371 0.42472223384156732 0 0.20794960100346549 0.42683021087399747 0 0.2229924843016429 0.43948176305630821 0 0.23040520055063371 0.42472223384156732 0 0.2229924843016429 0.43948176305630821 0 0.24517769652138269 0.43868647355565088 0 0.225418264115859 0.4045632601918206 0 0.20794960100346549 0.42683021087399747 0 0.20498907662426999 0.40636669370009521 0 0.20794960100346549 0.42683021087399747 0 0.20498907662426999 0.40636669370009521 0 0.1894098998784805 0.41329321868770491 0 0.20794960100346549 0.42683021087399747 0 0.19020123220431809 0.42989189963497759 0 0.19426067079655579 0.44330707928475449 0 0.20794960100346549 0.42683021087399747 0 0.1894098998784805 0.41329321868770491 0 0.19020123220431809 0.42989189963497759 0 0.18216746451451801 0.43740730714955978 0 0.19020123220431809 0.42989189963497759 0 0.19426067079655579 0.44330707928475449 0 0.19426067079655579 0.44330707928475449 0 0.1940681668251448 0.45640187690020761 0 0.18254949088188149 0.4477470207382499 0 0.19426067079655579 0.44330707928475449 0 0.1940681668251448 0.45640187690020761 0 0.20814429074563079 0.44944136850783811 0 0.1940681668251448 0.45640187690020761 0 0.20814429074563079 0.44944136850783811 0 0.2039949308663013 0.472197178379127 0 0.1940681668251448 0.45640187690020761 0 0.2039949308663013 0.472197178379127 0 0.18608081776579821 0.46867989557539208 0 0.1940681668251448 0.45640187690020761 0 0.18608081776579821 0.46867989557539208 0 0.18254949088188149 0.4477470207382499 0 0.20814429074563079 0.44944136850783811 0 0.22852149564367849 0.45772005811557609 0 0.2039949308663013 0.472197178379127 0 0.20794960100346549 0.42683021087399747 0 0.19426067079655579 0.44330707928475449 0 0.20814429074563079 0.44944136850783811 0 0.20794960100346549 0.42683021087399747 0 0.20814429074563079 0.44944136850783811 0 0.2229924843016429 0.43948176305630821 0 0.2229924843016429 0.43948176305630821 0 0.22852149564367849 0.45772005811557609 0 0.24517769652138269 0.43868647355565088 0 0.20814429074563079 0.44944136850783811 0 0.2229924843016429 0.43948176305630821 0 0.22852149564367849 0.45772005811557609 0 0.22852149564367849 0.45772005811557609 0 0.2480713074063006 0.45455858161591112 0 0.2508124586903176 0.47172026355836871 0 0.22852149564367849 0.45772005811557609 0 0.2480713074063006 0.45455858161591112 0 0.24517769652138269 0.43868647355565088 0 0.24658834009167641 0.5 0 0.2268462464291012 0.47913099520174052 0 0.2508124586903176 0.47172026355836871 0 0.22852149564367849 0.45772005811557609 0 0.2268462464291012 0.47913099520174052 0 0.2508124586903176 0.47172026355836871 0 0.22852149564367849 0.45772005811557609 0 0.2268462464291012 0.47913099520174052 0 0.2039949308663013 0.472197178379127 0 0.24658834009167641 0.5 0 0.2268462464291012 0.47913099520174052 0 0.21774471386125249 0.5 0 0.2039949308663013 0.472197178379127 0 0.18890108763082861 0.5 0 0.18608081776579821 0.46867989557539208 0 0.21774471386125249 0.5 0 0.2039949308663013 0.472197178379127 0 0.18890108763082861 0.5 0 0.2268462464291012 0.47913099520174052 0 0.21774471386125249 0.5 0 0.2039949308663013 0.472197178379127 0 0.18890108763082861 0.5 0 0.16570119088049859 0.47142090597577962 0 0.18608081776579821 0.46867989557539208 0 0.18890108763082861 0.5 0 0.1600574614004048 0.499999999999998 0 0.16570119088049859 0.47142090597577962 0 0.1600574614004048 0.499999999999998 0 0.16570119088049859 0.47142090597577962 0 0.1600574614004048 0.499999999999998 0 0.16570119088049859 0.47142090597577962 0 0.1473140710794911 0.47841155746419622 0 0.16570119088049859 0.47142090597577962 0 0.18608081776579821 0.46867989557539208 0 0.18254949088188149 0.4477470207382499 0 0.16570119088049859 0.47142090597577962 0 0.18254949088188149 0.4477470207382499 0 0.1713449203605947 0.44284181195156158 0 0.18216746451451801 0.43740730714955978 0 0.19426067079655579 0.44330707928475449 0 0.18254949088188149 0.4477470207382499 0 0.18254949088188149 0.4477470207382499 0 0.1713449203605947 0.44284181195156158 0 0.18216746451451801 0.43740730714955978 0 0.18254949088188149 0.4477470207382499 0 0.1713449203605947 0.44284181195156158 0 0.16570119088049859 0.47142090597577962 0 0.1713449203605947 0.44284181195156158 0 0.16570119088049859 0.47142090597577962 0 0.1713449203605947 0.44284181195156158 0 0.15076126992746861 0.45128164001408699 0 0.16570119088049859 0.47142090597577962 0 0.14979107830043681 0.4659705410046826 0 0.15076126992746861 0.45128164001408699 0 0.14979107830043681 0.4659705410046826 0 0.15076126992746861 0.45128164001408699 0 0.13538778131428869 0.46276806056466779 0 0.13914808732176639 0.43525501877606959 0 0.14380353536204241 0.43078456768362461 0 0.15076126992746861 0.45128164001408699 0 0.14380353536204241 0.43078456768362461 0 0.1713449203605947 0.44284181195156158 0 0.15076126992746861 0.45128164001408699 0 0.13914808732176639 0.43525501877606959 0 0.15076126992746861 0.45128164001408699 0 0.13538778131428869 0.46276806056466779 0 0.13914808732176639 0.43525501877606959 0 0.13538778131428869 0.46276806056466779 0 0.1205619018159948 0.44674810255646558 0 0.13914808732176639 0.43525501877606959 0 0.13538778131428869 0.46276806056466779 0 0.1248616532684987 0.47476888169724352 0 0.1205619018159948 0.44674810255646558 0 0.13538778131428869 0.46276806056466779 0 0.13538778131428869 0.46276806056466779 0 0.13162747530681079 0.49028110235326611 0 0.1248616532684987 0.47476888169724352 0 0.13538778131428869 0.46276806056466779 0 0.13162747530681079 0.49028110235326611 0 0.13538778131428869 0.46276806056466779 0 0.13162747530681079 0.49028110235326611 0 0.1473140710794911 0.47841155746419622 0 0.1248616532684987 0.47476888169724352 0 0.13162747530681079 0.49028110235326611 0 0.1248616532684987 0.47476888169724352 0 0.1287333349596296 0.50000000000000233 0 0.1248616532684987 0.47476888169724352 0 0.13162747530681079 0.49028110235326611 0 0.1287333349596296 0.50000000000000233 0 0.13162747530681079 0.49028110235326611 0 0.1302991587401483 0.50000000000000044 0 0.13162747530681079 0.49028110235326611 0 0.1302991587401483 0.50000000000000044 0 0.13586647714571501 0.50000000000000044 0 0.13162747530681079 0.49028110235326611 0 0.1287333349596296 0.50000000000000233 0 0.1302991587401483 0.50000000000000044 0 0.13162747530681079 0.49028110235326611 0 0.13586647714571501 0.50000000000000044 0 0.14406777576738011 0.49099847585001533 0 0.13162747530681079 0.49028110235326611 0 0.13586647714571501 0.50000000000000044 0 0.1600574614004048 0.499999999999998 0 0.13586647714571501 0.50000000000000044 0 0.14406777576738011 0.49099847585001533 0 0.1600574614004048 0.499999999999998 0 0.14406777576738011 0.49099847585001533 0 0.1473140710794911 0.47841155746419622 0 0.13162747530681079 0.49028110235326611 0 0.14406777576738011 0.49099847585001533 0 0.1473140710794911 0.47841155746419622 0 0.16570119088049859 0.47142090597577962 0 0.14979107830043681 0.4659705410046826 0 0.1473140710794911 0.47841155746419622 0 0.14979107830043681 0.4659705410046826 0 0.13538778131428869 0.46276806056466779 0 0.1473140710794911 0.47841155746419622 0 0.3484716028812469 0.46927922019571022 0 0.3639431844790027 0.47792576209206161 0 0.36215729707138089 0.45952194433731441 0 0.3484716028812469 0.46927922019571022 0 0.34825454286986979 0.4866410253547736 0 0.3639431844790027 0.47792576209206161 0 0.34825454286986979 0.4866410253547736 0 0.36196284501337178 0.5 0 0.3639431844790027 0.47792576209206161 0 0.34825454286986979 0.4866410253547736 0 0.36196284501337178 0.5 0 0.33311921878294798 0.5 0 0.36196284501337178 0.5 0 0.3639431844790027 0.47792576209206161 0 0.38120033573297152 0.48442634992442057 0 0.3639431844790027 0.47792576209206161 0 0.37844435483634198 0.4675903904274426 0 0.38120033573297152 0.48442634992442057 0 0.3639431844790027 0.47792576209206161 0 0.36215729707138089 0.45952194433731441 0 0.37844435483634198 0.4675903904274426 0 0.36215729707138089 0.45952194433731441 0 0.37809165231809289 0.44568724501072521 0 0.37844435483634198 0.4675903904274426 0 0.36215729707138089 0.45952194433731441 0 0.35494335133579169 0.44207750056399991 0 0.37809165231809289 0.44568724501072521 0 0.35494335133579169 0.44207750056399991 0 0.365542703577178 0.42914551292816783 0 0.37809165231809289 0.44568724501072521 0 0.35494335133579169 0.44207750056399991 0 0.33746945485668051 0.4332718215327816 0 0.35494335133579169 0.44207750056399991 0 0.33933393763431879 0.44574212964051668 0 0.33746945485668051 0.4332718215327816 0 0.36215729707138089 0.45952194433731441 0 0.35494335133579169 0.44207750056399991 0 0.34904963657780902 0.45457154773394731 0 0.35494335133579169 0.44207750056399991 0 0.34904963657780902 0.45457154773394731 0 0.33933393763431879 0.44574212964051668 0 0.3484716028812469 0.46927922019571022 0 0.36215729707138089 0.45952194433731441 0 0.34904963657780902 0.45457154773394731 0 0.3484716028812469 0.46927922019571022 0 0.34904963657780902 0.45457154773394731 0 0.33768006752307722 0.45817683321967928 0 0.33768006752307722 0.45817683321967928 0 0.32516604183334019 0.44948070643492349 0 0.3263791186886712 0.4718105620932988 0 0.3484716028812469 0.46927922019571022 0 0.33768006752307722 0.45817683321967928 0 0.3263791186886712 0.4718105620932988 0 0.33933393763431879 0.44574212964051668 0 0.32516604183334019 0.44948070643492349 0 0.33457771181584611 0.43369686048393857 0 0.32516604183334019 0.44948070643492349 0 0.33457771181584611 0.43369686048393857 0 0.33933393763431879 0.44574212964051668 0 0.33457771181584611 0.43369686048393857 0 0.33746945485668051 0.4332718215327816 0 0.34904963657780902 0.45457154773394731 0 0.33768006752307722 0.45817683321967928 0 0.33933393763431879 0.44574212964051668 0 0.33768006752307722 0.45817683321967928 0 0.33933393763431879 0.44574212964051668 0 0.32516604183334019 0.44948070643492349 0 0.32516604183334019 0.44948070643492349 0 0.30610823095482448 0.43788140873538328 0 0.33457771181584611 0.43369686048393857 0 0.32516604183334019 0.44948070643492349 0 0.30909376894118562 0.45443190325323968 0 0.30610823095482448 0.43788140873538328 0 0.32516604183334019 0.44948070643492349 0 0.3263791186886712 0.4718105620932988 0 0.30909376894118562 0.45443190325323968 0 0.3263791186886712 0.4718105620932988 0 0.30059931196992168 0.47005809262963882 0 0.31153103284441203 0.48323920778459489 0 0.3484716028812469 0.46927922019571022 0 0.34825454286986979 0.4866410253547736 0 0.3263791186886712 0.4718105620932988 0 0.34825454286986979 0.4866410253547736 0 0.3263791186886712 0.4718105620932988 0 0.33311921878294798 0.5 0 0.3263791186886712 0.4718105620932988 0 0.33311921878294798 0.5 0 0.31153103284441203 0.48323920778459489 0 0.33311921878294798 0.5 0 0.30427559255252412 0.5 0 0.31153103284441203 0.48323920778459489 0 0.30427559255252412 0.5 0 0.31153103284441203 0.48323920778459489 0 0.29110307967174748 0.48580921065493432 0 0.30059931196992168 0.47005809262963882 0 0.31153103284441203 0.48323920778459489 0 0.29110307967174748 0.48580921065493432 0 0.30059931196992168 0.47005809262963882 0 0.29110307967174748 0.48580921065493432 0 0.27585954767988607 0.47408041721782612 0 0.30427559255252412 0.5 0 0.29110307967174748 0.48580921065493432 0 0.27543196632210021 0.5 0 0.27543196632210021 0.5 0 0.27585954767988607 0.47408041721782612 0 0.26198527678341299 0.48673919500437729 0 0.29110307967174748 0.48580921065493432 0 0.27543196632210021 0.5 0 0.27585954767988607 0.47408041721782612 0 0.27585954767988607 0.47408041721782612 0 0.2508124586903176 0.47172026355836871 0 0.26198527678341299 0.48673919500437729 0 0.24658834009167641 0.5 0 0.2508124586903176 0.47172026355836871 0 0.26198527678341299 0.48673919500437729 0 0.24658834009167641 0.5 0 0.27543196632210021 0.5 0 0.26198527678341299 0.48673919500437729 0 0.2480713074063006 0.45455858161591112 0 0.24517769652138269 0.43868647355565088 0 0.26777357876982372 0.45010753123404867 0 0.24517769652138269 0.43868647355565088 0 0.26777357876982372 0.45010753123404867 0 0.26600993858745892 0.42808938636359573 0 0.2480713074063006 0.45455858161591112 0 0.2508124586903176 0.47172026355836871 0 0.26777357876982372 0.45010753123404867 0 0.27585954767988607 0.47408041721782612 0 0.2508124586903176 0.47172026355836871 0 0.26777357876982372 0.45010753123404867 0 0.27585954767988607 0.47408041721782612 0 0.26777357876982372 0.45010753123404867 0 0.28975077836376328 0.45156795454144122 0 0.26777357876982372 0.45010753123404867 0 0.28975077836376328 0.45156795454144122 0 0.28607917402868899 0.43188291486824332 0 0.28975077836376328 0.45156795454144122 0 0.30610823095482448 0.43788140873538328 0 0.28607917402868899 0.43188291486824332 0 0.30059931196992168 0.47005809262963882 0 0.27585954767988607 0.47408041721782612 0 0.28975077836376328 0.45156795454144122 0 0.3263791186886712 0.4718105620932988 0 0.30059931196992168 0.47005809262963882 0 0.30909376894118562 0.45443190325323968 0 0.30059931196992168 0.47005809262963882 0 0.28975077836376328 0.45156795454144122 0 0.30909376894118562 0.45443190325323968 0 0.28975077836376328 0.45156795454144122 0 0.30909376894118562 0.45443190325323968 0 0.30610823095482448 0.43788140873538328 0 0.30610823095482448 0.43788140873538328 0 0.30869255759955722 0.41877018355733042 0 0.28607917402868899 0.43188291486824332 0 0.3075810200549029 0.4073564129674252 0 0.30869255759955722 0.41877018355733042 0 0.30232024370737348 0.40459188745546998 0 0.31142364564813352 0.41093370315849659 0 0.3075810200549029 0.4073564129674252 0 0.31015955469665918 0.40201373970895371 0 0.31142364564813352 0.41093370315849659 0 0.3075810200549029 0.4073564129674252 0 0.30869255759955722 0.41877018355733042 0 0.30869255759955722 0.41877018355733042 0 0.29605666041485018 0.40551048050067168 0 0.30232024370737348 0.40459188745546998 0 0.30869255759955722 0.41877018355733042 0 0.2819443595412231 0.40529087474680159 0 0.30869255759955722 0.41877018355733042 0 0.2819443595412231 0.40529087474680159 0 0.29605666041485018 0.40551048050067168 0 0.30869255759955722 0.41877018355733042 0 0.28607917402868899 0.43188291486824332 0 0.2819443595412231 0.40529087474680159 0 0.2490748840761759 0.41447913741323361 0 0.26600993858745892 0.42808938636359573 0 0.2819443595412231 0.40529087474680159 0 0.26777357876982372 0.45010753123404867 0 0.28607917402868899 0.43188291486824332 0 0.26600993858745892 0.42808938636359573 0 0.28607917402868899 0.43188291486824332 0 0.26600993858745892 0.42808938636359573 0 0.2819443595412231 0.40529087474680159 0 0.2490748840761759 0.41447913741323361 0 0.24517769652138269 0.43868647355565088 0 0.26600993858745892 0.42808938636359573 0 0.2490748840761759 0.41447913741323361 0 0.25519616148288887 0.39181156593627298 0 0.2819443595412231 0.40529087474680159 0 0.25519616148288887 0.39181156593627298 0 0.2618259464583832 0.36726095095448358 0 0.25519616148288887 0.39181156593627298 0 0.27405714121884811 0.38409687161834088 0 0.2618259464583832 0.36726095095448358 0 0.24305895760768401 0.36641304215893011 0 0.25519616148288887 0.39181156593627298 0 0.2618259464583832 0.36726095095448358 0 0.2490748840761759 0.41447913741323361 0 0.25519616148288887 0.39181156593627298 0 0.27405714121884811 0.38409687161834088 0 0.2819443595412231 0.40529087474680159 0 0.28762179706039948 0.39125587461843808 0 0.25519616148288887 0.39181156593627298 0 0.2819443595412231 0.40529087474680159 0 0.25519616148288887 0.39181156593627298 0 0.27405714121884811 0.38409687161834088 0 0.2819443595412231 0.40529087474680159 0 0.27405714121884811 0.38409687161834088 0 0.28403056220722062 0.37531448917755911 0 0.2737626695690904 0.37327007608818358 0 0.27405714121884811 0.38409687161834088 0 0.28403056220722062 0.37531448917755911 0 0.28762179706039948 0.39125587461843808 0 0.29405085274881382 0.37834813740539031 0 0.28762179706039948 0.39125587461843808 0 0.30049862001061489 0.39881078008944609 0 0.28403056220722062 0.37531448917755911 0 0.29405085274881382 0.37834813740539031 0 0.28762179706039948 0.39125587461843808 0 0.2819443595412231 0.40529087474680159 0 0.28762179706039948 0.39125587461843808 0 0.29316512877403511 0.40022580951085568 0 0.28762179706039948 0.39125587461843808 0 0.29316512877403511 0.40022580951085568 0 0.30049862001061489 0.39881078008944609 0 0.2819443595412231 0.40529087474680159 0 0.29316512877403511 0.40022580951085568 0 0.29605666041485018 0.40551048050067168 0 0.29316512877403511 0.40022580951085568 0 0.29605666041485018 0.40551048050067168 0 0.30042223720462058 0.4004666581126537 0 0.29605666041485018 0.40551048050067168 0 0.30232024370737348 0.40459188745546998 0 0.30042223720462058 0.4004666581126537 0 0.29316512877403511 0.40022580951085568 0 0.30042223720462058 0.4004666581126537 0 0.30049862001061489 0.39881078008944609 0 0.30042223720462058 0.4004666581126537 0 0.30049862001061489 0.39881078008944609 0 0.30232024370737348 0.40459188745546998 0 0.30049862001061489 0.39881078008944609 0 0.30232024370737348 0.40459188745546998 0 0.30049862001061489 0.39881078008944609 0 0.30430913302558388 0.40020258685778032 0 0.30232024370737348 0.40459188745546998 0 0.30042223720462058 0.4004666581126537 0 0.30049862001061489 0.39881078008944609 0 0.30049862001061489 0.39881078008944609 0 0.30098622665836988 0.38824011406760628 0 0.30049862001061489 0.39881078008944609 0 0.30430913302558388 0.40020258685778032 0 0.30098622665836988 0.38824011406760628 0 0.30098622665836988 0.38824011406760628 0 0.30110064445947421 0.38575968774854158 0 0.31262554991773928 0.39787599139405988 0 0.31015955469665918 0.40201373970895371 0 0.30098622665836988 0.38824011406760628 0 0.30110064445947421 0.38575968774854158 0 0.31262554991773928 0.39787599139405988 0 0.30430913302558388 0.40020258685778032 0 0.31015955469665918 0.40201373970895371 0 0.30098622665836988 0.38824011406760628 0 0.31015955469665918 0.40201373970895371 0 0.30098622665836988 0.38824011406760628 0 0.31262554991773928 0.39787599139405988 0 0.3075810200549029 0.4073564129674252 0 0.30232024370737348 0.40459188745546998 0 0.30430913302558388 0.40020258685778032 0 0.3075810200549029 0.4073564129674252 0 0.30430913302558388 0.40020258685778032 0 0.31015955469665918 0.40201373970895371 0 0.29405085274881382 0.37834813740539031 0 0.30049862001061489 0.39881078008944609 0 0.29405085274881382 0.37834813740539031 0 0.30049862001061489 0.39881078008944609 0 0.30098622665836988 0.38824011406760628 0 0.30110064445947421 0.38575968774854158 0 0.30177514978199971 0.3711373061071076 0 0.30110064445947421 0.38575968774854158 0 0.3104817065657739 0.3858680532317833 0 0.30177514978199971 0.3711373061071076 0 0.29405085274881382 0.37834813740539031 0 0.30110064445947421 0.38575968774854158 0 0.30177514978199971 0.3711373061071076 0 0.29405085274881382 0.37834813740539031 0 0.30110064445947421 0.38575968774854158 0 0.29405085274881382 0.37834813740539031 0 0.30098622665836988 0.38824011406760628 0 0.30110064445947421 0.38575968774854158 0 0.29405085274881382 0.37834813740539031 0 0.30098622665836988 0.38824011406760628 0 0.30098622665836988 0.38824011406760628 0 0.30110064445947421 0.38575968774854158 0 0.30110064445947421 0.38575968774854158 0 0.3104817065657739 0.3858680532317833 0 0.31262554991773928 0.39787599139405988 0 0.3104817065657739 0.3858680532317833 0 0.30177514978199971 0.3711373061071076 0 0.3104817065657739 0.3858680532317833 0 0.31717345926189522 0.3709258031848055 0 0.30177514978199971 0.3711373061071076 0 0.3104817065657739 0.3858680532317833 0 0.3376156911696272 0.37620073599141618 0 0.3104817065657739 0.3858680532317833 0 0.3376156911696272 0.37620073599141618 0 0.31717345926189522 0.3709258031848055 0 0.3104817065657739 0.3858680532317833 0 0.3376156911696272 0.37620073599141618 0 0.3351802944883514 0.39738750443412002 0 0.3376156911696272 0.37620073599141618 0 0.3351802944883514 0.39738750443412002 0 0.34879159400795012 0.38769315231290841 0 0.3351802944883514 0.39738750443412002 0 0.33658962428999861 0.41133204962483783 0 0.34988972217452752 0.40801784569160632 0 0.3351802944883514 0.39738750443412002 0 0.32415045537600512 0.40999229503957763 0 0.33658962428999861 0.41133204962483783 0 0.3351802944883514 0.39738750443412002 0 0.31909953512109351 0.40044867980609039 0 0.32415045537600512 0.40999229503957763 0 0.3104817065657739 0.3858680532317833 0 0.3351802944883514 0.39738750443412002 0 0.31909953512109351 0.40044867980609039 0 0.3104817065657739 0.3858680532317833 0 0.31909953512109351 0.40044867980609039 0 0.3104817065657739 0.3858680532317833 0 0.31262554991773928 0.39787599139405988 0 0.31909953512109351 0.40044867980609039 0 0.31262554991773928 0.39787599139405988 0 0.32415045537600512 0.40999229503957763 0 0.31015955469665918 0.40201373970895371 0 0.31262554991773928 0.39787599139405988 0 0.32415045537600512 0.40999229503957763 0 0.31262554991773928 0.39787599139405988 0 0.31909953512109351 0.40044867980609039 0 0.32415045537600512 0.40999229503957763 0 0.31015955469665918 0.40201373970895371 0 0.31933288273494848 0.41578736535030097 0 0.32415045537600512 0.40999229503957763 0 0.31142364564813352 0.41093370315849659 0 0.31015955469665918 0.40201373970895371 0 0.31933288273494848 0.41578736535030097 0 0.30869255759955722 0.41877018355733042 0 0.31933288273494848 0.41578736535030097 0 0.32906281765607392 0.42006619542527468 0 0.31015955469665918 0.40201373970895371 0 0.31933288273494848 0.41578736535030097 0 0.31142364564813352 0.41093370315849659 0 0.30869255759955722 0.41877018355733042 0 0.31933288273494848 0.41578736535030097 0 0.31933288273494848 0.41578736535030097 0 0.32415045537600512 0.40999229503957763 0 0.32906281765607392 0.42006619542527468 0 0.30869255759955722 0.41877018355733042 0 0.33457771181584611 0.43369686048393857 0 0.33544075565789128 0.43224949236785898 0 0.30869255759955722 0.41877018355733042 0 0.33544075565789128 0.43224949236785898 0 0.30610823095482448 0.43788140873538328 0 0.30869255759955722 0.41877018355733042 0 0.33457771181584611 0.43369686048393857 0 0.30869255759955722 0.41877018355733042 0 0.33544075565789128 0.43224949236785898 0 0.32906281765607392 0.42006619542527468 0 0.30610823095482448 0.43788140873538328 0 0.33457771181584611 0.43369686048393857 0 0.33457771181584611 0.43369686048393857 0 0.33544075565789128 0.43224949236785898 0 0.33746945485668051 0.4332718215327816 0 0.33457771181584611 0.43369686048393857 0 0.33544075565789128 0.43224949236785898 0 0.33544075565789128 0.43224949236785898 0 0.33746945485668051 0.4332718215327816 0 0.35001853239939229 0.42365555934674631 0 0.33544075565789128 0.43224949236785898 0 0.33746945485668051 0.4332718215327816 0 0.33457771181584611 0.43369686048393857 0 0.33746945485668051 0.4332718215327816 0 0.33544075565789128 0.43224949236785898 0 0.33658962428999861 0.41133204962483783 0 0.34988972217452752 0.40801784569160632 0 0.33544075565789128 0.43224949236785898 0 0.32906281765607392 0.42006619542527468 0 0.33658962428999861 0.41133204962483783 0 0.33544075565789128 0.43224949236785898 0 0.34988972217452752 0.40801784569160632 0 0.32415045537600512 0.40999229503957763 0 0.32906281765607392 0.42006619542527468 0 0.33658962428999861 0.41133204962483783 0 0.33544075565789128 0.43224949236785898 0 0.34988972217452752 0.40801784569160632 0 0.35001853239939229 0.42365555934674631 0 0.34988972217452752 0.40801784569160632 0 0.36165970526353591 0.41519797525725338 0 0.36412400085156282 0.39702719229323191 0 0.34988972217452752 0.40801784569160632 0 0.35001853239939229 0.42365555934674631 0 0.36165970526353591 0.41519797525725338 0 0.35494335133579169 0.44207750056399991 0 0.33746945485668051 0.4332718215327816 0 0.365542703577178 0.42914551292816783 0 0.33746945485668051 0.4332718215327816 0 0.35001853239939229 0.42365555934674631 0 0.365542703577178 0.42914551292816783 0 0.33746945485668051 0.4332718215327816 0 0.365542703577178 0.42914551292816783 0 0.35001853239939229 0.42365555934674631 0 0.365542703577178 0.42914551292816783 0 0.36165970526353591 0.41519797525725338 0 0.365542703577178 0.42914551292816783 0 0.36165970526353591 0.41519797525725338 0 0.37744029411777058 0.41252948965876268 0 0.36165970526353591 0.41519797525725338 0 0.36412400085156282 0.39702719229323191 0 0.37744029411777058 0.41252948965876268 0 0.36412400085156282 0.39702719229323191 0 0.38026367080056678 0.39066664182047522 0 0.37744029411777058 0.41252948965876268 0 0.34988972217452752 0.40801784569160632 0 0.36412400085156282 0.39702719229323191 0 0.36433868869116592 0.38378619901535488 0 0.36433868869116592 0.38378619901535488 0 0.3773824667175657 0.37546563606013739 0 0.38026367080056678 0.39066664182047522 0 0.36433868869116592 0.38378619901535488 0 0.36474967577348072 0.36653341875104961 0 0.3773824667175657 0.37546563606013739 0 0.36412400085156282 0.39702719229323191 0 0.36433868869116592 0.38378619901535488 0 0.38026367080056678 0.39066664182047522 0 0.36433868869116592 0.38378619901535488 0 0.36474967577348072 0.36653341875104961 0 0.36412400085156282 0.39702719229323191 0 0.36433868869116592 0.38378619901535488 0 0.3376156911696272 0.37620073599141618 0 0.34879159400795012 0.38769315231290841 0 0.36474967577348072 0.36653341875104961 0 0.36433868869116592 0.38378619901535488 0 0.34879159400795012 0.38769315231290841 0 0.36474967577348072 0.36653341875104961 0 0.3351802944883514 0.39738750443412002 0 0.34988972217452752 0.40801784569160632 0 0.34879159400795012 0.38769315231290841 0 0.34988972217452752 0.40801784569160632 0 0.36433868869116592 0.38378619901535488 0 0.34988972217452752 0.40801784569160632 0 0.36433868869116592 0.38378619901535488 0 0.34879159400795012 0.38769315231290841 0 0.34699100967064078 0.35539672769273539 0 0.36474967577348072 0.36653341875104961 0 0.36518945593320651 0.34509967395937191 0 0.34699100967064078 0.35539672769273539 0 0.36518945593320651 0.34509967395937191 0 0.348137396692076 0.34077307725183559 0 0.3376156911696272 0.37620073599141618 0 0.34699100967064078 0.35539672769273539 0 0.36474967577348072 0.36653341875104961 0 0.3376156911696272 0.37620073599141618 0 0.36474967577348072 0.36653341875104961 0 0.36474967577348072 0.36653341875104961 0 0.36518945593320651 0.34509967395937191 0 0.36474967577348072 0.36653341875104961 0 0.36518945593320651 0.34509967395937191 0 0.3855881021147175 0.35910908792858098 0 0.36518945593320651 0.34509967395937191 0 0.36562923609293069 0.32366592916769399 0 0.36518945593320651 0.34509967395937191 0 0.36562923609293069 0.32366592916769399 0 0.348137396692076 0.34077307725183559 0 0.36518945593320651 0.34509967395937191 0 0.36562923609293069 0.32366592916769399 0 0.38128435600444488 0.32837669887387311 0 0.36562923609293069 0.32366592916769399 0 0.36606901625265492 0.30223218437601618 0 0.38242981621443428 0.31397380775534678 0 0.36562923609293069 0.32366592916769399 0 0.36606901625265492 0.30223218437601618 0 0.36562923609293069 0.32366592916769399 0 0.34238706329751362 0.32476320095938682 0 0.35183379698966949 0.31056891257481539 0 0.36562923609293069 0.32366592916769399 0 0.348137396692076 0.34077307725183559 0 0.34238706329751362 0.32476320095938682 0 0.348137396692076 0.34077307725183559 0 0.33072504187423118 0.34237289876026822 0 0.34238706329751362 0.32476320095938682 0 0.33072504187423118 0.34237289876026822 0 0.34238706329751362 0.32476320095938682 0 0.32122702449841589 0.32177081607522939 0 0.34238706329751362 0.32476320095938682 0 0.33644502425256478 0.30910566618648461 0 0.35183379698966949 0.31056891257481539 0 0.34238706329751362 0.32476320095938682 0 0.32122702449841589 0.32177081607522939 0 0.33644502425256478 0.30910566618648461 0 0.32122702449841589 0.32177081607522939 0 0.31445651652981632 0.33878768779705848 0 0.30372390616191358 0.32889084998335888 0 0.33072504187423118 0.34237289876026822 0 0.32122702449841589 0.32177081607522939 0 0.31445651652981632 0.33878768779705848 0 0.33072504187423118 0.34237289876026822 0 0.31445651652981632 0.33878768779705848 0 0.31594857135045817 0.35062531106266931 0 0.33072504187423118 0.34237289876026822 0 0.31594857135045817 0.35062531106266931 0 0.32442852787466708 0.36030442639367111 0 0.31594857135045817 0.35062531106266931 0 0.32442852787466708 0.36030442639367111 0 0.31156622091740832 0.36111849420004938 0 0.34699100967064078 0.35539672769273539 0 0.348137396692076 0.34077307725183559 0 0.33072504187423118 0.34237289876026822 0 0.34699100967064078 0.35539672769273539 0 0.33072504187423118 0.34237289876026822 0 0.32442852787466708 0.36030442639367111 0 0.3376156911696272 0.37620073599141618 0 0.34699100967064078 0.35539672769273539 0 0.32442852787466708 0.36030442639367111 0 0.3376156911696272 0.37620073599141618 0 0.32442852787466708 0.36030442639367111 0 0.31717345926189522 0.3709258031848055 0 0.32442852787466708 0.36030442639367111 0 0.31717345926189522 0.3709258031848055 0 0.31156622091740832 0.36111849420004938 0 0.30177514978199971 0.3711373061071076 0 0.30274952797195698 0.35001407804523332 0 0.31717345926189522 0.3709258031848055 0 0.31156622091740832 0.36111849420004938 0 0.30177514978199971 0.3711373061071076 0 0.31156622091740832 0.36111849420004938 0 0.30177514978199971 0.3711373061071076 0 0.30274952797195698 0.35001407804523332 0 0.30177514978199971 0.3711373061071076 0 0.30274952797195698 0.35001407804523332 0 0.29106955940472562 0.3530243656434488 0 0.31445651652981632 0.33878768779705848 0 0.31594857135045817 0.35062531106266931 0 0.30274952797195698 0.35001407804523332 0 0.31594857135045817 0.35062531106266931 0 0.31156622091740832 0.36111849420004938 0 0.30274952797195698 0.35001407804523332 0 0.29106955940472562 0.3530243656434488 0 0.28705150305193838 0.35613499197806497 0 0.28036396902745148 0.33491142517978989 0 0.28705150305193838 0.35613499197806497 0 0.28036396902745148 0.33491142517978989 0 0.28705150305193838 0.35613499197806497 0 0.27644360280618341 0.34191623842927221 0 0.28036396902745148 0.33491142517978989 0 0.29106955940472562 0.3530243656434488 0 0.28036396902745148 0.33491142517978989 0 0.30274952797195698 0.35001407804523332 0 0.29106955940472562 0.3530243656434488 0 0.29374099595638509 0.3392252011883215 0 0.28705150305193838 0.35613499197806497 0 0.28458867991473008 0.36361942358965982 0 0.27543832275303448 0.34988028840297991 0 0.29405085274881382 0.37834813740539031 0 0.28705150305193838 0.35613499197806497 0 0.28458867991473008 0.36361942358965982 0 0.29405085274881382 0.37834813740539031 0 0.28705150305193838 0.35613499197806497 0 0.30177514978199971 0.3711373061071076 0 0.29106955940472562 0.3530243656434488 0 0.29405085274881382 0.37834813740539031 0 0.30177514978199971 0.3711373061071076 0 0.28705150305193838 0.35613499197806497 0 0.30177514978199971 0.3711373061071076 0 0.29106955940472562 0.3530243656434488 0 0.28705150305193838 0.35613499197806497 0 0.29405085274881382 0.37834813740539031 0 0.28458867991473008 0.36361942358965982 0 0.28403056220722062 0.37531448917755911 0 0.2815017213106239 0.3651550498314205 0 0.27898286169525299 0.37041503512408969 0 0.29405085274881382 0.37834813740539031 0 0.2815017213106239 0.3651550498314205 0 0.28403056220722062 0.37531448917755911 0 0.29405085274881382 0.37834813740539031 0 0.2815017213106239 0.3651550498314205 0 0.29405085274881382 0.37834813740539031 0 0.28458867991473008 0.36361942358965982 0 0.2815017213106239 0.3651550498314205 0 0.28403056220722062 0.37531448917755911 0 0.27898286169525299 0.37041503512408969 0 0.2737626695690904 0.37327007608818358 0 0.27663649369407689 0.36792052539919551 0 0.2737626695690904 0.37327007608818358 0 0.27125000512352843 0.36234153133647429 0 0.27405714121884811 0.38409687161834088 0 0.2737626695690904 0.37327007608818358 0 0.2618259464583832 0.36726095095448358 0 0.2815017213106239 0.3651550498314205 0 0.27898286169525299 0.37041503512408969 0 0.27663649369407689 0.36792052539919551 0 0.27898286169525299 0.37041503512408969 0 0.27663649369407689 0.36792052539919551 0 0.2737626695690904 0.37327007608818358 0 0.2737626695690904 0.37327007608818358 0 0.27125000512352843 0.36234153133647429 0 0.2618259464583832 0.36726095095448358 0 0.27125000512352843 0.36234153133647429 0 0.26895258987243392 0.3519619622574508 0 0.2618259464583832 0.36726095095448358 0 0.2815017213106239 0.3651550498314205 0 0.27125000512352843 0.36234153133647429 0 0.26895258987243392 0.3519619622574508 0 0.2815017213106239 0.3651550498314205 0 0.27663649369407689 0.36792052539919551 0 0.27125000512352843 0.36234153133647429 0 0.28458867991473008 0.36361942358965982 0 0.2815017213106239 0.3651550498314205 0 0.27543832275303448 0.34988028840297991 0 0.2815017213106239 0.3651550498314205 0 0.26895258987243392 0.3519619622574508 0 0.28458867991473008 0.36361942358965982 0 0.27543832275303448 0.34988028840297991 0 0.26895258987243392 0.3519619622574508 0 0.2618259464583832 0.36726095095448358 0 0.2684557314338783 0.34271033597269462 0 0.2815017213106239 0.3651550498314205 0 0.27543832275303448 0.34988028840297991 0 0.26895258987243392 0.3519619622574508 0 0.28705150305193838 0.35613499197806497 0 0.27543832275303448 0.34988028840297991 0 0.27644360280618341 0.34191623842927221 0 0.27543832275303448 0.34988028840297991 0 0.2684557314338783 0.34271033597269462 0 0.27644360280618341 0.34191623842927221 0 0.27543832275303448 0.34988028840297991 0 0.26895258987243392 0.3519619622574508 0 0.2684557314338783 0.34271033597269462 0 0.2618259464583832 0.36726095095448358 0 0.2684557314338783 0.34271033597269462 0 0.24521693247762111 0.35027114815259558 0 0.2618259464583832 0.36726095095448358 0 0.2684557314338783 0.34271033597269462 0 0.24305895760768401 0.36641304215893011 0 0.24521693247762111 0.35027114815259558 0 0.2618259464583832 0.36726095095448358 0 0.24490867605631639 0.32967072069511189 0 0.26050839607327853 0.32387463406168998 0 0.25114017462525878 0.31153615041935723 0 0.26050839607327853 0.32387463406168998 0 0.25114017462525878 0.31153615041935723 0 0.26342424027676908 0.31148804944983333 0 0.24490867605631639 0.32967072069511189 0 0.26050839607327853 0.32387463406168998 0 0.2684557314338783 0.34271033597269462 0 0.24490867605631639 0.32967072069511189 0 0.24521693247762111 0.35027114815259558 0 0.2684557314338783 0.34271033597269462 0 0.26050839607327853 0.32387463406168998 0 0.2684557314338783 0.34271033597269462 0 0.27508551640937329 0.31815972099090539 0 0.2684557314338783 0.34271033597269462 0 0.27508551640937329 0.31815972099090539 0 0.2684557314338783 0.34271033597269462 0 0.27787730485363338 0.33070420273373929 0 0.27508551640937329 0.31815972099090539 0 0.2684557314338783 0.34271033597269462 0 0.27644360280618341 0.34191623842927221 0 0.27787730485363338 0.33070420273373929 0 0.27644360280618341 0.34191623842927221 0 0.28036396902745148 0.33491142517978989 0 0.27787730485363338 0.33070420273373929 0 0.28036396902745148 0.33491142517978989 0 0.27787730485363338 0.33070420273373929 0 0.28036396902745148 0.33491142517978989 0 0.27787730485363338 0.33070420273373929 0 0.27508551640937329 0.31815972099090539 0 0.28036396902745148 0.33491142517978989 0 0.27508551640937329 0.31815972099090539 0 0.26050839607327853 0.32387463406168998 0 0.27508551640937329 0.31815972099090539 0 0.26342424027676908 0.31148804944983333 0 0.27584787744150779 0.31533663815394608 0 0.27508551640937329 0.31815972099090539 0 0.2839587577339367 0.31315639516335231 0 0.27584787744150779 0.31533663815394608 0 0.27508551640937329 0.31815972099090539 0 0.28036396902745148 0.33491142517978989 0 0.27508551640937329 0.31815972099090539 0 0.28884331716543121 0.32432796479040632 0 0.27508551640937329 0.31815972099090539 0 0.2839587577339367 0.31315639516335231 0 0.28884331716543121 0.32432796479040632 0 0.2839587577339367 0.31315639516335231 0 0.28884331716543121 0.32432796479040632 0 0.29436859405188742 0.31561290386725788 0 0.28884331716543121 0.32432796479040632 0 0.29436859405188742 0.31561290386725788 0 0.30372390616191358 0.32889084998335888 0 0.29106955940472562 0.3530243656434488 0 0.28036396902745148 0.33491142517978989 0 0.29374099595638509 0.3392252011883215 0 0.28036396902745148 0.33491142517978989 0 0.28884331716543121 0.32432796479040632 0 0.29374099595638509 0.3392252011883215 0 0.28884331716543121 0.32432796479040632 0 0.29374099595638509 0.3392252011883215 0 0.30372390616191358 0.32889084998335888 0 0.30274952797195698 0.35001407804523332 0 0.29374099595638509 0.3392252011883215 0 0.30372390616191358 0.32889084998335888 0 0.31445651652981632 0.33878768779705848 0 0.30274952797195698 0.35001407804523332 0 0.30372390616191358 0.32889084998335888 0 0.30274952797195698 0.35001407804523332 0 0.30372390616191358 0.32889084998335888 0 0.29436859405188742 0.31561290386725788 0 0.30372390616191358 0.32889084998335888 0 0.30469828435187041 0.30776762192148471 0 0.32122702449841589 0.32177081607522939 0 0.30372390616191358 0.32889084998335888 0 0.30469828435187041 0.30776762192148471 0 0.30372390616191358 0.32889084998335888 0 0.30469828435187041 0.30776762192148471 0 0.30469828435187041 0.30776762192148471 0 0.29887142377560671 0.29447355700322281 0 0.31975384086217118 0.29390073052843008 0 0.30469828435187041 0.30776762192148471 0 0.29887142377560671 0.29447355700322281 0 0.29061870484628499 0.30392168747768772 0 0.29887142377560671 0.29447355700322281 0 0.29803417524575498 0.27809430922643119 0 0.31975384086217118 0.29390073052843008 0 0.29887142377560671 0.29447355700322281 0 0.28125211357195179 0.28868343586208051 0 0.29803417524575498 0.27809430922643119 0 0.29887142377560671 0.29447355700322281 0 0.28125211357195179 0.28868343586208051 0 0.29061870484628499 0.30392168747768772 0 0.29436859405188742 0.31561290386725788 0 0.30469828435187041 0.30776762192148471 0 0.29061870484628499 0.30392168747768772 0 0.2839587577339367 0.31315639516335231 0 0.29436859405188742 0.31561290386725788 0 0.29061870484628499 0.30392168747768772 0 0.28125211357195179 0.28868343586208051 0 0.29061870484628499 0.30392168747768772 0 0.27979091010679558 0.3031930520058399 0 0.2839587577339367 0.31315639516335231 0 0.29061870484628499 0.30392168747768772 0 0.27979091010679558 0.3031930520058399 0 0.27584787744150779 0.31533663815394608 0 0.2839587577339367 0.31315639516335231 0 0.27979091010679558 0.3031930520058399 0 0.27584787744150779 0.31533663815394608 0 0.27979091010679558 0.3031930520058399 0 0.26696287399916629 0.2923816923273807 0 0.27508551640937329 0.31815972099090539 0 0.26696287399916629 0.2923816923273807 0 0.27508551640937329 0.31815972099090539 0 0.26696287399916629 0.2923816923273807 0 0.26342424027676908 0.31148804944983333 0 0.27584787744150779 0.31533663815394608 0 0.27508551640937329 0.31815972099090539 0 0.26696287399916629 0.2923816923273807 0 0.28125211357195179 0.28868343586208051 0 0.26696287399916629 0.2923816923273807 0 0.26185531842249993 0.2787869231154117 0 0.28125211357195179 0.28868343586208051 0 0.27979091010679558 0.3031930520058399 0 0.26696287399916629 0.2923816923273807 0 0.2454028482605469 0.29267792886045368 0 0.26696287399916629 0.2923816923273807 0 0.26185531842249993 0.2787869231154117 0 0.24818821145747599 0.27522177653690871 0 0.2454028482605469 0.29267792886045368 0 0.26185531842249993 0.2787869231154117 0 0.26696287399916629 0.2923816923273807 0 0.25114017462525878 0.31153615041935723 0 0.26342424027676908 0.31148804944983333 0 0.2454028482605469 0.29267792886045368 0 0.26696287399916629 0.2923816923273807 0 0.25114017462525878 0.31153615041935723 0 0.25404003316197471 0.25208422786308371 0 0.25530776412370298 0.26639583896058622 0 0.27103688063193948 0.26427270241964718 0 0.24090080429007341 0.26281353644332878 0 0.25404003316197471 0.25208422786308371 0 0.25530776412370298 0.26639583896058622 0 0.25530776412370298 0.26639583896058622 0 0.26185531842249993 0.2787869231154117 0 0.27103688063193948 0.26427270241964718 0 0.24818821145747599 0.27522177653690871 0 0.25530776412370298 0.26639583896058622 0 0.26185531842249993 0.2787869231154117 0 0.28125211357195179 0.28868343586208051 0 0.26185531842249993 0.2787869231154117 0 0.27103688063193948 0.26427270241964718 0 0.25404003316197471 0.25208422786308371 0 0.27103688063193948 0.26427270241964718 0 0.27355486584907379 0.24364475180805101 0 0.27103688063193948 0.26427270241964718 0 0.29692855903906679 0.25537037528416417 0 0.27355486584907379 0.24364475180805101 0 0.27103688063193948 0.26427270241964718 0 0.29803417524575498 0.27809430922643119 0 0.29692855903906679 0.25537037528416417 0 0.28125211357195179 0.28868343586208051 0 0.27103688063193948 0.26427270241964718 0 0.29803417524575498 0.27809430922643119 0 0.29803417524575498 0.27809430922643119 0 0.29692855903906679 0.25537037528416417 0 0.32239972953691409 0.26902358330948362 0 0.29692855903906679 0.25537037528416417 0 0.32239972953691409 0.26902358330948362 0 0.32448256229391081 0.244023600812113 0 0.34859232732963041 0.2656914204712259 0 0.32448256229391081 0.244023600812113 0 0.35052125483258301 0.2434514759103418 0 0.32239972953691409 0.26902358330948362 0 0.34859232732963041 0.2656914204712259 0 0.32448256229391081 0.244023600812113 0 0.32239972953691409 0.26902358330948362 0 0.34580587121379802 0.29027056413174801 0 0.34859232732963041 0.2656914204712259 0 0.32239972953691409 0.26902358330948362 0 0.34859232732963041 0.2656914204712259 0 0.29803417524575498 0.27809430922643119 0 0.32239972953691409 0.26902358330948362 0 0.31975384086217118 0.29390073052843008 0 0.32122702449841589 0.32177081607522939 0 0.30469828435187041 0.30776762192148471 0 0.31975384086217118 0.29390073052843008 0 0.32122702449841589 0.32177081607522939 0 0.31975384086217118 0.29390073052843008 0 0.33644502425256478 0.30910566618648461 0 0.31975384086217118 0.29390073052843008 0 0.33644502425256478 0.30910566618648461 0 0.34580587121379802 0.29027056413174801 0 0.32239972953691409 0.26902358330948362 0 0.31975384086217118 0.29390073052843008 0 0.34580587121379802 0.29027056413174801 0 0.34580587121379802 0.29027056413174801 0 0.35183379698966949 0.31056891257481539 0 0.36606901625265492 0.30223218437601618 0 0.33644502425256478 0.30910566618648461 0 0.34580587121379802 0.29027056413174801 0 0.35183379698966949 0.31056891257481539 0 0.36562923609293069 0.32366592916769399 0 0.35183379698966949 0.31056891257481539 0 0.36606901625265492 0.30223218437601618 0 0.36606901625265492 0.30223218437601618 0 0.37288852905391068 0.28307277276217568 0 0.38313639778678782 0.29894980138166888 0 0.34580587121379802 0.29027056413174801 0 0.36606901625265492 0.30223218437601618 0 0.37288852905391068 0.28307277276217568 0 0.37288852905391068 0.28307277276217568 0 0.37478492512234668 0.26235925763296819 0 0.34859232732963041 0.2656914204712259 0 0.37478492512234668 0.26235925763296819 0 0.34859232732963041 0.2656914204712259 0 0.37478492512234668 0.26235925763296819 0 0.34859232732963041 0.2656914204712259 0 0.35052125483258301 0.2434514759103418 0 0.34580587121379802 0.29027056413174801 0 0.37288852905391068 0.28307277276217568 0 0.34859232732963041 0.2656914204712259 0 0.40237095019481112 0.27711100542787093 0 0.40097752291506289 0.25902709479471048 0 0.38795285511664351 0.27501277358291848 0 0.40237095019481112 0.27711100542787093 0 0.38795285511664351 0.27501277358291848 0 0.39245341439736259 0.28869000139839213 0 0.37478492512234668 0.26235925763296819 0 0.40097752291506289 0.25902709479471048 0 0.37478492512234668 0.26235925763296819 0 0.40097752291506289 0.25902709479471048 0 0.38795285511664351 0.27501277358291848 0 0.37478492512234668 0.26235925763296819 0 0.40097752291506289 0.25902709479471048 0 0.39333580902427501 0.24081282939082621 0 0.37288852905391068 0.28307277276217568 0 0.37478492512234668 0.26235925763296819 0 0.38795285511664351 0.27501277358291848 0 0.37288852905391068 0.28307277276217568 0 0.38795285511664351 0.27501277358291848 0 0.39245341439736259 0.28869000139839213 0 0.37288852905391068 0.28307277276217568 0 0.38313639778678782 0.29894980138166888 0 0.39245341439736259 0.28869000139839213 0 0.38313639778678782 0.29894980138166888 0 0.40184121301557668 0.30678024061641418 0 0.38242981621443428 0.31397380775534678 0 0.36606901625265492 0.30223218437601618 0 0.38313639778678782 0.29894980138166888 0 0.38242981621443428 0.31397380775534678 0 0.38313639778678782 0.29894980138166888 0 0.40184121301557668 0.30678024061641418 0 0.39245341439736259 0.28869000139839213 0 0.40184121301557668 0.30678024061641418 0 0.39245341439736259 0.28869000139839213 0 0.4080647950624654 0.29173952990842672 0 0.40237095019481112 0.27711100542787093 0 0.39245341439736259 0.28869000139839213 0 0.4080647950624654 0.29173952990842672 0 0.4080647950624654 0.29173952990842672 0 0.42111158276914429 0.29961990628964941 0 0.41801819212357011 0.2740782959756311 0 0.42111158276914429 0.29961990628964941 0 0.41801819212357011 0.2740782959756311 0 0.42111158276914429 0.29961990628964941 0 0.41431845905081632 0.31211616404088999 0 0.42420497341471841 0.32516151660366771 0 0.40184121301557668 0.30678024061641418 0 0.41169384258873692 0.3030193229363472 0 0.41431845905081632 0.31211616404088999 0 0.4080647950624654 0.29173952990842672 0 0.41169384258873692 0.3030193229363472 0 0.42111158276914429 0.29961990628964941 0 0.40184121301557668 0.30678024061641418 0 0.4080647950624654 0.29173952990842672 0 0.41169384258873692 0.3030193229363472 0 0.41169384258873692 0.3030193229363472 0 0.42111158276914429 0.29961990628964941 0 0.41431845905081632 0.31211616404088999 0 0.42111158276914429 0.29961990628964941 0 0.42420497341471841 0.32516151660366771 0 0.42111158276914429 0.29961990628964941 0 0.42968026012840121 0.30115694743242971 0 0.43130474666914309 0.31304161877190062 0 0.42968026012840121 0.30115694743242971 0 0.44258646999382029 0.30990113159980692 0 0.42968026012840121 0.30115694743242971 0 0.44258646999382029 0.30990113159980692 0 0.43130474666914309 0.31304161877190062 0 0.42111158276914429 0.29961990628964941 0 0.42800801910193731 0.28582653817902792 0 0.41801819212357011 0.2740782959756311 0 0.42968026012840121 0.30115694743242971 0 0.42800801910193731 0.28582653817902792 0 0.44797459424715858 0.28113195035900113 0 0.42111158276914429 0.29961990628964941 0 0.42968026012840121 0.30115694743242971 0 0.42800801910193731 0.28582653817902792 0 0.4349067289361882 0.26981889711766149 0 0.41801819212357011 0.2740782959756311 0 0.42717012070777932 0.25569493195645271 0 0.42800801910193731 0.28582653817902792 0 0.4349067289361882 0.26981889711766149 0 0.44797459424715858 0.28113195035900113 0 0.42800801910193731 0.28582653817902792 0 0.4349067289361882 0.26981889711766149 0 0.41801819212357011 0.2740782959756311 0 0.40237095019481112 0.27711100542787093 0 0.4080647950624654 0.29173952990842672 0 0.41801819212357011 0.2740782959756311 0 0.40237095019481112 0.27711100542787093 0 0.40097752291506289 0.25902709479471048 0 0.41801819212357011 0.2740782959756311 0 0.40097752291506289 0.25902709479471048 0 0.42717012070777932 0.25569493195645271 0 0.40097752291506289 0.25902709479471048 0 0.41801819212357011 0.2740782959756311 0 0.42717012070777932 0.25569493195645271 0 0.40097752291506289 0.25902709479471048 0 0.42717012070777932 0.25569493195645271 0 0.41286841049430861 0.24788583003777651 0 0.42717012070777932 0.25569493195645271 0 0.45336271850049548 0.25236276911819511 0 0.42717012070777932 0.25569493195645271 0 0.45336271850049548 0.25236276911819511 0 0.44134696414428898 0.24814556957704689 0 0.4349067289361882 0.26981889711766149 0 0.42717012070777932 0.25569493195645271 0 0.45336271850049548 0.25236276911819511 0 0.44797459424715858 0.28113195035900113 0 0.45336271850049548 0.25236276911819511 0 0.4349067289361882 0.26981889711766149 0 0.44797459424715858 0.28113195035900113 0 0.45336271850049548 0.25236276911819511 0 0.44797459424715858 0.28113195035900113 0 0.46860043072286323 0.26090172283992602 0 0.47518926652314969 0.27560515809727743 0 0.44797459424715858 0.28113195035900113 0 0.45336271850049548 0.25236276911819511 0 0.46860043072286323 0.26090172283992602 0 0.45336271850049548 0.25236276911819511 0 0.46860043072286323 0.26090172283992602 0 0.48180965237011408 0.2487438147612096 0 0.45336271850049548 0.25236276911819511 0 0.48180965237011408 0.2487438147612096 0 0.46860043072286323 0.26090172283992602 0 0.48241006781490819 0.26268970127635521 0 0.48180965237011408 0.2487438147612096 0 0.46860043072286323 0.26090172283992602 0 0.48241006781490819 0.26268970127635521 0 0.47518926652314969 0.27560515809727743 0 0.48241006781490819 0.26268970127635521 0 0.47518926652314969 0.27560515809727743 0 0.48864569132575902 0.27555399191102209 0 0.48864569132575902 0.27555399191102209 0 0.5 0.25788891558126559 0 0.5 0.28784398070901179 0 0.48241006781490819 0.26268970127635521 0 0.5 0.25788891558126559 0 0.48180965237011408 0.2487438147612096 0 0.48241006781490819 0.26268970127635521 0 0.48864569132575902 0.27555399191102209 0 0.5 0.25788891558126559 0 0.49687855588093471 0.30562269631142192 0 0.5 0.28784398070901179 0 0.5 0.31779904583675789 0 0.48491490847636098 0.30901068293115042 0 0.49687855588093471 0.30562269631142192 0 0.48562912229073679 0.29374220389120048 0 0.48491490847636098 0.30901068293115042 0 0.49687855588093471 0.30562269631142192 0 0.48893996521802741 0.32077530068026477 0 0.48864569132575902 0.27555399191102209 0 0.5 0.28784398070901179 0 0.48562912229073679 0.29374220389120048 0 0.49687855588093471 0.30562269631142192 0 0.5 0.28784398070901179 0 0.48562912229073679 0.29374220389120048 0 0.47518926652314969 0.27560515809727743 0 0.48864569132575902 0.27555399191102209 0 0.48562912229073679 0.29374220389120048 0 0.47518926652314969 0.27560515809727743 0 0.48562912229073679 0.29374220389120048 0 0.46816558308298489 0.29083511245767268 0 0.48562912229073679 0.29374220389120048 0 0.47222103054853309 0.30536857664361422 0 0.46816558308298489 0.29083511245767268 0 0.48491490847636098 0.30901068293115042 0 0.48562912229073679 0.29374220389120048 0 0.47222103054853309 0.30536857664361422 0 0.48491490847636098 0.30901068293115042 0 0.47222103054853309 0.30536857664361422 0 0.47648252662976798 0.31886183994020412 0 0.47222103054853309 0.30536857664361422 0 0.45866337291811637 0.30169365927876157 0 0.46179392227446953 0.32291451832445861 0 0.45866337291811637 0.30169365927876157 0 0.44258646999382029 0.30990113159980692 0 0.46179392227446953 0.32291451832445861 0 0.47222103054853309 0.30536857664361422 0 0.45866337291811637 0.30169365927876157 0 0.46816558308298489 0.29083511245767268 0 0.44797459424715858 0.28113195035900113 0 0.45866337291811637 0.30169365927876157 0 0.46816558308298489 0.29083511245767268 0 0.44797459424715858 0.28113195035900113 0 0.47518926652314969 0.27560515809727743 0 0.46816558308298489 0.29083511245767268 0 0.44797459424715858 0.28113195035900113 0 0.44258646999382029 0.30990113159980692 0 0.42968026012840121 0.30115694743242971 0 0.44797459424715858 0.28113195035900113 0 0.44258646999382029 0.30990113159980692 0 0.44797459424715858 0.28113195035900113 0 0.45866337291811637 0.30169365927876157 0 0.44258646999382029 0.30990113159980692 0 0.44258646999382029 0.30990113159980692 0 0.46179392227446953 0.32291451832445861 0 0.44258646999382029 0.30990113159980692 0 0.43894044703962998 0.32936859193394902 0 0.46179392227446953 0.32291451832445861 0 0.44258646999382029 0.30990113159980692 0 0.43894044703962998 0.32936859193394902 0 0.44258646999382029 0.30990113159980692 0 0.43894044703962998 0.32936859193394902 0 0.43130474666914309 0.31304161877190062 0 0.43894044703962998 0.32936859193394902 0 0.45181909328986353 0.33594590439129729 0 0.43529442408543872 0.34883605226809089 0 0.43894044703962998 0.32936859193394902 0 0.45181909328986353 0.33594590439129729 0 0.46179392227446953 0.32291451832445861 0 0.45181909328986353 0.33594590439129729 0 0.46495921083649527 0.33796731498031379 0 0.45493863887308472 0.34850758154427958 0 0.45181909328986353 0.33594590439129729 0 0.46495921083649527 0.33796731498031379 0 0.46179392227446953 0.32291451832445861 0 0.47648252662976798 0.31886183994020412 0 0.48100137455512032 0.33592790504910791 0 0.48893996521802741 0.32077530068026477 0 0.46179392227446953 0.32291451832445861 0 0.47648252662976798 0.31886183994020412 0 0.48100137455512032 0.33592790504910791 0 0.47222103054853309 0.30536857664361422 0 0.46179392227446953 0.32291451832445861 0 0.47648252662976798 0.31886183994020412 0 0.48491490847636098 0.30901068293115042 0 0.47648252662976798 0.31886183994020412 0 0.48893996521802741 0.32077530068026477 0 0.46179392227446953 0.32291451832445861 0 0.48100137455512032 0.33592790504910791 0 0.46495921083649527 0.33796731498031379 0 0.48100137455512032 0.33592790504910791 0 0.47458285366073072 0.34817911082046721 0 0.46495921083649527 0.33796731498031379 0 0.46179392227446953 0.32291451832445861 0 0.48100137455512032 0.33592790504910791 0 0.48100137455512032 0.33592790504910791 0 0.47458285366073072 0.34817911082046721 0 0.48100137455512032 0.33592790504910791 0 0.48893996521802741 0.32077530068026477 0 0.48100137455512032 0.33592790504910791 0 0.4984937498586452 0.34777929695842291 0 0.5 0.31779904583675789 0 0.48893996521802741 0.32077530068026477 0 0.4984937498586452 0.34777929695842291 0 0.5 0.31779904583675789 0 0.4984937498586452 0.34777929695842291 0 0.50000000000000433 0.34775411096450393 0 0.48100137455512032 0.33592790504910791 0 0.48893996521802741 0.32077530068026477 0 0.4984937498586452 0.34777929695842291 0 0.49687855588093471 0.30562269631142192 0 0.48893996521802741 0.32077530068026477 0 0.49687855588093471 0.30562269631142192 0 0.5 0.31779904583675789 0 0.48893996521802741 0.32077530068026477 0 0.5 0.37175840028027313 0 0.48688174284785979 0.35971936811564431 0 0.50000000000000433 0.34775411096450393 0 0.5 0.37175840028027313 0 0.48688174284785979 0.35971936811564431 0 0.48177296974371542 0.3780796821533936 0 0.48100137455512032 0.33592790504910791 0 0.4984937498586452 0.34777929695842291 0 0.47458285366073072 0.34817911082046721 0 0.48688174284785979 0.35971936811564431 0 0.4984937498586452 0.34777929695842291 0 0.47458285366073072 0.34817911082046721 0 0.48688174284785979 0.35971936811564431 0 0.4984937498586452 0.34777929695842291 0 0.50000000000000433 0.34775411096450393 0 0.4984937498586452 0.34777929695842291 0 0.47458285366073072 0.34817911082046721 0 0.4984937498586452 0.34777929695842291 0 0.50000000000000433 0.34775411096450393 0 0.48688174284785979 0.35971936811564431 0 0.47458285366073072 0.34817911082046721 0 0.46644088382406917 0.36371991056145853 0 0.47458285366073072 0.34817911082046721 0 0.46644088382406917 0.36371991056145853 0 0.46644088382406917 0.36371991056145853 0 0.45829891398740957 0.37926071030245079 0 0.48177296974371542 0.3780796821533936 0 0.48688174284785979 0.35971936811564431 0 0.46644088382406917 0.36371991056145853 0 0.48177296974371542 0.3780796821533936 0 0.46644088382406917 0.36371991056145853 0 0.45829891398740957 0.37926071030245079 0 0.46644088382406917 0.36371991056145853 0 0.45450488254489102 0.36219879314378839 0 0.45829891398740957 0.37926071030245079 0 0.46495921083649527 0.33796731498031379 0 0.47458285366073072 0.34817911082046721 0 0.45493863887308472 0.34850758154427958 0 0.47458285366073072 0.34817911082046721 0 0.45493863887308472 0.34850758154427958 0 0.47458285366073072 0.34817911082046721 0 0.46644088382406917 0.36371991056145853 0 0.45493863887308472 0.34850758154427958 0 0.46644088382406917 0.36371991056145853 0 0.45450488254489102 0.36219879314378839 0 0.45493863887308472 0.34850758154427958 0 0.45181909328986353 0.33594590439129729 0 0.45493863887308472 0.34850758154427958 0 0.43529442408543872 0.34883605226809089 0 0.45493863887308472 0.34850758154427958 0 0.44448268479035308 0.35511800724889642 0 0.43529442408543872 0.34883605226809089 0 0.45493863887308472 0.34850758154427958 0 0.43529442408543872 0.34883605226809089 0 0.45450488254489102 0.36219879314378839 0 0.45493863887308472 0.34850758154427958 0 0.44448268479035308 0.35511800724889642 0 0.44448268479035308 0.35511800724889642 0 0.44279863902385319 0.36498191861006751 0 0.43487683942449812 0.35106569067825599 0 0.44448268479035308 0.35511800724889642 0 0.43529442408543872 0.34883605226809089 0 0.43487683942449812 0.35106569067825599 0 0.45450488254489102 0.36219879314378839 0 0.44279863902385319 0.36498191861006751 0 0.45829891398740957 0.37926071030245079 0 0.44279863902385319 0.36498191861006751 0 0.45829891398740957 0.37926071030245079 0 0.45450488254489102 0.36219879314378839 0 0.44448268479035308 0.35511800724889642 0 0.44279863902385319 0.36498191861006751 0 0.42892444364691579 0.3641293946929936 0 0.42225433889660879 0.37545697575276449 0 0.43605286711449009 0.38080977408974359 0 0.44279863902385319 0.36498191861006751 0 0.42892444364691579 0.3641293946929936 0 0.43605286711449009 0.38080977408974359 0 0.44279863902385319 0.36498191861006751 0 0.42892444364691579 0.3641293946929936 0 0.42729836406029548 0.35070312691768563 0 0.42892444364691579 0.3641293946929936 0 0.41660844069210962 0.35988002802349189 0 0.42225433889660879 0.37545697575276449 0 0.41660844069210962 0.35988002802349189 0 0.40918213701441342 0.3736144609854074 0 0.42225433889660879 0.37545697575276449 0 0.41660844069210962 0.35988002802349189 0 0.40918213701441342 0.3736144609854074 0 0.40205795884979889 0.36380219258680641 0 0.40642652845595439 0.35168475710611302 0 0.41593005466970517 0.35003896004439389 0 0.41338688547046137 0.33788792813028518 0 0.41660844069210962 0.35988002802349189 0 0.40642652845595439 0.35168475710611302 0 0.40205795884979889 0.36380219258680641 0 0.41660844069210962 0.35988002802349189 0 0.40642652845595439 0.35168475710611302 0 0.41593005466970517 0.35003896004439389 0 0.41660844069210962 0.35988002802349189 0 0.41593005466970517 0.35003896004439389 0 0.42729836406029548 0.35070312691768563 0 0.42729836406029548 0.35070312691768563 0 0.41338688547046137 0.33788792813028518 0 0.41593005466970517 0.35003896004439389 0 0.42729836406029548 0.35070312691768563 0 0.41338688547046137 0.33788792813028518 0 0.42892444364691579 0.3641293946929936 0 0.41660844069210962 0.35988002802349189 0 0.42729836406029548 0.35070312691768563 0 0.42892444364691579 0.3641293946929936 0 0.42729836406029548 0.35070312691768563 0 0.44279863902385319 0.36498191861006751 0 0.42729836406029548 0.35070312691768563 0 0.43487683942449812 0.35106569067825599 0 0.44279863902385319 0.36498191861006751 0 0.42729836406029548 0.35070312691768563 0 0.43109136567724748 0.3489063315667284 0 0.43529442408543872 0.34883605226809089 0 0.42729836406029548 0.35070312691768563 0 0.43109136567724748 0.3489063315667284 0 0.43487683942449812 0.35106569067825599 0 0.43109136567724748 0.3489063315667284 0 0.43529442408543872 0.34883605226809089 0 0.43487683942449812 0.35106569067825599 0 0.43529442408543872 0.34883605226809089 0 0.43487683942449812 0.35106569067825599 0 0.42729836406029548 0.35070312691768563 0 0.42420497341471841 0.32516151660366771 0 0.43894044703962998 0.32936859193394902 0 0.43529442408543872 0.34883605226809089 0 0.43894044703962998 0.32936859193394902 0 0.43109136567724748 0.3489063315667284 0 0.43529442408543872 0.34883605226809089 0 0.42729836406029548 0.35070312691768563 0 0.43109136567724748 0.3489063315667284 0 0.42420497341471841 0.32516151660366771 0 0.43894044703962998 0.32936859193394902 0 0.43109136567724748 0.3489063315667284 0 0.42420497341471841 0.32516151660366771 0 0.43894044703962998 0.32936859193394902 0 0.43130474666914309 0.31304161877190062 0 0.42420497341471841 0.32516151660366771 0 0.42111158276914429 0.29961990628964941 0 0.43130474666914309 0.31304161877190062 0 0.42420497341471841 0.32516151660366771 0 0.40184121301557668 0.30678024061641418 0 0.41431845905081632 0.31211616404088999 0 0.41140534993910638 0.32360132811636988 0 0.41431845905081632 0.31211616404088999 0 0.42420497341471841 0.32516151660366771 0 0.41140534993910638 0.32360132811636988 0 0.42729836406029548 0.35070312691768563 0 0.42420497341471841 0.32516151660366771 0 0.41338688547046137 0.33788792813028518 0 0.42420497341471841 0.32516151660366771 0 0.41140534993910638 0.32360132811636988 0 0.41338688547046137 0.33788792813028518 0 0.41140534993910638 0.32360132811636988 0 0.41338688547046137 0.33788792813028518 0 0.39947540688062583 0.32507272934288628 0 0.41338688547046137 0.33788792813028518 0 0.39947540688062583 0.32507272934288628 0 0.40642652845595439 0.35168475710611302 0 0.41338688547046137 0.33788792813028518 0 0.39105145014164849 0.3414869239971704 0 0.41338688547046137 0.33788792813028518 0 0.39105145014164849 0.3414869239971704 0 0.39947540688062583 0.32507272934288628 0 0.40184121301557668 0.30678024061641418 0 0.41140534993910638 0.32360132811636988 0 0.39947540688062583 0.32507272934288628 0 0.40184121301557668 0.30678024061641418 0 0.39947540688062583 0.32507272934288628 0 0.38242981621443428 0.31397380775534678 0 0.36562923609293069 0.32366592916769399 0 0.38242981621443428 0.31397380775534678 0 0.38128435600444488 0.32837669887387311 0 0.39947540688062583 0.32507272934288628 0 0.38242981621443428 0.31397380775534678 0 0.38128435600444488 0.32837669887387311 0 0.39105145014164849 0.3414869239971704 0 0.39947540688062583 0.32507272934288628 0 0.38128435600444488 0.32837669887387311 0 0.36518945593320651 0.34509967395937191 0 0.39105145014164849 0.3414869239971704 0 0.38128435600444488 0.32837669887387311 0 0.36518945593320651 0.34509967395937191 0 0.39105145014164849 0.3414869239971704 0 0.3855881021147175 0.35910908792858098 0 0.36474967577348072 0.36653341875104961 0 0.3855881021147175 0.35910908792858098 0 0.3855881021147175 0.35910908792858098 0 0.39248458597179969 0.37472262889043839 0 0.3773824667175657 0.37546563606013739 0 0.36474967577348072 0.36653341875104961 0 0.3855881021147175 0.35910908792858098 0 0.3773824667175657 0.37546563606013739 0 0.40918213701441342 0.3736144609854074 0 0.39248458597179969 0.37472262889043839 0 0.40205795884979889 0.36380219258680641 0 0.3855881021147175 0.35910908792858098 0 0.39248458597179969 0.37472262889043839 0 0.40205795884979889 0.36380219258680641 0 0.40642652845595439 0.35168475710611302 0 0.39105145014164849 0.3414869239971704 0 0.3855881021147175 0.35910908792858098 0 0.40642652845595439 0.35168475710611302 0 0.3855881021147175 0.35910908792858098 0 0.40642652845595439 0.35168475710611302 0 0.3855881021147175 0.35910908792858098 0 0.40205795884979889 0.36380219258680641 0 0.39221066862400811 0.40518894945558848 0 0.39940032860097008 0.38986983405391068 0 0.41033309730305728 0.40785957742124029 0 0.40918213701441342 0.3736144609854074 0 0.39248458597179969 0.37472262889043839 0 0.39940032860097008 0.38986983405391068 0 0.39248458597179969 0.37472262889043839 0 0.39940032860097008 0.38986983405391068 0 0.38026367080056678 0.39066664182047522 0 0.39248458597179969 0.37472262889043839 0 0.3773824667175657 0.37546563606013739 0 0.38026367080056678 0.39066664182047522 0 0.39221066862400811 0.40518894945558848 0 0.39940032860097008 0.38986983405391068 0 0.38026367080056678 0.39066664182047522 0 0.39221066862400811 0.40518894945558848 0 0.38026367080056678 0.39066664182047522 0 0.37744029411777058 0.41252948965876268 0 0.39221066862400811 0.40518894945558848 0 0.37744029411777058 0.41252948965876268 0 0.39361595229767549 0.42501920432355378 0 0.365542703577178 0.42914551292816783 0 0.39361595229767549 0.42501920432355378 0 0.37809165231809289 0.44568724501072521 0 0.365542703577178 0.42914551292816783 0 0.37744029411777058 0.41252948965876268 0 0.39361595229767549 0.42501920432355378 0 0.365542703577178 0.42914551292816783 0 0.39361595229767549 0.42501920432355378 0 0.39361595229767549 0.42501920432355378 0 0.41035062152962531 0.4256058815429955 0 0.40092741287151468 0.44093224530230651 0 0.39361595229767549 0.42501920432355378 0 0.40092741287151468 0.44093224530230651 0 0.37809165231809289 0.44568724501072521 0 0.39361595229767549 0.42501920432355378 0 0.41033309730305728 0.40785957742124029 0 0.41035062152962531 0.4256058815429955 0 0.39221066862400811 0.40518894945558848 0 0.39361595229767549 0.42501920432355378 0 0.41033309730305728 0.40785957742124029 0 0.41033309730305728 0.40785957742124029 0 0.41035062152962531 0.4256058815429955 0 0.42646345733135449 0.42088686527347441 0 0.41035062152962531 0.4256058815429955 0 0.4216403136361262 0.43569606407888728 0 0.42646345733135449 0.42088686527347441 0 0.41035062152962531 0.4256058815429955 0 0.4216403136361262 0.43569606407888728 0 0.40092741287151468 0.44093224530230651 0 0.43504649219903713 0.43385430946487219 0 0.42646345733135449 0.42088686527347441 0 0.44292677264660579 0.42392515796168401 0 0.4216403136361262 0.43569606407888728 0 0.43504649219903713 0.43385430946487219 0 0.42646345733135449 0.42088686527347441 0 0.4216403136361262 0.43569606407888728 0 0.43504649219903713 0.43385430946487219 0 0.4309855774719657 0.44262377444488737 0 0.41033309730305728 0.40785957742124029 0 0.42646345733135449 0.42088686527347441 0 0.43473852811684172 0.40482082561786309 0 0.42646345733135449 0.42088686527347441 0 0.43473852811684172 0.40482082561786309 0 0.44292677264660579 0.42392515796168401 0 0.43473852811684172 0.40482082561786309 0 0.42003555557297712 0.38799376876492359 0 0.43605286711449009 0.38080977408974359 0 0.41033309730305728 0.40785957742124029 0 0.43473852811684172 0.40482082561786309 0 0.42003555557297712 0.38799376876492359 0 0.39940032860097008 0.38986983405391068 0 0.41033309730305728 0.40785957742124029 0 0.42003555557297712 0.38799376876492359 0 0.40918213701441342 0.3736144609854074 0 0.39940032860097008 0.38986983405391068 0 0.42003555557297712 0.38799376876492359 0 0.40918213701441342 0.3736144609854074 0 0.42003555557297712 0.38799376876492359 0 0.42225433889660879 0.37545697575276449 0 0.42003555557297712 0.38799376876492359 0 0.42225433889660879 0.37545697575276449 0 0.43605286711449009 0.38080977408974359 0 0.44279863902385319 0.36498191861006751 0 0.43605286711449009 0.38080977408974359 0 0.45829891398740957 0.37926071030245079 0 0.43605286711449009 0.38080977408974359 0 0.44916269767969552 0.39669925538146661 0 0.45829891398740957 0.37926071030245079 0 0.43473852811684172 0.40482082561786309 0 0.43605286711449009 0.38080977408974359 0 0.44916269767969552 0.39669925538146661 0 0.43473852811684172 0.40482082561786309 0 0.44916269767969552 0.39669925538146661 0 0.45819524916971172 0.41557138043250991 0 0.44916269767969552 0.39669925538146661 0 0.47914945699370431 0.3984681476517854 0 0.45819524916971172 0.41557138043250991 0 0.44916269767969552 0.39669925538146661 0 0.45829891398740957 0.37926071030245079 0 0.47914945699370431 0.3984681476517854 0 0.45829891398740957 0.37926071030245079 0 0.47914945699370431 0.3984681476517854 0 0.44916269767969552 0.39669925538146661 0 0.45829891398740957 0.37926071030245079 0 0.45829891398740957 0.37926071030245079 0 0.48177296974371542 0.3780796821533936 0 0.47914945699370431 0.3984681476517854 0 0.47914945699370431 0.3984681476517854 0 0.5 0.39471699264069632 0 0.49999999999999928 0.41767558500111929 0 0.48177296974371542 0.3780796821533936 0 0.47914945699370431 0.3984681476517854 0 0.5 0.39471699264069632 0 0.5 0.37175840028027313 0 0.48177296974371542 0.3780796821533936 0 0.5 0.39471699264069632 0 0.48950419912568011 0.43203648207583117 0 0.49999999999999928 0.41767558500111929 0 0.47941257652712138 0.42859526255965119 0 0.48950419912568011 0.43203648207583117 0 0.49999999999999928 0.41767558500111929 0 0.50000000000000022 0.44212157098762489 0 0.49999999999999928 0.41767558500111929 0 0.47638758820359789 0.4177788365799131 0 0.47941257652712138 0.42859526255965119 0 0.47914945699370431 0.3984681476517854 0 0.49999999999999928 0.41767558500111929 0 0.47638758820359789 0.4177788365799131 0 0.47914945699370431 0.3984681476517854 0 0.49999999999999928 0.41767558500111929 0 0.47914945699370431 0.3984681476517854 0 0.47638758820359789 0.4177788365799131 0 0.45819524916971172 0.41557138043250991 0 0.47638758820359789 0.4177788365799131 0 0.46959145424244531 0.42892785421681912 0 0.47941257652712138 0.42859526255965119 0 0.48950419912568011 0.43203648207583117 0 0.47941257652712138 0.42859526255965119 0 0.47860421997559988 0.43975350975492877 0 0.46959145424244531 0.42892785421681912 0 0.47941257652712138 0.42859526255965119 0 0.47860421997559988 0.43975350975492877 0 0.46959145424244531 0.42892785421681912 0 0.45720843995119947 0.43738544852223271 0 0.45819524916971172 0.41557138043250991 0 0.46959145424244531 0.42892785421681912 0 0.45720843995119947 0.43738544852223271 0 0.47860421997559988 0.43975350975492877 0 0.47638758820359789 0.4177788365799131 0 0.46959145424244531 0.42892785421681912 0 0.45819524916971172 0.41557138043250991 0 0.43473852811684172 0.40482082561786309 0 0.45819524916971172 0.41557138043250991 0 0.44292677264660579 0.42392515796168401 0 0.45720843995119947 0.43738544852223271 0 0.45819524916971172 0.41557138043250991 0 0.44292677264660579 0.42392515796168401 0 0.45720843995119947 0.43738544852223271 0 0.44292677264660579 0.42392515796168401 0 0.44501475256406542 0.43710487641451851 0 0.43504649219903713 0.43385430946487219 0 0.44292677264660579 0.42392515796168401 0 0.44501475256406542 0.43710487641451851 0 0.44501475256406542 0.43710487641451851 0 0.44086930591740259 0.443703986550611 0 0.44426520485267701 0.44828521544284999 0 0.43504649219903713 0.43385430946487219 0 0.44501475256406542 0.43710487641451851 0 0.44086930591740259 0.443703986550611 0 0.44576605402647751 0.45131382091928901 0 0.43097115028835131 0.45382894378787952 0 0.4371491165808723 0.44919465112914592 0 0.44086930591740259 0.443703986550611 0 0.44106718496795649 0.44783878756079798 0 0.4371491165808723 0.44919465112914592 0 0.44106718496795649 0.44783878756079798 0 0.44576605402647751 0.45131382091928901 0 0.4371491165808723 0.44919465112914592 0 0.44086930591740259 0.443703986550611 0 0.44426520485267701 0.44828521544284999 0 0.44106718496795649 0.44783878756079798 0 0.44426520485267701 0.44828521544284999 0 0.44576605402647751 0.45131382091928901 0 0.44086930591740259 0.443703986550611 0 0.44106718496795649 0.44783878756079798 0 0.44426520485267701 0.44828521544284999 0 0.45720843995119947 0.43738544852223271 0 0.44501475256406542 0.43710487641451851 0 0.44426520485267701 0.44828521544284999 0 0.44576605402647751 0.45131382091928901 0 0.44334270512280699 0.46695283516179431 0 0.45751300038554987 0.46615712058798953 0 0.44426520485267701 0.44828521544284999 0 0.45751300038554987 0.46615712058798953 0 0.44576605402647751 0.45131382091928901 0 0.44334270512280699 0.46695283516179431 0 0.42744619309891668 0.4675425472795256 0 0.44426520485267701 0.44828521544284999 0 0.44576605402647751 0.45131382091928901 0 0.45751300038554987 0.46615712058798953 0 0.44426520485267701 0.44828521544284999 0 0.45751300038554987 0.46615712058798953 0 0.47213260242633898 0.44992772785007767 0 0.44426520485267701 0.44828521544284999 0 0.47213260242633898 0.44992772785007767 0 0.45720843995119947 0.43738544852223271 0 0.47860421997559988 0.43975350975492877 0 0.45720843995119947 0.43738544852223271 0 0.44426520485267701 0.44828521544284999 0 0.47213260242633898 0.44992772785007767 0 0.47213260242633898 0.44992772785007767 0 0.47860421997559988 0.43975350975492877 0 0.50000000000000067 0.45157024025730719 0 0.45720843995119947 0.43738544852223271 0 0.47213260242633898 0.44992772785007767 0 0.47860421997559988 0.43975350975492877 0 0.47213260242633898 0.44992772785007767 0 0.48064266697128027 0.4673483066551633 0 0.50000000000000067 0.45157024025730719 0 0.45751300038554987 0.46615712058798953 0 0.47213260242633898 0.44992772785007767 0 0.48064266697128027 0.4673483066551633 0 0.48064266697128027 0.4673483066551633 0 0.5 0.46843982966384828 0 0.50000000000000067 0.45157024025730719 0 0.47860421997559988 0.43975350975492877 0 0.50000000000000022 0.44212157098762489 0 0.47860421997559988 0.43975350975492877 0 0.50000000000000067 0.45157024025730719 0 0.50000000000000022 0.44212157098762489 0 0.47213260242633898 0.44992772785007767 0 0.50000000000000067 0.45157024025730719 0 0.48950419912568011 0.43203648207583117 0 0.47860421997559988 0.43975350975492877 0 0.50000000000000022 0.44212157098762489 0 0.48834007405180069 0.49233461120087918 0 0.50000000000000222 0.48530941907038949 0 0.47076079591842229 0.48402902573312923 0 0.48834007405180069 0.49233461120087918 0 0.5 0.5 0 0.48259950028877657 0.49999999999999922 0 0.50000000000000222 0.48530941907038949 0 0.47076079591842229 0.48402902573312923 0 0.48834007405180069 0.49233461120087918 0 0.5 0.5 0 0.50000000000000222 0.48530941907038949 0 0.50000000000000222 0.48530941907038949 0 0.48785086572242647 0.47628164528063233 0 0.47076079591842229 0.48402902573312923 0 0.48064266697128027 0.4673483066551633 0 0.5 0.46843982966384828 0 0.48785086572242647 0.47628164528063233 0 0.5 0.46843982966384828 0 0.50000000000000222 0.48530941907038949 0 0.48785086572242647 0.47628164528063233 0 0.45751300038554987 0.46615712058798953 0 0.48064266697128027 0.4673483066551633 0 0.47076079591842229 0.48402902573312923 0 0.48064266697128027 0.4673483066551633 0 0.48785086572242647 0.47628164528063233 0 0.47076079591842229 0.48402902573312923 0 0.47076079591842229 0.48402902573312923 0 0.48259950028877657 0.49999999999999922 0 0.45965124302753141 0.5 0 0.48834007405180069 0.49233461120087918 0 0.47076079591842229 0.48402902573312923 0 0.48259950028877657 0.49999999999999922 0 0.47076079591842229 0.48402902573312923 0 0.48259950028877657 0.49999999999999922 0 0.47076079591842229 0.48402902573312923 0 0.45965124302753141 0.5 0 0.44264557298028417 0.48279785186037327 0 0.45751300038554987 0.46615712058798953 0 0.47076079591842229 0.48402902573312923 0 0.47076079591842229 0.48402902573312923 0 0.44264557298028417 0.48279785186037327 0 0.45751300038554987 0.46615712058798953 0 0.47076079591842229 0.48402902573312923 0 0.44264557298028417 0.48279785186037327 0 0.44334270512280699 0.46695283516179431 0 0.44264557298028417 0.48279785186037327 0 0.42744619309891668 0.4675425472795256 0 0.44334270512280699 0.46695283516179431 0 0.45751300038554987 0.46615712058798953 0 0.44264557298028417 0.48279785186037327 0 0.45965124302753141 0.5 0 0.44264557298028417 0.48279785186037327 0 0.43670298576628619 0.5 0 0.44264557298028417 0.48279785186037327 0 0.42814010978677508 0.48883471415535268 0 0.41453035004214622 0.48156667798761449 0 0.43670298576628619 0.5 0 0.42814010978677508 0.48883471415535268 0 0.41868153035838401 0.49097432677342312 0 0.44264557298028417 0.48279785186037327 0 0.43670298576628619 0.5 0 0.42814010978677508 0.48883471415535268 0 0.43670298576628619 0.5 0 0.41375472850504103 0.5 0 0.41868153035838401 0.49097432677342312 0 0.41375472850504103 0.5 0 0.41868153035838401 0.49097432677342312 0 0.40912633217135602 0.48377127363976219 0 0.42814010978677508 0.48883471415535268 0 0.41868153035838401 0.49097432677342312 0 0.41453035004214622 0.48156667798761449 0 0.41868153035838401 0.49097432677342312 0 0.40912633217135602 0.48377127363976219 0 0.41453035004214622 0.48156667798761449 0 0.40882198151684829 0.470458307354371 0 0.40912633217135602 0.48377127363976219 0 0.42744619309891668 0.4675425472795256 0 0.40912633217135602 0.48377127363976219 0 0.42744619309891668 0.4675425472795256 0 0.40912633217135602 0.48377127363976219 0 0.41453035004214622 0.48156667798761449 0 0.42744619309891668 0.4675425472795256 0 0.40882198151684829 0.470458307354371 0 0.40912633217135602 0.48377127363976219 0 0.40257181831080802 0.47789339995616598 0 0.44264557298028417 0.48279785186037327 0 0.41453035004214622 0.48156667798761449 0 0.44264557298028417 0.48279785186037327 0 0.41453035004214622 0.48156667798761449 0 0.42744619309891668 0.4675425472795256 0 0.44576605402647751 0.45131382091928901 0 0.42744619309891668 0.4675425472795256 0 0.44576605402647751 0.45131382091928901 0 0.43097115028835131 0.45382894378787952 0 0.42744619309891668 0.4675425472795256 0 0.43097115028835131 0.45382894378787952 0 0.42744619309891668 0.4675425472795256 0 0.41709851720120961 0.46055572465752248 0 0.44086930591740259 0.443703986550611 0 0.4309855774719657 0.44262377444488737 0 0.4371491165808723 0.44919465112914592 0 0.43504649219903713 0.43385430946487219 0 0.44086930591740259 0.443703986550611 0 0.4309855774719657 0.44262377444488737 0 0.43097115028835131 0.45382894378787952 0 0.4309855774719657 0.44262377444488737 0 0.4371491165808723 0.44919465112914592 0 0.43097115028835131 0.45382894378787952 0 0.4309855774719657 0.44262377444488737 0 0.41665312800777271 0.44940921386284588 0 0.4216403136361262 0.43569606407888728 0 0.4309855774719657 0.44262377444488737 0 0.41665312800777271 0.44940921386284588 0 0.41665312800777271 0.44940921386284588 0 0.4029362549212489 0.45832899449672349 0 0.40092741287151468 0.44093224530230651 0 0.4216403136361262 0.43569606407888728 0 0.41665312800777271 0.44940921386284588 0 0.40092741287151468 0.44093224530230651 0 0.40882198151684829 0.470458307354371 0 0.42744619309891668 0.4675425472795256 0 0.41709851720120961 0.46055572465752248 0 0.43097115028835131 0.45382894378787952 0 0.41665312800777271 0.44940921386284588 0 0.41709851720120961 0.46055572465752248 0 0.41665312800777271 0.44940921386284588 0 0.41709851720120961 0.46055572465752248 0 0.4029362549212489 0.45832899449672349 0 0.40882198151684829 0.470458307354371 0 0.41709851720120961 0.46055572465752248 0 0.4029362549212489 0.45832899449672349 0 0.40882198151684829 0.470458307354371 0 0.4029362549212489 0.45832899449672349 0 0.3944208343110962 0.47305259584339332 0 0.4029362549212489 0.45832899449672349 0 0.38943508825963058 0.45629052964312111 0 0.3944208343110962 0.47305259584339332 0 0.4029362549212489 0.45832899449672349 0 0.40092741287151468 0.44093224530230651 0 0.38943508825963058 0.45629052964312111 0 0.40092741287151468 0.44093224530230651 0 0.37809165231809289 0.44568724501072521 0 0.38943508825963058 0.45629052964312111 0 0.37809165231809289 0.44568724501072521 0 0.38943508825963058 0.45629052964312111 0 0.37844435483634198 0.4675903904274426 0 0.38943508825963058 0.45629052964312111 0 0.37844435483634198 0.4675903904274426 0 0.3944208343110962 0.47305259584339332 0 0.37844435483634198 0.4675903904274426 0 0.38120033573297152 0.48442634992442057 0 0.3944208343110962 0.47305259584339332 0 0.38120033573297152 0.48442634992442057 0 0.3944208343110962 0.47305259584339332 0 0.39562515835400552 0.48382872387274839 0 0.36196284501337178 0.5 0 0.38120033573297152 0.48442634992442057 0 0.39080647124379558 0.49999999999999922 0 0.38120033573297152 0.48442634992442057 0 0.39080647124379558 0.49999999999999922 0 0.39562515835400552 0.48382872387274839 0 0.40912633217135602 0.48377127363976219 0 0.39080647124379558 0.49999999999999922 0 0.40912633217135602 0.48377127363976219 0 0.39080647124379558 0.49999999999999922 0 0.39562515835400552 0.48382872387274839 0 0.41375472850504103 0.5 0 0.40912633217135602 0.48377127363976219 0 0.39080647124379558 0.49999999999999922 0 0.40912633217135602 0.48377127363976219 0 0.40257181831080802 0.47789339995616598 0 0.39562515835400552 0.48382872387274839 0 0.40882198151684829 0.470458307354371 0 0.40257181831080802 0.47789339995616598 0 0.3944208343110962 0.47305259584339332 0 0.40257181831080802 0.47789339995616598 0 0.3944208343110962 0.47305259584339332 0 0.39562515835400552 0.48382872387274839 0 0.34137977846588119 0.091947059702449957 0 0.3184977734976509 0.082531855017860187 0 0.34137977846588119 0.091947059702449957 0 0.33853514524224232 0.092154422351098803 0 0.3184977734976509 0.082531855017860187 0 0.33853514524224232 0.092154422351098803 0 0.3184977734976509 0.082531855017860187 0 0.3305269393921435 0.093893314460775035 0 0.34137977846588119 0.091947059702449957 0 0.33488127772135701 0.070909675734900868 0 0.3184977734976509 0.082531855017860187 0 0.33488127772135701 0.070909675734900868 0 0.35624300874513559 0.071190975121652081 0 0.33828509493208109 0.051113002016081502 0 0.3184977734976509 0.082531855017860187 0 0.31750720709783492 0.060828210965220328 0 0.30506359630307739 0.067813250175554993 0 0.33488127772135701 0.070909675734900868 0 0.32846421329825382 0.059059627678852658 0 0.31750720709783492 0.060828210965220328 0 0.33488127772135701 0.070909675734900868 0 0.3184977734976509 0.082531855017860187 0 0.31750720709783492 0.060828210965220328 0 0.3184977734976509 0.082531855017860187 0 0.3254096333834442 0.096971455496547829 0 0.3305269393921435 0.093893314460775035 0 0.3184977734976509 0.082531855017860187 0 0.3254096333834442 0.096971455496547829 0 0.31111548734401751 0.094174984339189319 0 0.3254096333834442 0.096971455496547829 0 0.33219394353324039 0.1121017755840282 0 0.31111548734401751 0.094174984339189319 0 0.33219394353324039 0.1121017755840282 0 0.31111548734401751 0.094174984339189319 0 0.33219394353324039 0.1121017755840282 0 0.31151194808720201 0.1150643222194616 0 0.31111548734401751 0.094174984339189319 0 0.33219394353324039 0.1121017755840282 0 0.31151194808720201 0.1150643222194616 0 0.32387679174541939 0.1297141718462434 0 0.33219394353324039 0.1121017755840282 0 0.32387679174541939 0.1297141718462434 0 0.35327239972246333 0.1300285668288671 0 0.33219394353324039 0.1121017755840282 0 0.35327239972246333 0.1300285668288671 0 0.33219394353324039 0.1121017755840282 0 0.34279585490336462 0.1026082003979065 0 0.35159211237321392 0.11222190062690381 0 0.33853514524224232 0.092154422351098803 0 0.3305269393921435 0.093893314460775035 0 0.33650548478629722 0.09727411407467923 0 0.3254096333834442 0.096971455496547829 0 0.33351858274250701 0.1005678965871936 0 0.3305269393921435 0.093893314460775035 0 0.33351858274250701 0.1005678965871936 0 0.3305269393921435 0.093893314460775035 0 0.33650548478629722 0.09727411407467923 0 0.3254096333834442 0.096971455496547829 0 0.33219394353324039 0.1121017755840282 0 0.33351858274250701 0.1005678965871936 0 0.33219394353324039 0.1121017755840282 0 0.33351858274250701 0.1005678965871936 0 0.34279585490336462 0.1026082003979065 0 0.33351858274250701 0.1005678965871936 0 0.34279585490336462 0.1026082003979065 0 0.33650548478629722 0.09727411407467923 0 0.33853514524224232 0.092154422351098803 0 0.34279585490336462 0.1026082003979065 0 0.33650548478629722 0.09727411407467923 0 0.34279585490336462 0.1026082003979065 0 0.35159211237321392 0.11222190062690381 0 0.36426178343411147 0.1013622643870397 0 0.33853514524224232 0.092154422351098803 0 0.34279585490336462 0.1026082003979065 0 0.36426178343411147 0.1013622643870397 0 0.34137977846588119 0.091947059702449957 0 0.33853514524224232 0.092154422351098803 0 0.36426178343411147 0.1013622643870397 0 0.33853514524224232 0.092154422351098803 0 0.36426178343411147 0.1013622643870397 0 0.34137977846588119 0.091947059702449957 0 0.36426178343411147 0.1013622643870397 0 0.33219394353324039 0.1121017755840282 0 0.35159211237321392 0.11222190062690381 0 0.35327239972246333 0.1300285668288671 0 0.35159211237321392 0.11222190062690381 0 0.36649271172908648 0.1176987398754743 0 0.35327239972246333 0.1300285668288671 0 0.35159211237321392 0.11222190062690381 0 0.36649271172908648 0.1176987398754743 0 0.36426178343411147 0.1013622643870397 0 0.36649271172908648 0.1176987398754743 0 0.36938385952287339 0.13266757129752671 0 0.38138511069115272 0.12353481432135879 0 0.36649271172908648 0.1176987398754743 0 0.36426178343411147 0.1013622643870397 0 0.3795225325030368 0.1068242515199407 0 0.36426178343411147 0.1013622643870397 0 0.3795225325030368 0.1068242515199407 0 0.36426178343411147 0.1013622643870397 0 0.3742009225581896 0.091268948227223284 0 0.3795225325030368 0.1068242515199407 0 0.3742009225581896 0.091268948227223284 0 0.35754778501084228 0.087847667021068221 0 0.35624300874513559 0.071190975121652081 0 0.36426178343411147 0.1013622643870397 0 0.3742009225581896 0.091268948227223284 0 0.35754778501084228 0.087847667021068221 0 0.3742009225581896 0.091268948227223284 0 0.35624300874513559 0.071190975121652081 0 0.34137977846588119 0.091947059702449957 0 0.35754778501084228 0.087847667021068221 0 0.35624300874513559 0.071190975121652081 0 0.34137977846588119 0.091947059702449957 0 0.36426178343411147 0.1013622643870397 0 0.35754778501084228 0.087847667021068221 0 0.34137977846588119 0.091947059702449957 0 0.33488127772135701 0.070909675734900868 0 0.35624300874513559 0.071190975121652081 0 0.3742009225581896 0.091268948227223284 0 0.35624300874513559 0.071190975121652081 0 0.37575225644292037 0.071709270247263784 0 0.35624300874513559 0.071190975121652081 0 0.36737709041569239 0.056764699852256018 0 0.37575225644292037 0.071709270247263784 0 0.36737709041569239 0.056764699852256018 0 0.36443667806580698 0.054513224756226962 0 0.39058826119953283 0.057913447496371839 0 0.36443667806580698 0.054513224756226962 0 0.36984281421283938 0.03924660656396721 0 0.37608467898805159 0.048096788967416412 0 0.36984281421283938 0.03924660656396721 0 0.35576481933353549 0.041718099984820838 0 0.3798040161112804 0.028996110171619349 0 0.35576481933353549 0.041718099984820838 0 0.36136411866671431 0.026161729739540451 0 0.37786156531075732 0.02725125369877367 0 0.35576481933353549 0.041718099984820838 0 0.3798040161112804 0.028996110171619349 0 0.37786156531075732 0.02725125369877367 0 0.35576481933353549 0.041718099984820838 0 0.3798040161112804 0.028996110171619349 0 0.36984281421283938 0.03924660656396721 0 0.37726993283737248 0.041439113600633092 0 0.37608467898805159 0.048096788967416412 0 0.36984281421283938 0.03924660656396721 0 0.37675727284589372 0.036323400775862158 0 0.37726993283737248 0.041439113600633092 0 0.36443667806580698 0.054513224756226962 0 0.36984281421283938 0.03924660656396721 0 0.35576481933353549 0.041718099984820838 0 0.35576481933353549 0.041718099984820838 0 0.36136411866671431 0.026161729739540451 0 0.34099279295720591 0.031691385536231111 0 0.35576481933353549 0.041718099984820838 0 0.34539840685914608 0.044617690611648012 0 0.34099279295720591 0.031691385536231111 0 0.35624300874513559 0.071190975121652081 0 0.34416591963185211 0.055615952208139578 0 0.33828509493208109 0.051113002016081502 0 0.36443667806580698 0.054513224756226962 0 0.34416591963185211 0.055615952208139578 0 0.33828509493208109 0.051113002016081502 0 0.36737709041569239 0.056764699852256018 0 0.34416591963185211 0.055615952208139578 0 0.35624300874513559 0.071190975121652081 0 0.33828509493208109 0.051113002016081502 0 0.35624300874513559 0.071190975121652081 0 0.36737709041569239 0.056764699852256018 0 0.34416591963185211 0.055615952208139578 0 0.36443667806580698 0.054513224756226962 0 0.33828509493208109 0.051113002016081502 0 0.36443667806580698 0.054513224756226962 0 0.34539840685914608 0.044617690611648012 0 0.33828509493208109 0.051113002016081502 0 0.36443667806580698 0.054513224756226962 0 0.35576481933353549 0.041718099984820838 0 0.34539840685914608 0.044617690611648012 0 0.36737709041569239 0.056764699852256018 0 0.36443667806580698 0.054513224756226962 0 0.34416591963185211 0.055615952208139578 0 0.35686418876597309 0.010252504770385159 0 0.37537418671591988 0.012891754799621079 0 0.3700201466167648 -0.002195575246397889 0 0.35686418876597309 0.010252504770385159 0 0.37786156531075732 0.02725125369877367 0 0.36136411866671431 0.026161729739540451 0 0.35686418876597309 0.010252504770385159 0 0.37786156531075732 0.02725125369877367 0 0.35686418876597309 0.010252504770385159 0 0.37537418671591988 0.012891754799621079 0 0.37786156531075732 0.02725125369877367 0 0.36136411866671431 0.026161729739540451 0 0.35686418876597309 0.010252504770385159 0 0.34167945108238768 0.015605415956853899 0 0.36136411866671431 0.026161729739540451 0 0.34167945108238768 0.015605415956853899 0 0.34099279295720591 0.031691385536231111 0 0.35686418876597309 0.010252504770385159 0 0.34167945108238768 0.015605415956853899 0 0.33586681222118892 -0.0067462441580033658 0 0.35686418876597309 0.010252504770385159 0 0.33586681222118892 -0.0067462441580033658 0 0.34167945108238768 0.015605415956853899 0 0.32490055802469708 0.021190940670656921 0 0.33586681222118892 -0.0067462441580033658 0 0.34167945108238768 0.015605415956853899 0 0.32490055802469708 0.021190940670656921 0 0.34099279295720591 0.031691385536231111 0 0.32490055802469708 0.021190940670656921 0 0.34099279295720591 0.031691385536231111 0 0.32801258046435111 0.036170166979635328 0 0.32490055802469708 0.021190940670656921 0 0.31497710433926901 0.036033128519756527 0 0.30595588987094691 0.026092456194660541 0 0.32490055802469708 0.021190940670656921 0 0.31046320235639918 0.0067575729804437252 0 0.30595588987094691 0.026092456194660541 0 0.32490055802469708 0.021190940670656921 0 0.32801258046435111 0.036170166979635328 0 0.31497710433926901 0.036033128519756527 0 0.32490055802469708 0.021190940670656921 0 0.31046320235639918 0.0067575729804437252 0 0.33586681222118892 -0.0067462441580033658 0 0.33488127772135701 0.070909675734900868 0 0.32846421329825382 0.059059627678852658 0 0.33828509493208109 0.051113002016081502 0 0.33828509493208109 0.051113002016081502 0 0.33632782521092219 0.048924662700562782 0 0.31456469921871788 0.048028881697348168 0 0.34539840685914608 0.044617690611648012 0 0.33828509493208109 0.051113002016081502 0 0.33632782521092219 0.048924662700562782 0 0.33828509493208109 0.051113002016081502 0 0.33632782521092219 0.048924662700562782 0 0.34539840685914608 0.044617690611648012 0 0.33609782728063148 0.04111054955314445 0 0.34099279295720591 0.031691385536231111 0 0.34539840685914608 0.044617690611648012 0 0.33632782521092219 0.048924662700562782 0 0.33609782728063148 0.04111054955314445 0 0.33609782728063148 0.04111054955314445 0 0.34099279295720591 0.031691385536231111 0 0.32801258046435111 0.036170166979635328 0 0.33632782521092219 0.048924662700562782 0 0.33609782728063148 0.04111054955314445 0 0.33051084790212298 0.042529329228536181 0 0.33632782521092219 0.048924662700562782 0 0.33051084790212298 0.042529329228536181 0 0.32327528761916352 0.043108517346294839 0 0.33609782728063148 0.04111054955314445 0 0.33051084790212298 0.042529329228536181 0 0.32801258046435111 0.036170166979635328 0 0.33632782521092219 0.048924662700562782 0 0.32327528761916352 0.043108517346294839 0 0.31456469921871788 0.048028881697348168 0 0.33051084790212298 0.042529329228536181 0 0.32327528761916352 0.043108517346294839 0 0.32801258046435111 0.036170166979635328 0 0.32327528761916352 0.043108517346294839 0 0.32801258046435111 0.036170166979635328 0 0.31497710433926901 0.036033128519756527 0 0.32327528761916352 0.043108517346294839 0 0.31497710433926901 0.036033128519756527 0 0.31456469921871788 0.048028881697348168 0 0.33828509493208109 0.051113002016081502 0 0.31456469921871788 0.048028881697348168 0 0.32846421329825382 0.059059627678852658 0 0.33828509493208109 0.051113002016081502 0 0.31456469921871788 0.048028881697348168 0 0.32846421329825382 0.059059627678852658 0 0.31456469921871788 0.048028881697348168 0 0.31750720709783492 0.060828210965220328 0 0.31456469921871788 0.048028881697348168 0 0.31750720709783492 0.060828210965220328 0 0.30386903740065402 0.05697431224277244 0 0.31750720709783492 0.060828210965220328 0 0.30386903740065402 0.05697431224277244 0 0.30506359630307739 0.067813250175554993 0 0.31456469921871788 0.048028881697348168 0 0.30386903740065402 0.05697431224277244 0 0.29084430350535467 0.044944761378613682 0 0.30386903740065402 0.05697431224277244 0 0.29325963230024937 0.057606978803657879 0 0.29690158384745241 0.06457818982176422 0 0.31456469921871788 0.048028881697348168 0 0.30257644158749403 0.037675663858353942 0 0.29084430350535467 0.044944761378613682 0 0.31456469921871788 0.048028881697348168 0 0.29084430350535467 0.044944761378613682 0 0.30257644158749403 0.037675663858353942 0 0.28728110375769011 0.032980092644635972 0 0.30595588987094691 0.026092456194660541 0 0.31497710433926901 0.036033128519756527 0 0.31456469921871788 0.048028881697348168 0 0.30257644158749403 0.037675663858353942 0 0.31497710433926901 0.036033128519756527 0 0.30257644158749403 0.037675663858353942 0 0.30595588987094691 0.026092456194660541 0 0.28728110375769011 0.032980092644635972 0 0.28354425329012439 0.021068516806879451 0 0.27754771987688809 0.040797440569893019 0 0.30257644158749403 0.037675663858353942 0 0.29084430350535467 0.044944761378613682 0 0.28728110375769011 0.032980092644635972 0 0.28728110375769011 0.032980092644635972 0 0.2844924432277231 0.043204628682168907 0 0.27754771987688809 0.040797440569893019 0 0.29084430350535467 0.044944761378613682 0 0.28728110375769011 0.032980092644635972 0 0.2844924432277231 0.043204628682168907 0 0.2844924432277231 0.043204628682168907 0 0.28229664577095948 0.054096220135532967 0 0.27754771987688809 0.040797440569893019 0 0.29084430350535467 0.044944761378613682 0 0.2844924432277231 0.043204628682168907 0 0.28229664577095948 0.054096220135532967 0 0.29084430350535467 0.044944761378613682 0 0.28229664577095948 0.054096220135532967 0 0.29325963230024937 0.057606978803657879 0 0.28229664577095948 0.054096220135532967 0 0.28695696052130792 0.062426000594819037 0 0.29325963230024937 0.057606978803657879 0 0.28229664577095948 0.054096220135532967 0 0.28695696052130792 0.062426000594819037 0 0.27961998430175328 0.060695812266760227 0 0.28695696052130792 0.062426000594819037 0 0.29325963230024937 0.057606978803657879 0 0.29690158384745241 0.06457818982176422 0 0.30386903740065402 0.05697431224277244 0 0.29084430350535467 0.044944761378613682 0 0.29325963230024937 0.057606978803657879 0 0.31046320235639918 0.0067575729804437252 0 0.29633736445586178 0.016145334388179639 0 0.2895407867033607 0.0013395930438658619 0 0.31046320235639918 0.0067575729804437252 0 0.30595588987094691 0.026092456194660541 0 0.29633736445586178 0.016145334388179639 0 0.28728110375769011 0.032980092644635972 0 0.29633736445586178 0.016145334388179639 0 0.28354425329012439 0.021068516806879451 0 0.28728110375769011 0.032980092644635972 0 0.30595588987094691 0.026092456194660541 0 0.29633736445586178 0.016145334388179639 0 0.29633736445586178 0.016145334388179639 0 0.28354425329012439 0.021068516806879451 0 0.2895407867033607 0.0013395930438658619 0 0.28354425329012439 0.021068516806879451 0 0.2895407867033607 0.0013395930438658619 0 0.27605408581287011 0.0090157940159830471 0 0.28354425329012439 0.021068516806879451 0 0.2895407867033607 0.0013395930438658619 0 0.2895407867033607 0.0013395930438658619 0 0.27605408581287011 0.0090157940159830471 0 0.26778398551549509 -0.0036893303100333872 0 0.27605408581287011 0.0090157940159830471 0 0.26417056773795178 0.0090152440179189393 0 0.26778398551549509 -0.0036893303100333872 0 0.27605408581287011 0.0090157940159830471 0 0.26936383070045983 0.02007531215695801 0 0.26417056773795178 0.0090152440179189393 0 0.28354425329012439 0.021068516806879451 0 0.27754771987688809 0.040797440569893019 0 0.28354425329012439 0.021068516806879451 0 0.27605408581287011 0.0090157940159830471 0 0.26936383070045983 0.02007531215695801 0 0.28354425329012439 0.021068516806879451 0 0.26936383070045983 0.02007531215695801 0 0.27332262009486957 0.033728107725222278 0 0.26936383070045983 0.02007531215695801 0 0.26667678125960848 0.028969541142501901 0 0.27332262009486957 0.033728107725222278 0 0.26936383070045983 0.02007531215695801 0 0.26667678125960848 0.028969541142501901 0 0.25978705670837199 0.02772172808684556 0 0.26667678125960848 0.028969541142501901 0 0.25978705670837199 0.02772172808684556 0 0.26423361753473251 0.034353016600981737 0 0.24818833723327199 0.02644705719899533 0 0.25978705670837199 0.02772172808684556 0 0.25442723867738032 0.016379625870619269 0 0.24818833723327199 0.02644705719899533 0 0.25978705670837199 0.02772172808684556 0 0.25704478259505842 0.035809011079610743 0 0.26936383070045983 0.02007531215695801 0 0.25978705670837199 0.02772172808684556 0 0.25442723867738032 0.016379625870619269 0 0.26936383070045983 0.02007531215695801 0 0.25442723867738032 0.016379625870619269 0 0.26417056773795178 0.0090152440179189393 0 0.25442723867738032 0.016379625870619269 0 0.26417056773795178 0.0090152440179189393 0 0.25322369798355371 0.0032948183560677501 0 0.26417056773795178 0.0090152440179189393 0 0.25322369798355371 0.0032948183560677501 0 0.26778398551549509 -0.0036893303100333872 0 0.28229664577095948 0.054096220135532967 0 0.27155118646365262 0.060526364332906778 0 0.27754771987688809 0.040797440569893019 0 0.26803735397675288 0.057537922442449492 0 0.27155118646365262 0.060526364332906778 0 0.27754771987688809 0.040797440569893019 0 0.27155118646365262 0.060526364332906778 0 0.27754771987688809 0.040797440569893019 0 0.26803735397675288 0.057537922442449492 0 0.26717674565759131 0.061414912581717808 0 0.27155118646365262 0.060526364332906778 0 0.26803735397675288 0.057537922442449492 0 0.26717674565759131 0.061414912581717808 0 0.26717674565759131 0.061414912581717808 0 0.27082486665434358 0.062915996334918609 0 0.26717674565759131 0.061414912581717808 0 0.27155118646365262 0.060526364332906778 0 0.27082486665434358 0.062915996334918609 0 0.27155118646365262 0.060526364332906778 0 0.27082486665434358 0.062915996334918609 0 0.26803735397675288 0.057537922442449492 0 0.27155118646365262 0.060526364332906778 0 0.27155118646365262 0.060526364332906778 0 0.27961998430175328 0.060695812266760227 0 0.27767514445109232 0.065734664003783444 0 0.28229664577095948 0.054096220135532967 0 0.27155118646365262 0.060526364332906778 0 0.27961998430175328 0.060695812266760227 0 0.28354425329012439 0.021068516806879451 0 0.27754771987688809 0.040797440569893019 0 0.27332262009486957 0.033728107725222278 0 0.26803735397675288 0.057537922442449492 0 0.27754771987688809 0.040797440569893019 0 0.27332262009486957 0.033728107725222278 0 0.26803735397675288 0.057537922442449492 0 0.27332262009486957 0.033728107725222278 0 0.26337349528673171 0.044011131262296957 0 0.26803735397675288 0.057537922442449492 0 0.27332262009486957 0.033728107725222278 0 0.26667678125960848 0.028969541142501901 0 0.27332262009486957 0.033728107725222278 0 0.26423361753473251 0.034353016600981737 0 0.27332262009486957 0.033728107725222278 0 0.26337349528673171 0.044011131262296957 0 0.26423361753473251 0.034353016600981737 0 0.25978705670837199 0.02772172808684556 0 0.26423361753473251 0.034353016600981737 0 0.25704478259505842 0.035809011079610743 0 0.26337349528673171 0.044011131262296957 0 0.26423361753473251 0.034353016600981737 0 0.25704478259505842 0.035809011079610743 0 0.2492733855269578 0.041579555173777823 0 0.24818833723327199 0.02644705719899533 0 0.25704478259505842 0.035809011079610743 0 0.2492733855269578 0.041579555173777823 0 0.26337349528673171 0.044011131262296957 0 0.25704478259505842 0.035809011079610743 0 0.2492733855269578 0.041579555173777823 0 0.26803735397675288 0.057537922442449492 0 0.26337349528673171 0.044011131262296957 0 0.2492733855269578 0.041579555173777823 0 0.26803735397675288 0.057537922442449492 0 0.24629062771517271 0.052820950830226497 0 0.2492733855269578 0.041579555173777823 0 0.26803735397675288 0.057537922442449492 0 0.24874122334595 0.07170785510379532 0 0.24629062771517271 0.052820950830226497 0 0.26717674565759131 0.061414912581717808 0 0.24629062771517271 0.052820950830226497 0 0.26717674565759131 0.061414912581717808 0 0.24629062771517271 0.052820950830226497 0 0.26803735397675288 0.057537922442449492 0 0.26717674565759131 0.061414912581717808 0 0.24874122334595 0.07170785510379532 0 0.26717674565759131 0.061414912581717808 0 0.26207170159221099 0.084412837492877896 0 0.26717674565759131 0.061414912581717808 0 0.26207170159221099 0.084412837492877896 0 0.26717674565759131 0.061414912581717808 0 0.26459661937193729 0.083407271434054076 0 0.26207170159221099 0.084412837492877896 0 0.24736227196270541 0.090270970101712061 0 0.24874122334595 0.07170785510379532 0 0.26207170159221099 0.084412837492877896 0 0.24736227196270541 0.090270970101712061 0 0.26207170159221099 0.084412837492877896 0 0.24736227196270541 0.090270970101712061 0 0.26016144869860108 0.09301841504440217 0 0.25459763100830068 0.096141582858552177 0 0.24736227196270541 0.090270970101712061 0 0.26207170159221099 0.084412837492877896 0 0.26016144869860108 0.09301841504440217 0 0.24736227196270541 0.090270970101712061 0 0.25459763100830068 0.096141582858552177 0 0.26459661937193729 0.083407271434054076 0 0.26207170159221099 0.084412837492877896 0 0.26207170159221099 0.084412837492877896 0 0.26016144869860108 0.09301841504440217 0 0.26459661937193729 0.083407271434054076 0 0.2619867778419176 0.09199379318438361 0 0.26207170159221099 0.084412837492877896 0 0.2619867778419176 0.09199379318438361 0 0.26016144869860108 0.09301841504440217 0 0.26459661937193729 0.083407271434054076 0 0.26207170159221099 0.084412837492877896 0 0.2619867778419176 0.09199379318438361 0 0.2619867778419176 0.09199379318438361 0 0.26016144869860108 0.09301841504440217 0 0.26459661937193729 0.083407271434054076 0 0.28765643041333783 0.074223541376674432 0 0.26459661937193729 0.083407271434054076 0 0.27601190449835611 0.084120993139366301 0 0.28765643041333783 0.074223541376674432 0 0.2619867778419176 0.09199379318438361 0 0.27601190449835611 0.084120993139366301 0 0.27597760534302263 0.093816081557894046 0 0.2619867778419176 0.09199379318438361 0 0.27601190449835611 0.084120993139366301 0 0.26459661937193729 0.083407271434054076 0 0.2619867778419176 0.09199379318438361 0 0.27601190449835611 0.084120993139366301 0 0.27601190449835611 0.084120993139366301 0 0.28527214605629803 0.093542631019163408 0 0.27597760534302263 0.093816081557894046 0 0.26459661937193729 0.083407271434054076 0 0.27082486665434358 0.062915996334918609 0 0.26717674565759131 0.061414912581717808 0 0.26459661937193729 0.083407271434054076 0 0.27082486665434358 0.062915996334918609 0 0.26459661937193729 0.083407271434054076 0 0.27082486665434358 0.062915996334918609 0 0.27767514445109232 0.065734664003783444 0 0.26459661937193729 0.083407271434054076 0 0.27767514445109232 0.065734664003783444 0 0.28765643041333783 0.074223541376674432 0 0.27155118646365262 0.060526364332906778 0 0.27082486665434358 0.062915996334918609 0 0.27767514445109232 0.065734664003783444 0 0.27082486665434358 0.062915996334918609 0 0.27767514445109232 0.065734664003783444 0 0.27155118646365262 0.060526364332906778 0 0.27767514445109232 0.065734664003783444 0 0.27767514445109232 0.065734664003783444 0 0.28765643041333783 0.074223541376674432 0 0.27767514445109232 0.065734664003783444 0 0.29306802488508721 0.072068336257275281 0 0.28695696052130792 0.062426000594819037 0 0.27961998430175328 0.060695812266760227 0 0.27767514445109232 0.065734664003783444 0 0.28695696052130792 0.062426000594819037 0 0.27767514445109232 0.065734664003783444 0 0.29306802488508721 0.072068336257275281 0 0.28695696052130792 0.062426000594819037 0 0.29306802488508721 0.072068336257275281 0 0.29690158384745241 0.06457818982176422 0 0.29561576852942001 0.073116650333272012 0 0.29306802488508721 0.072068336257275281 0 0.29561576852942001 0.073116650333272012 0 0.29306802488508721 0.072068336257275281 0 0.29003703115479512 0.076248193094349867 0 0.29306802488508721 0.072068336257275281 0 0.28765643041333783 0.074223541376674432 0 0.29306802488508721 0.072068336257275281 0 0.29003703115479512 0.076248193094349867 0 0.28765643041333783 0.074223541376674432 0 0.29561576852942001 0.073116650333272012 0 0.29003703115479512 0.076248193094349867 0 0.27767514445109232 0.065734664003783444 0 0.29306802488508721 0.072068336257275281 0 0.28765643041333783 0.074223541376674432 0 0.29003703115479512 0.076248193094349867 0 0.28765643041333783 0.074223541376674432 0 0.27601190449835611 0.084120993139366301 0 0.29003703115479512 0.076248193094349867 0 0.27601190449835611 0.084120993139366301 0 0.29003703115479512 0.076248193094349867 0 0.28765643041333783 0.074223541376674432 0 0.27601190449835611 0.084120993139366301 0 0.29003703115479512 0.076248193094349867 0 0.28870857493654689 0.086239244916881869 0 0.27601190449835611 0.084120993139366301 0 0.28870857493654689 0.086239244916881869 0 0.28527214605629803 0.093542631019163408 0 0.28870857493654689 0.086239244916881869 0 0.28527214605629803 0.093542631019163408 0 0.29246213629446111 0.095768124011444758 0 0.28870857493654689 0.086239244916881869 0 0.29698271976236568 0.089899813846382556 0 0.29246213629446111 0.095768124011444758 0 0.29003703115479512 0.076248193094349867 0 0.28870857493654689 0.086239244916881869 0 0.29698271976236568 0.089899813846382556 0 0.29561576852942001 0.073116650333272012 0 0.29003703115479512 0.076248193094349867 0 0.31111548734401751 0.094174984339189319 0 0.29003703115479512 0.076248193094349867 0 0.31111548734401751 0.094174984339189319 0 0.29003703115479512 0.076248193094349867 0 0.29698271976236568 0.089899813846382556 0 0.31111548734401751 0.094174984339189319 0 0.3184977734976509 0.082531855017860187 0 0.29561576852942001 0.073116650333272012 0 0.31111548734401751 0.094174984339189319 0 0.3184977734976509 0.082531855017860187 0 0.29561576852942001 0.073116650333272012 0 0.3184977734976509 0.082531855017860187 0 0.29561576852942001 0.073116650333272012 0 0.30506359630307739 0.067813250175554993 0 0.31750720709783492 0.060828210965220328 0 0.30506359630307739 0.067813250175554993 0 0.29306802488508721 0.072068336257275281 0 0.30506359630307739 0.067813250175554993 0 0.29690158384745241 0.06457818982176422 0 0.30386903740065402 0.05697431224277244 0 0.30506359630307739 0.067813250175554993 0 0.29690158384745241 0.06457818982176422 0 0.29306802488508721 0.072068336257275281 0 0.30506359630307739 0.067813250175554993 0 0.29561576852942001 0.073116650333272012 0 0.30506359630307739 0.067813250175554993 0 0.29561576852942001 0.073116650333272012 0 0.29306802488508721 0.072068336257275281 0 0.30506359630307739 0.067813250175554993 0 0.31151194808720201 0.1150643222194616 0 0.30247500772594699 0.1071381656543656 0 0.29129275041579278 0.1172303442398579 0 0.31151194808720201 0.1150643222194616 0 0.29622008012258699 0.12991313160987961 0 0.32387679174541939 0.1297141718462434 0 0.31151194808720201 0.1150643222194616 0 0.29129275041579278 0.1172303442398579 0 0.29622008012258699 0.12991313160987961 0 0.31151194808720201 0.1150643222194616 0 0.31111548734401751 0.094174984339189319 0 0.30247500772594699 0.1071381656543656 0 0.31111548734401751 0.094174984339189319 0 0.30128354362195031 0.098124169066782854 0 0.30247500772594699 0.1071381656543656 0 0.29698271976236568 0.089899813846382556 0 0.30128354362195031 0.098124169066782854 0 0.29246213629446111 0.095768124011444758 0 0.29698271976236568 0.089899813846382556 0 0.31111548734401751 0.094174984339189319 0 0.30128354362195031 0.098124169066782854 0 0.30128354362195031 0.098124169066782854 0 0.30247500772594699 0.1071381656543656 0 0.29260899031297011 0.10538418601464609 0 0.29260899031297011 0.10538418601464609 0 0.29246213629446111 0.095768124011444758 0 0.28702757351663483 0.1001100210532227 0 0.30128354362195031 0.098124169066782854 0 0.29260899031297011 0.10538418601464609 0 0.29246213629446111 0.095768124011444758 0 0.28527214605629803 0.093542631019163408 0 0.29246213629446111 0.095768124011444758 0 0.28702757351663483 0.1001100210532227 0 0.28527214605629803 0.093542631019163408 0 0.28702757351663483 0.1001100210532227 0 0.28108272677848523 0.099874609951530163 0 0.29260899031297011 0.10538418601464609 0 0.28356239405763972 0.106033323917978 0 0.28664880997705461 0.11131452551203889 0 0.29260899031297011 0.10538418601464609 0 0.28702757351663483 0.1001100210532227 0 0.28356239405763972 0.106033323917978 0 0.28702757351663483 0.1001100210532227 0 0.28356239405763972 0.106033323917978 0 0.28108272677848523 0.099874609951530163 0 0.28356239405763972 0.106033323917978 0 0.2814598539497668 0.10990299155730229 0 0.28664880997705461 0.11131452551203889 0 0.27786688771157569 0.1150217509861922 0 0.29622008012258699 0.12991313160987961 0 0.28664880997705461 0.11131452551203889 0 0.29129275041579278 0.1172303442398579 0 0.27786688771157569 0.1150217509861922 0 0.27786688771157569 0.1150217509861922 0 0.27913813953766042 0.12972245958528131 0 0.29622008012258699 0.12991313160987961 0 0.29129275041579278 0.1172303442398579 0 0.27786688771157569 0.1150217509861922 0 0.29622008012258699 0.12991313160987961 0 0.2814598539497668 0.10990299155730229 0 0.28664880997705461 0.11131452551203889 0 0.27786688771157569 0.1150217509861922 0 0.30247500772594699 0.1071381656543656 0 0.29260899031297011 0.10538418601464609 0 0.29129275041579278 0.1172303442398579 0 0.29260899031297011 0.10538418601464609 0 0.28664880997705461 0.11131452551203889 0 0.29129275041579278 0.1172303442398579 0 0.27418517611644572 0.1163335826691398 0 0.26638390190257438 0.1102685147937751 0 0.25655208948606423 0.10927836717886751 0 0.27786688771157569 0.1150217509861922 0 0.27418517611644572 0.1163335826691398 0 0.27913813953766042 0.12972245958528131 0 0.27418517611644572 0.1163335826691398 0 0.27248198541775659 0.12784311929978001 0 0.27913813953766042 0.12972245958528131 0 0.2814598539497668 0.10990299155730229 0 0.27786688771157569 0.1150217509861922 0 0.27702128122739278 0.10689832557857171 0 0.27786688771157569 0.1150217509861922 0 0.27418517611644572 0.1163335826691398 0 0.26638390190257438 0.1102685147937751 0 0.27418517611644572 0.1163335826691398 0 0.26888095198589312 0.11979825388229511 0 0.26487973471170051 0.1148861259760711 0 0.27418517611644572 0.1163335826691398 0 0.26888095198589312 0.11979825388229511 0 0.27248198541775659 0.12784311929978001 0 0.26888095198589312 0.11979825388229511 0 0.26519442307348812 0.1188177922564181 0 0.26487973471170051 0.1148861259760711 0 0.26888095198589312 0.11979825388229511 0 0.26562400985315288 0.1251654340079911 0 0.27248198541775659 0.12784311929978001 0 0.26888095198589312 0.11979825388229511 0 0.26519442307348812 0.1188177922564181 0 0.26562400985315288 0.1251654340079911 0 0.27786688771157569 0.1150217509861922 0 0.26638390190257438 0.1102685147937751 0 0.25872482925013801 0.09949030162923457 0 0.27786688771157569 0.1150217509861922 0 0.25872482925013801 0.09949030162923457 0 0.27786688771157569 0.1150217509861922 0 0.27150352658480642 0.1040925172930806 0 0.25872482925013801 0.09949030162923457 0 0.28527214605629803 0.093542631019163408 0 0.27597760534302263 0.093816081557894046 0 0.28108272677848523 0.099874609951530163 0 0.27597760534302263 0.093816081557894046 0 0.28108272677848523 0.099874609951530163 0 0.27461357126647679 0.10027579108255071 0 0.27786688771157569 0.1150217509861922 0 0.27702128122739278 0.10689832557857171 0 0.27150352658480642 0.1040925172930806 0 0.27461357126647679 0.10027579108255071 0 0.27702128122739278 0.10689832557857171 0 0.27150352658480642 0.1040925172930806 0 0.28356239405763972 0.106033323917978 0 0.28108272677848523 0.099874609951530163 0 0.27702128122739278 0.10689832557857171 0 0.28108272677848523 0.099874609951530163 0 0.27461357126647679 0.10027579108255071 0 0.27702128122739278 0.10689832557857171 0 0.28356239405763972 0.106033323917978 0 0.2814598539497668 0.10990299155730229 0 0.27702128122739278 0.10689832557857171 0 0.2619867778419176 0.09199379318438361 0 0.27597760534302263 0.093816081557894046 0 0.26850219741802223 0.0981363484555835 0 0.27150352658480642 0.1040925172930806 0 0.26850219741802223 0.0981363484555835 0 0.25872482925013801 0.09949030162923457 0 0.27461357126647679 0.10027579108255071 0 0.27150352658480642 0.1040925172930806 0 0.26850219741802223 0.0981363484555835 0 0.27597760534302263 0.093816081557894046 0 0.27461357126647679 0.10027579108255071 0 0.26850219741802223 0.0981363484555835 0 0.2619867778419176 0.09199379318438361 0 0.26850219741802223 0.0981363484555835 0 0.25872482925013801 0.09949030162923457 0 0.2619867778419176 0.09199379318438361 0 0.26016144869860108 0.09301841504440217 0 0.25872482925013801 0.09949030162923457 0 0.2619867778419176 0.09199379318438361 0 0.25872482925013801 0.09949030162923457 0 0.26016144869860108 0.09301841504440217 0 0.25872482925013801 0.09949030162923457 0 0.26016144869860108 0.09301841504440217 0 0.25872482925013801 0.09949030162923457 0 0.25459763100830068 0.096141582858552177 0 0.26638390190257438 0.1102685147937751 0 0.25872482925013801 0.09949030162923457 0 0.26054083413963042 0.1068609537315081 0 0.26638390190257438 0.1102685147937751 0 0.26054083413963042 0.1068609537315081 0 0.25655208948606423 0.10927836717886751 0 0.25872482925013801 0.09949030162923457 0 0.258042440935632 0.10497087790269199 0 0.26054083413963042 0.1068609537315081 0 0.25872482925013801 0.09949030162923457 0 0.258042440935632 0.10497087790269199 0 0.258042440935632 0.10497087790269199 0 0.26054083413963042 0.1068609537315081 0 0.25655208948606423 0.10927836717886751 0 0.25872482925013801 0.09949030162923457 0 0.25655208948606423 0.10927836717886751 0 0.25872482925013801 0.09949030162923457 0 0.25655208948606423 0.10927836717886751 0 0.25459763100830068 0.096141582858552177 0 0.24174744587836799 0.1033548466348798 0 0.25655208948606423 0.10927836717886751 0 0.25459763100830068 0.096141582858552177 0 0.25872482925013801 0.09949030162923457 0 0.258042440935632 0.10497087790269199 0 0.25655208948606423 0.10927836717886751 0 0.25872482925013801 0.09949030162923457 0 0.25459763100830068 0.096141582858552177 0 0.26016144869860108 0.09301841504440217 0 0.25459763100830068 0.096141582858552177 0 0.27418517611644572 0.1163335826691398 0 0.25655208948606423 0.10927836717886751 0 0.26487973471170051 0.1148861259760711 0 0.27418517611644572 0.1163335826691398 0 0.25655208948606423 0.10927836717886751 0 0.2613903323121034 0.11972876860365821 0 0.25824300399834771 0.11754386918627879 0 0.25813574029091341 0.12532111527980791 0 0.2613903323121034 0.11972876860365821 0 0.25824300399834771 0.11754386918627879 0 0.26064106818342869 0.11649387083006101 0 0.2613903323121034 0.11972876860365821 0 0.26303182906276251 0.1167652494283456 0 0.26064106818342869 0.11649387083006101 0 0.2613903323121034 0.11972876860365821 0 0.25813574029091341 0.12532111527980791 0 0.26562400985315288 0.1251654340079911 0 0.2613903323121034 0.11972876860365821 0 0.26519442307348812 0.1188177922564181 0 0.26562400985315288 0.1251654340079911 0 0.2613903323121034 0.11972876860365821 0 0.26519442307348812 0.1188177922564181 0 0.26303182906276251 0.1167652494283456 0 0.26487973471170051 0.1148861259760711 0 0.2618287337373767 0.1148464313763837 0 0.2589676606418963 0.1122376160430168 0 0.25655208948606423 0.10927836717886751 0 0.26487973471170051 0.1148861259760711 0 0.2589676606418963 0.1122376160430168 0 0.26519442307348812 0.1188177922564181 0 0.26487973471170051 0.1148861259760711 0 0.26303182906276251 0.1167652494283456 0 0.26487973471170051 0.1148861259760711 0 0.2618287337373767 0.1148464313763837 0 0.26303182906276251 0.1167652494283456 0 0.2618287337373767 0.1148464313763837 0 0.26303182906276251 0.1167652494283456 0 0.26064106818342869 0.11649387083006101 0 0.2618287337373767 0.1148464313763837 0 0.26064106818342869 0.11649387083006101 0 0.26015078570541528 0.1146524558252945 0 0.2618287337373767 0.1148464313763837 0 0.2589676606418963 0.1122376160430168 0 0.26015078570541528 0.1146524558252945 0 0.2589676606418963 0.1122376160430168 0 0.26015078570541528 0.1146524558252945 0 0.25777400528710798 0.1147846643059361 0 0.25824300399834771 0.11754386918627879 0 0.26015078570541528 0.1146524558252945 0 0.25777400528710798 0.1147846643059361 0 0.25824300399834771 0.11754386918627879 0 0.26064106818342869 0.11649387083006101 0 0.26015078570541528 0.1146524558252945 0 0.24646482385440791 0.1109165710353929 0 0.25655208948606423 0.10927836717886751 0 0.255186127323073 0.11543194682551421 0 0.25824300399834771 0.11754386918627879 0 0.25777400528710798 0.1147846643059361 0 0.255186127323073 0.11543194682551421 0 0.2589676606418963 0.1122376160430168 0 0.25777400528710798 0.1147846643059361 0 0.255186127323073 0.11543194682551421 0 0.25655208948606423 0.10927836717886751 0 0.255186127323073 0.11543194682551421 0 0.25655208948606423 0.10927836717886751 0 0.2589676606418963 0.1122376160430168 0 0.255186127323073 0.11543194682551421 0 0.255186127323073 0.11543194682551421 0 0.25238596385504641 0.12804651946228041 0 0.24420216851797599 0.1292372680552665 0 0.255186127323073 0.11543194682551421 0 0.25238596385504641 0.12804651946228041 0 0.255186127323073 0.11543194682551421 0 0.25238596385504641 0.12804651946228041 0 0.25813574029091341 0.12532111527980791 0 0.25824300399834771 0.11754386918627879 0 0.255186127323073 0.11543194682551421 0 0.25813574029091341 0.12532111527980791 0 0.25238596385504641 0.12804651946228041 0 0.25813574029091341 0.12532111527980791 0 0.26818611498992623 0.1403022215883418 0 0.24420216851797599 0.1292372680552665 0 0.26818611498992623 0.1403022215883418 0 0.24301228879775941 0.13939302681245261 0 0.24420216851797599 0.1292372680552665 0 0.26818611498992623 0.1403022215883418 0 0.24420216851797599 0.1292372680552665 0 0.25238596385504641 0.12804651946228041 0 0.26818611498992623 0.1403022215883418 0 0.25813574029091341 0.12532111527980791 0 0.26562400985315288 0.1251654340079911 0 0.26818611498992623 0.1403022215883418 0 0.27248198541775659 0.12784311929978001 0 0.26818611498992623 0.1403022215883418 0 0.27913813953766042 0.12972245958528131 0 0.26562400985315288 0.1251654340079911 0 0.27248198541775659 0.12784311929978001 0 0.26818611498992623 0.1403022215883418 0 0.26818611498992623 0.1403022215883418 0 0.27913813953766042 0.12972245958528131 0 0.28414721419066807 0.1482284927670183 0 0.26818611498992623 0.1403022215883418 0 0.26583546295036609 0.16369396270660089 0 0.28414721419066807 0.1482284927670183 0 0.26818611498992623 0.1403022215883418 0 0.25486404381895789 0.1523024957907583 0 0.26583546295036609 0.16369396270660089 0 0.24301228879775941 0.13939302681245261 0 0.26818611498992623 0.1403022215883418 0 0.25486404381895789 0.1523024957907583 0 0.2424223085377801 0.16582077205563811 0 0.25486404381895789 0.1523024957907583 0 0.26583546295036609 0.16369396270660089 0 0.2424223085377801 0.16582077205563811 0 0.26032431562704572 0.18342712708893841 0 0.26583546295036609 0.16369396270660089 0 0.26032431562704572 0.18342712708893841 0 0.27712404590978218 0.18082877805207789 0 0.26583546295036609 0.16369396270660089 0 0.27712404590978218 0.18082877805207789 0 0.26583546295036609 0.16369396270660089 0 0.28977860037431658 0.16805367250728201 0 0.26583546295036609 0.16369396270660089 0 0.28977860037431658 0.16805367250728201 0 0.28414721419066807 0.1482284927670183 0 0.27712404590978218 0.18082877805207789 0 0.28977860037431658 0.16805367250728201 0 0.29478084704188562 0.18627619782702401 0 0.28977860037431658 0.16805367250728201 0 0.29478084704188562 0.18627619782702401 0 0.31259037162619269 0.16725562300018509 0 0.29478084704188562 0.18627619782702401 0 0.31732062797233113 0.1926592597090995 0 0.31259037162619269 0.16725562300018509 0 0.28977860037431658 0.16805367250728201 0 0.29946190776947251 0.15165108642358641 0 0.31259037162619269 0.16725562300018509 0 0.29946190776947251 0.15165108642358641 0 0.31457327253359829 0.14480451223356691 0 0.31259037162619269 0.16725562300018509 0 0.29946190776947251 0.15165108642358641 0 0.29622008012258699 0.12991313160987961 0 0.31457327253359829 0.14480451223356691 0 0.29622008012258699 0.12991313160987961 0 0.31457327253359829 0.14480451223356691 0 0.29622008012258699 0.12991313160987961 0 0.32387679174541939 0.1297141718462434 0 0.31457327253359829 0.14480451223356691 0 0.27913813953766042 0.12972245958528131 0 0.29622008012258699 0.12991313160987961 0 0.28414721419066807 0.1482284927670183 0 0.29946190776947251 0.15165108642358641 0 0.29622008012258699 0.12991313160987961 0 0.28414721419066807 0.1482284927670183 0 0.28977860037431658 0.16805367250728201 0 0.29946190776947251 0.15165108642358641 0 0.28414721419066807 0.1482284927670183 0 0.27355486584907379 0.24364475180805101 0 0.25452501640087027 0.2374112721999547 0 0.26408278890255732 0.22479217687295791 0 0.25404003316197471 0.25208422786308371 0 0.27355486584907379 0.24364475180805101 0 0.25452501640087027 0.2374112721999547 0 0.24523436150048811 0.24199469982198529 0 0.25404003316197471 0.25208422786308371 0 0.25452501640087027 0.2374112721999547 0 0.24868260911088891 0.2303107595792985 0 0.2471090749199483 0.2357199094212839 0 0.25452501640087027 0.2374112721999547 0 0.24868260911088891 0.2303107595792985 0 0.25452501640087027 0.2374112721999547 0 0.26408278890255732 0.22479217687295791 0 0.24868260911088891 0.2303107595792985 0 0.26408278890255732 0.22479217687295791 0 0.25357276657721323 0.21641202867955539 0 0.27355486584907379 0.24364475180805101 0 0.26408278890255732 0.22479217687295791 0 0.28109637724199782 0.22150209212538899 0 0.26408278890255732 0.22479217687295791 0 0.28109637724199782 0.22150209212538899 0 0.27306509823529962 0.19947215684549871 0 0.26408278890255732 0.22479217687295791 0 0.25357276657721323 0.21641202867955539 0 0.27306509823529962 0.19947215684549871 0 0.25357276657721323 0.21641202867955539 0 0.25471258750952741 0.20148162901819469 0 0.27306509823529962 0.19947215684549871 0 0.25357276657721323 0.21641202867955539 0 0.27306509823529962 0.19947215684549871 0 0.2418323282778008 0.1922485172988235 0 0.26032431562704572 0.18342712708893841 0 0.25471258750952741 0.20148162901819469 0 0.26032431562704572 0.18342712708893841 0 0.25471258750952741 0.20148162901819469 0 0.27306509823529962 0.19947215684549871 0 0.26032431562704572 0.18342712708893841 0 0.27712404590978218 0.18082877805207789 0 0.27306509823529962 0.19947215684549871 0 0.29478084704188562 0.18627619782702401 0 0.27306509823529962 0.19947215684549871 0 0.29788838547339219 0.20777731020547871 0 0.27712404590978218 0.18082877805207789 0 0.29478084704188562 0.18627619782702401 0 0.27306509823529962 0.19947215684549871 0 0.29478084704188562 0.18627619782702401 0 0.29788838547339219 0.20777731020547871 0 0.31732062797233113 0.1926592597090995 0 0.29788838547339219 0.20777731020547871 0 0.31916040529159301 0.2166328624030785 0 0.31732062797233113 0.1926592597090995 0 0.28109637724199782 0.22150209212538899 0 0.27306509823529962 0.19947215684549871 0 0.29788838547339219 0.20777731020547871 0 0.28109637724199782 0.22150209212538899 0 0.29788838547339219 0.20777731020547871 0 0.29668368374297521 0.23238313674276659 0 0.27355486584907379 0.24364475180805101 0 0.28109637724199782 0.22150209212538899 0 0.29668368374297521 0.23238313674276659 0 0.29788838547339219 0.20777731020547871 0 0.29668368374297521 0.23238313674276659 0 0.31916040529159301 0.2166328624030785 0 0.29692855903906679 0.25537037528416417 0 0.29668368374297521 0.23238313674276659 0 0.32448256229391081 0.244023600812113 0 0.29692855903906679 0.25537037528416417 0 0.27355486584907379 0.24364475180805101 0 0.29668368374297521 0.23238313674276659 0 0.32448256229391081 0.244023600812113 0 0.33724611662768478 0.226971671205 0 0.35052125483258301 0.2434514759103418 0 0.32448256229391081 0.244023600812113 0 0.33724611662768478 0.226971671205 0 0.31916040529159301 0.2166328624030785 0 0.29668368374297521 0.23238313674276659 0 0.32448256229391081 0.244023600812113 0 0.31916040529159301 0.2166328624030785 0 0.33724611662768478 0.226971671205 0 0.31916040529159301 0.2166328624030785 0 0.34036716376080012 0.20191553243135291 0 0.31916040529159301 0.2166328624030785 0 0.31732062797233113 0.1926592597090995 0 0.34036716376080012 0.20191553243135291 0 0.31732062797233113 0.1926592597090995 0 0.34036716376080012 0.20191553243135291 0 0.33327910971122948 0.1769249887409369 0 0.34036716376080012 0.20191553243135291 0 0.33327910971122948 0.1769249887409369 0 0.35363051640006049 0.1838751638919715 0 0.34036716376080012 0.20191553243135291 0 0.36940151407566268 0.20038014978660379 0 0.35363051640006049 0.1838751638919715 0 0.36940151407566268 0.20038014978660379 0 0.35418005050780299 0.2186338278764331 0 0.36970064025412291 0.2313836502337521 0 0.34036716376080012 0.20191553243135291 0 0.36940151407566268 0.20038014978660379 0 0.35418005050780299 0.2186338278764331 0 0.33724611662768478 0.226971671205 0 0.34036716376080012 0.20191553243135291 0 0.35418005050780299 0.2186338278764331 0 0.33724611662768478 0.226971671205 0 0.35418005050780299 0.2186338278764331 0 0.35052125483258301 0.2434514759103418 0 0.35418005050780299 0.2186338278764331 0 0.36970064025412291 0.2313836502337521 0 0.35052125483258301 0.2434514759103418 0 0.37478492512234668 0.26235925763296819 0 0.36970064025412291 0.2313836502337521 0 0.35052125483258301 0.2434514759103418 0 0.33497932682518311 0.1519205034936916 0 0.32387679174541939 0.1297141718462434 0 0.35327239972246333 0.1300285668288671 0 0.33497932682518311 0.1519205034936916 0 0.31457327253359829 0.14480451223356691 0 0.31259037162619269 0.16725562300018509 0 0.33497932682518311 0.1519205034936916 0 0.32387679174541939 0.1297141718462434 0 0.31457327253359829 0.14480451223356691 0 0.33497932682518311 0.1519205034936916 0 0.31259037162619269 0.16725562300018509 0 0.33327910971122948 0.1769249887409369 0 0.31732062797233113 0.1926592597090995 0 0.31259037162619269 0.16725562300018509 0 0.33327910971122948 0.1769249887409369 0 0.33497932682518311 0.1519205034936916 0 0.33327910971122948 0.1769249887409369 0 0.34907151432127381 0.16521020144779211 0 0.34907151432127381 0.16521020144779211 0 0.35363051640006049 0.1838751638919715 0 0.37277469716236061 0.17385369407461371 0 0.33327910971122948 0.1769249887409369 0 0.34907151432127381 0.16521020144779211 0 0.35363051640006049 0.1838751638919715 0 0.36940151407566268 0.20038014978660379 0 0.35363051640006049 0.1838751638919715 0 0.37277469716236061 0.17385369407461371 0 0.37277469716236061 0.17385369407461371 0 0.36285879787080821 0.15032831482926681 0 0.3843829660287168 0.1587008111838667 0 0.34907151432127381 0.16521020144779211 0 0.37277469716236061 0.17385369407461371 0 0.36285879787080821 0.15032831482926681 0 0.36285879787080821 0.15032831482926681 0 0.36938385952287339 0.13266757129752671 0 0.38232915319187621 0.14145147187989651 0 0.33497932682518311 0.1519205034936916 0 0.36285879787080821 0.15032831482926681 0 0.35327239972246333 0.1300285668288671 0 0.33497932682518311 0.1519205034936916 0 0.34907151432127381 0.16521020144779211 0 0.36285879787080821 0.15032831482926681 0 0.36649271172908648 0.1176987398754743 0 0.35327239972246333 0.1300285668288671 0 0.36938385952287339 0.13266757129752671 0 0.36285879787080821 0.15032831482926681 0 0.35327239972246333 0.1300285668288671 0 0.36938385952287339 0.13266757129752671 0 0.39421974672685411 0.13240309148155921 0 0.38232915319187621 0.14145147187989651 0 0.38138511069115272 0.12353481432135879 0 0.36938385952287339 0.13266757129752671 0 0.38232915319187621 0.14145147187989651 0 0.38138511069115272 0.12353481432135879 0 0.39421974672685411 0.13240309148155921 0 0.41199731756477831 0.13352747615702071 0 0.3942733283070321 0.11371104406223111 0 0.39421974672685411 0.13240309148155921 0 0.40120830104283178 0.15077536395034899 0 0.41199731756477831 0.13352747615702071 0 0.39421974672685411 0.13240309148155921 0 0.40120830104283178 0.15077536395034899 0 0.38232915319187621 0.14145147187989651 0 0.36285879787080821 0.15032831482926681 0 0.38232915319187621 0.14145147187989651 0 0.3843829660287168 0.1587008111838667 0 0.40120830104283178 0.15077536395034899 0 0.38232915319187621 0.14145147187989651 0 0.3843829660287168 0.1587008111838667 0 0.37277469716236061 0.17385369407461371 0 0.3843829660287168 0.1587008111838667 0 0.39936082591505218 0.176604797209717 0 0.37277469716236061 0.17385369407461371 0 0.39936082591505218 0.176604797209717 0 0.38992891259608609 0.19548318162929729 0 0.40120830104283178 0.15077536395034899 0 0.39936082591505218 0.176604797209717 0 0.41410660213767347 0.1652382216241598 0 0.40120830104283178 0.15077536395034899 0 0.3843829660287168 0.1587008111838667 0 0.39936082591505218 0.176604797209717 0 0.40120830104283178 0.15077536395034899 0 0.41410660213767347 0.1652382216241598 0 0.42972130682252457 0.1533439082518103 0 0.39936082591505218 0.176604797209717 0 0.41410660213767347 0.1652382216241598 0 0.42626679864566441 0.18172907206941921 0 0.42626679864566441 0.18172907206941921 0 0.42972130682252457 0.1533439082518103 0 0.45055708181009879 0.1690731760043504 0 0.41410660213767347 0.1652382216241598 0 0.42626679864566441 0.18172907206941921 0 0.42972130682252457 0.1533439082518103 0 0.42972130682252457 0.1533439082518103 0 0.43054248402473921 0.1250848439374013 0 0.44904083753606949 0.1441389705362057 0 0.42972130682252457 0.1533439082518103 0 0.43054248402473921 0.1250848439374013 0 0.41199731756477831 0.13352747615702071 0 0.43054248402473921 0.1250848439374013 0 0.41199731756477831 0.13352747615702071 0 0.41135066019799099 0.1182158826350982 0 0.40120830104283178 0.15077536395034899 0 0.42972130682252457 0.1533439082518103 0 0.41199731756477831 0.13352747615702071 0 0.42972130682252457 0.1533439082518103 0 0.41199731756477831 0.13352747615702071 0 0.40097752291506289 0.25902709479471048 0 0.39333580902427501 0.24081282939082621 0 0.41286841049430861 0.24788583003777651 0 0.37478492512234668 0.26235925763296819 0 0.36970064025412291 0.2313836502337521 0 0.39333580902427501 0.24081282939082621 0 0.36970064025412291 0.2313836502337521 0 0.39333580902427501 0.24081282939082621 0 0.39338333076520482 0.2163019563834182 0 0.39338333076520482 0.2163019563834182 0 0.41736514745474701 0.23222376298023259 0 0.39333580902427501 0.24081282939082621 0 0.39338333076520482 0.2163019563834182 0 0.41736514745474701 0.23222376298023259 0 0.39338333076520482 0.2163019563834182 0 0.38992891259608609 0.19548318162929729 0 0.41508715600771068 0.20488700545500521 0 0.36940151407566268 0.20038014978660379 0 0.39338333076520482 0.2163019563834182 0 0.36940151407566268 0.20038014978660379 0 0.39338333076520482 0.2163019563834182 0 0.38992891259608609 0.19548318162929729 0 0.36940151407566268 0.20038014978660379 0 0.36970064025412291 0.2313836502337521 0 0.39338333076520482 0.2163019563834182 0 0.36940151407566268 0.20038014978660379 0 0.37277469716236061 0.17385369407461371 0 0.38992891259608609 0.19548318162929729 0 0.39936082591505218 0.176604797209717 0 0.38992891259608609 0.19548318162929729 0 0.41508715600771068 0.20488700545500521 0 0.39936082591505218 0.176604797209717 0 0.42626679864566441 0.18172907206941921 0 0.41508715600771068 0.20488700545500521 0 0.42626679864566441 0.18172907206941921 0 0.44140000057487638 0.20455834627575151 0 0.44473765559285833 0.18692520255949671 0 0.42626679864566441 0.18172907206941921 0 0.41508715600771068 0.20488700545500521 0 0.44140000057487638 0.20455834627575151 0 0.41508715600771068 0.20488700545500521 0 0.43790507610234408 0.2273079216372012 0 0.44140000057487638 0.20455834627575151 0 0.39338333076520482 0.2163019563834182 0 0.41508715600771068 0.20488700545500521 0 0.41736514745474701 0.23222376298023259 0 0.41508715600771068 0.20488700545500521 0 0.41736514745474701 0.23222376298023259 0 0.43790507610234408 0.2273079216372012 0 0.42717012070777932 0.25569493195645271 0 0.41736514745474701 0.23222376298023259 0 0.44134696414428898 0.24814556957704689 0 0.41736514745474701 0.23222376298023259 0 0.44134696414428898 0.24814556957704689 0 0.41736514745474701 0.23222376298023259 0 0.44134696414428898 0.24814556957704689 0 0.43790507610234408 0.2273079216372012 0 0.39333580902427501 0.24081282939082621 0 0.41736514745474701 0.23222376298023259 0 0.41286841049430861 0.24788583003777651 0 0.42717012070777932 0.25569493195645271 0 0.41736514745474701 0.23222376298023259 0 0.41286841049430861 0.24788583003777651 0 0.45336271850049548 0.25236276911819511 0 0.45602225988021539 0.23816249748875179 0 0.48180965237011408 0.2487438147612096 0 0.45336271850049548 0.25236276911819511 0 0.45602225988021539 0.23816249748875179 0 0.44134696414428898 0.24814556957704689 0 0.44600400848591359 0.23698591979390529 0 0.43790507610234408 0.2273079216372012 0 0.45336271850049548 0.25236276911819511 0 0.44134696414428898 0.24814556957704689 0 0.44600400848591359 0.23698591979390529 0 0.45336271850049548 0.25236276911819511 0 0.45602225988021539 0.23816249748875179 0 0.44600400848591359 0.23698591979390529 0 0.45602225988021539 0.23816249748875179 0 0.44600400848591359 0.23698591979390529 0 0.45492939023952461 0.2194397610932603 0 0.44600400848591359 0.23698591979390529 0 0.43790507610234408 0.2273079216372012 0 0.45492939023952461 0.2194397610932603 0 0.45602225988021539 0.23816249748875179 0 0.45492939023952461 0.2194397610932603 0 0.47419086539053962 0.2296972043723752 0 0.45492939023952461 0.2194397610932603 0 0.46072674134079361 0.19234021588846559 0 0.47847088324409548 0.2092058758105422 0 0.45492939023952461 0.2194397610932603 0 0.44140000057487638 0.20455834627575151 0 0.46072674134079361 0.19234021588846559 0 0.43790507610234408 0.2273079216372012 0 0.45492939023952461 0.2194397610932603 0 0.44140000057487638 0.20455834627575151 0 0.44140000057487638 0.20455834627575151 0 0.46072674134079361 0.19234021588846559 0 0.44473765559285833 0.18692520255949671 0 0.46072674134079361 0.19234021588846559 0 0.4812983336831132 0.1885899983914231 0 0.47847088324409548 0.2092058758105422 0 0.4812983336831132 0.1885899983914231 0 0.5 0.19797878532577309 0 0.47847088324409548 0.2092058758105422 0 0.5 0.19797878532577309 0 0.47847088324409548 0.2092058758105422 0 0.5 0.22793385045351919 0 0.47847088324409548 0.2092058758105422 0 0.47419086539053962 0.2296972043723752 0 0.5 0.22793385045351919 0 0.45492939023952461 0.2194397610932603 0 0.47847088324409548 0.2092058758105422 0 0.47419086539053962 0.2296972043723752 0 0.5 0.25788891558126559 0 0.5 0.22793385045351919 0 0.48180965237011408 0.2487438147612096 0 0.47419086539053962 0.2296972043723752 0 0.5 0.22793385045351919 0 0.48180965237011408 0.2487438147612096 0 0.45602225988021539 0.23816249748875179 0 0.47419086539053962 0.2296972043723752 0 0.48180965237011408 0.2487438147612096 0 0.46287167922105149 0.15545842773829099 0 0.44904083753606949 0.1441389705362057 0 0.45055708181009879 0.1690731760043504 0 0.46287167922105149 0.15545842773829099 0 0.46355845200513762 0.13850516077978961 0 0.47909635670674228 0.14767892477560191 0 0.46287167922105149 0.15545842773829099 0 0.46355845200513762 0.13850516077978961 0 0.44904083753606949 0.1441389705362057 0 0.46355845200513762 0.13850516077978961 0 0.47795750643906171 0.12649365297180731 0 0.4559740449914913 0.1245921335342187 0 0.46355845200513762 0.13850516077978961 0 0.44904083753606949 0.1441389705362057 0 0.4559740449914913 0.1245921335342187 0 0.43054248402473921 0.1250848439374013 0 0.44904083753606949 0.1441389705362057 0 0.4559740449914913 0.1245921335342187 0 0.42972130682252457 0.1533439082518103 0 0.44904083753606949 0.1441389705362057 0 0.45055708181009879 0.1690731760043504 0 0.42626679864566441 0.18172907206941921 0 0.45055708181009879 0.1690731760043504 0 0.44473765559285833 0.18692520255949671 0 0.46072674134079361 0.19234021588846559 0 0.45055708181009879 0.1690731760043504 0 0.44473765559285833 0.18692520255949671 0 0.46072674134079361 0.19234021588846559 0 0.45055708181009879 0.1690731760043504 0 0.4752785409050499 0.1685484481011886 0 0.46287167922105149 0.15545842773829099 0 0.45055708181009879 0.1690731760043504 0 0.4752785409050499 0.1685484481011886 0 0.45055708181009879 0.1690731760043504 0 0.4752785409050499 0.1685484481011886 0 0.46287167922105149 0.15545842773829099 0 0.4752785409050499 0.1685484481011886 0 0.47909635670674228 0.14767892477560191 0 0.46072674134079361 0.19234021588846559 0 0.4812983336831132 0.1885899983914231 0 0.4752785409050499 0.1685484481011886 0 0.4812983336831132 0.1885899983914231 0 0.4752785409050499 0.1685484481011886 0 0.50000000000000111 0.1680237201980268 0 0.4812983336831132 0.1885899983914231 0 0.5 0.19797878532577309 0 0.50000000000000111 0.1680237201980268 0 0.4752785409050499 0.1685484481011886 0 0.50000000000000111 0.1680237201980268 0 0.4752785409050499 0.1685484481011886 0 0.50000000000000111 0.1680237201980268 0 0.47909635670674228 0.14767892477560191 0 0.50000000000000111 0.1680237201980268 0 0.5 0.14405257421324749 0 0.47909635670674228 0.14767892477560191 0 0.46355845200513762 0.13850516077978961 0 0.47909635670674228 0.14767892477560191 0 0.47795750643906171 0.12649365297180731 0 0.5 0.14405257421324749 0 0.47795750643906171 0.12649365297180731 0 0.5 0.12008142822846821 0 0.5 0.14405257421324749 0 0.47909635670674228 0.14767892477560191 0 0.47795750643906171 0.12649365297180731 0 0.47795750643906171 0.12649365297180731 0 0.5 0.12008142822846821 0 0.48437617198066579 0.1083096126220475 0 0.48437617198066579 0.1083096126220475 0 0.5 0.096110282243688894 0 0.4787628640296252 0.09057766153942011 0 0.5 0.12008142822846821 0 0.48437617198066579 0.1083096126220475 0 0.5 0.096110282243688894 0 0.48437617198066579 0.1083096126220475 0 0.4787628640296252 0.09057766153942011 0 0.46516048943464161 0.10828503812685281 0 0.47795750643906171 0.12649365297180731 0 0.48437617198066579 0.1083096126220475 0 0.46516048943464161 0.10828503812685281 0 0.49999999999999389 0.072139136258909636 0 0.47264706529987838 0.068582714068275596 0 0.5 0.096110282243688894 0 0.49999999999999389 0.072139136258909636 0 0.4787628640296252 0.09057766153942011 0 0.49999999999999389 0.072139136258909636 0 0.4787628640296252 0.09057766153942011 0 0.47264706529987838 0.068582714068275596 0 0.47264706529987838 0.068582714068275596 0 0.44529413059976319 0.065026291877640793 0 0.47264706529987838 0.068582714068275596 0 0.45009241250792742 0.089848104882156193 0 0.44529413059976319 0.065026291877640793 0 0.4787628640296252 0.09057766153942011 0 0.47264706529987838 0.068582714068275596 0 0.45009241250792742 0.089848104882156193 0 0.45009241250792742 0.089848104882156193 0 0.44529413059976319 0.065026291877640793 0 0.42710943965072512 0.080764761008918995 0 0.4559740449914913 0.1245921335342187 0 0.46516048943464161 0.10828503812685281 0 0.44660059903698529 0.1095612823054605 0 0.47795750643906171 0.12649365297180731 0 0.4559740449914913 0.1245921335342187 0 0.46516048943464161 0.10828503812685281 0 0.45009241250792742 0.089848104882156193 0 0.46516048943464161 0.10828503812685281 0 0.44660059903698529 0.1095612823054605 0 0.4787628640296252 0.09057766153942011 0 0.45009241250792742 0.089848104882156193 0 0.46516048943464161 0.10828503812685281 0 0.45009241250792742 0.089848104882156193 0 0.44660059903698529 0.1095612823054605 0 0.42999027194599682 0.1018780191517587 0 0.43054248402473921 0.1250848439374013 0 0.4559740449914913 0.1245921335342187 0 0.44660059903698529 0.1095612823054605 0 0.43054248402473921 0.1250848439374013 0 0.44660059903698529 0.1095612823054605 0 0.42999027194599682 0.1018780191517587 0 0.43054248402473921 0.1250848439374013 0 0.41661501870526302 0.10782610780512 0 0.42999027194599682 0.1018780191517587 0 0.43054248402473921 0.1250848439374013 0 0.41135066019799099 0.1182158826350982 0 0.41661501870526302 0.10782610780512 0 0.43054248402473921 0.1250848439374013 0 0.41135066019799099 0.1182158826350982 0 0.41135066019799099 0.1182158826350982 0 0.41661501870526302 0.10782610780512 0 0.40605193543095291 0.1101899923625959 0 0.41199731756477831 0.13352747615702071 0 0.40856435551682457 0.1195913393650266 0 0.41135066019799099 0.1182158826350982 0 0.41661501870526302 0.10782610780512 0 0.42999027194599682 0.1018780191517587 0 0.41050144950628809 0.092342992232264526 0 0.41661501870526302 0.10782610780512 0 0.41050144950628809 0.092342992232264526 0 0.40408322644931421 0.10337105767737099 0 0.41661501870526302 0.10782610780512 0 0.40605193543095291 0.1101899923625959 0 0.40408322644931421 0.10337105767737099 0 0.45009241250792742 0.089848104882156193 0 0.42999027194599682 0.1018780191517587 0 0.42710943965072512 0.080764761008918995 0 0.42999027194599682 0.1018780191517587 0 0.42710943965072512 0.080764761008918995 0 0.41050144950628809 0.092342992232264526 0 0.44529413059976319 0.065026291877640793 0 0.42710943965072512 0.080764761008918995 0 0.41794119589964812 0.061469869687005997 0 0.44529413059976319 0.065026291877640793 0 0.41794119589964812 0.061469869687005997 0 0.42710943965072512 0.080764761008918995 0 0.40780427562880051 0.074340584248736047 0 0.41794119589964812 0.061469869687005997 0 0.42710943965072512 0.080764761008918995 0 0.40780427562880051 0.074340584248736047 0 0.41050144950628809 0.092342992232264526 0 0.41050144950628809 0.092342992232264526 0 0.39288103188780799 0.079211850819119467 0 0.39173805803946632 0.094638931286680023 0 0.40780427562880051 0.074340584248736047 0 0.41050144950628809 0.092342992232264526 0 0.39288103188780799 0.079211850819119467 0 0.40780427562880051 0.074340584248736047 0 0.39058826119953283 0.057913447496371839 0 0.41794119589964812 0.061469869687005997 0 0.40780427562880051 0.074340584248736047 0 0.39288103188780799 0.079211850819119467 0 0.39058826119953283 0.057913447496371839 0 0.39288103188780799 0.079211850819119467 0 0.37575225644292037 0.071709270247263784 0 0.39058826119953283 0.057913447496371839 0 0.3742009225581896 0.091268948227223284 0 0.39288103188780799 0.079211850819119467 0 0.39173805803946632 0.094638931286680023 0 0.3742009225581896 0.091268948227223284 0 0.39288103188780799 0.079211850819119467 0 0.37575225644292037 0.071709270247263784 0 0.3742009225581896 0.091268948227223284 0 0.39215883637124299 0.11134692133279479 0 0.39173805803946632 0.094638931286680023 0 0.3742009225581896 0.091268948227223284 0 0.39215883637124299 0.11134692133279479 0 0.3742009225581896 0.091268948227223284 0 0.3795225325030368 0.1068242515199407 0 0.39215883637124299 0.11134692133279479 0 0.3795225325030368 0.1068242515199407 0 0.39215883637124299 0.11134692133279479 0 0.3795225325030368 0.1068242515199407 0 0.38138511069115272 0.12353481432135879 0 0.3942733283070321 0.11371104406223111 0 0.36649271172908648 0.1176987398754743 0 0.3795225325030368 0.1068242515199407 0 0.38138511069115272 0.12353481432135879 0 0.39421974672685411 0.13240309148155921 0 0.38138511069115272 0.12353481432135879 0 0.3942733283070321 0.11371104406223111 0 0.3795225325030368 0.1068242515199407 0 0.3942733283070321 0.11371104406223111 0 0.3795225325030368 0.1068242515199407 0 0.39215883637124299 0.11134692133279479 0 0.3942733283070321 0.11371104406223111 0 0.41135066019799099 0.1182158826350982 0 0.39215883637124299 0.11134692133279479 0 0.40605193543095291 0.1101899923625959 0 0.41135066019799099 0.1182158826350982 0 0.39215883637124299 0.11134692133279479 0 0.3942733283070321 0.11371104406223111 0 0.41135066019799099 0.1182158826350982 0 0.39215883637124299 0.11134692133279479 0 0.41199731756477831 0.13352747615702071 0 0.40856435551682457 0.1195913393650266 0 0.3942733283070321 0.11371104406223111 0 0.41199731756477831 0.13352747615702071 0 0.3942733283070321 0.11371104406223111 0 0.40856435551682457 0.1195913393650266 0 0.41135066019799099 0.1182158826350982 0 0.3942733283070321 0.11371104406223111 0 0.39215883637124299 0.11134692133279479 0 0.3942733283070321 0.11371104406223111 0 0.40856435551682457 0.1195913393650266 0 0.3942733283070321 0.11371104406223111 0 0.39215883637124299 0.11134692133279479 0 0.40408322644931421 0.10337105767737099 0 0.39173805803946632 0.094638931286680023 0 0.39215883637124299 0.11134692133279479 0 0.40605193543095291 0.1101899923625959 0 0.40408322644931421 0.10337105767737099 0 0.41050144950628809 0.092342992232264526 0 0.40408322644931421 0.10337105767737099 0 0.39173805803946632 0.094638931286680023 0 0.4038432128890253 0.016274120358417851 0 0.39452024459155199 0.029629145094844 0 0.3798040161112804 0.028996110171619349 0 0.4038432128890253 0.016274120358417851 0 0.39452024459155199 0.029629145094844 0 0.40714332068978548 0.032011032787191827 0 0.4038432128890253 0.016274120358417851 0 0.3798040161112804 0.028996110171619349 0 0.4038432128890253 0.016274120358417851 0 0.39390920682105918 0.0040204267233196643 0 0.38813729234829519 0.016219836643301819 0 0.4038432128890253 0.016274120358417851 0 0.39390920682105918 0.0040204267233196643 0 0.40369857438468087 -0.0060371637805465179 0 0.39390920682105918 0.0040204267233196643 0 0.38212023564171321 0.001094655884648786 0 0.38813729234829519 0.016219836643301819 0 0.38212023564171321 0.001094655884648786 0 0.37537418671591988 0.012891754799621079 0 0.3700201466167648 -0.002195575246397889 0 0.38212023564171321 0.001094655884648786 0 0.37537418671591988 0.012891754799621079 0 0.38813729234829519 0.016219836643301819 0 0.38029426512156322 0.021339738828328979 0 0.38813729234829519 0.016219836643301819 0 0.3798040161112804 0.028996110171619349 0 0.4038432128890253 0.016274120358417851 0 0.38813729234829519 0.016219836643301819 0 0.3798040161112804 0.028996110171619349 0 0.37537418671591988 0.012891754799621079 0 0.38029426512156322 0.021339738828328979 0 0.37786156531075732 0.02725125369877367 0 0.37537418671591988 0.012891754799621079 0 0.38029426512156322 0.021339738828328979 0 0.38813729234829519 0.016219836643301819 0 0.39452024459155199 0.029629145094844 0 0.3798040161112804 0.028996110171619349 0 0.384792923869274 0.033192425096464057 0 0.38029426512156322 0.021339738828328979 0 0.3798040161112804 0.028996110171619349 0 0.37786156531075732 0.02725125369877367 0 0.36984281421283938 0.03924660656396721 0 0.3798040161112804 0.028996110171619349 0 0.37675727284589372 0.036323400775862158 0 0.3798040161112804 0.028996110171619349 0 0.38012370578730592 0.033949837724153123 0 0.37675727284589372 0.036323400775862158 0 0.3798040161112804 0.028996110171619349 0 0.38012370578730592 0.033949837724153123 0 0.384792923869274 0.033192425096464057 0 0.38012370578730592 0.033949837724153123 0 0.38115894465086869 0.037510150111343843 0 0.384792923869274 0.033192425096464057 0 0.38012370578730592 0.033949837724153123 0 0.38115894465086869 0.037510150111343843 0 0.37675727284589372 0.036323400775862158 0 0.38115894465086869 0.037510150111343843 0 0.37675727284589372 0.036323400775862158 0 0.37726993283737248 0.041439113600633092 0 0.37726993283737248 0.041439113600633092 0 0.38325871491723518 0.0441773091346798 0 0.37608467898805159 0.048096788967416412 0 0.38115894465086869 0.037510150111343843 0 0.37726993283737248 0.041439113600633092 0 0.38325871491723518 0.0441773091346798 0 0.38115894465086869 0.037510150111343843 0 0.38325871491723518 0.0441773091346798 0 0.38884635116990662 0.036871995634108659 0 0.38325871491723518 0.0441773091346798 0 0.38884635116990662 0.036871995634108659 0 0.39118926401298038 0.043344116461786472 0 0.39452024459155199 0.029629145094844 0 0.38884635116990662 0.036871995634108659 0 0.384792923869274 0.033192425096464057 0 0.38115894465086869 0.037510150111343843 0 0.38884635116990662 0.036871995634108659 0 0.384792923869274 0.033192425096464057 0 0.36737709041569239 0.056764699852256018 0 0.39058826119953283 0.057913447496371839 0 0.36443667806580698 0.054513224756226962 0 0.37608467898805159 0.048096788967416412 0 0.39058826119953283 0.057913447496371839 0 0.36737709041569239 0.056764699852256018 0 0.37575225644292037 0.071709270247263784 0 0.39058826119953283 0.057913447496371839 0 0.36443667806580698 0.054513224756226962 0 0.39058826119953283 0.057913447496371839 0 0.38325871491723518 0.0441773091346798 0 0.37608467898805159 0.048096788967416412 0 0.39058826119953283 0.057913447496371839 0 0.38325871491723518 0.0441773091346798 0 0.39058826119953283 0.057913447496371839 0 0.39118926401298038 0.043344116461786472 0 0.39058826119953283 0.057913447496371839 0 0.39917917489280202 0.048669550515315511 0 0.40824027372044169 0.058787065978875973 0 0.39058826119953283 0.057913447496371839 0 0.40824027372044169 0.058787065978875973 0 0.39058826119953283 0.057913447496371839 0 0.41794119589964812 0.061469869687005997 0 0.40824027372044169 0.058787065978875973 0 0.39058826119953283 0.057913447496371839 0 0.41794119589964812 0.061469869687005997 0 0.39058826119953283 0.057913447496371839 0 0.39917917489280202 0.048669550515315511 0 0.39118926401298038 0.043344116461786472 0 0.39917917489280202 0.048669550515315511 0 0.40803146459590139 0.044566129264659721 0 0.40824027372044169 0.058787065978875973 0 0.39452024459155199 0.029629145094844 0 0.38884635116990662 0.036871995634108659 0 0.39784661093515339 0.038736993374884177 0 0.39917917489280202 0.048669550515315511 0 0.39784661093515339 0.038736993374884177 0 0.39118926401298038 0.043344116461786472 0 0.38884635116990662 0.036871995634108659 0 0.39784661093515339 0.038736993374884177 0 0.39118926401298038 0.043344116461786472 0 0.39917917489280202 0.048669550515315511 0 0.39784661093515339 0.038736993374884177 0 0.40803146459590139 0.044566129264659721 0 0.39452024459155199 0.029629145094844 0 0.39784661093515339 0.038736993374884177 0 0.40714332068978548 0.032011032787191827 0 0.39784661093515339 0.038736993374884177 0 0.40714332068978548 0.032011032787191827 0 0.40803146459590139 0.044566129264659721 0 0.40714332068978548 0.032011032787191827 0 0.40803146459590139 0.044566129264659721 0 0.41964440497126981 0.040250358009145122 0 0.40803146459590139 0.044566129264659721 0 0.41964440497126981 0.040250358009145122 0 0.41733432138732551 0.050785193364838402 0 0.40714332068978548 0.032011032787191827 0 0.41964440497126981 0.040250358009145122 0 0.41891932927970088 0.026081136014491389 0 0.40824027372044169 0.058787065978875973 0 0.41733432138732551 0.050785193364838402 0 0.42589228624135061 0.059660684461379461 0 0.40824027372044169 0.058787065978875973 0 0.42589228624135061 0.059660684461379461 0 0.41794119589964812 0.061469869687005997 0 0.40824027372044169 0.058787065978875973 0 0.42589228624135061 0.059660684461379461 0 0.40803146459590139 0.044566129264659721 0 0.40824027372044169 0.058787065978875973 0 0.41733432138732551 0.050785193364838402 0 0.41964440497126981 0.040250358009145122 0 0.41733432138732551 0.050785193364838402 0 0.42647272639553008 0.050672874727357403 0 0.44529413059976319 0.065026291877640793 0 0.42589228624135061 0.059660684461379461 0 0.43583307009461808 0.053135938561971199 0 0.44529413059976319 0.065026291877640793 0 0.41794119589964812 0.061469869687005997 0 0.42589228624135061 0.059660684461379461 0 0.42589228624135061 0.059660684461379461 0 0.42647272639553008 0.050672874727357403 0 0.43583307009461808 0.053135938561971199 0 0.41733432138732551 0.050785193364838402 0 0.42589228624135061 0.059660684461379461 0 0.42647272639553008 0.050672874727357403 0 0.42647272639553008 0.050672874727357403 0 0.43583307009461808 0.053135938561971199 0 0.4340740022190257 0.043822740937536728 0 0.41964440497126981 0.040250358009145122 0 0.42987588244635011 0.033334548906864728 0 0.41891932927970088 0.026081136014491389 0 0.41964440497126981 0.040250358009145122 0 0.4340740022190257 0.043822740937536728 0 0.42987588244635011 0.033334548906864728 0 0.41964440497126981 0.040250358009145122 0 0.42647272639553008 0.050672874727357403 0 0.4340740022190257 0.043822740937536728 0 0.4340740022190257 0.043822740937536728 0 0.42987588244635011 0.033334548906864728 0 0.44528176508543132 0.032905620831071007 0 0.42987588244635011 0.033334548906864728 0 0.43184963590009789 0.021236349906575389 0 0.44528176508543132 0.032905620831071007 0 0.43184963590009789 0.021236349906575389 0 0.42259879527057942 0.015927249454054739 0 0.43188165484739188 0.01287087804949661 0 0.43184963590009789 0.021236349906575389 0 0.42259879527057942 0.015927249454054739 0 0.41891932927970088 0.026081136014491389 0 0.42987588244635011 0.033334548906864728 0 0.43184963590009789 0.021236349906575389 0 0.41891932927970088 0.026081136014491389 0 0.4038432128890253 0.016274120358417851 0 0.42259879527057942 0.015927249454054739 0 0.41891932927970088 0.026081136014491389 0 0.4038432128890253 0.016274120358417851 0 0.40714332068978548 0.032011032787191827 0 0.41891932927970088 0.026081136014491389 0 0.4038432128890253 0.016274120358417851 0 0.41402040698134779 -0.0025911497673051101 0 0.40369857438468087 -0.0060371637805465179 0 0.4038432128890253 0.016274120358417851 0 0.42788240966677021 0.003552130545216341 0 0.4038432128890253 0.016274120358417851 0 0.42101935538117791 0.0050386314779034547 0 0.41402040698134779 -0.0025911497673051101 0 0.4038432128890253 0.016274120358417851 0 0.42259879527057942 0.015927249454054739 0 0.42788240966677021 0.003552130545216341 0 0.4038432128890253 0.016274120358417851 0 0.42101935538117791 0.0050386314779034547 0 0.42788240966677021 0.003552130545216341 0 0.42788240966677021 0.003552130545216341 0 0.43188165484739188 0.01287087804949661 0 0.44740740452026229 0.01137317045841814 0 0.42259879527057942 0.015927249454054739 0 0.42788240966677021 0.003552130545216341 0 0.43188165484739188 0.01287087804949661 0 0.43184963590009789 0.021236349906575389 0 0.43188165484739188 0.01287087804949661 0 0.44740740452026229 0.01137317045841814 0 0.42788240966677021 0.003552130545216341 0 0.44740740452026229 0.01137317045841814 0 0.45192160644451512 -0.0091698592679851504 0 0.43184963590009789 0.021236349906575389 0 0.44740740452026229 0.01137317045841814 0 0.44528176508543132 0.032905620831071007 0 0.44740740452026229 0.01137317045841814 0 0.44528176508543132 0.032905620831071007 0 0.46875558315454652 0.02621282055229885 0 0.44740740452026229 0.01137317045841814 0 0.4740075662235973 0.0028935560396234419 0 0.46875558315454652 0.02621282055229885 0 0.44740740452026229 0.01137317045841814 0 0.4740075662235973 0.0028935560396234419 0 0.45192160644451512 -0.0091698592679851504 0 0.44529413059976319 0.065026291877640793 0 0.44587589901867808 0.047550444472131762 0 0.4614262583005877 0.04791767975015173 0 0.44529413059976319 0.065026291877640793 0 0.43583307009461808 0.053135938561971199 0 0.44587589901867808 0.047550444472131762 0 0.43583307009461808 0.053135938561971199 0 0.4340740022190257 0.043822740937536728 0 0.44587589901867808 0.047550444472131762 0 0.44587589901867808 0.047550444472131762 0 0.44528176508543132 0.032905620831071007 0 0.4614262583005877 0.04791767975015173 0 0.4340740022190257 0.043822740937536728 0 0.44587589901867808 0.047550444472131762 0 0.44528176508543132 0.032905620831071007 0 0.44528176508543132 0.032905620831071007 0 0.4614262583005877 0.04791767975015173 0 0.46875558315454652 0.02621282055229885 0 0.47264706529987838 0.068582714068275596 0 0.44529413059976319 0.065026291877640793 0 0.4614262583005877 0.04791767975015173 0 0.47264706529987838 0.068582714068275596 0 0.4614262583005877 0.04791767975015173 0 0.48053199367993171 0.043851827509569327 0 0.4614262583005877 0.04791767975015173 0 0.48053199367993171 0.043851827509569327 0 0.46875558315454652 0.02621282055229885 0 0.48053199367993171 0.043851827509569327 0 0.5 0.04545089247058498 0 0.5 0.018762648682260189 0 0.49999999999999389 0.072139136258909636 0 0.47264706529987838 0.068582714068275596 0 0.48053199367993171 0.043851827509569327 0 0.49999999999999389 0.072139136258909636 0 0.48053199367993171 0.043851827509569327 0 0.5 0.04545089247058498 0 0.48053199367993171 0.043851827509569327 0 0.46875558315454652 0.02621282055229885 0 0.5 0.018762648682260189 0 0.4740075662235973 0.0028935560396234419 0 0.46875558315454652 0.02621282055229885 0 0.5 0.018762648682260189 0 0.4740075662235973 0.0028935560396234419 0 0.5 0.018762648682260189 0 0.5 -0.0079255951060647756 0 0.4740075662235973 0.0028935560396234419 0 0.5 -0.0079255951060647756 0 0.47596080322225992 -0.02189184908118659 0 0.47596080322225992 -0.02189184908118659 0 0.50000000000000377 -0.034613838894389633 0 0.5 -0.0079255951060647756 0 0.47596080322225992 -0.02189184908118659 0 0.50000000000000377 -0.034613838894389633 0 0.47596080322225992 -0.02189184908118659 0 0.50000000000000377 -0.034613838894389633 0 0.48339532061042467 -0.042675677639817791 0 0.50000000000000377 -0.034613838894389633 0 0.5 -0.052291970509826757 0 0.48339532061042467 -0.042675677639817791 0 0.5 -0.052291970509826757 0 0.48378938215607542 -0.060491629721736481 0 0.49999999999999678 -0.069970102125263903 0 0.5 -0.052291970509826757 0 0.48378938215607542 -0.060491629721736481 0 0.48339532061042467 -0.042675677639817791 0 0.48378938215607542 -0.060491629721736481 0 0.47035919737641452 -0.05083356829212015 0 0.48339532061042467 -0.042675677639817791 0 0.48378938215607542 -0.060491629721736481 0 0.47035919737641452 -0.05083356829212015 0 0.46263532094350251 -0.0655193079319734 0 0.47596080322225992 -0.02189184908118659 0 0.48339532061042467 -0.042675677639817791 0 0.46122373864745198 -0.034064038759572521 0 0.47035919737641452 -0.05083356829212015 0 0.48339532061042467 -0.042675677639817791 0 0.46122373864745198 -0.034064038759572521 0 0.46122373864745198 -0.034064038759572521 0 0.45641225836005789 -0.05051217933658872 0 0.44483042593949818 -0.041063070916932051 0 0.47035919737641452 -0.05083356829212015 0 0.46122373864745198 -0.034064038759572521 0 0.45641225836005789 -0.05051217933658872 0 0.45641225836005789 -0.05051217933658872 0 0.44526353314296241 -0.062107813217869068 0 0.46263532094350251 -0.0655193079319734 0 0.47035919737641452 -0.05083356829212015 0 0.45641225836005789 -0.05051217933658872 0 0.46263532094350251 -0.0655193079319734 0 0.45641225836005789 -0.05051217933658872 0 0.44526353314296241 -0.062107813217869068 0 0.44483042593949818 -0.041063070916932051 0 0.44526353314296241 -0.062107813217869068 0 0.44483042593949818 -0.041063070916932051 0 0.42768193525564641 -0.052738548234870043 0 0.46122373864745198 -0.034064038759572521 0 0.44483042593949818 -0.041063070916932051 0 0.44260817666721519 -0.025216613737701819 0 0.44483042593949818 -0.041063070916932051 0 0.44260817666721519 -0.025216613737701819 0 0.43454865465473302 -0.032105158367880783 0 0.46122373864745198 -0.034064038759572521 0 0.44260817666721519 -0.025216613737701819 0 0.45192160644451512 -0.0091698592679851504 0 0.42788240966677021 0.003552130545216341 0 0.45192160644451512 -0.0091698592679851504 0 0.44260817666721519 -0.025216613737701819 0 0.45192160644451512 -0.0091698592679851504 0 0.43543049063324413 -0.012350052332502739 0 0.42788240966677021 0.003552130545216341 0 0.45192160644451512 -0.0091698592679851504 0 0.43543049063324413 -0.012350052332502739 0 0.4740075662235973 0.0028935560396234419 0 0.47596080322225992 -0.02189184908118659 0 0.45192160644451512 -0.0091698592679851504 0 0.47596080322225992 -0.02189184908118659 0 0.45192160644451512 -0.0091698592679851504 0 0.47596080322225992 -0.02189184908118659 0 0.46122373864745198 -0.034064038759572521 0 0.45192160644451512 -0.0091698592679851504 0 0.47621403880257929 -0.099362679963144546 0 0.45825176112352212 -0.1171944005084963 0 0.47461064769812122 -0.12772964805397971 0 0.50000000000000433 -0.1143432737178363 0 0.47621403880257929 -0.099362679963144546 0 0.47461064769812122 -0.12772964805397971 0 0.50000000000000433 -0.1143432737178363 0 0.47461064769812122 -0.12772964805397971 0 0.49999999999998102 -0.1000967699598443 0 0.47621403880257929 -0.099362679963144546 0 0.49999999999998102 -0.1000967699598443 0 0.47621403880257929 -0.099362679963144546 0 0.48785951469139027 -0.086657123706384981 0 0.50000000000000433 -0.1143432737178363 0 0.49999999999998102 -0.1000967699598443 0 0.47621403880257929 -0.099362679963144546 0 0.47621403880257929 -0.099362679963144546 0 0.48785951469139027 -0.086657123706384981 0 0.47522401996300467 -0.077198942777287505 0 0.47621403880257929 -0.099362679963144546 0 0.47522401996300467 -0.077198942777287505 0 0.46460819440086443 -0.0896918568577834 0 0.49999999999998102 -0.1000967699598443 0 0.48785951469139027 -0.086657123706384981 0 0.49999999999999678 -0.069970102125263903 0 0.49999999999999678 -0.069970102125263903 0 0.47522401996300467 -0.077198942777287505 0 0.48785951469139027 -0.086657123706384981 0 0.49999999999999678 -0.069970102125263903 0 0.47522401996300467 -0.077198942777287505 0 0.48378938215607542 -0.060491629721736481 0 0.49999999999999678 -0.069970102125263903 0 0.47522401996300467 -0.077198942777287505 0 0.48378938215607542 -0.060491629721736481 0 0.47522401996300467 -0.077198942777287505 0 0.46263532094350251 -0.0655193079319734 0 0.47522401996300467 -0.077198942777287505 0 0.46263532094350251 -0.0655193079319734 0 0.4504480399260129 -0.084427783429311939 0 0.44526353314296241 -0.062107813217869068 0 0.46263532094350251 -0.0655193079319734 0 0.4504480399260129 -0.084427783429311939 0 0.44526353314296241 -0.062107813217869068 0 0.4504480399260129 -0.084427783429311939 0 0.43069868055782679 -0.078899440675300136 0 0.4504480399260129 -0.084427783429311939 0 0.45242807760517778 -0.098628589966444233 0 0.42864211640777627 -0.097894499969741214 0 0.4504480399260129 -0.084427783429311939 0 0.42567205988902129 -0.091656624081337568 0 0.47522401996300467 -0.077198942777287505 0 0.4504480399260129 -0.084427783429311939 0 0.47522401996300467 -0.077198942777287505 0 0.4504480399260129 -0.084427783429311939 0 0.46460819440086443 -0.0896918568577834 0 0.4504480399260129 -0.084427783429311939 0 0.46460819440086443 -0.0896918568577834 0 0.45242807760517778 -0.098628589966444233 0 0.47621403880257929 -0.099362679963144546 0 0.45242807760517778 -0.098628589966444233 0 0.45825176112352212 -0.1171944005084963 0 0.47621403880257929 -0.099362679963144546 0 0.45242807760517778 -0.098628589966444233 0 0.47621403880257929 -0.099362679963144546 0 0.46460819440086443 -0.0896918568577834 0 0.45242807760517778 -0.098628589966444233 0 0.45242807760517778 -0.098628589966444233 0 0.42864211640777627 -0.097894499969741214 0 0.45242807760517778 -0.098628589966444233 0 0.43893170590200609 -0.1195052611799315 0 0.42864211640777627 -0.097894499969741214 0 0.45242807760517778 -0.098628589966444233 0 0.43893170590200609 -0.1195052611799315 0 0.45825176112352212 -0.1171944005084963 0 0.42080162445294911 -0.1170697999396166 0 0.40604313277712428 -0.1171380761358455 0 0.41368108829086198 -0.13554811058748131 0 0.42080162445294911 -0.1170697999396166 0 0.40662173914453831 -0.097214899993173481 0 0.40604313277712428 -0.1171380761358455 0 0.43893170590200609 -0.1195052611799315 0 0.42080162445294911 -0.1170697999396166 0 0.430889964195386 -0.135117951771525 0 0.43893170590200609 -0.1195052611799315 0 0.42080162445294911 -0.1170697999396166 0 0.42864211640777627 -0.097894499969741214 0 0.43893170590200609 -0.1195052611799315 0 0.42864211640777627 -0.097894499969741214 0 0.42864211640777627 -0.097894499969741214 0 0.42567205988902129 -0.091656624081337568 0 0.42864211640777627 -0.097894499969741214 0 0.40662173914453831 -0.097214899993173481 0 0.42567205988902129 -0.091656624081337568 0 0.42080162445294911 -0.1170697999396166 0 0.42864211640777627 -0.097894499969741214 0 0.40662173914453831 -0.097214899993173481 0 0.42864211640777627 -0.097894499969741214 0 0.40662173914453831 -0.097214899993173481 0 0.40662173914453831 -0.097214899993173481 0 0.42567205988902129 -0.091656624081337568 0 0.40662173914453831 -0.097214899993173481 0 0.41829766411352998 -0.087706900461061957 0 0.42567205988902129 -0.091656624081337568 0 0.40662173914453831 -0.097214899993173481 0 0.41020628866808312 -0.08357079425946129 0 0.41829766411352998 -0.087706900461061957 0 0.41020628866808312 -0.08357079425946129 0 0.42012861486432151 -0.07981881462850364 0 0.41094109939792961 -0.074512111623280808 0 0.41020628866808312 -0.08357079425946129 0 0.41094109939792961 -0.074512111623280808 0 0.40556094342569721 -0.078918860306745137 0 0.41020628866808312 -0.08357079425946129 0 0.42012861486432151 -0.07981881462850364 0 0.41829766411352998 -0.087706900461061957 0 0.42012861486432151 -0.07981881462850364 0 0.41829766411352998 -0.087706900461061957 0 0.42254342745458301 -0.084546146485576762 0 0.41829766411352998 -0.087706900461061957 0 0.42461385466063262 -0.08943412331831832 0 0.42254342745458301 -0.084546146485576762 0 0.42567205988902129 -0.091656624081337568 0 0.42461385466063262 -0.08943412331831832 0 0.43069868055782679 -0.078899440675300136 0 0.4504480399260129 -0.084427783429311939 0 0.42567205988902129 -0.091656624081337568 0 0.43069868055782679 -0.078899440675300136 0 0.4504480399260129 -0.084427783429311939 0 0.42864211640777627 -0.097894499969741214 0 0.42567205988902129 -0.091656624081337568 0 0.42567205988902129 -0.091656624081337568 0 0.42461385466063262 -0.08943412331831832 0 0.41829766411352998 -0.087706900461061957 0 0.42567205988902129 -0.091656624081337568 0 0.42461385466063262 -0.08943412331831832 0 0.42012861486432151 -0.07981881462850364 0 0.43069868055782679 -0.078899440675300136 0 0.42254342745458301 -0.084546146485576762 0 0.42461385466063262 -0.08943412331831832 0 0.43069868055782679 -0.078899440675300136 0 0.42254342745458301 -0.084546146485576762 0 0.43069868055782679 -0.078899440675300136 0 0.42085386234523608 -0.065266903626460593 0 0.41911482919747139 -0.073234494934215744 0 0.43069868055782679 -0.078899440675300136 0 0.42085386234523608 -0.065266903626460593 0 0.42768193525564641 -0.052738548234870043 0 0.44526353314296241 -0.062107813217869068 0 0.43069868055782679 -0.078899440675300136 0 0.42768193525564641 -0.052738548234870043 0 0.43069868055782679 -0.078899440675300136 0 0.42768193525564641 -0.052738548234870043 0 0.42012861486432151 -0.07981881462850364 0 0.43069868055782679 -0.078899440675300136 0 0.41911482919747139 -0.073234494934215744 0 0.42085386234523608 -0.065266903626460593 0 0.41911482919747139 -0.073234494934215744 0 0.41247118756252621 -0.068972059658544485 0 0.41911482919747139 -0.073234494934215744 0 0.41094109939792961 -0.074512111623280808 0 0.41247118756252621 -0.068972059658544485 0 0.42012861486432151 -0.07981881462850364 0 0.41911482919747139 -0.073234494934215744 0 0.41094109939792961 -0.074512111623280808 0 0.41094109939792961 -0.074512111623280808 0 0.41247118756252621 -0.068972059658544485 0 0.40519344017519737 -0.069697512887539489 0 0.42085386234523608 -0.065266903626460593 0 0.41247118756252621 -0.068972059658544485 0 0.40625270669679608 -0.06214927522122575 0 0.41247118756252621 -0.068972059658544485 0 0.40519344017519737 -0.069697512887539489 0 0.40625270669679608 -0.06214927522122575 0 0.40519344017519737 -0.069697512887539489 0 0.3909339432522656 -0.07145852807871525 0 0.40625270669679608 -0.06214927522122575 0 0.41094109939792961 -0.074512111623280808 0 0.40094221169150912 -0.074554002884685597 0 0.40556094342569721 -0.078918860306745137 0 0.40519344017519737 -0.069697512887539489 0 0.40094221169150912 -0.074554002884685597 0 0.3909339432522656 -0.07145852807871525 0 0.41094109939792961 -0.074512111623280808 0 0.40519344017519737 -0.069697512887539489 0 0.40094221169150912 -0.074554002884685597 0 0.40094221169150912 -0.074554002884685597 0 0.3909339432522656 -0.07145852807871525 0 0.39616481607021642 -0.077435810443283751 0 0.3909339432522656 -0.07145852807871525 0 0.39616481607021642 -0.077435810443283751 0 0.39262893539182381 -0.080692178350181262 0 0.39181446083091098 -0.066763706552935329 0 0.38421934743036401 -0.068446750892908373 0 0.38398729378694407 -0.058429379279077209 0 0.38421934743036401 -0.068446750892908373 0 0.37813424473731178 -0.068262582352726586 0 0.38398729378694407 -0.058429379279077209 0 0.37813424473731178 -0.068262582352726586 0 0.38294139036628899 -0.080331335386894381 0 0.37353404377441052 -0.075370636612477671 0 0.38421934743036401 -0.068446750892908373 0 0.37813424473731178 -0.068262582352726586 0 0.38294139036628899 -0.080331335386894381 0 0.39181446083091098 -0.066763706552935329 0 0.38294139036628899 -0.080331335386894381 0 0.39181446083091098 -0.066763706552935329 0 0.38421934743036401 -0.068446750892908373 0 0.38294139036628899 -0.080331335386894381 0 0.3909339432522656 -0.07145852807871525 0 0.39181446083091098 -0.066763706552935329 0 0.38294139036628899 -0.080331335386894381 0 0.38598565568847482 -0.085166122563822014 0 0.39289996883908601 -0.089154852807517448 0 0.39262893539182381 -0.080692178350181262 0 0.3909339432522656 -0.07145852807871525 0 0.38598565568847482 -0.085166122563822014 0 0.39262893539182381 -0.080692178350181262 0 0.3909339432522656 -0.07145852807871525 0 0.37406831990166722 -0.093898964220853504 0 0.3909339432522656 -0.07145852807871525 0 0.38598565568847482 -0.085166122563822014 0 0.37406831990166722 -0.093898964220853504 0 0.3909339432522656 -0.07145852807871525 0 0.38294139036628899 -0.080331335386894381 0 0.37406831990166722 -0.093898964220853504 0 0.38294139036628899 -0.080331335386894381 0 0.37406831990166722 -0.093898964220853504 0 0.38598565568847482 -0.085166122563822014 0 0.38240509603332101 -0.092127683864182172 0 0.37406831990166722 -0.093898964220853504 0 0.38240509603332101 -0.092127683864182172 0 0.39289996883908601 -0.089154852807517448 0 0.38960421283109031 -0.096689699614190994 0 0.38598565568847482 -0.085166122563822014 0 0.38240509603332101 -0.092127683864182172 0 0.39289996883908601 -0.089154852807517448 0 0.39289996883908601 -0.089154852807517448 0 0.39262893539182381 -0.080692178350181262 0 0.40015417394526698 -0.083038532459552866 0 0.39616481607021642 -0.077435810443283751 0 0.39262893539182381 -0.080692178350181262 0 0.40015417394526698 -0.083038532459552866 0 0.40094221169150912 -0.074554002884685597 0 0.40556094342569721 -0.078918860306745137 0 0.40015417394526698 -0.083038532459552866 0 0.40094221169150912 -0.074554002884685597 0 0.39616481607021642 -0.077435810443283751 0 0.40015417394526698 -0.083038532459552866 0 0.41020628866808312 -0.08357079425946129 0 0.40556094342569721 -0.078918860306745137 0 0.40015417394526698 -0.083038532459552866 0 0.40662173914453831 -0.097214899993173481 0 0.39289996883908601 -0.089154852807517448 0 0.40015417394526698 -0.083038532459552866 0 0.40662173914453831 -0.097214899993173481 0 0.41020628866808312 -0.08357079425946129 0 0.40015417394526698 -0.083038532459552866 0 0.40662173914453831 -0.097214899993173481 0 0.3851668720105898 -0.10347474583943909 0 0.38960421283109031 -0.096689699614190994 0 0.40662173914453831 -0.097214899993173481 0 0.3851668720105898 -0.10347474583943909 0 0.40662173914453831 -0.097214899993173481 0 0.39289996883908601 -0.089154852807517448 0 0.38960421283109031 -0.096689699614190994 0 0.40662173914453831 -0.097214899993173481 0 0.38960421283109031 -0.096689699614190994 0 0.40662173914453831 -0.097214899993173481 0 0.3851668720105898 -0.10347474583943909 0 0.39374350655696688 -0.1137959578468639 0 0.38960421283109031 -0.096689699614190994 0 0.37237061700676077 -0.09615783082836224 0 0.3851668720105898 -0.10347474583943909 0 0.38960421283109031 -0.096689699614190994 0 0.37237061700676077 -0.09615783082836224 0 0.38240509603332101 -0.092127683864182172 0 0.38960421283109031 -0.096689699614190994 0 0.37237061700676077 -0.09615783082836224 0 0.38240509603332101 -0.092127683864182172 0 0.37406831990166722 -0.093898964220853504 0 0.37237061700676077 -0.09615783082836224 0 0.3785150876385216 -0.1195111518185689 0 0.39374350655696688 -0.1137959578468639 0 0.39237070121405998 -0.13164091544729051 0 0.3851668720105898 -0.10347474583943909 0 0.3785150876385216 -0.1195111518185689 0 0.36371200487664068 -0.10973459168570281 0 0.3851668720105898 -0.10347474583943909 0 0.3785150876385216 -0.1195111518185689 0 0.39374350655696688 -0.1137959578468639 0 0.40662173914453831 -0.097214899993173481 0 0.39374350655696688 -0.1137959578468639 0 0.40604313277712428 -0.1171380761358455 0 0.39374350655696688 -0.1137959578468639 0 0.40604313277712428 -0.1171380761358455 0 0.39237070121405998 -0.13164091544729051 0 0.41728163952739061 -0.019334187549187701 0 0.42284227266732188 -0.010769512158268201 0 0.42466518995346408 -0.026577655794440151 0 0.41728163952739061 -0.019334187549187701 0 0.41227128108974659 -0.029924501558089681 0 0.42466518995346408 -0.026577655794440151 0 0.41227128108974659 -0.029924501558089681 0 0.40863720631140932 -0.019892986955346081 0 0.40014031603924488 -0.033106741091830219 0 0.41728163952739061 -0.019334187549187701 0 0.41227128108974659 -0.029924501558089681 0 0.40863720631140932 -0.019892986955346081 0 0.41728163952739061 -0.019334187549187701 0 0.40863720631140932 -0.019892986955346081 0 0.41436166681859882 -0.01226683791037885 0 0.40863720631140932 -0.019892986955346081 0 0.41436166681859882 -0.01226683791037885 0 0.40369857438468087 -0.0060371637805465179 0 0.42101935538117791 0.0050386314779034547 0 0.41402040698134779 -0.0025911497673051101 0 0.42284227266732188 -0.010769512158268201 0 0.41402040698134779 -0.0025911497673051101 0 0.41436166681859882 -0.01226683791037885 0 0.40369857438468087 -0.0060371637805465179 0 0.41402040698134779 -0.0025911497673051101 0 0.41436166681859882 -0.01226683791037885 0 0.42284227266732188 -0.010769512158268201 0 0.41728163952739061 -0.019334187549187701 0 0.41436166681859882 -0.01226683791037885 0 0.42284227266732188 -0.010769512158268201 0 0.42284227266732188 -0.010769512158268201 0 0.43543049063324413 -0.012350052332502739 0 0.42769414368384923 -0.02254750278133769 0 0.42101935538117791 0.0050386314779034547 0 0.42284227266732188 -0.010769512158268201 0 0.42101935538117791 0.0050386314779034547 0 0.42788240966677021 0.003552130545216341 0 0.42284227266732188 -0.010769512158268201 0 0.42788240966677021 0.003552130545216341 0 0.42284227266732188 -0.010769512158268201 0 0.43543049063324413 -0.012350052332502739 0 0.42284227266732188 -0.010769512158268201 0 0.42466518995346408 -0.026577655794440151 0 0.42284227266732188 -0.010769512158268201 0 0.42769414368384923 -0.02254750278133769 0 0.42466518995346408 -0.026577655794440151 0 0.44260817666721519 -0.025216613737701819 0 0.43543049063324413 -0.012350052332502739 0 0.42769414368384923 -0.02254750278133769 0 0.42769414368384923 -0.02254750278133769 0 0.42466518995346408 -0.026577655794440151 0 0.43454865465473302 -0.032105158367880783 0 0.42769414368384923 -0.02254750278133769 0 0.42466518995346408 -0.026577655794440151 0 0.44260817666721519 -0.025216613737701819 0 0.42769414368384923 -0.02254750278133769 0 0.43454865465473302 -0.032105158367880783 0 0.42466518995346408 -0.026577655794440151 0 0.43454865465473302 -0.032105158367880783 0 0.42768193525564641 -0.052738548234870043 0 0.42466518995346408 -0.026577655794440151 0 0.42768193525564641 -0.052738548234870043 0 0.44483042593949818 -0.041063070916932051 0 0.43454865465473302 -0.032105158367880783 0 0.42768193525564641 -0.052738548234870043 0 0.42085386234523608 -0.065266903626460593 0 0.42768193525564641 -0.052738548234870043 0 0.40779956660286398 -0.049018091936576927 0 0.42085386234523608 -0.065266903626460593 0 0.40779956660286398 -0.049018091936576927 0 0.40625270669679608 -0.06214927522122575 0 0.42466518995346408 -0.026577655794440151 0 0.42768193525564641 -0.052738548234870043 0 0.40779956660286398 -0.049018091936576927 0 0.42466518995346408 -0.026577655794440151 0 0.40779956660286398 -0.049018091936576927 0 0.41227128108974659 -0.029924501558089681 0 0.42466518995346408 -0.026577655794440151 0 0.40779956660286398 -0.049018091936576927 0 0.41227128108974659 -0.029924501558089681 0 0.40779956660286398 -0.049018091936576927 0 0.40014031603924488 -0.033106741091830219 0 0.40779956660286398 -0.049018091936576927 0 0.40014031603924488 -0.033106741091830219 0 0.3912967176308087 -0.04756724484766426 0 0.40014031603924488 -0.033106741091830219 0 0.3912967176308087 -0.04756724484766426 0 0.38547037370043469 -0.032308846426106139 0 0.3909339432522656 -0.07145852807871525 0 0.40779956660286398 -0.049018091936576927 0 0.40625270669679608 -0.06214927522122575 0 0.3909339432522656 -0.07145852807871525 0 0.39181446083091098 -0.066763706552935329 0 0.40779956660286398 -0.049018091936576927 0 0.39181446083091098 -0.066763706552935329 0 0.40779956660286398 -0.049018091936576927 0 0.3912967176308087 -0.04756724484766426 0 0.3909339432522656 -0.07145852807871525 0 0.40779956660286398 -0.049018091936576927 0 0.3912967176308087 -0.04756724484766426 0 0.38398729378694407 -0.058429379279077209 0 0.37514153202862571 -0.045861082966856079 0 0.39181446083091098 -0.066763706552935329 0 0.3912967176308087 -0.04756724484766426 0 0.38398729378694407 -0.058429379279077209 0 0.38398729378694407 -0.058429379279077209 0 0.37514153202862571 -0.045861082966856079 0 0.37192531576168952 -0.05914395824800911 0 0.37813424473731178 -0.068262582352726586 0 0.38398729378694407 -0.058429379279077209 0 0.37192531576168952 -0.05914395824800911 0 0.3912967176308087 -0.04756724484766426 0 0.38547037370043469 -0.032308846426106139 0 0.37514153202862571 -0.045861082966856079 0 0.38547037370043469 -0.032308846426106139 0 0.37514153202862571 -0.045861082966856079 0 0.36877413775607049 -0.02995327657106206 0 0.38547037370043469 -0.032308846426106139 0 0.37927030083329177 -0.015743113788958679 0 0.36877413775607049 -0.02995327657106206 0 0.38547037370043469 -0.032308846426106139 0 0.37927030083329177 -0.015743113788958679 0 0.39536675090020662 -0.019928774827198261 0 0.40014031603924488 -0.033106741091830219 0 0.38547037370043469 -0.032308846426106139 0 0.39536675090020662 -0.019928774827198261 0 0.40863720631140932 -0.019892986955346081 0 0.40014031603924488 -0.033106741091830219 0 0.39536675090020662 -0.019928774827198261 0 0.40863720631140932 -0.019892986955346081 0 0.39536675090020662 -0.019928774827198261 0 0.40369857438468087 -0.0060371637805465179 0 0.39536675090020662 -0.019928774827198261 0 0.40369857438468087 -0.0060371637805465179 0 0.39174671884158141 -0.0074493154892236006 0 0.39390920682105918 0.0040204267233196643 0 0.40369857438468087 -0.0060371637805465179 0 0.39174671884158141 -0.0074493154892236006 0 0.38212023564171321 0.001094655884648786 0 0.37927030083329177 -0.015743113788958679 0 0.39174671884158141 -0.0074493154892236006 0 0.38212023564171321 0.001094655884648786 0 0.37927030083329177 -0.015743113788958679 0 0.3700201466167648 -0.002195575246397889 0 0.37927030083329177 -0.015743113788958679 0 0.39536675090020662 -0.019928774827198261 0 0.39174671884158141 -0.0074493154892236006 0 0.39390920682105918 0.0040204267233196643 0 0.38212023564171321 0.001094655884648786 0 0.39174671884158141 -0.0074493154892236006 0 0.35686418876597309 0.010252504770385159 0 0.3700201466167648 -0.002195575246397889 0 0.35727920934793722 -0.0129667368589869 0 0.37927030083329177 -0.015743113788958679 0 0.3700201466167648 -0.002195575246397889 0 0.35727920934793722 -0.0129667368589869 0 0.36877413775607049 -0.02995327657106206 0 0.35727920934793722 -0.0129667368589869 0 0.35227314840285812 -0.03152257084722427 0 0.37927030083329177 -0.015743113788958679 0 0.36877413775607049 -0.02995327657106206 0 0.35727920934793722 -0.0129667368589869 0 0.35727920934793722 -0.0129667368589869 0 0.33875503928457851 -0.02222753562310531 0 0.35227314840285812 -0.03152257084722427 0 0.35727920934793722 -0.0129667368589869 0 0.33586681222118892 -0.0067462441580033658 0 0.33875503928457851 -0.02222753562310531 0 0.35686418876597309 0.010252504770385159 0 0.35727920934793722 -0.0129667368589869 0 0.33586681222118892 -0.0067462441580033658 0 0.33586681222118892 -0.0067462441580033658 0 0.33875503928457851 -0.02222753562310531 0 0.31486943567640469 -0.023744993086391868 0 0.33875503928457851 -0.02222753562310531 0 0.31486943567640469 -0.023744993086391868 0 0.33348659077450338 -0.036157133164920148 0 0.33875503928457851 -0.02222753562310531 0 0.33348659077450338 -0.036157133164920148 0 0.35227314840285812 -0.03152257084722427 0 0.31046320235639918 0.0067575729804437252 0 0.33586681222118892 -0.0067462441580033658 0 0.3153830815233527 -0.0087530987426132929 0 0.33586681222118892 -0.0067462441580033658 0 0.31486943567640469 -0.023744993086391868 0 0.3153830815233527 -0.0087530987426132929 0 0.33586681222118892 -0.0067462441580033658 0 0.31486943567640469 -0.023744993086391868 0 0.32115491610998381 -0.052976688016941227 0 0.32092150739102382 -0.073097043805500014 0 0.30601744289912669 -0.055409131432484229 0 0.32115491610998381 -0.052976688016941227 0 0.31197137499350902 -0.041008225260955711 0 0.30601744289912669 -0.055409131432484229 0 0.31486943567640469 -0.023744993086391868 0 0.33348659077450338 -0.036157133164920148 0 0.31197137499350902 -0.041008225260955711 0 0.32115491610998381 -0.052976688016941227 0 0.33348659077450338 -0.036157133164920148 0 0.31197137499350902 -0.041008225260955711 0 0.33348659077450338 -0.036157133164920148 0 0.3363568723602065 -0.050864743298462772 0 0.35116628403686417 -0.048621598638038131 0 0.32115491610998381 -0.052976688016941227 0 0.33348659077450338 -0.036157133164920148 0 0.3363568723602065 -0.050864743298462772 0 0.32115491610998381 -0.052976688016941227 0 0.3363568723602065 -0.050864743298462772 0 0.33388625794764348 -0.064812423232177271 0 0.3363568723602065 -0.050864743298462772 0 0.34794047334546518 -0.063974584280765273 0 0.33388625794764348 -0.064812423232177271 0 0.3363568723602065 -0.050864743298462772 0 0.35116628403686417 -0.048621598638038131 0 0.34794047334546518 -0.063974584280765273 0 0.35116628403686417 -0.048621598638038131 0 0.35914505774559541 -0.060409417065886872 0 0.36392372675137458 -0.051574144679805103 0 0.35116628403686417 -0.048621598638038131 0 0.36240463436463582 -0.041692596330413237 0 0.36392372675137458 -0.051574144679805103 0 0.35116628403686417 -0.048621598638038131 0 0.35914505774559541 -0.060409417065886872 0 0.34794047334546518 -0.063974584280765273 0 0.35116628403686417 -0.048621598638038131 0 0.35227314840285812 -0.03152257084722427 0 0.36240463436463582 -0.041692596330413237 0 0.33348659077450338 -0.036157133164920148 0 0.35116628403686417 -0.048621598638038131 0 0.35227314840285812 -0.03152257084722427 0 0.37514153202862571 -0.045861082966856079 0 0.36877413775607049 -0.02995327657106206 0 0.36240463436463582 -0.041692596330413237 0 0.36877413775607049 -0.02995327657106206 0 0.35227314840285812 -0.03152257084722427 0 0.36240463436463582 -0.041692596330413237 0 0.37514153202862571 -0.045861082966856079 0 0.36240463436463582 -0.041692596330413237 0 0.36392372675137458 -0.051574144679805103 0 0.35914505774559541 -0.060409417065886872 0 0.36392372675137458 -0.051574144679805103 0 0.37192531576168952 -0.05914395824800911 0 0.37514153202862571 -0.045861082966856079 0 0.36392372675137458 -0.051574144679805103 0 0.37192531576168952 -0.05914395824800911 0 0.37813424473731178 -0.068262582352726586 0 0.37192531576168952 -0.05914395824800911 0 0.3680772617285144 -0.06977757947088653 0 0.35914505774559541 -0.060409417065886872 0 0.37192531576168952 -0.05914395824800911 0 0.3680772617285144 -0.06977757947088653 0 0.35914505774559541 -0.060409417065886872 0 0.3680772617285144 -0.06977757947088653 0 0.35837286676988928 -0.071968688592424085 0 0.3680772617285144 -0.06977757947088653 0 0.36498327826552668 -0.083111049239403226 0 0.35837286676988928 -0.071968688592424085 0 0.3680772617285144 -0.06977757947088653 0 0.37353404377441052 -0.075370636612477671 0 0.36498327826552668 -0.083111049239403226 0 0.37813424473731178 -0.068262582352726586 0 0.3680772617285144 -0.06977757947088653 0 0.37353404377441052 -0.075370636612477671 0 0.38294139036628899 -0.080331335386894381 0 0.37353404377441052 -0.075370636612477671 0 0.36498327826552668 -0.083111049239403226 0 0.36498327826552668 -0.083111049239403226 0 0.37237061700676077 -0.09615783082836224 0 0.34241852099989789 -0.095233439592861846 0 0.38294139036628899 -0.080331335386894381 0 0.36498327826552668 -0.083111049239403226 0 0.37406831990166722 -0.093898964220853504 0 0.36498327826552668 -0.083111049239403226 0 0.37406831990166722 -0.093898964220853504 0 0.37237061700676077 -0.09615783082836224 0 0.36498327826552668 -0.083111049239403226 0 0.3449175019875389 -0.076917716904771144 0 0.34241852099989789 -0.095233439592861846 0 0.36498327826552668 -0.083111049239403226 0 0.3449175019875389 -0.076917716904771144 0 0.35837286676988928 -0.071968688592424085 0 0.3449175019875389 -0.076917716904771144 0 0.34794047334546518 -0.063974584280765273 0 0.35837286676988928 -0.071968688592424085 0 0.35914505774559541 -0.060409417065886872 0 0.34794047334546518 -0.063974584280765273 0 0.35837286676988928 -0.071968688592424085 0 0.36371200487664068 -0.10973459168570281 0 0.35664352332635268 -0.13060513793896061 0 0.36779594019891898 -0.12729788290040461 0 0.3785150876385216 -0.1195111518185689 0 0.36371200487664068 -0.10973459168570281 0 0.36779594019891898 -0.12729788290040461 0 0.36371200487664068 -0.10973459168570281 0 0.37237061700676077 -0.09615783082836224 0 0.34241852099989789 -0.095233439592861846 0 0.3851668720105898 -0.10347474583943909 0 0.36371200487664068 -0.10973459168570281 0 0.37237061700676077 -0.09615783082836224 0 0.3851668720105898 -0.10347474583943909 0 0.36371200487664068 -0.10973459168570281 0 0.36371200487664068 -0.10973459168570281 0 0.37237061700676077 -0.09615783082836224 0 0.37406831990166722 -0.093898964220853504 0 0.37237061700676077 -0.09615783082836224 0 0.36371200487664068 -0.10973459168570281 0 0.34332012240242971 -0.1020930362129598 0 0.34241852099989789 -0.095233439592861846 0 0.36371200487664068 -0.10973459168570281 0 0.35002252173753962 -0.112446561286345 0 0.34332012240242971 -0.1020930362129598 0 0.37237061700676077 -0.09615783082836224 0 0.34241852099989789 -0.095233439592861846 0 0.35002252173753962 -0.112446561286345 0 0.34025414842832208 -0.11782241666052221 0 0.34332012240242971 -0.1020930362129598 0 0.36371200487664068 -0.10973459168570281 0 0.35355367174401742 -0.1211945845718113 0 0.34779048707731292 -0.1340798558009649 0 0.36371200487664068 -0.10973459168570281 0 0.35664352332635268 -0.13060513793896061 0 0.34779048707731292 -0.1340798558009649 0 0.36371200487664068 -0.10973459168570281 0 0.34779048707731292 -0.1340798558009649 0 0.36371200487664068 -0.10973459168570281 0 0.35002252173753962 -0.112446561286345 0 0.35355367174401742 -0.1211945845718113 0 0.36371200487664068 -0.10973459168570281 0 0.35355367174401742 -0.1211945845718113 0 0.35002252173753962 -0.112446561286345 0 0.35355367174401742 -0.1211945845718113 0 0.34025414842832208 -0.11782241666052221 0 0.35355367174401742 -0.1211945845718113 0 0.34025414842832208 -0.11782241666052221 0 0.34381162934489939 -0.12854128697128539 0 0.33094534805706732 -0.1177437606496905 0 0.31854024801571379 -0.1183964408803808 0 0.33718817445421712 -0.13355179710808501 0 0.34025414842832208 -0.11782241666052221 0 0.33378984816934337 -0.1086297847084315 0 0.34332012240242971 -0.1020930362129598 0 0.33094534805706732 -0.1177437606496905 0 0.34025414842832208 -0.11782241666052221 0 0.33718817445421712 -0.13355179710808501 0 0.34025414842832208 -0.11782241666052221 0 0.34332012240242971 -0.1020930362129598 0 0.33094534805706732 -0.1177437606496905 0 0.33378984816934337 -0.1086297847084315 0 0.32495432121773932 -0.110318363891034 0 0.33094534805706732 -0.1177437606496905 0 0.34025414842832208 -0.11782241666052221 0 0.33378984816934337 -0.1086297847084315 0 0.33378984816934337 -0.1086297847084315 0 0.32725903490077729 -0.10071499943534749 0 0.32495432121773932 -0.110318363891034 0 0.33378984816934337 -0.1086297847084315 0 0.33669688161811212 -0.1016678149874002 0 0.32725903490077729 -0.10071499943534749 0 0.33378984816934337 -0.1086297847084315 0 0.34332012240242971 -0.1020930362129598 0 0.33669688161811212 -0.1016678149874002 0 0.34332012240242971 -0.1020930362129598 0 0.33669688161811212 -0.1016678149874002 0 0.34241852099989789 -0.095233439592861846 0 0.33669688161811212 -0.1016678149874002 0 0.34241852099989789 -0.095233439592861846 0 0.32725903490077729 -0.10071499943534749 0 0.34241852099989789 -0.095233439592861846 0 0.31246642499303512 -0.0943090483573608 0 0.34241852099989789 -0.095233439592861846 0 0.32725903490077729 -0.10071499943534749 0 0.31246642499303512 -0.0943090483573608 0 0.32725903490077729 -0.10071499943534749 0 0.31716114910448651 -0.10565591717263 0 0.31246642499303512 -0.0943090483573608 0 0.32725903490077729 -0.10071499943534749 0 0.31716114910448651 -0.10565591717263 0 0.32495432121773932 -0.110318363891034 0 0.33094534805706732 -0.1177437606496905 0 0.32495432121773932 -0.110318363891034 0 0.31854024801571379 -0.1183964408803808 0 0.31716114910448651 -0.10565591717263 0 0.32495432121773932 -0.110318363891034 0 0.31854024801571379 -0.1183964408803808 0 0.31716114910448651 -0.10565591717263 0 0.31854024801571379 -0.1183964408803808 0 0.30531265091832138 -0.10738965970164049 0 0.3449175019875389 -0.076917716904771144 0 0.33388625794764348 -0.064812423232177271 0 0.32092150739102382 -0.073097043805500014 0 0.3449175019875389 -0.076917716904771144 0 0.34794047334546518 -0.063974584280765273 0 0.33388625794764348 -0.064812423232177271 0 0.3449175019875389 -0.076917716904771144 0 0.34241852099989789 -0.095233439592861846 0 0.32092150739102382 -0.073097043805500014 0 0.34241852099989789 -0.095233439592861846 0 0.32092150739102382 -0.073097043805500014 0 0.31246642499303512 -0.0943090483573608 0 0.32115491610998381 -0.052976688016941227 0 0.33388625794764348 -0.064812423232177271 0 0.32092150739102382 -0.073097043805500014 0 0.32092150739102382 -0.073097043805500014 0 0.28819319405889499 -0.06706419956831737 0 0.31246642499303512 -0.0943090483573608 0 0.32092150739102382 -0.073097043805500014 0 0.28819319405889499 -0.06706419956831737 0 0.30601744289912669 -0.055409131432484229 0 0.28251432898617262 -0.093384657121855619 0 0.28819319405889499 -0.06706419956831737 0 0.31246642499303512 -0.0943090483573608 0 0.28251432898617262 -0.093384657121855619 0 0.28819319405889499 -0.06706419956831737 0 0.28251432898617262 -0.093384657121855619 0 0.28819319405889499 -0.06706419956831737 0 0.2788070763813692 -0.075616481315712358 0 0.30531265091832138 -0.10738965970164049 0 0.29209333803684512 -0.1204183792118467 0 0.30316218715013699 -0.13585617877411299 0 0.31854024801571379 -0.1183964408803808 0 0.30531265091832138 -0.10738965970164049 0 0.30316218715013699 -0.13585617877411299 0 0.30531265091832138 -0.10738965970164049 0 0.30316218715013699 -0.13585617877411299 0 0.30531265091832138 -0.10738965970164049 0 0.31246642499303512 -0.0943090483573608 0 0.2913954051317153 -0.1063448066268642 0 0.28251432898617262 -0.093384657121855619 0 0.31246642499303512 -0.0943090483573608 0 0.31716114910448651 -0.10565591717263 0 0.30531265091832138 -0.10738965970164049 0 0.31246642499303512 -0.0943090483573608 0 0.28251432898617262 -0.093384657121855619 0 0.31246642499303512 -0.0943090483573608 0 0.2913954051317153 -0.1063448066268642 0 0.28251432898617262 -0.093384657121855619 0 0.2913954051317153 -0.1063448066268642 0 0.27794998204403759 -0.11453953550188679 0 0.30531265091832138 -0.10738965970164049 0 0.2913954051317153 -0.1063448066268642 0 0.29209333803684512 -0.1204183792118467 0 0.2913954051317153 -0.1063448066268642 0 0.29209333803684512 -0.1204183792118467 0 0.27794998204403759 -0.11453953550188679 0 0.27794998204403759 -0.11453953550188679 0 0.25915390151091949 -0.11811210275817149 0 0.27338563510190422 -0.1356944138819183 0 0.29209333803684512 -0.1204183792118467 0 0.27794998204403759 -0.11453953550188679 0 0.27338563510190422 -0.1356944138819183 0 0.28251432898617262 -0.093384657121855619 0 0.27794998204403759 -0.11453953550188679 0 0.25666672159796139 -0.092586939936295867 0 0.28251432898617262 -0.093384657121855619 0 0.27794998204403759 -0.11453953550188679 0 0.25915390151091949 -0.11811210275817149 0 0.25666672159796139 -0.092586939936295867 0 0.23839025179526999 -0.1151992729885977 0 0.27794998204403759 -0.11453953550188679 0 0.25915390151091949 -0.11811210275817149 0 0.25666672159796139 -0.092586939936295867 0 0.28819319405889499 -0.06706419956831737 0 0.27512965144911827 -0.070681904186227995 0 0.27783686619476677 -0.05372527893061739 0 0.26897876163713708 -0.070467118147906876 0 0.27512965144911827 -0.070681904186227995 0 0.27783686619476677 -0.05372527893061739 0 0.26897876163713708 -0.070467118147906876 0 0.26180167325791431 -0.066706815846455908 0 0.27783686619476677 -0.05372527893061739 0 0.27067132333055188 -0.076788874412469815 0 0.26897876163713708 -0.070467118147906876 0 0.26145119023330071 -0.079000043976386408 0 0.27067132333055188 -0.076788874412469815 0 0.26897876163713708 -0.070467118147906876 0 0.2788070763813692 -0.075616481315712358 0 0.26897876163713708 -0.070467118147906876 0 0.27512965144911827 -0.070681904186227995 0 0.28819319405889499 -0.06706419956831737 0 0.2788070763813692 -0.075616481315712358 0 0.27512965144911827 -0.070681904186227995 0 0.26897876163713708 -0.070467118147906876 0 0.2788070763813692 -0.075616481315712358 0 0.26897876163713708 -0.070467118147906876 0 0.2788070763813692 -0.075616481315712358 0 0.27512965144911827 -0.070681904186227995 0 0.28251432898617262 -0.093384657121855619 0 0.25666672159796139 -0.092586939936295867 0 0.28251432898617262 -0.093384657121855619 0 0.27051227275229911 -0.08315566172012806 0 0.25666672159796139 -0.092586939936295867 0 0.28251432898617262 -0.093384657121855619 0 0.2788070763813692 -0.075616481315712358 0 0.27051227275229911 -0.08315566172012806 0 0.27067132333055188 -0.076788874412469815 0 0.27051227275229911 -0.08315566172012806 0 0.26145119023330071 -0.079000043976386408 0 0.27067132333055188 -0.076788874412469815 0 0.2788070763813692 -0.075616481315712358 0 0.27051227275229911 -0.08315566172012806 0 0.26145119023330071 -0.079000043976386408 0 0.25666672159796139 -0.092586939936295867 0 0.24423239209720191 -0.080930297464084477 0 0.27051227275229911 -0.08315566172012806 0 0.26145119023330071 -0.079000043976386408 0 0.25666672159796139 -0.092586939936295867 0 0.26180167325791431 -0.066706815846455908 0 0.25764566998465072 -0.070071372177431313 0 0.24120587699226881 -0.055916030502087773 0 0.26145119023330071 -0.079000043976386408 0 0.25764566998465072 -0.070071372177431313 0 0.24423239209720191 -0.080930297464084477 0 0.25764566998465072 -0.070071372177431313 0 0.24423239209720191 -0.080930297464084477 0 0.26897876163713708 -0.070467118147906876 0 0.26145119023330071 -0.079000043976386408 0 0.25764566998465072 -0.070071372177431313 0 0.26897876163713708 -0.070467118147906876 0 0.26180167325791431 -0.066706815846455908 0 0.25764566998465072 -0.070071372177431313 0 0.26897876163713708 -0.070467118147906876 0 0.25764566998465072 -0.070071372177431313 0 0.26897876163713708 -0.070467118147906876 0 0.26180167325791431 -0.066706815846455908 0 0.26180167325791431 -0.066706815846455908 0 0.25764566998465072 -0.070071372177431313 0 0.26180167325791431 -0.066706815846455908 0 0.26029261894245981 -0.048826031507571623 0 0.24120587699226881 -0.055916030502087773 0 0.26180167325791431 -0.066706815846455908 0 0.24120587699226881 -0.055916030502087773 0 0.26180167325791431 -0.066706815846455908 0 0.26029261894245981 -0.048826031507571623 0 0.27783686619476677 -0.05372527893061739 0 0.26180167325791431 -0.066706815846455908 0 0.27783686619476677 -0.05372527893061739 0 0.26029261894245981 -0.048826031507571623 0 0.27783686619476677 -0.05372527893061739 0 0.27031708646619812 -0.033638605470610219 0 0.27783686619476677 -0.05372527893061739 0 0.27031708646619812 -0.033638605470610219 0 0.28437966209514692 -0.033534114227583768 0 0.26029261894245981 -0.048826031507571623 0 0.27031708646619812 -0.033638605470610219 0 0.25030159180115191 -0.034143426788088307 0 0.26029261894245981 -0.048826031507571623 0 0.25030159180115191 -0.034143426788088307 0 0.24120587699226881 -0.055916030502087773 0 0.25030159180115191 -0.034143426788088307 0 0.26299580833271302 -0.019789195105520681 0 0.2464198669495459 -0.012097030270161889 0 0.27031708646619812 -0.033638605470610219 0 0.25030159180115191 -0.034143426788088307 0 0.26299580833271302 -0.019789195105520681 0 0.25322369798355371 0.0032948183560677501 0 0.26778398551549509 -0.0036893303100333872 0 0.2464198669495459 -0.012097030270161889 0 0.26299580833271302 -0.019789195105520681 0 0.26778398551549509 -0.0036893303100333872 0 0.2464198669495459 -0.012097030270161889 0 0.26299580833271302 -0.019789195105520681 0 0.26778398551549509 -0.0036893303100333872 0 0.28231604015163769 -0.018351258625531171 0 0.2895407867033607 0.0013395930438658619 0 0.26778398551549509 -0.0036893303100333872 0 0.28231604015163769 -0.018351258625531171 0 0.27031708646619812 -0.033638605470610219 0 0.26299580833271302 -0.019789195105520681 0 0.28231604015163769 -0.018351258625531171 0 0.27031708646619812 -0.033638605470610219 0 0.28231604015163769 -0.018351258625531171 0 0.28437966209514692 -0.033534114227583768 0 0.28231604015163769 -0.018351258625531171 0 0.29600028882747859 -0.03087980289019443 0 0.28437966209514692 -0.033534114227583768 0 0.28231604015163769 -0.018351258625531171 0 0.29600028882747859 -0.03087980289019443 0 0.30132541624728598 -0.01217829343577128 0 0.2895407867033607 0.0013395930438658619 0 0.28231604015163769 -0.018351258625531171 0 0.30132541624728598 -0.01217829343577128 0 0.31046320235639918 0.0067575729804437252 0 0.2895407867033607 0.0013395930438658619 0 0.30132541624728598 -0.01217829343577128 0 0.31046320235639918 0.0067575729804437252 0 0.3153830815233527 -0.0087530987426132929 0 0.30132541624728598 -0.01217829343577128 0 0.31486943567640469 -0.023744993086391868 0 0.3153830815233527 -0.0087530987426132929 0 0.30132541624728598 -0.01217829343577128 0 0.31486943567640469 -0.023744993086391868 0 0.29600028882747859 -0.03087980289019443 0 0.30132541624728598 -0.01217829343577128 0 0.31486943567640469 -0.023744993086391868 0 0.31197137499350902 -0.041008225260955711 0 0.29387205913161968 -0.04074374201477949 0 0.31486943567640469 -0.023744993086391868 0 0.29600028882747859 -0.03087980289019443 0 0.29387205913161968 -0.04074374201477949 0 0.31486943567640469 -0.023744993086391868 0 0.29387205913161968 -0.04074374201477949 0 0.31197137499350902 -0.041008225260955711 0 0.30601744289912669 -0.055409131432484229 0 0.29387205913161968 -0.04074374201477949 0 0.28819319405889499 -0.06706419956831737 0 0.27783686619476677 -0.05372527893061739 0 0.29387205913161968 -0.04074374201477949 0 0.28819319405889499 -0.06706419956831737 0 0.29387205913161968 -0.04074374201477949 0 0.27783686619476677 -0.05372527893061739 0 0.29387205913161968 -0.04074374201477949 0 0.28819319405889499 -0.06706419956831737 0 0.30601744289912669 -0.055409131432484229 0 0.29387205913161968 -0.04074374201477949 0 0.27783686619476677 -0.05372527893061739 0 0.28437966209514692 -0.033534114227583768 0 0.29387205913161968 -0.04074374201477949 0 0.29600028882747859 -0.03087980289019443 0 0.28437966209514692 -0.033534114227583768 0 0.29387205913161968 -0.04074374201477949 0 0.29600028882747859 -0.03087980289019443 0 0.29387205913161968 -0.04074374201477949 0 0.28925369461552242 -0.21547475378801551 0 0.29798535605087828 -0.20438389051808681 0 0.27851755886665591 -0.20371457102860641 0 0.28925369461552242 -0.21547475378801551 0 0.28465086540799672 -0.2254021489655588 0 0.27851755886665591 -0.20371457102860641 0 0.28925369461552242 -0.21547475378801551 0 0.29798535605087828 -0.20438389051808681 0 0.29625974568445868 -0.22722646109941139 0 0.28994099481116897 -0.19128490440727269 0 0.29798535605087828 -0.20438389051808681 0 0.29971096641729777 -0.18154131993676231 0 0.28994099481116897 -0.19128490440727269 0 0.27851755886665591 -0.20371457102860641 0 0.28355009790984409 -0.17549983614563519 0 0.28994099481116897 -0.19128490440727269 0 0.29798535605087828 -0.20438389051808681 0 0.27851755886665591 -0.20371457102860641 0 0.30866677822314281 -0.19370433905286669 0 0.29798535605087828 -0.20438389051808681 0 0.29971096641729777 -0.18154131993676231 0 0.29798535605087828 -0.20438389051808681 0 0.29971096641729777 -0.18154131993676231 0 0.30866677822314281 -0.19370433905286669 0 0.30817512199612251 -0.208018461664154 0 0.29798535605087828 -0.20438389051808681 0 0.29798535605087828 -0.20438389051808681 0 0.29625974568445868 -0.22722646109941139 0 0.30367267472900389 -0.2178556058656746 0 0.31200739898088131 -0.22851072207886541 0 0.31883562653249692 -0.20986103607638071 0 0.29798535605087828 -0.20438389051808681 0 0.30367267472900389 -0.2178556058656746 0 0.29625974568445868 -0.22722646109941139 0 0.30817512199612251 -0.208018461664154 0 0.29798535605087828 -0.20438389051808681 0 0.30367267472900389 -0.2178556058656746 0 0.30817512199612251 -0.208018461664154 0 0.30367267472900389 -0.2178556058656746 0 0.31883562653249692 -0.20986103607638071 0 0.30367267472900389 -0.2178556058656746 0 0.31883562653249692 -0.20986103607638071 0 0.31200739898088131 -0.22851072207886541 0 0.30517917142926537 -0.24716040808135001 0 0.29625974568445868 -0.22722646109941139 0 0.30367267472900389 -0.2178556058656746 0 0.31200739898088131 -0.22851072207886541 0 0.29625974568445868 -0.22722646109941139 0 0.31200739898088131 -0.22851072207886541 0 0.30517917142926537 -0.24716040808135001 0 0.30517917142926537 -0.24716040808135001 0 0.28765229627979871 -0.24304032400626949 0 0.29625974568445868 -0.22722646109941139 0 0.28765229627979871 -0.24304032400626949 0 0.29625974568445868 -0.22722646109941139 0 0.28465086540799672 -0.2254021489655588 0 0.28765229627979871 -0.24304032400626949 0 0.28465086540799672 -0.2254021489655588 0 0.27348501982346762 -0.23192930591157759 0 0.28925369461552242 -0.21547475378801551 0 0.29625974568445868 -0.22722646109941139 0 0.28465086540799672 -0.2254021489655588 0 0.28465086540799672 -0.2254021489655588 0 0.27348501982346762 -0.23192930591157759 0 0.27851755886665591 -0.20371457102860641 0 0.27348501982346762 -0.23192930591157759 0 0.25787859859726192 -0.24372773219337371 0 0.26845248078028039 -0.26014404079454911 0 0.28765229627979871 -0.24304032400626949 0 0.27348501982346762 -0.23192930591157759 0 0.26845248078028039 -0.26014404079454911 0 0.27348501982346762 -0.23192930591157759 0 0.26845248078028039 -0.26014404079454911 0 0.27348501982346762 -0.23192930591157759 0 0.25787859859726192 -0.24372773219337371 0 0.2485278721491469 -0.22983386195931649 0 0.27348501982346762 -0.23192930591157759 0 0.25806059678156651 -0.21160485628964759 0 0.2485278721491469 -0.22983386195931649 0 0.27348501982346762 -0.23192930591157759 0 0.27851755886665591 -0.20371457102860641 0 0.27348501982346762 -0.23192930591157759 0 0.25806059678156651 -0.21160485628964759 0 0.27851755886665591 -0.20371457102860641 0 0.27851755886665591 -0.20371457102860641 0 0.26140201073716351 -0.19316186481753209 0 0.27335445324682811 -0.1824409541049711 0 0.25806059678156651 -0.21160485628964759 0 0.27851755886665591 -0.20371457102860641 0 0.26140201073716351 -0.19316186481753209 0 0.27851755886665591 -0.20371457102860641 0 0.28355009790984409 -0.17549983614563519 0 0.25806059678156651 -0.21160485628964759 0 0.26140201073716351 -0.19316186481753209 0 0.24624710011957149 -0.19756578472926509 0 0.26140201073716351 -0.19316186481753209 0 0.25030889548151403 -0.1837077448593728 0 0.24624710011957149 -0.19756578472926509 0 0.25969225384889538 -0.18295045636353721 0 0.2550208565069661 -0.17514012483034949 0 0.27335445324682811 -0.1824409541049711 0 0.26140201073716351 -0.19316186481753209 0 0.25030889548151403 -0.1837077448593728 0 0.25969225384889538 -0.18295045636353721 0 0.25030889548151403 -0.1837077448593728 0 0.25969225384889538 -0.18295045636353721 0 0.2550208565069661 -0.17514012483034949 0 0.2550208565069661 -0.17514012483034949 0 0.2530488896403309 -0.16079061319898569 0 0.27335445324682811 -0.1824409541049711 0 0.26140201073716351 -0.19316186481753209 0 0.25969225384889538 -0.18295045636353721 0 0.27335445324682811 -0.1824409541049711 0 0.2530488896403309 -0.16079061319898569 0 0.272260185211738 -0.168331689764908 0 0.26878477807763418 -0.16016356734556891 0 0.2530488896403309 -0.16079061319898569 0 0.26878477807763418 -0.16016356734556891 0 0.26293682869207591 -0.15391070786642169 0 0.2530488896403309 -0.16079061319898569 0 0.27335445324682811 -0.1824409541049711 0 0.272260185211738 -0.168331689764908 0 0.27899515764395177 -0.15443660918041571 0 0.28355009790984409 -0.17549983614563519 0 0.2530488896403309 -0.16079061319898569 0 0.272260185211738 -0.168331689764908 0 0.27335445324682811 -0.1824409541049711 0 0.272260185211738 -0.168331689764908 0 0.26878477807763418 -0.16016356734556891 0 0.27899515764395177 -0.15443660918041571 0 0.272260185211738 -0.168331689764908 0 0.27335445324682811 -0.1824409541049711 0 0.28355009790984409 -0.17549983614563519 0 0.27851755886665591 -0.20371457102860641 0 0.27335445324682811 -0.1824409541049711 0 0.28355009790984409 -0.17549983614563519 0 0.25915390151091949 -0.11811210275817149 0 0.25133622254172122 -0.13557462765415079 0 0.27338563510190422 -0.1356944138819183 0 0.25133622254172122 -0.13557462765415079 0 0.27338563510190422 -0.1356944138819183 0 0.25133622254172122 -0.13557462765415079 0 0.25208407187516418 -0.1419613505697605 0 0.27338563510190422 -0.1356944138819183 0 0.26557247671991108 -0.14774187414890411 0 0.25208407187516418 -0.1419613505697605 0 0.27142481771649529 -0.14478242884651979 0 0.25208407187516418 -0.1419613505697605 0 0.27142481771649529 -0.14478242884651979 0 0.2530488896403309 -0.16079061319898569 0 0.25208407187516418 -0.1419613505697605 0 0.26293682869207591 -0.15391070786642169 0 0.26557247671991108 -0.14774187414890411 0 0.25208407187516418 -0.1419613505697605 0 0.26293682869207591 -0.15391070786642169 0 0.27899515764395177 -0.15443660918041571 0 0.27142481771649529 -0.14478242884651979 0 0.28858263695303038 -0.1472851012626637 0 0.25208407187516418 -0.1419613505697605 0 0.27142481771649529 -0.14478242884651979 0 0.27338563510190422 -0.1356944138819183 0 0.27142481771649529 -0.14478242884651979 0 0.28858263695303038 -0.1472851012626637 0 0.27142481771649529 -0.14478242884651979 0 0.27338563510190422 -0.1356944138819183 0 0.28952553314766588 -0.14199879033185039 0 0.26878477807763418 -0.16016356734556891 0 0.27009527632936597 -0.15279308215900331 0 0.27899515764395177 -0.15443660918041571 0 0.26557247671991108 -0.14774187414890411 0 0.27009527632936597 -0.15279308215900331 0 0.27142481771649529 -0.14478242884651979 0 0.26878477807763418 -0.16016356734556891 0 0.26293682869207591 -0.15391070786642169 0 0.27009527632936597 -0.15279308215900331 0 0.26557247671991108 -0.14774187414890411 0 0.26293682869207591 -0.15391070786642169 0 0.27009527632936597 -0.15279308215900331 0 0.27009527632936597 -0.15279308215900331 0 0.27899515764395177 -0.15443660918041571 0 0.27142481771649529 -0.14478242884651979 0 0.27794998204403759 -0.11453953550188679 0 0.27338563510190422 -0.1356944138819183 0 0.27142481771649529 -0.14478242884651979 0 0.27338563510190422 -0.1356944138819183 0 0.27338563510190422 -0.1356944138819183 0 0.30316218715013699 -0.13585617877411299 0 0.29209333803684512 -0.1204183792118467 0 0.27338563510190422 -0.1356944138819183 0 0.30316218715013699 -0.13585617877411299 0 0.27338563510190422 -0.1356944138819183 0 0.28952553314766588 -0.14199879033185039 0 0.30316218715013699 -0.13585617877411299 0 0.27142481771649529 -0.14478242884651979 0 0.28952553314766588 -0.14199879033185039 0 0.28858263695303038 -0.1472851012626637 0 0.28858263695303038 -0.1472851012626637 0 0.30013596324633868 -0.14897029159077979 0 0.28952553314766588 -0.14199879033185039 0 0.28858263695303038 -0.1472851012626637 0 0.30013596324633868 -0.14897029159077979 0 0.28952553314766588 -0.14199879033185039 0 0.28858263695303038 -0.1472851012626637 0 0.28858263695303038 -0.1472851012626637 0 0.30013596324633868 -0.14897029159077979 0 0.29372711844303928 -0.1600295372122347 0 0.30316218715013699 -0.13585617877411299 0 0.30143657678371732 -0.15869874935543771 0 0.30013596324633868 -0.14897029159077979 0 0.30316218715013699 -0.13585617877411299 0 0.30143657678371732 -0.15869874935543771 0 0.30316218715013699 -0.13585617877411299 0 0.30143657678371732 -0.15869874935543771 0 0.31253980123811259 -0.14771969478669131 0 0.30013596324633868 -0.14897029159077979 0 0.29372711844303928 -0.1600295372122347 0 0.30143657678371732 -0.15869874935543771 0 0.30143657678371732 -0.15869874935543771 0 0.31557079919726838 -0.1590044961535387 0 0.31253980123811259 -0.14771969478669131 0 0.28952553314766588 -0.14199879033185039 0 0.30013596324633868 -0.14897029159077979 0 0.30316218715013699 -0.13585617877411299 0 0.30316218715013699 -0.13585617877411299 0 0.31993283661344418 -0.13594728745244961 0 0.31253980123811259 -0.14771969478669131 0 0.30316218715013699 -0.13585617877411299 0 0.31993283661344418 -0.13594728745244961 0 0.28994099481116897 -0.19128490440727269 0 0.28355009790984409 -0.17549983614563519 0 0.29971096641729777 -0.18154131993676231 0 0.28355009790984409 -0.17549983614563519 0 0.29493031732226571 -0.16969370770665679 0 0.29971096641729777 -0.18154131993676231 0 0.27899515764395177 -0.15443660918041571 0 0.28858263695303038 -0.1472851012626637 0 0.28355009790984409 -0.17549983614563519 0 0.28858263695303038 -0.1472851012626637 0 0.28355009790984409 -0.17549983614563519 0 0.28858263695303038 -0.1472851012626637 0 0.28355009790984409 -0.17549983614563519 0 0.29372711844303928 -0.1600295372122347 0 0.29372711844303928 -0.1600295372122347 0 0.29493031732226571 -0.16969370770665679 0 0.30143657678371732 -0.15869874935543771 0 0.28355009790984409 -0.17549983614563519 0 0.29372711844303928 -0.1600295372122347 0 0.29493031732226571 -0.16969370770665679 0 0.30143657678371732 -0.15869874935543771 0 0.29971096641729777 -0.18154131993676231 0 0.30143657678371732 -0.15869874935543771 0 0.30809610970482848 -0.16795036279156811 0 0.29971096641729777 -0.18154131993676231 0 0.29493031732226571 -0.16969370770665679 0 0.30143657678371732 -0.15869874935543771 0 0.29971096641729777 -0.18154131993676231 0 0.30143657678371732 -0.15869874935543771 0 0.30809610970482848 -0.16795036279156811 0 0.31557079919726838 -0.1590044961535387 0 0.29971096641729777 -0.18154131993676231 0 0.31498869866721663 -0.1848028620899877 0 0.3156660964210305 -0.17255688572053399 0 0.30809610970482848 -0.16795036279156811 0 0.29971096641729777 -0.18154131993676231 0 0.3156660964210305 -0.17255688572053399 0 0.30866677822314281 -0.19370433905286669 0 0.29971096641729777 -0.18154131993676231 0 0.31498869866721663 -0.1848028620899877 0 0.32729102930978993 -0.18432716657830939 0 0.3156660964210305 -0.17255688572053399 0 0.33199725769327038 -0.160182781354547 0 0.31498869866721663 -0.1848028620899877 0 0.32729102930978993 -0.18432716657830939 0 0.3156660964210305 -0.17255688572053399 0 0.3156660964210305 -0.17255688572053399 0 0.31557079919726838 -0.1590044961535387 0 0.33199725769327038 -0.160182781354547 0 0.30809610970482848 -0.16795036279156811 0 0.3156660964210305 -0.17255688572053399 0 0.31557079919726838 -0.1590044961535387 0 0.32729102930978993 -0.18432716657830939 0 0.34572674800851178 -0.17666980330527179 0 0.34152908302092871 -0.19789605564194099 0 0.32729102930978993 -0.18432716657830939 0 0.33199725769327038 -0.160182781354547 0 0.34572674800851178 -0.17666980330527179 0 0.32729102930978993 -0.18432716657830939 0 0.33199725769327038 -0.160182781354547 0 0.31854024801571379 -0.1183964408803808 0 0.30316218715013699 -0.13585617877411299 0 0.31993283661344418 -0.13594728745244961 0 0.31993283661344418 -0.13594728745244961 0 0.32334883616376942 -0.1477785311756023 0 0.33670348607675138 -0.13603839613078461 0 0.31854024801571379 -0.1183964408803808 0 0.31993283661344418 -0.13594728745244961 0 0.33718817445421712 -0.13355179710808501 0 0.31854024801571379 -0.1183964408803808 0 0.33718817445421712 -0.13355179710808501 0 0.31557079919726838 -0.1590044961535387 0 0.33199725769327038 -0.160182781354547 0 0.32334883616376942 -0.1477785311756023 0 0.31993283661344418 -0.13594728745244961 0 0.32334883616376942 -0.1477785311756023 0 0.31253980123811259 -0.14771969478669131 0 0.31557079919726838 -0.1590044961535387 0 0.32334883616376942 -0.1477785311756023 0 0.31253980123811259 -0.14771969478669131 0 0.33199725769327038 -0.160182781354547 0 0.34027166502062639 -0.13605778071504529 0 0.33670348607675138 -0.13603839613078461 0 0.33199725769327038 -0.160182781354547 0 0.32334883616376942 -0.1477785311756023 0 0.33670348607675138 -0.13603839613078461 0 0.33199725769327038 -0.160182781354547 0 0.33670348607675138 -0.13603839613078461 0 0.31993283661344418 -0.13594728745244961 0 0.33670348607675138 -0.13603839613078461 0 0.31993283661344418 -0.13594728745244961 0 0.33670348607675138 -0.13603839613078461 0 0.33718817445421712 -0.13355179710808501 0 0.34025414842832208 -0.11782241666052221 0 0.33718817445421712 -0.13355179710808501 0 0.34381162934489939 -0.12854128697128539 0 0.34025414842832208 -0.11782241666052221 0 0.33718817445421712 -0.13355179710808501 0 0.34027166502062639 -0.13605778071504529 0 0.33670348607675138 -0.13603839613078461 0 0.33718817445421712 -0.13355179710808501 0 0.34027166502062639 -0.13605778071504529 0 0.33718817445421712 -0.13355179710808501 0 0.34027166502062639 -0.13605778071504529 0 0.33670348607675138 -0.13603839613078461 0 0.33670348607675138 -0.13603839613078461 0 0.33718817445421712 -0.13355179710808501 0 0.34027166502062639 -0.13605778071504529 0 0.33718817445421712 -0.13355179710808501 0 0.34381162934489939 -0.12854128697128539 0 0.33199725769327038 -0.160182781354547 0 0.34027166502062639 -0.13605778071504529 0 0.36359383050920879 -0.15501193774405861 0 0.35355367174401742 -0.1211945845718113 0 0.34381162934489939 -0.12854128697128539 0 0.34779048707731292 -0.1340798558009649 0 0.34027166502062639 -0.13605778071504529 0 0.34884821061351562 -0.13610437388577321 0 0.35664352332635268 -0.13060513793896061 0 0.34779048707731292 -0.1340798558009649 0 0.34884821061351562 -0.13610437388577321 0 0.34027166502062639 -0.13605778071504529 0 0.34779048707731292 -0.1340798558009649 0 0.34884821061351562 -0.13610437388577321 0 0.34027166502062639 -0.13605778071504529 0 0.34381162934489939 -0.12854128697128539 0 0.34779048707731292 -0.1340798558009649 0 0.35664352332635268 -0.13060513793896061 0 0.34884821061351562 -0.13610437388577321 0 0.36374720336072303 -0.13810563056468389 0 0.34884821061351562 -0.13610437388577321 0 0.36359383050920879 -0.15501193774405861 0 0.36374720336072303 -0.13810563056468389 0 0.34027166502062639 -0.13605778071504529 0 0.36359383050920879 -0.15501193774405861 0 0.34027166502062639 -0.13605778071504529 0 0.34884821061351562 -0.13610437388577321 0 0.36359383050920879 -0.15501193774405861 0 0.36359383050920879 -0.15501193774405861 0 0.36374720336072303 -0.13810563056468389 0 0.37656812491251679 -0.13846106794218549 0 0.3785150876385216 -0.1195111518185689 0 0.36779594019891898 -0.12729788290040461 0 0.37656812491251679 -0.13846106794218549 0 0.36374720336072303 -0.13810563056468389 0 0.36779594019891898 -0.12729788290040461 0 0.37656812491251679 -0.13846106794218549 0 0.35664352332635268 -0.13060513793896061 0 0.36374720336072303 -0.13810563056468389 0 0.36779594019891898 -0.12729788290040461 0 0.33199725769327038 -0.160182781354547 0 0.36359383050920879 -0.15501193774405861 0 0.34572674800851178 -0.17666980330527179 0 0.34572674800851178 -0.17666980330527179 0 0.36422253950936112 -0.1859310752075029 0 0.34152908302092871 -0.19789605564194099 0 0.36359383050920879 -0.15501193774405861 0 0.34572674800851178 -0.17666980330527179 0 0.36422253950936112 -0.1859310752075029 0 0.36359383050920879 -0.15501193774405861 0 0.36422253950936112 -0.1859310752075029 0 0.38691599599779503 -0.1739660947730671 0 0.36422253950936112 -0.1859310752075029 0 0.37220629557919183 -0.19612338441269381 0 0.37910290544765168 -0.18685571494790659 0 0.36422253950936112 -0.1859310752075029 0 0.37220629557919183 -0.19612338441269381 0 0.35685044422528578 -0.20027094664828951 0 0.37220629557919183 -0.19612338441269381 0 0.3556522221671049 -0.2162457527497984 0 0.35685044422528578 -0.20027094664828951 0 0.37220629557919183 -0.19612338441269381 0 0.3556522221671049 -0.2162457527497984 0 0.37273333868611941 -0.2093978965492076 0 0.3556522221671049 -0.2162457527497984 0 0.3731990688381891 -0.2228302363117915 0 0.37220629557919183 -0.19612338441269381 0 0.37273333868611941 -0.2093978965492076 0 0.3556522221671049 -0.2162457527497984 0 0.34913249600123192 -0.20719712371303781 0 0.34152908302092871 -0.19789605564194099 0 0.34144894007629428 -0.2139395960038605 0 0.3556522221671049 -0.2162457527497984 0 0.34913249600123192 -0.20719712371303781 0 0.35685044422528578 -0.20027094664828951 0 0.3556522221671049 -0.2162457527497984 0 0.34913249600123192 -0.20719712371303781 0 0.34144894007629428 -0.2139395960038605 0 0.36422253950936112 -0.1859310752075029 0 0.35685044422528578 -0.20027094664828951 0 0.34152908302092871 -0.19789605564194099 0 0.36422253950936112 -0.1859310752075029 0 0.34152908302092871 -0.19789605564194099 0 0.34913249600123192 -0.20719712371303781 0 0.35685044422528578 -0.20027094664828951 0 0.34152908302092871 -0.19789605564194099 0 0.32729102930978993 -0.18432716657830939 0 0.34152908302092871 -0.19789605564194099 0 0.32289957828838461 -0.19876131457419149 0 0.34152908302092871 -0.19789605564194099 0 0.31883562653249692 -0.20986103607638071 0 0.34152908302092871 -0.19789605564194099 0 0.34144894007629428 -0.2139395960038605 0 0.31883562653249692 -0.20986103607638071 0 0.34144894007629428 -0.2139395960038605 0 0.31883562653249692 -0.20986103607638071 0 0.32331405575278033 -0.23055000204260581 0 0.31883562653249692 -0.20986103607638071 0 0.32289957828838461 -0.19876131457419149 0 0.30817512199612251 -0.208018461664154 0 0.31883562653249692 -0.20986103607638071 0 0.32289957828838461 -0.19876131457419149 0 0.30866677822314281 -0.19370433905286669 0 0.30817512199612251 -0.208018461664154 0 0.32289957828838461 -0.19876131457419149 0 0.34152908302092871 -0.19789605564194099 0 0.31883562653249692 -0.20986103607638071 0 0.32289957828838461 -0.19876131457419149 0 0.30866677822314281 -0.19370433905286669 0 0.31498869866721663 -0.1848028620899877 0 0.32289957828838461 -0.19876131457419149 0 0.31498869866721663 -0.1848028620899877 0 0.32729102930978993 -0.18432716657830939 0 0.32289957828838461 -0.19876131457419149 0 0.30517917142926537 -0.24716040808135001 0 0.32331405575278033 -0.23055000204260581 0 0.30517917142926537 -0.24716040808135001 0 0.32331405575278033 -0.23055000204260581 0 0.322544075342931 -0.25649048942400782 0 0.31200739898088131 -0.22851072207886541 0 0.30517917142926537 -0.24716040808135001 0 0.32331405575278033 -0.23055000204260581 0 0.31200739898088131 -0.22851072207886541 0 0.31883562653249692 -0.20986103607638071 0 0.31200739898088131 -0.22851072207886541 0 0.31883562653249692 -0.20986103607638071 0 0.32331405575278033 -0.23055000204260581 0 0.34144894007629428 -0.2139395960038605 0 0.32331405575278033 -0.23055000204260581 0 0.34144894007629428 -0.2139395960038605 0 0.32331405575278033 -0.23055000204260581 0 0.33909814875501798 -0.23636812108690311 0 0.33909814875501798 -0.23636812108690311 0 0.322544075342931 -0.25649048942400782 0 0.32331405575278033 -0.23055000204260581 0 0.33909814875501798 -0.23636812108690311 0 0.322544075342931 -0.25649048942400782 0 0.33909814875501798 -0.23636812108690311 0 0.35007299243335749 -0.24785688602667111 0 0.33700232267718733 -0.25494009872172468 0 0.33909814875501798 -0.23636812108690311 0 0.322544075342931 -0.25649048942400782 0 0.33700232267718733 -0.25494009872172468 0 0.33909814875501798 -0.23636812108690311 0 0.35007299243335749 -0.24785688602667111 0 0.35471840821638012 -0.232162972911199 0 0.35007299243335749 -0.24785688602667111 0 0.35471840821638012 -0.232162972911199 0 0.36225179838031341 -0.2439392928582107 0 0.35007299243335749 -0.24785688602667111 0 0.36225179838031341 -0.2439392928582107 0 0.36124693131331159 -0.25807728632712912 0 0.3556522221671049 -0.2162457527497984 0 0.33909814875501798 -0.23636812108690311 0 0.3556522221671049 -0.2162457527497984 0 0.33909814875501798 -0.23636812108690311 0 0.35471840821638012 -0.232162972911199 0 0.3556522221671049 -0.2162457527497984 0 0.34144894007629428 -0.2139395960038605 0 0.33909814875501798 -0.23636812108690311 0 0.35471840821638012 -0.232162972911199 0 0.3731990688381891 -0.2228302363117915 0 0.36225179838031341 -0.2439392928582107 0 0.3556522221671049 -0.2162457527497984 0 0.35471840821638012 -0.232162972911199 0 0.3731990688381891 -0.2228302363117915 0 0.3731990688381891 -0.2228302363117915 0 0.36225179838031341 -0.2439392928582107 0 0.3731990688381891 -0.2228302363117915 0 0.36225179838031341 -0.2439392928582107 0 0.38186963046980549 -0.2367879359972051 0 0.36225179838031341 -0.2439392928582107 0 0.38186963046980549 -0.2367879359972051 0 0.37510228513818711 -0.25237727586059511 0 0.38186963046980549 -0.2367879359972051 0 0.39206528024080278 -0.24921397013056479 0 0.37510228513818711 -0.25237727586059511 0 0.39206528024080278 -0.24921397013056479 0 0.40137725565661481 -0.22692044649349019 0 0.4148006158986044 -0.24103970595398019 0 0.39206528024080278 -0.24921397013056479 0 0.4148006158986044 -0.24103970595398019 0 0.40884184876520419 -0.25890250189124958 0 0.38186963046980549 -0.2367879359972051 0 0.39206528024080278 -0.24921397013056479 0 0.40137725565661481 -0.22692044649349019 0 0.40137725565661481 -0.22692044649349019 0 0.39915185452682361 -0.21610044156742811 0 0.41396763236883027 -0.21470461273584779 0 0.40137725565661481 -0.22692044649349019 0 0.38700545273377529 -0.2233412248148075 0 0.39915185452682361 -0.21610044156742811 0 0.38186963046980549 -0.2367879359972051 0 0.40137725565661481 -0.22692044649349019 0 0.38700545273377529 -0.2233412248148075 0 0.3731990688381891 -0.2228302363117915 0 0.38186963046980549 -0.2367879359972051 0 0.38700545273377529 -0.2233412248148075 0 0.3731990688381891 -0.2228302363117915 0 0.38414633929606479 -0.2017211797653724 0 0.37273333868611941 -0.2093978965492076 0 0.3731990688381891 -0.2228302363117915 0 0.38414633929606479 -0.2017211797653724 0 0.3731990688381891 -0.2228302363117915 0 0.38675328488958288 -0.2095276895359276 0 0.38414633929606479 -0.2017211797653724 0 0.3731990688381891 -0.2228302363117915 0 0.38700545273377529 -0.2233412248148075 0 0.38675328488958288 -0.2095276895359276 0 0.38675328488958288 -0.2095276895359276 0 0.38414633929606479 -0.2017211797653724 0 0.39287005569986072 -0.20314648074516001 0 0.38414633929606479 -0.2017211797653724 0 0.38373621375160438 -0.1885238144486111 0 0.39509360975394031 -0.18061212321895309 0 0.38414633929606479 -0.2017211797653724 0 0.39509360975394031 -0.18061212321895309 0 0.37999921147615667 -0.19503406661491049 0 0.38373621375160438 -0.1885238144486111 0 0.37910290544765168 -0.18685571494790659 0 0.37999921147615667 -0.19503406661491049 0 0.38414633929606479 -0.2017211797653724 0 0.38373621375160438 -0.1885238144486111 0 0.37220629557919183 -0.19612338441269381 0 0.37999921147615667 -0.19503406661491049 0 0.37910290544765168 -0.18685571494790659 0 0.37220629557919183 -0.19612338441269381 0 0.37273333868611941 -0.2093978965492076 0 0.38414633929606479 -0.2017211797653724 0 0.37220629557919183 -0.19612338441269381 0 0.37999921147615667 -0.19503406661491049 0 0.38414633929606479 -0.2017211797653724 0 0.38414633929606479 -0.2017211797653724 0 0.39694758591794982 -0.18886739411602391 0 0.39509360975394031 -0.18061212321895309 0 0.39694758591794982 -0.18886739411602391 0 0.3969424320709618 -0.1972324897541754 0 0.40101572763622523 -0.19231380306325679 0 0.38414633929606479 -0.2017211797653724 0 0.39694758591794982 -0.18886739411602391 0 0.3969424320709618 -0.1972324897541754 0 0.38414633929606479 -0.2017211797653724 0 0.3969424320709618 -0.1972324897541754 0 0.39287005569986072 -0.20314648074516001 0 0.3969424320709618 -0.1972324897541754 0 0.400612395600416 -0.20053006859666331 0 0.39287005569986072 -0.20314648074516001 0 0.3969424320709618 -0.1972324897541754 0 0.4059814476455269 -0.19573306963025069 0 0.400612395600416 -0.20053006859666331 0 0.4059814476455269 -0.19573306963025069 0 0.400612395600416 -0.20053006859666331 0 0.40665564698531481 -0.2060082342570673 0 0.3969424320709618 -0.1972324897541754 0 0.4059814476455269 -0.19573306963025069 0 0.40101572763622523 -0.19231380306325679 0 0.4059814476455269 -0.19573306963025069 0 0.40101572763622523 -0.19231380306325679 0 0.40419144491046238 -0.1874222587525772 0 0.39694758591794982 -0.18886739411602391 0 0.40101572763622523 -0.19231380306325679 0 0.40419144491046238 -0.1874222587525772 0 0.38675328488958288 -0.2095276895359276 0 0.40665564698531481 -0.2060082342570673 0 0.38675328488958288 -0.2095276895359276 0 0.39915185452682361 -0.21610044156742811 0 0.40665564698531481 -0.2060082342570673 0 0.38675328488958288 -0.2095276895359276 0 0.39287005569986072 -0.20314648074516001 0 0.40665564698531481 -0.2060082342570673 0 0.38700545273377529 -0.2233412248148075 0 0.38675328488958288 -0.2095276895359276 0 0.39915185452682361 -0.21610044156742811 0 0.400612395600416 -0.20053006859666331 0 0.39287005569986072 -0.20314648074516001 0 0.40665564698531481 -0.2060082342570673 0 0.41396763236883027 -0.21470461273584779 0 0.40665564698531481 -0.2060082342570673 0 0.42655800908104652 -0.20248877897820619 0 0.40665564698531481 -0.2060082342570673 0 0.42655800908104652 -0.20248877897820619 0 0.39915185452682361 -0.21610044156742811 0 0.41396763236883027 -0.21470461273584779 0 0.40665564698531481 -0.2060082342570673 0 0.41396763236883027 -0.21470461273584779 0 0.42655800908104652 -0.20248877897820619 0 0.40665564698531481 -0.2060082342570673 0 0.41640017291144837 -0.19588579121564459 0 0.42655800908104652 -0.20248877897820619 0 0.4059814476455269 -0.19573306963025069 0 0.41640017291144837 -0.19588579121564459 0 0.41453364601533049 -0.1862870086825022 0 0.4059814476455269 -0.19573306963025069 0 0.40419144491046238 -0.1874222587525772 0 0.41453364601533049 -0.1862870086825022 0 0.4059814476455269 -0.19573306963025069 0 0.40665564698531481 -0.2060082342570673 0 0.41640017291144837 -0.19588579121564459 0 0.41640017291144837 -0.19588579121564459 0 0.42581299264578848 -0.18832250896932939 0 0.41453364601533049 -0.1862870086825022 0 0.42655800908104652 -0.20248877897820619 0 0.444302871767289 -0.18527179670816579 0 0.42581299264578848 -0.18832250896932939 0 0.42655800908104652 -0.20248877897820619 0 0.444302871767289 -0.18527179670816579 0 0.41640017291144837 -0.19588579121564459 0 0.42581299264578848 -0.18832250896932939 0 0.42655800908104652 -0.20248877897820619 0 0.42655800908104652 -0.20248877897820619 0 0.43237997939727391 -0.21969514264188619 0 0.44995934289594253 -0.19835057932979169 0 0.41396763236883027 -0.21470461273584779 0 0.42655800908104652 -0.20248877897820619 0 0.43237997939727391 -0.21969514264188619 0 0.43237997939727391 -0.21969514264188619 0 0.43199948472716282 -0.23703470349933331 0 0.4148006158986044 -0.24103970595398019 0 0.43237997939727391 -0.21969514264188619 0 0.4148006158986044 -0.24103970595398019 0 0.43199948472716282 -0.23703470349933331 0 0.4148006158986044 -0.24103970595398019 0 0.42892204251950339 -0.2594807324876427 0 0.43199948472716282 -0.23703470349933331 0 0.44338493428344739 -0.24574379201886831 0 0.42892204251950339 -0.2594807324876427 0 0.43237997939727391 -0.21969514264188619 0 0.4148006158986044 -0.24103970595398019 0 0.41563137083033092 -0.22558997695630109 0 0.41396763236883027 -0.21470461273584779 0 0.43237997939727391 -0.21969514264188619 0 0.41563137083033092 -0.22558997695630109 0 0.40137725565661481 -0.22692044649349019 0 0.4148006158986044 -0.24103970595398019 0 0.41563137083033092 -0.22558997695630109 0 0.40137725565661481 -0.22692044649349019 0 0.41396763236883027 -0.21470461273584779 0 0.40137725565661481 -0.22692044649349019 0 0.41396763236883027 -0.21470461273584779 0 0.41563137083033092 -0.22558997695630109 0 0.39237070121405998 -0.13164091544729051 0 0.39988799210863701 -0.14408364481314989 0 0.41368108829086198 -0.13554811058748131 0 0.40604313277712428 -0.1171380761358455 0 0.39237070121405998 -0.13164091544729051 0 0.41368108829086198 -0.13554811058748131 0 0.39237070121405998 -0.13164091544729051 0 0.37656812491251679 -0.13846106794218549 0 0.38605620033535121 -0.1499684147877679 0 0.3785150876385216 -0.1195111518185689 0 0.39237070121405998 -0.13164091544729051 0 0.37656812491251679 -0.13846106794218549 0 0.36359383050920879 -0.15501193774405861 0 0.37656812491251679 -0.13846106794218549 0 0.38605620033535121 -0.1499684147877679 0 0.39237070121405998 -0.13164091544729051 0 0.38605620033535121 -0.1499684147877679 0 0.39988799210863701 -0.14408364481314989 0 0.38605620033535121 -0.1499684147877679 0 0.39988799210863701 -0.14408364481314989 0 0.39700055726989097 -0.15664682800685811 0 0.39988799210863701 -0.14408364481314989 0 0.39700055726989097 -0.15664682800685811 0 0.40766935758353628 -0.1563629578155839 0 0.40291487034120532 -0.16553079014728059 0 0.39700055726989097 -0.15664682800685811 0 0.38691599599779503 -0.1739660947730671 0 0.40291487034120532 -0.16553079014728059 0 0.38691599599779503 -0.1739660947730671 0 0.40291487034120532 -0.16553079014728059 0 0.39700055726989097 -0.15664682800685811 0 0.40766935758353628 -0.1563629578155839 0 0.40291487034120532 -0.16553079014728059 0 0.40766935758353628 -0.1563629578155839 0 0.38605620033535121 -0.1499684147877679 0 0.39700055726989097 -0.15664682800685811 0 0.38691599599779503 -0.1739660947730671 0 0.36359383050920879 -0.15501193774405861 0 0.38691599599779503 -0.1739660947730671 0 0.36359383050920879 -0.15501193774405861 0 0.38605620033535121 -0.1499684147877679 0 0.38691599599779503 -0.1739660947730671 0 0.36422253950936112 -0.1859310752075029 0 0.38691599599779503 -0.1739660947730671 0 0.37910290544765168 -0.18685571494790659 0 0.36422253950936112 -0.1859310752075029 0 0.38691599599779503 -0.1739660947730671 0 0.38691599599779503 -0.1739660947730671 0 0.38753717637180268 -0.18155585423065651 0 0.39509360975394031 -0.18061212321895309 0 0.38373621375160438 -0.1885238144486111 0 0.38753717637180268 -0.18155585423065651 0 0.39509360975394031 -0.18061212321895309 0 0.38691599599779503 -0.1739660947730671 0 0.37910290544765168 -0.18685571494790659 0 0.38753717637180268 -0.18155585423065651 0 0.38373621375160438 -0.1885238144486111 0 0.37910290544765168 -0.18685571494790659 0 0.38753717637180268 -0.18155585423065651 0 0.40291487034120532 -0.16553079014728059 0 0.38691599599779503 -0.1739660947730671 0 0.39509360975394031 -0.18061212321895309 0 0.39694758591794982 -0.18886739411602391 0 0.39665445354372708 -0.18451779314135289 0 0.39509360975394031 -0.18061212321895309 0 0.39694758591794982 -0.18886739411602391 0 0.39665445354372708 -0.18451779314135289 0 0.40021252966215071 -0.18382207331845951 0 0.39665445354372708 -0.18451779314135289 0 0.39509360975394031 -0.18061212321895309 0 0.40021252966215071 -0.18382207331845951 0 0.38691599599779503 -0.1739660947730671 0 0.39509360975394031 -0.18061212321895309 0 0.40291487034120532 -0.16553079014728059 0 0.39509360975394031 -0.18061212321895309 0 0.40549068313545528 -0.17742909809594989 0 0.40291487034120532 -0.16553079014728059 0 0.39509360975394031 -0.18061212321895309 0 0.40549068313545528 -0.17742909809594989 0 0.40419144491046238 -0.1874222587525772 0 0.40021252966215071 -0.18382207331845951 0 0.39509360975394031 -0.18061212321895309 0 0.40549068313545528 -0.17742909809594989 0 0.40021252966215071 -0.18382207331845951 0 0.39694758591794982 -0.18886739411602391 0 0.40419144491046238 -0.1874222587525772 0 0.40021252966215071 -0.18382207331845951 0 0.42581299264578848 -0.18832250896932939 0 0.41453364601533049 -0.1862870086825022 0 0.42235201908535791 -0.17050045814039369 0 0.40549068313545528 -0.17742909809594989 0 0.41453364601533049 -0.1862870086825022 0 0.42235201908535791 -0.17050045814039369 0 0.40549068313545528 -0.17742909809594989 0 0.40419144491046238 -0.1874222587525772 0 0.41453364601533049 -0.1862870086825022 0 0.42235201908535791 -0.17050045814039369 0 0.44127751826325029 -0.16493106072254701 0 0.444302871767289 -0.18527179670816579 0 0.42581299264578848 -0.18832250896932939 0 0.42235201908535791 -0.17050045814039369 0 0.444302871767289 -0.18527179670816579 0 0.42235201908535791 -0.17050045814039369 0 0.42606808286872072 -0.1533234062687002 0 0.44127751826325029 -0.16493106072254701 0 0.40291487034120532 -0.16553079014728059 0 0.40766935758353628 -0.1563629578155839 0 0.42606808286872072 -0.1533234062687002 0 0.40291487034120532 -0.16553079014728059 0 0.42606808286872072 -0.1533234062687002 0 0.40291487034120532 -0.16553079014728059 0 0.42235201908535791 -0.17050045814039369 0 0.42606808286872072 -0.1533234062687002 0 0.40291487034120532 -0.16553079014728059 0 0.40549068313545528 -0.17742909809594989 0 0.42235201908535791 -0.17050045814039369 0 0.41182663021293903 -0.1473295298712288 0 0.42606808286872072 -0.1533234062687002 0 0.41368108829086198 -0.13554811058748131 0 0.40766935758353628 -0.1563629578155839 0 0.41182663021293903 -0.1473295298712288 0 0.42606808286872072 -0.1533234062687002 0 0.39988799210863701 -0.14408364481314989 0 0.40766935758353628 -0.1563629578155839 0 0.41182663021293903 -0.1473295298712288 0 0.39988799210863701 -0.14408364481314989 0 0.41182663021293903 -0.1473295298712288 0 0.41368108829086198 -0.13554811058748131 0 0.42606808286872072 -0.1533234062687002 0 0.430889964195386 -0.135117951771525 0 0.44922129539623712 -0.14111602239012119 0 0.42606808286872072 -0.1533234062687002 0 0.430889964195386 -0.135117951771525 0 0.41368108829086198 -0.13554811058748131 0 0.42080162445294911 -0.1170697999396166 0 0.430889964195386 -0.135117951771525 0 0.41368108829086198 -0.13554811058748131 0 0.45825176112352212 -0.1171944005084963 0 0.44922129539623712 -0.14111602239012119 0 0.47461064769812122 -0.12772964805397971 0 0.44922129539623712 -0.14111602239012119 0 0.47461064769812122 -0.12772964805397971 0 0.44922129539623712 -0.14111602239012119 0 0.47041229806123103 -0.14236165737458781 0 0.47461064769812122 -0.12772964805397971 0 0.43893170590200609 -0.1195052611799315 0 0.430889964195386 -0.135117951771525 0 0.44922129539623712 -0.14111602239012119 0 0.43893170590200609 -0.1195052611799315 0 0.45825176112352212 -0.1171944005084963 0 0.44922129539623712 -0.14111602239012119 0 0.43893170590200609 -0.1195052611799315 0 0.44922129539623712 -0.14111602239012119 0 0.42606808286872072 -0.1533234062687002 0 0.44922129539623712 -0.14111602239012119 0 0.44127751826325029 -0.16493106072254701 0 0.42606808286872072 -0.1533234062687002 0 0.44922129539623712 -0.14111602239012119 0 0.44922129539623712 -0.14111602239012119 0 0.46204773445353348 -0.16805481443812731 0 0.44922129539623712 -0.14111602239012119 0 0.46204773445353348 -0.16805481443812731 0 0.47041229806123103 -0.14236165737458781 0 0.44922129539623712 -0.14111602239012119 0 0.46204773445353348 -0.16805481443812731 0 0.44127751826325029 -0.16493106072254701 0 0.46204773445353348 -0.16805481443812731 0 0.44127751826325029 -0.16493106072254701 0 0.444302871767289 -0.18527179670816579 0 0.46204773445353348 -0.16805481443812731 0 0.444302871767289 -0.18527179670816579 0 0.46675991992270621 -0.1779516052682695 0 0.47013600328087812 -0.185042241033678 0 0.44995934289594253 -0.19835057932979169 0 0.444302871767289 -0.18527179670816579 0 0.46675991992270621 -0.1779516052682695 0 0.44995934289594253 -0.19835057932979169 0 0.46204773445353348 -0.16805481443812731 0 0.444302871767289 -0.18527179670816579 0 0.46675991992270621 -0.1779516052682695 0 0.46204773445353348 -0.16805481443812731 0 0.46675991992270621 -0.1779516052682695 0 0.46675991992270621 -0.1779516052682695 0 0.47013600328087812 -0.185042241033678 0 0.46675991992270621 -0.1779516052682695 0 0.48388214138120561 -0.17390417728894431 0 0.47927416581767118 -0.18397687174081401 0 0.46675991992270621 -0.1779516052682695 0 0.47013600328087812 -0.185042241033678 0 0.47927416581767118 -0.18397687174081401 0 0.48388214138120561 -0.17390417728894431 0 0.47927416581767118 -0.18397687174081401 0 0.48987334582395858 -0.18140433091368091 0 0.48987334582395858 -0.18140433091368091 0 0.5 -0.16492372169971509 0 0.5 -0.19225537639104809 0 0.48388214138120561 -0.17390417728894431 0 0.48987334582395858 -0.18140433091368091 0 0.5 -0.16492372169971509 0 0.47927416581767118 -0.18397687174081401 0 0.48987334582395858 -0.18140433091368091 0 0.48552241192915191 -0.19206174635411891 0 0.48388214138120561 -0.17390417728894431 0 0.5 -0.16492372169971509 0 0.48337995996135552 -0.1577718361383266 0 0.46675991992270621 -0.1779516052682695 0 0.48388214138120561 -0.17390417728894431 0 0.48337995996135552 -0.1577718361383266 0 0.46204773445353348 -0.16805481443812731 0 0.46675991992270621 -0.1779516052682695 0 0.48337995996135552 -0.1577718361383266 0 0.46204773445353348 -0.16805481443812731 0 0.48337995996135552 -0.1577718361383266 0 0.47713463147989749 -0.15341672773068571 0 0.46675991992270621 -0.1779516052682695 0 0.48337995996135552 -0.1577718361383266 0 0.46204773445353348 -0.16805481443812731 0 0.47713463147989749 -0.15341672773068571 0 0.46204773445353348 -0.16805481443812731 0 0.47041229806123103 -0.14236165737458781 0 0.47713463147989749 -0.15341672773068571 0 0.48337995996135552 -0.1577718361383266 0 0.47713463147989749 -0.15341672773068571 0 0.48456351921585428 -0.1397192317593817 0 0.47041229806123103 -0.14236165737458781 0 0.47713463147989749 -0.15341672773068571 0 0.48456351921585428 -0.1397192317593817 0 0.48337995996135552 -0.1577718361383266 0 0.50000000000000311 -0.1375920670083822 0 0.48456351921585428 -0.1397192317593817 0 0.5 -0.16492372169971509 0 0.48337995996135552 -0.1577718361383266 0 0.50000000000000311 -0.1375920670083822 0 0.48337995996135552 -0.1577718361383266 0 0.50000000000000311 -0.1375920670083822 0 0.50000000000000433 -0.1143432737178363 0 0.50000000000000311 -0.1375920670083822 0 0.48456351921585428 -0.1397192317593817 0 0.50000000000000433 -0.1143432737178363 0 0.48456351921585428 -0.1397192317593817 0 0.47461064769812122 -0.12772964805397971 0 0.47041229806123103 -0.14236165737458781 0 0.48456351921585428 -0.1397192317593817 0 0.47461064769812122 -0.12772964805397971 0 0.46695018322910392 -0.22473955239466681 0 0.44975785303280541 -0.2255898949688982 0 0.46528918090086291 -0.2095084705765255 0 0.46695018322910392 -0.22473955239466681 0 0.46086119099944728 -0.24298014516654151 0 0.44975785303280541 -0.2255898949688982 0 0.46086119099944728 -0.24298014516654151 0 0.44338493428344739 -0.24574379201886831 0 0.44975785303280541 -0.2255898949688982 0 0.43199948472716282 -0.23703470349933331 0 0.44338493428344739 -0.24574379201886831 0 0.44975785303280541 -0.2255898949688982 0 0.46086119099944728 -0.24298014516654151 0 0.44338493428344739 -0.24574379201886831 0 0.45165913482636821 -0.26068325523694041 0 0.43237997939727391 -0.21969514264188619 0 0.43199948472716282 -0.23703470349933331 0 0.44975785303280541 -0.2255898949688982 0 0.43237997939727391 -0.21969514264188619 0 0.44975785303280541 -0.2255898949688982 0 0.44995934289594253 -0.19835057932979169 0 0.43237997939727391 -0.21969514264188619 0 0.44995934289594253 -0.19835057932979169 0 0.42655800908104652 -0.20248877897820619 0 0.444302871767289 -0.18527179670816579 0 0.44995934289594253 -0.19835057932979169 0 0.42655800908104652 -0.20248877897820619 0 0.44995934289594253 -0.19835057932979169 0 0.46675991992270621 -0.1779516052682695 0 0.44995934289594253 -0.19835057932979169 0 0.44995934289594253 -0.19835057932979169 0 0.46774087741254722 -0.19520616284195491 0 0.47013600328087812 -0.185042241033678 0 0.44995934289594253 -0.19835057932979169 0 0.46774087741254722 -0.19520616284195491 0 0.44995934289594253 -0.19835057932979169 0 0.46774087741254722 -0.19520616284195491 0 0.46528918090086291 -0.2095084705765255 0 0.44975785303280541 -0.2255898949688982 0 0.44995934289594253 -0.19835057932979169 0 0.46528918090086291 -0.2095084705765255 0 0.46695018322910392 -0.22473955239466681 0 0.46528918090086291 -0.2095084705765255 0 0.48029579162163721 -0.21558854579597769 0 0.46528918090086291 -0.2095084705765255 0 0.47801733861628259 -0.20339364304417529 0 0.48029579162163721 -0.21558854579597769 0 0.47801733861628259 -0.20339364304417529 0 0.48029579162163721 -0.21558854579597769 0 0.48876710843341442 -0.20457726853354019 0 0.46774087741254722 -0.19520616284195491 0 0.47801733861628259 -0.20339364304417529 0 0.48552241192915191 -0.19206174635411891 0 0.47927416581767118 -0.18397687174081401 0 0.46774087741254722 -0.19520616284195491 0 0.48552241192915191 -0.19206174635411891 0 0.46774087741254722 -0.19520616284195491 0 0.48552241192915191 -0.19206174635411891 0 0.47013600328087812 -0.185042241033678 0 0.47927416581767118 -0.18397687174081401 0 0.46774087741254722 -0.19520616284195491 0 0.46774087741254722 -0.19520616284195491 0 0.46528918090086291 -0.2095084705765255 0 0.47801733861628259 -0.20339364304417529 0 0.47801733861628259 -0.20339364304417529 0 0.48552241192915191 -0.19206174635411891 0 0.48876710843341442 -0.20457726853354019 0 0.48987334582395858 -0.18140433091368091 0 0.48552241192915191 -0.19206174635411891 0 0.5 -0.19225537639104809 0 0.48552241192915191 -0.19206174635411891 0 0.5 -0.19225537639104809 0 0.48876710843341442 -0.20457726853354019 0 0.5 -0.19225537639104809 0 0.48876710843341442 -0.20457726853354019 0 0.5 -0.21958703108238101 0 0.48029579162163721 -0.21558854579597769 0 0.48876710843341442 -0.20457726853354019 0 0.5 -0.21958703108238101 0 0.5 -0.21958703108238101 0 0.48033598971293961 -0.23536730169414519 0 0.5 -0.24691868577371379 0 0.48029579162163721 -0.21558854579597769 0 0.5 -0.21958703108238101 0 0.48033598971293961 -0.23536730169414519 0 0.46695018322910392 -0.22473955239466681 0 0.46086119099944728 -0.24298014516654151 0 0.48033598971293961 -0.23536730169414519 0 0.46695018322910392 -0.22473955239466681 0 0.48029579162163721 -0.21558854579597769 0 0.48033598971293961 -0.23536730169414519 0 0.46086119099944728 -0.24298014516654151 0 0.48033598971293961 -0.23536730169414519 0 0.47450143065275591 -0.2599846894272051 0 0.48033598971293961 -0.23536730169414519 0 0.5 -0.24691868577371379 0 0.47450143065275591 -0.2599846894272051 0 0.5 -0.24691868577371379 0 0.50000000000000222 -0.27425034046504659 0 0.47450143065275591 -0.2599846894272051 0 0.50000000000000222 -0.27425034046504659 0 0.47605513413645029 -0.28008102786359129 0 0.47450143065275591 -0.2599846894272051 0 0.47605513413645029 -0.28008102786359129 0 0.47450143065275591 -0.2599846894272051 0 0.45931845050930209 -0.27772900618102819 0 0.46086119099944728 -0.24298014516654151 0 0.47450143065275591 -0.2599846894272051 0 0.45165913482636821 -0.26068325523694041 0 0.47450143065275591 -0.2599846894272051 0 0.45931845050930209 -0.27772900618102819 0 0.45165913482636821 -0.26068325523694041 0 0.45931845050930209 -0.27772900618102819 0 0.44355941821905998 -0.27577600561597132 0 0.45165913482636821 -0.26068325523694041 0 0.44338493428344739 -0.24574379201886831 0 0.45165913482636821 -0.26068325523694041 0 0.42892204251950339 -0.2594807324876427 0 0.44355941821905998 -0.27577600561597132 0 0.45165913482636821 -0.26068325523694041 0 0.42892204251950339 -0.2594807324876427 0 0.44743457629936911 -0.29125199491084608 0 0.45088585771739531 -0.31517042999936162 0 0.43686388954492023 -0.30206384222820981 0 0.45088585771739531 -0.31517042999936162 0 0.43602078127065758 -0.31524868357114688 0 0.43686388954492023 -0.30206384222820981 0 0.45931845050930209 -0.27772900618102819 0 0.44355941821905998 -0.27577600561597132 0 0.44743457629936911 -0.29125199491084608 0 0.44355941821905998 -0.27577600561597132 0 0.44743457629936911 -0.29125199491084608 0 0.42611848489587972 -0.28658767974219163 0 0.47605513413645029 -0.28008102786359129 0 0.45931845050930209 -0.27772900618102819 0 0.46516191830632447 -0.295844547827811 0 0.45931845050930209 -0.27772900618102819 0 0.44743457629936911 -0.29125199491084608 0 0.46516191830632447 -0.295844547827811 0 0.44743457629936911 -0.29125199491084608 0 0.46516191830632447 -0.295844547827811 0 0.45088585771739531 -0.31517042999936162 0 0.46516191830632447 -0.295844547827811 0 0.47218478901913252 -0.31616939882945228 0 0.45088585771739531 -0.31517042999936162 0 0.4860923945095682 -0.29520986964724988 0 0.47218478901913252 -0.31616939882945228 0 0.50000000000000222 -0.27425034046504659 0 0.4860923945095682 -0.29520986964724988 0 0.5 -0.307151228172029 0 0.46516191830632447 -0.295844547827811 0 0.4860923945095682 -0.29520986964724988 0 0.47218478901913252 -0.31616939882945228 0 0.47605513413645029 -0.28008102786359129 0 0.46516191830632447 -0.295844547827811 0 0.4860923945095682 -0.29520986964724988 0 0.50000000000000222 -0.27425034046504659 0 0.47605513413645029 -0.28008102786359129 0 0.4860923945095682 -0.29520986964724988 0 0.50000000000000222 -0.27425034046504659 0 0.4860923945095682 -0.29520986964724988 0 0.4860923945095682 -0.29520986964724988 0 0.5 -0.307151228172029 0 0.47218478901913252 -0.31616939882945228 0 0.5 -0.307151228172029 0 0.47500442815187882 -0.33618410333150461 0 0.5 -0.35237408365171952 0 0.5 -0.307151228172029 0 0.47500442815187882 -0.33618410333150461 0 0.47218478901913252 -0.31616939882945228 0 0.47500442815187882 -0.33618410333150461 0 0.5 -0.35237408365171952 0 0.46252966193221051 -0.36479181955861489 0 0.5 -0.35237408365171952 0 0.46252966193221051 -0.36479181955861489 0 0.4680243894331878 -0.39009447735167219 0 0.46252966193221051 -0.36479181955861489 0 0.44439653888602387 -0.37108278870097211 0 0.45518384933885458 -0.37953704158418422 0 0.46252966193221051 -0.36479181955861489 0 0.4490308344886651 -0.35295870566956811 0 0.45703493443123322 -0.33948916176555749 0 0.47500442815187882 -0.33618410333150461 0 0.46252966193221051 -0.36479181955861489 0 0.45703493443123322 -0.33948916176555749 0 0.46252966193221051 -0.36479181955861489 0 0.45703493443123322 -0.33948916176555749 0 0.4490308344886651 -0.35295870566956811 0 0.44439653888602387 -0.37108278870097211 0 0.43547581015886039 -0.35374612963373181 0 0.44432011104097457 -0.34600420025309703 0 0.4490308344886651 -0.35295870566956811 0 0.45042795048268808 -0.34263813410543531 0 0.4490308344886651 -0.35295870566956811 0 0.45703493443123322 -0.33948916176555749 0 0.45042795048268808 -0.34263813410543531 0 0.44432011104097457 -0.34600420025309703 0 0.4490308344886651 -0.35295870566956811 0 0.43547581015886039 -0.35374612963373181 0 0.44432011104097457 -0.34600420025309703 0 0.43877314986606192 -0.33818418946214152 0 0.43547581015886039 -0.35374612963373181 0 0.46252966193221051 -0.36479181955861489 0 0.4490308344886651 -0.35295870566956811 0 0.44439653888602387 -0.37108278870097211 0 0.47218478901913252 -0.31616939882945228 0 0.45845081404400378 -0.32484725803309861 0 0.45088585771739531 -0.31517042999936162 0 0.47218478901913252 -0.31616939882945228 0 0.45845081404400378 -0.32484725803309861 0 0.45827718352869679 -0.33712892801165451 0 0.47218478901913252 -0.31616939882945228 0 0.45827718352869679 -0.33712892801165451 0 0.45845081404400378 -0.32484725803309861 0 0.45465012105844921 -0.33200612518688721 0 0.44755831468875862 -0.32470483606049327 0 0.47500442815187882 -0.33618410333150461 0 0.45703493443123322 -0.33948916176555749 0 0.45827718352869679 -0.33712892801165451 0 0.47500442815187882 -0.33618410333150461 0 0.47218478901913252 -0.31616939882945228 0 0.45827718352869679 -0.33712892801165451 0 0.45703493443123322 -0.33948916176555749 0 0.4547926195999189 -0.33699511694280199 0 0.45042795048268808 -0.34263813410543531 0 0.45703493443123322 -0.33948916176555749 0 0.45827718352869679 -0.33712892801165451 0 0.4547926195999189 -0.33699511694280199 0 0.45845081404400378 -0.32484725803309861 0 0.45827718352869679 -0.33712892801165451 0 0.45465012105844921 -0.33200612518688721 0 0.4547926195999189 -0.33699511694280199 0 0.45465012105844921 -0.33200612518688721 0 0.45190540097192972 -0.33615439765103378 0 0.45827718352869679 -0.33712892801165451 0 0.4547926195999189 -0.33699511694280199 0 0.45465012105844921 -0.33200612518688721 0 0.45465012105844921 -0.33200612518688721 0 0.44749393872662357 -0.33307274595813069 0 0.44755831468875862 -0.32470483606049327 0 0.45465012105844921 -0.33200612518688721 0 0.44749393872662357 -0.33307274595813069 0 0.45190540097192972 -0.33615439765103378 0 0.4547926195999189 -0.33699511694280199 0 0.45042795048268808 -0.34263813410543531 0 0.45190540097192972 -0.33615439765103378 0 0.45042795048268808 -0.34263813410543531 0 0.45190540097192972 -0.33615439765103378 0 0.44691761172297523 -0.33872250108465612 0 0.44749393872662357 -0.33307274595813069 0 0.45190540097192972 -0.33615439765103378 0 0.44691761172297523 -0.33872250108465612 0 0.44432011104097457 -0.34600420025309703 0 0.45042795048268808 -0.34263813410543531 0 0.44691761172297523 -0.33872250108465612 0 0.44432011104097457 -0.34600420025309703 0 0.44691761172297523 -0.33872250108465612 0 0.43877314986606192 -0.33818418946214152 0 0.44749393872662357 -0.33307274595813069 0 0.44691761172297523 -0.33872250108465612 0 0.43877314986606192 -0.33818418946214152 0 0.44749393872662357 -0.33307274595813069 0 0.43877314986606192 -0.33818418946214152 0 0.43784837531542259 -0.32788377361433518 0 0.44749393872662357 -0.33307274595813069 0 0.43784837531542259 -0.32788377361433518 0 0.44755831468875862 -0.32470483606049327 0 0.43784837531542259 -0.32788377361433518 0 0.44755831468875862 -0.32470483606049327 0 0.43602078127065758 -0.31524868357114688 0 0.45845081404400378 -0.32484725803309861 0 0.44755831468875862 -0.32470483606049327 0 0.45088585771739531 -0.31517042999936162 0 0.44755831468875862 -0.32470483606049327 0 0.45088585771739531 -0.31517042999936162 0 0.43602078127065758 -0.31524868357114688 0 0.43784837531542259 -0.32788377361433518 0 0.42583518759170652 -0.33528639298719382 0 0.41775460495295358 -0.31793141321765611 0 0.43784837531542259 -0.32788377361433518 0 0.43602078127065758 -0.31524868357114688 0 0.41775460495295358 -0.31793141321765611 0 0.43877314986606192 -0.33818418946214152 0 0.43784837531542259 -0.32788377361433518 0 0.42583518759170652 -0.33528639298719382 0 0.43877314986606192 -0.33818418946214152 0 0.42583518759170652 -0.33528639298719382 0 0.43547581015886039 -0.35374612963373181 0 0.41250416259223432 -0.33960725990233392 0 0.41775460495295358 -0.31793141321765611 0 0.39805431729583179 -0.33510365622952631 0 0.41250416259223432 -0.33960725990233392 0 0.41775460495295358 -0.31793141321765611 0 0.42583518759170652 -0.33528639298719382 0 0.41250416259223432 -0.33960725990233392 0 0.41775460495295358 -0.31793141321765611 0 0.42583518759170652 -0.33528639298719382 0 0.41250416259223432 -0.33960725990233392 0 0.42034794007649889 -0.35298104146800569 0 0.43547581015886039 -0.35374612963373181 0 0.42034794007649889 -0.35298104146800569 0 0.42578668388574042 -0.37577956855813549 0 0.44439653888602387 -0.37108278870097211 0 0.43547581015886039 -0.35374612963373181 0 0.42578668388574042 -0.37577956855813549 0 0.42583518759170652 -0.33528639298719382 0 0.43547581015886039 -0.35374612963373181 0 0.42034794007649889 -0.35298104146800569 0 0.41250416259223432 -0.33960725990233392 0 0.42034794007649889 -0.35298104146800569 0 0.40725372023151529 -0.36128310658701179 0 0.41250416259223432 -0.33960725990233392 0 0.40725372023151529 -0.36128310658701179 0 0.40725372023151529 -0.36128310658701179 0 0.42578668388574042 -0.37577956855813549 0 0.40193856510946419 -0.3832261124550107 0 0.40725372023151529 -0.36128310658701179 0 0.42578668388574042 -0.37577956855813549 0 0.42034794007649889 -0.35298104146800569 0 0.40725372023151529 -0.36128310658701179 0 0.42578668388574042 -0.37577956855813549 0 0.40725372023151529 -0.36128310658701179 0 0.39425043507280438 -0.36432915978129837 0 0.40193856510946419 -0.3832261124550107 0 0.40725372023151529 -0.36128310658701179 0 0.40193856510946419 -0.3832261124550107 0 0.39425043507280438 -0.36432915978129837 0 0.38081427771294768 -0.36737052156009248 0 0.40193856510946419 -0.3832261124550107 0 0.40725372023151529 -0.36128310658701179 0 0.38699517723729038 -0.34543689852307891 0 0.39805431729583179 -0.33510365622952631 0 0.40725372023151529 -0.36128310658701179 0 0.39425043507280438 -0.36432915978129837 0 0.38699517723729038 -0.34543689852307891 0 0.40725372023151529 -0.36128310658701179 0 0.38699517723729038 -0.34543689852307891 0 0.41250416259223432 -0.33960725990233392 0 0.40725372023151529 -0.36128310658701179 0 0.39805431729583179 -0.33510365622952631 0 0.38699517723729038 -0.34543689852307891 0 0.38081427771294768 -0.36737052156009248 0 0.37640125955739012 -0.35149107478397351 0 0.38465179156333151 -0.34360390505586791 0 0.36805061276354478 -0.3427907498460791 0 0.39425043507280438 -0.36432915978129837 0 0.38699517723729038 -0.34543689852307891 0 0.38081427771294768 -0.36737052156009248 0 0.38699517723729038 -0.34543689852307891 0 0.37640125955739012 -0.35149107478397351 0 0.38081427771294768 -0.36737052156009248 0 0.38699517723729038 -0.34543689852307891 0 0.38465179156333151 -0.34360390505586791 0 0.38699517723729038 -0.34543689852307891 0 0.37640125955739012 -0.35149107478397351 0 0.38465179156333151 -0.34360390505586791 0 0.41775460495295358 -0.31793141321765611 0 0.39401776620237461 -0.32051644503610022 0 0.39805431729583179 -0.33510365622952631 0 0.38699517723729038 -0.34543689852307891 0 0.39401776620237461 -0.32051644503610022 0 0.39805431729583179 -0.33510365622952631 0 0.38699517723729038 -0.34543689852307891 0 0.39401776620237461 -0.32051644503610022 0 0.38465179156333151 -0.34360390505586791 0 0.37858644206980091 -0.32769985780377792 0 0.36805061276354478 -0.3427907498460791 0 0.38699517723729038 -0.34543689852307891 0 0.39401776620237461 -0.32051644503610022 0 0.38465179156333151 -0.34360390505586791 0 0.39401776620237461 -0.32051644503610022 0 0.38465179156333151 -0.34360390505586791 0 0.37858644206980091 -0.32769985780377792 0 0.39401776620237461 -0.32051644503610022 0 0.37858644206980091 -0.32769985780377792 0 0.37861767820969228 -0.30691821554646831 0 0.41775460495295358 -0.31793141321765611 0 0.39401776620237461 -0.32051644503610022 0 0.40104035516745928 -0.29559599154912142 0 0.39401776620237461 -0.32051644503610022 0 0.37861767820969228 -0.30691821554646831 0 0.40104035516745928 -0.29559599154912142 0 0.39401776620237461 -0.32051644503610022 0 0.40104035516745928 -0.29559599154912142 0 0.40104035516745928 -0.29559599154912142 0 0.38498320530945151 -0.287592927137584 0 0.39655653748852282 -0.27284147297554762 0 0.38498320530945151 -0.287592927137584 0 0.37764450162479901 -0.26965755496232408 0 0.36873774536035581 -0.28861226174546889 0 0.37861767820969228 -0.30691821554646831 0 0.40104035516745928 -0.29559599154912142 0 0.38498320530945151 -0.287592927137584 0 0.37861767820969228 -0.30691821554646831 0 0.38498320530945151 -0.287592927137584 0 0.36873774536035581 -0.28861226174546889 0 0.38498320530945151 -0.287592927137584 0 0.37764450162479901 -0.26965755496232408 0 0.39655653748852282 -0.27284147297554762 0 0.39206528024080278 -0.24921397013056479 0 0.37764450162479901 -0.26965755496232408 0 0.39655653748852282 -0.27284147297554762 0 0.39206528024080278 -0.24921397013056479 0 0.37764450162479901 -0.26965755496232408 0 0.37510228513818711 -0.25237727586059511 0 0.39206528024080278 -0.24921397013056479 0 0.39655653748852282 -0.27284147297554762 0 0.40884184876520419 -0.25890250189124958 0 0.40104035516745928 -0.29559599154912142 0 0.39655653748852282 -0.27284147297554762 0 0.4136044294752057 -0.2739163227279473 0 0.39655653748852282 -0.27284147297554762 0 0.4136044294752057 -0.2739163227279473 0 0.40884184876520419 -0.25890250189124958 0 0.4148006158986044 -0.24103970595398019 0 0.40884184876520419 -0.25890250189124958 0 0.42892204251950339 -0.2594807324876427 0 0.4136044294752057 -0.2739163227279473 0 0.40884184876520419 -0.25890250189124958 0 0.42892204251950339 -0.2594807324876427 0 0.4136044294752057 -0.2739163227279473 0 0.42892204251950339 -0.2594807324876427 0 0.42611848489587972 -0.28658767974219163 0 0.44355941821905998 -0.27577600561597132 0 0.42892204251950339 -0.2594807324876427 0 0.42611848489587972 -0.28658767974219163 0 0.44743457629936911 -0.29125199491084608 0 0.42611848489587972 -0.28658767974219163 0 0.43686388954492023 -0.30206384222820981 0 0.43602078127065758 -0.31524868357114688 0 0.41775460495295358 -0.31793141321765611 0 0.42179240152309172 -0.30222108271158582 0 0.42611848489587972 -0.28658767974219163 0 0.43686388954492023 -0.30206384222820981 0 0.42179240152309172 -0.30222108271158582 0 0.43602078127065758 -0.31524868357114688 0 0.43686388954492023 -0.30206384222820981 0 0.42179240152309172 -0.30222108271158582 0 0.41775460495295358 -0.31793141321765611 0 0.40104035516745928 -0.29559599154912142 0 0.42179240152309172 -0.30222108271158582 0 0.40104035516745928 -0.29559599154912142 0 0.4136044294752057 -0.2739163227279473 0 0.42611848489587972 -0.28658767974219163 0 0.40104035516745928 -0.29559599154912142 0 0.42611848489587972 -0.28658767974219163 0 0.42179240152309172 -0.30222108271158582 0 0.5 -0.5 0 0.478892924595126 -0.45923392689990328 0 0.5 -0.41454166856117469 0 0.5 -0.5 0 0.47943423265092072 -0.49342116463239621 0 0.40014079662082208 -0.5 0 0.43983937115661631 -0.46972557693384148 0 0.47943423265092072 -0.49342116463239621 0 0.40014079662082208 -0.5 0 0.43983937115661631 -0.46972557693384148 0 0.46715606132834708 -0.47012790102379598 0 0.47943423265092072 -0.49342116463239621 0 0.5 -0.5 0 0.47943423265092072 -0.49342116463239621 0 0.478892924595126 -0.45923392689990328 0 0.46715606132834708 -0.47012790102379598 0 0.47943423265092072 -0.49342116463239621 0 0.478892924595126 -0.45923392689990328 0 0.46715606132834708 -0.47012790102379598 0 0.47943423265092072 -0.49342116463239621 0 0.478892924595126 -0.45923392689990328 0 0.45487789000577361 -0.44683463741519602 0 0.47188936358571532 -0.4304781897668572 0 0.46715606132834708 -0.47012790102379598 0 0.45487789000577361 -0.44683463741519602 0 0.46715606132834708 -0.47012790102379598 0 0.478892924595126 -0.45923392689990328 0 0.45487789000577361 -0.44683463741519602 0 0.43983937115661631 -0.46972557693384148 0 0.46715606132834708 -0.47012790102379598 0 0.45487789000577361 -0.44683463741519602 0 0.43983937115661631 -0.46972557693384148 0 0.45487789000577361 -0.44683463741519602 0 0.43095981599733307 -0.44753658110846528 0 0.45487789000577361 -0.44683463741519602 0 0.43408281430989271 -0.43319973453275151 0 0.43095981599733307 -0.44753658110846528 0 0.45487789000577361 -0.44683463741519602 0 0.44259971868320003 -0.42354137380659601 0 0.45487789000577361 -0.44683463741519602 0 0.44259971868320003 -0.42354137380659601 0 0.43408281430989271 -0.43319973453275151 0 0.45487789000577361 -0.44683463741519602 0 0.44259971868320003 -0.42354137380659601 0 0.45959372781066021 -0.42263882295877442 0 0.44259971868320003 -0.42354137380659601 0 0.45186952978880229 -0.40983589673226128 0 0.45959372781066021 -0.42263882295877442 0 0.44259971868320003 -0.42354137380659601 0 0.45186952978880229 -0.40983589673226128 0 0.44161148704613862 -0.40579593671517361 0 0.44259971868320003 -0.42354137380659601 0 0.44161148704613862 -0.40579593671517361 0 0.43098246877755192 -0.41858878846052949 0 0.45186952978880229 -0.40983589673226128 0 0.45959372781066021 -0.42263882295877442 0 0.46285261119418991 -0.40477249250038388 0 0.45959372781066021 -0.42263882295877442 0 0.4735191169341651 -0.41539713514472942 0 0.46285261119418991 -0.40477249250038388 0 0.45959372781066021 -0.42263882295877442 0 0.47188936358571532 -0.4304781897668572 0 0.4735191169341651 -0.41539713514472942 0 0.45487789000577361 -0.44683463741519602 0 0.45959372781066021 -0.42263882295877442 0 0.47188936358571532 -0.4304781897668572 0 0.5 -0.41454166856117469 0 0.4735191169341651 -0.41539713514472942 0 0.4680243894331878 -0.39009447735167219 0 0.478892924595126 -0.45923392689990328 0 0.47188936358571532 -0.4304781897668572 0 0.5 -0.41454166856117469 0 0.47188936358571532 -0.4304781897668572 0 0.5 -0.41454166856117469 0 0.4735191169341651 -0.41539713514472942 0 0.5 -0.35237408365171952 0 0.5 -0.41454166856117469 0 0.4680243894331878 -0.39009447735167219 0 0.4735191169341651 -0.41539713514472942 0 0.4680243894331878 -0.39009447735167219 0 0.46252966193221051 -0.36479181955861489 0 0.45518384933885458 -0.37953704158418422 0 0.4680243894331878 -0.39009447735167219 0 0.45518384933885458 -0.37953704158418422 0 0.4680243894331878 -0.39009447735167219 0 0.44431964753996511 -0.39027603052925969 0 0.46252966193221051 -0.36479181955861489 0 0.4680243894331878 -0.39009447735167219 0 0.4735191169341651 -0.41539713514472942 0 0.4680243894331878 -0.39009447735167219 0 0.46285261119418991 -0.40477249250038388 0 0.4680243894331878 -0.39009447735167219 0 0.46285261119418991 -0.40477249250038388 0 0.44431964753996511 -0.39027603052925969 0 0.46285261119418991 -0.40477249250038388 0 0.44431964753996511 -0.39027603052925969 0 0.45186952978880229 -0.40983589673226128 0 0.44161148704613862 -0.40579593671517361 0 0.44431964753996511 -0.39027603052925969 0 0.45186952978880229 -0.40983589673226128 0 0.46285261119418991 -0.40477249250038388 0 0.44431964753996511 -0.39027603052925969 0 0.44439653888602387 -0.37108278870097211 0 0.44431964753996511 -0.39027603052925969 0 0.42578668388574042 -0.37577956855813549 0 0.44439653888602387 -0.37108278870097211 0 0.45518384933885458 -0.37953704158418422 0 0.44431964753996511 -0.39027603052925969 0 0.44431964753996511 -0.39027603052925969 0 0.42578668388574042 -0.37577956855813549 0 0.42627525148907153 -0.39512359141131242 0 0.44431964753996511 -0.39027603052925969 0 0.42578668388574042 -0.37577956855813549 0 0.44161148704613862 -0.40579593671517361 0 0.44431964753996511 -0.39027603052925969 0 0.42627525148907153 -0.39512359141131242 0 0.44161148704613862 -0.40579593671517361 0 0.42627525148907153 -0.39512359141131242 0 0.41380476734409732 -0.40903711363024231 0 0.41288573556315727 -0.39366710087554208 0 0.39662340998741341 -0.40516911832300972 0 0.41380476734409732 -0.40903711363024231 0 0.42627525148907153 -0.39512359141131242 0 0.41288573556315727 -0.39366710087554208 0 0.41380476734409732 -0.40903711363024231 0 0.42578668388574042 -0.37577956855813549 0 0.41288573556315727 -0.39366710087554208 0 0.40193856510946419 -0.3832261124550107 0 0.42578668388574042 -0.37577956855813549 0 0.42627525148907153 -0.39512359141131242 0 0.41288573556315727 -0.39366710087554208 0 0.38081427771294768 -0.36737052156009248 0 0.37463337818860382 -0.38930414459710588 0 0.3737028077843495 -0.38742295831448542 0 0.38081427771294768 -0.36737052156009248 0 0.38897026210220897 -0.39170162293651239 0 0.37463337818860382 -0.38930414459710588 0 0.38081427771294768 -0.36737052156009248 0 0.37463337818860382 -0.38930414459710588 0 0.38081427771294768 -0.36737052156009248 0 0.40193856510946419 -0.3832261124550107 0 0.38897026210220897 -0.39170162293651239 0 0.38599804764205609 -0.41227829054531151 0 0.37463337818860382 -0.38930414459710588 0 0.38897026210220897 -0.39170162293651239 0 0.39662340998741341 -0.40516911832300972 0 0.38599804764205609 -0.41227829054531151 0 0.38599804764205609 -0.41227829054531151 0 0.36755341006792419 -0.41442821452601158 0 0.37463337818860382 -0.38930414459710588 0 0.38897026210220897 -0.39170162293651239 0 0.38599804764205609 -0.41227829054531151 0 0.37463337818860382 -0.38930414459710588 0 0.40193856510946419 -0.3832261124550107 0 0.38897026210220897 -0.39170162293651239 0 0.39662340998741341 -0.40516911832300972 0 0.41288573556315727 -0.39366710087554208 0 0.40193856510946419 -0.3832261124550107 0 0.39662340998741341 -0.40516911832300972 0 0.40193856510946419 -0.3832261124550107 0 0.39662340998741341 -0.40516911832300972 0 0.38599804764205609 -0.41227829054531151 0 0.41380476734409732 -0.40903711363024231 0 0.39662340998741341 -0.40516911832300972 0 0.38599804764205609 -0.41227829054531151 0 0.41380476734409732 -0.40903711363024231 0 0.40147331832312588 -0.42054231308375889 0 0.38599804764205609 -0.41227829054531151 0 0.41380476734409732 -0.40903711363024231 0 0.38599804764205609 -0.41227829054531151 0 0.36755341006792419 -0.41442821452601158 0 0.38599804764205609 -0.41227829054531151 0 0.37837193070639508 -0.43074191130029282 0 0.36755341006792419 -0.41442821452601158 0 0.38599804764205609 -0.41227829054531151 0 0.37837193070639508 -0.43074191130029282 0 0.39716653888589531 -0.43485585418744782 0 0.37837193070639508 -0.43074191130029282 0 0.39716653888589531 -0.43485585418744782 0 0.38455236834147782 -0.44235831893697952 0 0.38599804764205609 -0.41227829054531151 0 0.39716653888589531 -0.43485585418744782 0 0.40147331832312588 -0.42054231308375889 0 0.38599804764205609 -0.41227829054531151 0 0.39716653888589531 -0.43485585418744782 0 0.40147331832312588 -0.42054231308375889 0 0.39716653888589531 -0.43485585418744782 0 0.40988830344794153 -0.42850982814637428 0 0.39716653888589531 -0.43485585418744782 0 0.40988830344794153 -0.42850982814637428 0 0.41424956646142452 -0.44145335337101582 0 0.40988830344794153 -0.42850982814637428 0 0.42255857874347952 -0.42798536962106742 0 0.41424956646142452 -0.44145335337101582 0 0.40147331832312588 -0.42054231308375889 0 0.40988830344794153 -0.42850982814637428 0 0.41380476734409732 -0.40903711363024231 0 0.40988830344794153 -0.42850982814637428 0 0.41380476734409732 -0.40903711363024231 0 0.42255857874347952 -0.42798536962106742 0 0.44161148704613862 -0.40579593671517361 0 0.41380476734409732 -0.40903711363024231 0 0.43098246877755192 -0.41858878846052949 0 0.44161148704613862 -0.40579593671517361 0 0.41380476734409732 -0.40903711363024231 0 0.41380476734409732 -0.40903711363024231 0 0.43098246877755192 -0.41858878846052949 0 0.42255857874347952 -0.42798536962106742 0 0.43408281430989271 -0.43319973453275151 0 0.42255857874347952 -0.42798536962106742 0 0.43095981599733307 -0.44753658110846528 0 0.44259971868320003 -0.42354137380659601 0 0.43098246877755192 -0.41858878846052949 0 0.43408281430989271 -0.43319973453275151 0 0.43098246877755192 -0.41858878846052949 0 0.43408281430989271 -0.43319973453275151 0 0.42255857874347952 -0.42798536962106742 0 0.42255857874347952 -0.42798536962106742 0 0.43095981599733307 -0.44753658110846528 0 0.41424956646142452 -0.44145335337101582 0 0.43983937115661631 -0.46972557693384148 0 0.42706067288056998 -0.45966910190407051 0 0.41707216494033877 -0.46659444091922031 0 0.43983937115661631 -0.46972557693384148 0 0.43095981599733307 -0.44753658110846528 0 0.42706067288056998 -0.45966910190407051 0 0.43095981599733307 -0.44753658110846528 0 0.42706067288056998 -0.45966910190407051 0 0.42037133942799187 -0.45481980865475502 0 0.42037133942799187 -0.45481980865475502 0 0.41707216494033877 -0.46659444091922031 0 0.40833503012973449 -0.45743341782958391 0 0.42706067288056998 -0.45966910190407051 0 0.42037133942799187 -0.45481980865475502 0 0.41707216494033877 -0.46659444091922031 0 0.41707216494033877 -0.46659444091922031 0 0.40833503012973449 -0.45743341782958391 0 0.39424227281986102 -0.46676003377889269 0 0.43095981599733307 -0.44753658110846528 0 0.42037133942799187 -0.45481980865475502 0 0.41424956646142452 -0.44145335337101582 0 0.42037133942799187 -0.45481980865475502 0 0.40833503012973449 -0.45743341782958391 0 0.41424956646142452 -0.44145335337101582 0 0.39716653888589531 -0.43485585418744782 0 0.40833503012973449 -0.45743341782958391 0 0.41424956646142452 -0.44145335337101582 0 0.39716653888589531 -0.43485585418744782 0 0.39345157537004599 -0.45057062730194619 0 0.38455236834147782 -0.44235831893697952 0 0.39716653888589531 -0.43485585418744782 0 0.40833503012973449 -0.45743341782958391 0 0.39345157537004599 -0.45057062730194619 0 0.39716653888589531 -0.43485585418744782 0 0.40833503012973449 -0.45743341782958391 0 0.39345157537004599 -0.45057062730194619 0 0.38455236834147782 -0.44235831893697952 0 0.38182359321740972 -0.45292134106576409 0 0.38455236834147782 -0.44235831893697952 0 0.38182359321740972 -0.45292134106576409 0 0.37194820352764257 -0.4427018608294464 0 0.37837193070639508 -0.43074191130029282 0 0.38455236834147782 -0.44235831893697952 0 0.37194820352764257 -0.4427018608294464 0 0.38182359321740972 -0.45292134106576409 0 0.39424227281986102 -0.46676003377889269 0 0.37141238069938332 -0.46692562663856529 0 0.39345157537004599 -0.45057062730194619 0 0.38182359321740972 -0.45292134106576409 0 0.39424227281986102 -0.46676003377889269 0 0.39424227281986102 -0.46676003377889269 0 0.37141238069938332 -0.46692562663856529 0 0.40833503012973449 -0.45743341782958391 0 0.39345157537004599 -0.45057062730194619 0 0.39424227281986102 -0.46676003377889269 0 0.41707216494033877 -0.46659444091922031 0 0.39424227281986102 -0.46676003377889269 0 0.41707216494033877 -0.46659444091922031 0 0.39424227281986102 -0.46676003377889269 0 0.40014079662082208 -0.5 0 0.39424227281986102 -0.46676003377889269 0 0.40014079662082208 -0.5 0 0.37141238069938332 -0.46692562663856529 0 0.43983937115661631 -0.46972557693384148 0 0.41707216494033877 -0.46659444091922031 0 0.40014079662082208 -0.5 0 0.40014079662082208 -0.5 0 0.32546065004022617 -0.5 0 0.3462765218470546 -0.48033279556006703 0 0.32546065004022617 -0.5 0 0.3462765218470546 -0.48033279556006703 0 0.30631021868456298 -0.48072311486568892 0 0.3462765218470546 -0.48033279556006703 0 0.32575259645842791 -0.46725681235791028 0 0.30631021868456298 -0.48072311486568892 0 0.3462765218470546 -0.48033279556006703 0 0.3485824885789055 -0.46709121949823779 0 0.32575259645842791 -0.46725681235791028 0 0.40014079662082208 -0.5 0 0.3462765218470546 -0.48033279556006703 0 0.37141238069938332 -0.46692562663856529 0 0.3462765218470546 -0.48033279556006703 0 0.3485824885789055 -0.46709121949823779 0 0.37141238069938332 -0.46692562663856529 0 0.3485824885789055 -0.46709121949823779 0 0.37141238069938332 -0.46692562663856529 0 0.35324569388809701 -0.44989359131069062 0 0.3485824885789055 -0.46709121949823779 0 0.35324569388809701 -0.44989359131069062 0 0.33806214337105372 -0.45777686618061397 0 0.38182359321740972 -0.45292134106576409 0 0.37141238069938332 -0.46692562663856529 0 0.35324569388809701 -0.44989359131069062 0 0.3485824885789055 -0.46709121949823779 0 0.37141238069938332 -0.46692562663856529 0 0.36060935802898147 -0.43906997082244181 0 0.37194820352764257 -0.4427018608294464 0 0.35324569388809701 -0.44989359131069062 0 0.38182359321740972 -0.45292134106576409 0 0.35324569388809701 -0.44989359131069062 0 0.37837193070639508 -0.43074191130029282 0 0.36060935802898147 -0.43906997082244181 0 0.37194820352764257 -0.4427018608294464 0 0.38182359321740972 -0.45292134106576409 0 0.37194820352764257 -0.4427018608294464 0 0.35324569388809701 -0.44989359131069062 0 0.36060935802898147 -0.43906997082244181 0 0.35324569388809701 -0.44989359131069062 0 0.34315104194743368 -0.43483422324315929 0 0.32466779455878442 -0.44686584155561709 0 0.32761501992215097 -0.43116249501185328 0 0.34315104194743368 -0.43483422324315929 0 0.35324569388809701 -0.44989359131069062 0 0.33806214337105372 -0.45777686618061397 0 0.32466779455878442 -0.44686584155561709 0 0.35324569388809701 -0.44989359131069062 0 0.32466779455878442 -0.44686584155561709 0 0.34315104194743368 -0.43483422324315929 0 0.35324569388809701 -0.44989359131069062 0 0.32466779455878442 -0.44686584155561709 0 0.3485824885789055 -0.46709121949823779 0 0.32575259645842791 -0.46725681235791028 0 0.3485824885789055 -0.46709121949823779 0 0.33806214337105372 -0.45777686618061397 0 0.32575259645842791 -0.46725681235791028 0 0.33806214337105372 -0.45777686618061397 0 0.32575259645842791 -0.46725681235791028 0 0.32466779455878442 -0.44686584155561709 0 0.32575259645842791 -0.46725681235791028 0 0.30904716904302271 -0.45792120175055678 0 0.30631021868456298 -0.48072311486568892 0 0.32575259645842791 -0.46725681235791028 0 0.32466779455878442 -0.44686584155561709 0 0.30904716904302271 -0.45792120175055678 0 0.32466779455878442 -0.44686584155561709 0 0.31800868577585262 -0.43516031519895321 0 0.30735360635596409 -0.43632211706289747 0 0.32466779455878442 -0.44686584155561709 0 0.32761501992215097 -0.43116249501185328 0 0.31800868577585262 -0.43516031519895321 0 0.32761501992215097 -0.43116249501185328 0 0.32339131420283213 -0.41656724990055422 0 0.31239832226651099 -0.42629080716544471 0 0.32761501992215097 -0.43116249501185328 0 0.31800868577585262 -0.43516031519895321 0 0.31239832226651099 -0.42629080716544471 0 0.31800868577585262 -0.43516031519895321 0 0.31239832226651099 -0.42629080716544471 0 0.30735360635596409 -0.43632211706289747 0 0.32339131420283213 -0.41656724990055422 0 0.31120060169272079 -0.4133373498197 0 0.31239832226651099 -0.42629080716544471 0 0.32339131420283213 -0.41656724990055422 0 0.319673984964159 -0.40346676889879052 0 0.31120060169272079 -0.4133373498197 0 0.319673984964159 -0.40346676889879052 0 0.30884060304287331 -0.40229515593698711 0 0.31120060169272079 -0.4133373498197 0 0.32339131420283213 -0.41656724990055422 0 0.33281994217864741 -0.40778505865636938 0 0.319673984964159 -0.40346676889879052 0 0.32761501992215097 -0.43116249501185328 0 0.32339131420283213 -0.41656724990055422 0 0.33796042338316851 -0.41787760036937549 0 0.32339131420283213 -0.41656724990055422 0 0.33281994217864741 -0.40778505865636938 0 0.33796042338316851 -0.41787760036937549 0 0.33281994217864741 -0.40778505865636938 0 0.33796042338316851 -0.41787760036937549 0 0.34601675315157321 -0.40486547886918423 0 0.32761501992215097 -0.43116249501185328 0 0.33796042338316851 -0.41787760036937549 0 0.34315104194743368 -0.43483422324315929 0 0.33796042338316851 -0.41787760036937549 0 0.34315104194743368 -0.43483422324315929 0 0.35231855835687692 -0.42655250224024699 0 0.36060935802898147 -0.43906997082244181 0 0.34315104194743368 -0.43483422324315929 0 0.35231855835687692 -0.42655250224024699 0 0.37837193070639508 -0.43074191130029282 0 0.36060935802898147 -0.43906997082244181 0 0.36755341006792419 -0.41442821452601158 0 0.36060935802898147 -0.43906997082244181 0 0.35231855835687692 -0.42655250224024699 0 0.36755341006792419 -0.41442821452601158 0 0.36060935802898147 -0.43906997082244181 0 0.36755341006792419 -0.41442821452601158 0 0.33796042338316851 -0.41787760036937549 0 0.35231855835687692 -0.42655250224024699 0 0.36755341006792419 -0.41442821452601158 0 0.33796042338316851 -0.41787760036937549 0 0.36755341006792419 -0.41442821452601158 0 0.34601675315157321 -0.40486547886918423 0 0.33796042338316851 -0.41787760036937549 0 0.36755341006792419 -0.41442821452601158 0 0.36755341006792419 -0.41442821452601158 0 0.34601675315157321 -0.40486547886918423 0 0.35566250251704978 -0.3975177511027051 0 0.34601675315157321 -0.40486547886918423 0 0.34667365318154342 -0.39629832909528578 0 0.35566250251704978 -0.3975177511027051 0 0.34667365318154342 -0.39629832909528578 0 0.34795812186604658 -0.38666189116531141 0 0.33705723519150399 -0.3961481952439429 0 0.34667365318154342 -0.39629832909528578 0 0.35566250251704978 -0.3975177511027051 0 0.34795812186604658 -0.38666189116531141 0 0.36755341006792419 -0.41442821452601158 0 0.35566250251704978 -0.3975177511027051 0 0.36706103815962848 -0.39187921332532882 0 0.36755341006792419 -0.41442821452601158 0 0.37463337818860382 -0.38930414459710588 0 0.36755341006792419 -0.41442821452601158 0 0.36706103815962848 -0.39187921332532882 0 0.37463337818860382 -0.38930414459710588 0 0.35566250251704978 -0.3975177511027051 0 0.36706103815962848 -0.39187921332532882 0 0.35924801608749379 -0.38543857686598643 0 0.38081427771294768 -0.36737052156009248 0 0.36848073339739068 -0.37517807712711049 0 0.3737028077843495 -0.38742295831448542 0 0.36848073339739068 -0.37517807712711049 0 0.3737028077843495 -0.38742295831448542 0 0.36599997940964812 -0.38379980358563692 0 0.36706103815962848 -0.39187921332532882 0 0.3737028077843495 -0.38742295831448542 0 0.36599997940964812 -0.38379980358563692 0 0.36706103815962848 -0.39187921332532882 0 0.37463337818860382 -0.38930414459710588 0 0.3737028077843495 -0.38742295831448542 0 0.37463337818860382 -0.38930414459710588 0 0.3737028077843495 -0.38742295831448542 0 0.36706103815962848 -0.39187921332532882 0 0.36599997940964812 -0.38379980358563692 0 0.35924801608749379 -0.38543857686598643 0 0.36599997940964812 -0.38379980358563692 0 0.36207090148421361 -0.37959838259465167 0 0.35924801608749379 -0.38543857686598643 0 0.36848073339739068 -0.37517807712711049 0 0.36599997940964812 -0.38379980358563692 0 0.36207090148421361 -0.37959838259465167 0 0.36848073339739068 -0.37517807712711049 0 0.36207090148421361 -0.37959838259465167 0 0.3554566368260581 -0.37480617727887811 0 0.36207090148421361 -0.37959838259465167 0 0.35924801608749379 -0.38543857686598643 0 0.3554566368260581 -0.37480617727887811 0 0.35924801608749379 -0.38543857686598643 0 0.34795812186604658 -0.38666189116531141 0 0.3554566368260581 -0.37480617727887811 0 0.35566250251704978 -0.3975177511027051 0 0.35924801608749379 -0.38543857686598643 0 0.34795812186604658 -0.38666189116531141 0 0.34795812186604658 -0.38666189116531141 0 0.34537995690420659 -0.3737828605913362 0 0.3554566368260581 -0.37480617727887811 0 0.34795812186604658 -0.38666189116531141 0 0.33323562740676532 -0.37769939737979058 0 0.34537995690420659 -0.3737828605913362 0 0.34795812186604658 -0.38666189116531141 0 0.33323562740676532 -0.37769939737979058 0 0.33705723519150399 -0.3961481952439429 0 0.33323562740676532 -0.37769939737979058 0 0.33705723519150399 -0.3961481952439429 0 0.319673984964159 -0.40346676889879052 0 0.33281994217864741 -0.40778505865636938 0 0.33705723519150399 -0.3961481952439429 0 0.319673984964159 -0.40346676889879052 0 0.33281994217864741 -0.40778505865636938 0 0.34601675315157321 -0.40486547886918423 0 0.33705723519150399 -0.3961481952439429 0 0.34601675315157321 -0.40486547886918423 0 0.34667365318154342 -0.39629832909528578 0 0.33705723519150399 -0.3961481952439429 0 0.33323562740676532 -0.37769939737979058 0 0.319673984964159 -0.40346676889879052 0 0.31422368515007948 -0.393427126581603 0 0.319673984964159 -0.40346676889879052 0 0.31422368515007948 -0.393427126581603 0 0.30884060304287331 -0.40229515593698711 0 0.33323562740676532 -0.37769939737979058 0 0.319673984964159 -0.40346676889879052 0 0.31422368515007948 -0.393427126581603 0 0.30591552541026101 -0.37751124227982003 0 0.32002671755222051 -0.36641101040373808 0 0.33323562740676532 -0.37769939737979058 0 0.31422368515007948 -0.393427126581603 0 0.32002671755222051 -0.36641101040373808 0 0.31422368515007948 -0.393427126581603 0 0.32002671755222051 -0.36641101040373808 0 0.30591552541026101 -0.37751124227982003 0 0.29934269892459558 -0.39453707190143028 0 0.28871394442674109 -0.38265385864092483 0 0.31422368515007948 -0.393427126581603 0 0.30591552541026101 -0.37751124227982003 0 0.29934269892459558 -0.39453707190143028 0 0.31422368515007948 -0.393427126581603 0 0.30884060304287331 -0.40229515593698711 0 0.29934269892459558 -0.39453707190143028 0 0.30884060304287331 -0.40229515593698711 0 0.29934269892459558 -0.39453707190143028 0 0.29896657827583012 -0.40866065312134409 0 0.28871394442674109 -0.38265385864092483 0 0.27786210523133942 -0.40981541802129928 0 0.29934269892459558 -0.39453707190143028 0 0.27786210523133942 -0.40981541802129928 0 0.29896657827583012 -0.40866065312134409 0 0.29934269892459558 -0.39453707190143028 0 0.28871394442674109 -0.38265385864092483 0 0.27786210523133942 -0.40981541802129928 0 0.28871394442674109 -0.38265385864092483 0 0.26416245427686541 -0.38049931320234009 0 0.26125098829365018 -0.39969694482297641 0 0.28871394442674109 -0.38265385864092483 0 0.26416245427686541 -0.38049931320234009 0 0.27571190406721402 -0.36345127203525351 0 0.26416245427686541 -0.38049931320234009 0 0.24971336314328341 -0.36520417674804972 0 0.24502858373403441 -0.39146921073642488 0 0.26416245427686541 -0.38049931320234009 0 0.26125098829365018 -0.39969694482297641 0 0.24502858373403441 -0.39146921073642488 0 0.28871394442674109 -0.38265385864092483 0 0.26125098829365018 -0.39969694482297641 0 0.27786210523133942 -0.40981541802129928 0 0.26125098829365018 -0.39969694482297641 0 0.25610826383841628 -0.42120346698794331 0 0.2333640889907381 -0.41241884790723538 0 0.26125098829365018 -0.39969694482297641 0 0.27786210523133942 -0.40981541802129928 0 0.25610826383841628 -0.42120346698794331 0 0.25610826383841628 -0.42120346698794331 0 0.26701026603593758 -0.43697697740167368 0 0.2518592606704963 -0.43815060111373921 0 0.27786210523133942 -0.40981541802129928 0 0.26701026603593758 -0.43697697740167368 0 0.28078102790119369 -0.4274552938509788 0 0.27786210523133942 -0.40981541802129928 0 0.26701026603593758 -0.43697697740167368 0 0.27786210523133942 -0.40981541802129928 0 0.25610826383841628 -0.42120346698794331 0 0.26701026603593758 -0.43697697740167368 0 0.26701026603593758 -0.43697697740167368 0 0.28078102790119369 -0.4274552938509788 0 0.27712236562531017 -0.4375193999175232 0 0.28078102790119369 -0.4274552938509788 0 0.28865243891263809 -0.43215364344327012 0 0.27712236562531017 -0.4375193999175232 0 0.28865243891263809 -0.43215364344327012 0 0.28959476197880307 -0.44168956347039928 0 0.27712236562531017 -0.4375193999175232 0 0.28865243891263809 -0.43215364344327012 0 0.29503220707493127 -0.43614369036708622 0 0.29829711678041942 -0.42866378264525379 0 0.28865243891263809 -0.43215364344327012 0 0.29503220707493127 -0.43614369036708622 0 0.28959476197880307 -0.44168956347039928 0 0.28865243891263809 -0.43215364344327012 0 0.29108715411517122 -0.42145013040837909 0 0.29829711678041942 -0.42866378264525379 0 0.28078102790119369 -0.4274552938509788 0 0.28865243891263809 -0.43215364344327012 0 0.29108715411517122 -0.42145013040837909 0 0.27786210523133942 -0.40981541802129928 0 0.28078102790119369 -0.4274552938509788 0 0.29108715411517122 -0.42145013040837909 0 0.27786210523133942 -0.40981541802129928 0 0.29108715411517122 -0.42145013040837909 0 0.29896657827583012 -0.40866065312134409 0 0.29108715411517122 -0.42145013040837909 0 0.30377653118007591 -0.4205559058691733 0 0.29896657827583012 -0.40866065312134409 0 0.30377653118007591 -0.4205559058691733 0 0.29896657827583012 -0.40866065312134409 0 0.31120060169272079 -0.4133373498197 0 0.30884060304287331 -0.40229515593698711 0 0.29896657827583012 -0.40866065312134409 0 0.31120060169272079 -0.4133373498197 0 0.30377653118007591 -0.4205559058691733 0 0.31120060169272079 -0.4133373498197 0 0.31239832226651099 -0.42629080716544471 0 0.30377653118007591 -0.4205559058691733 0 0.31239832226651099 -0.42629080716544471 0 0.29829711678041942 -0.42866378264525379 0 0.31239832226651099 -0.42629080716544471 0 0.30735360635596409 -0.43632211706289747 0 0.29829711678041942 -0.42866378264525379 0 0.29503220707493127 -0.43614369036708622 0 0.30735360635596409 -0.43632211706289747 0 0.29829711678041942 -0.42866378264525379 0 0.29108715411517122 -0.42145013040837909 0 0.30377653118007591 -0.4205559058691733 0 0.29829711678041942 -0.42866378264525379 0 0.32466779455878442 -0.44686584155561709 0 0.30904716904302271 -0.45792120175055678 0 0.29608989522947149 -0.44383809180054362 0 0.32466779455878442 -0.44686584155561709 0 0.29608989522947149 -0.44383809180054362 0 0.32466779455878442 -0.44686584155561709 0 0.30735360635596409 -0.43632211706289747 0 0.29608989522947149 -0.44383809180054362 0 0.30904716904302271 -0.45792120175055678 0 0.29860320416278402 -0.45529674645956592 0 0.29608989522947149 -0.44383809180054362 0 0.29503220707493127 -0.43614369036708622 0 0.30735360635596409 -0.43632211706289747 0 0.29608989522947149 -0.44383809180054362 0 0.30904716904302271 -0.45792120175055678 0 0.29721119201091789 -0.46522563712477349 0 0.30631021868456298 -0.48072311486568892 0 0.30904716904302271 -0.45792120175055678 0 0.29721119201091789 -0.46522563712477349 0 0.29860320416278402 -0.45529674645956592 0 0.28932919617959602 -0.45338424297023883 0 0.27756010650442758 -0.45518222858252849 0 0.28072062580449653 -0.47155582870540619 0 0.29721119201091789 -0.46522563712477349 0 0.28932919617959602 -0.45338424297023883 0 0.28072062580449653 -0.47155582870540619 0 0.29721119201091789 -0.46522563712477349 0 0.29860320416278402 -0.45529674645956592 0 0.28932919617959602 -0.45338424297023883 0 0.28932919617959602 -0.45338424297023883 0 0.28959476197880307 -0.44168956347039928 0 0.27756010650442758 -0.45518222858252849 0 0.29860320416278402 -0.45529674645956592 0 0.28932919617959602 -0.45338424297023883 0 0.29608989522947149 -0.44383809180054362 0 0.28932919617959602 -0.45338424297023883 0 0.29608989522947149 -0.44383809180054362 0 0.28959476197880307 -0.44168956347039928 0 0.29503220707493127 -0.43614369036708622 0 0.29608989522947149 -0.44383809180054362 0 0.28959476197880307 -0.44168956347039928 0 0.28959476197880307 -0.44168956347039928 0 0.26138620688844749 -0.44792543592233808 0 0.26701026603593758 -0.43697697740167368 0 0.27712236562531017 -0.4375193999175232 0 0.26138620688844749 -0.44792543592233808 0 0.28959476197880307 -0.44168956347039928 0 0.26138620688844749 -0.44792543592233808 0 0.27756010650442758 -0.45518222858252849 0 0.28959476197880307 -0.44168956347039928 0 0.27712236562531017 -0.4375193999175232 0 0.26138620688844749 -0.44792543592233808 0 0.26701026603593758 -0.43697697740167368 0 0.26138620688844749 -0.44792543592233808 0 0.2518592606704963 -0.43815060111373921 0 0.26138620688844749 -0.44792543592233808 0 0.26339579246569877 -0.46312143350125029 0 0.23317765179809191 -0.45416130837427687 0 0.26138620688844749 -0.44792543592233808 0 0.26339579246569877 -0.46312143350125029 0 0.27756010650442758 -0.45518222858252849 0 0.26339579246569877 -0.46312143350125029 0 0.27756010650442758 -0.45518222858252849 0 0.28072062580449653 -0.47155582870540619 0 0.28072062580449653 -0.47155582870540619 0 0.2532296876789632 -0.47497352743918242 0 0.27004646425256568 -0.5 0 0.26339579246569877 -0.46312143350125029 0 0.28072062580449653 -0.47155582870540619 0 0.2532296876789632 -0.47497352743918242 0 0.32546065004022617 -0.5 0 0.27004646425256568 -0.5 0 0.30631021868456298 -0.48072311486568892 0 0.28072062580449653 -0.47155582870540619 0 0.27004646425256568 -0.5 0 0.30631021868456298 -0.48072311486568892 0 0.29721119201091789 -0.46522563712477349 0 0.28072062580449653 -0.47155582870540619 0 0.30631021868456298 -0.48072311486568892 0 0.33743581475864359 -0.28536266187014298 0 0.3388307833371127 -0.27886836189579028 0 0.34706744656536048 -0.28007479224216619 0 0.33743581475864359 -0.28536266187014298 0 0.3388307833371127 -0.27886836189579028 0 0.33743581475864359 -0.28536266187014298 0 0.33163278235650262 -0.31237877804800812 0 0.33743581475864359 -0.28536266187014298 0 0.33163278235650262 -0.31237877804800812 0 0.34308905326158867 -0.30070827197480321 0 0.33743581475864359 -0.28536266187014298 0 0.33163278235650262 -0.31237877804800812 0 0.32364365619397351 -0.29600562892690968 0 0.33163278235650262 -0.31237877804800812 0 0.32364365619397351 -0.29600562892690968 0 0.30954970221622308 -0.30462347215273478 0 0.31296692944630888 -0.29314018565426941 0 0.32364365619397351 -0.29600562892690968 0 0.30954970221622308 -0.30462347215273478 0 0.31296692944630888 -0.29314018565426941 0 0.32364365619397351 -0.29600562892690968 0 0.31569414790308259 -0.28159305760617132 0 0.33743581475864359 -0.28536266187014298 0 0.32364365619397351 -0.29600562892690968 0 0.31569414790308259 -0.28159305760617132 0 0.33743581475864359 -0.28536266187014298 0 0.31569414790308259 -0.28159305760617132 0 0.33743581475864359 -0.28536266187014298 0 0.31569414790308259 -0.28159305760617132 0 0.32852563272885182 -0.27784073863383552 0 0.31569414790308259 -0.28159305760617132 0 0.31275786215232049 -0.27168837282467972 0 0.32066228436037369 -0.27402337931129878 0 0.31275786215232049 -0.27168837282467972 0 0.32001527731196461 -0.26686042829596718 0 0.31054181011664339 -0.26140137874582919 0 0.31275786215232049 -0.27168837282467972 0 0.32001527731196461 -0.26686042829596718 0 0.32066228436037369 -0.27402337931129878 0 0.32001527731196461 -0.26686042829596718 0 0.32631850170564902 -0.27213429919584042 0 0.32066228436037369 -0.27402337931129878 0 0.32001527731196461 -0.26686042829596718 0 0.32631850170564902 -0.27213429919584042 0 0.32861545200372733 -0.26431566092564712 0 0.32631850170564902 -0.27213429919584042 0 0.32066228436037369 -0.27402337931129878 0 0.32852563272885182 -0.27784073863383552 0 0.31569414790308259 -0.28159305760617132 0 0.32066228436037369 -0.27402337931129878 0 0.32852563272885182 -0.27784073863383552 0 0.30517917142926537 -0.24716040808135001 0 0.322544075342931 -0.25649048942400782 0 0.31054181011664339 -0.26140137874582919 0 0.32001527731196461 -0.26686042829596718 0 0.322544075342931 -0.25649048942400782 0 0.31054181011664339 -0.26140137874582919 0 0.32001527731196461 -0.26686042829596718 0 0.322544075342931 -0.25649048942400782 0 0.32861545200372733 -0.26431566092564712 0 0.322544075342931 -0.25649048942400782 0 0.32861545200372733 -0.26431566092564712 0 0.33700232267718733 -0.25494009872172468 0 0.32861545200372733 -0.26431566092564712 0 0.33700232267718733 -0.25494009872172468 0 0.3370936559567923 -0.26597622971595652 0 0.33700232267718733 -0.25494009872172468 0 0.3370936559567923 -0.26597622971595652 0 0.34612034525793539 -0.26165354425485998 0 0.32852563272885182 -0.27784073863383552 0 0.33374486488877292 -0.2728357791174113 0 0.3388307833371127 -0.27886836189579028 0 0.33743581475864359 -0.28536266187014298 0 0.32852563272885182 -0.27784073863383552 0 0.3388307833371127 -0.27886836189579028 0 0.32631850170564902 -0.27213429919584042 0 0.32852563272885182 -0.27784073863383552 0 0.33374486488877292 -0.2728357791174113 0 0.32631850170564902 -0.27213429919584042 0 0.32861545200372733 -0.26431566092564712 0 0.33374486488877292 -0.2728357791174113 0 0.32861545200372733 -0.26431566092564712 0 0.33374486488877292 -0.2728357791174113 0 0.3370936559567923 -0.26597622971595652 0 0.34349817463331772 -0.27223575233246988 0 0.3370936559567923 -0.26597622971595652 0 0.34612034525793539 -0.26165354425485998 0 0.33374486488877292 -0.2728357791174113 0 0.34349817463331772 -0.27223575233246988 0 0.3370936559567923 -0.26597622971595652 0 0.33374486488877292 -0.2728357791174113 0 0.34349817463331772 -0.27223575233246988 0 0.3388307833371127 -0.27886836189579028 0 0.34349817463331772 -0.27223575233246988 0 0.3388307833371127 -0.27886836189579028 0 0.34706744656536048 -0.28007479224216619 0 0.34349817463331772 -0.27223575233246988 0 0.34706744656536048 -0.28007479224216619 0 0.35711558672006172 -0.27354793744083078 0 0.34349817463331772 -0.27223575233246988 0 0.35711558672006172 -0.27354793744083078 0 0.34612034525793539 -0.26165354425485998 0 0.34706744656536048 -0.28007479224216619 0 0.35711558672006172 -0.27354793744083078 0 0.35357832102308678 -0.28816147489813743 0 0.35007299243335749 -0.24785688602667111 0 0.33700232267718733 -0.25494009872172468 0 0.34612034525793539 -0.26165354425485998 0 0.35711558672006172 -0.27354793744083078 0 0.34612034525793539 -0.26165354425485998 0 0.36124693131331159 -0.25807728632712912 0 0.35007299243335749 -0.24785688602667111 0 0.34612034525793539 -0.26165354425485998 0 0.36124693131331159 -0.25807728632712912 0 0.37764450162479901 -0.26965755496232408 0 0.37510228513818711 -0.25237727586059511 0 0.36124693131331159 -0.25807728632712912 0 0.36225179838031341 -0.2439392928582107 0 0.37510228513818711 -0.25237727586059511 0 0.36124693131331159 -0.25807728632712912 0 0.37764450162479901 -0.26965755496232408 0 0.35711558672006172 -0.27354793744083078 0 0.36124693131331159 -0.25807728632712912 0 0.37764450162479901 -0.26965755496232408 0 0.35711558672006172 -0.27354793744083078 0 0.36873774536035581 -0.28861226174546889 0 0.36873774536035581 -0.28861226174546889 0 0.35357832102308678 -0.28816147489813743 0 0.36087634202934032 -0.30211297570133377 0 0.35711558672006172 -0.27354793744083078 0 0.36873774536035581 -0.28861226174546889 0 0.35357832102308678 -0.28816147489813743 0 0.33743581475864359 -0.28536266187014298 0 0.35357832102308678 -0.28816147489813743 0 0.33743581475864359 -0.28536266187014298 0 0.34706744656536048 -0.28007479224216619 0 0.35357832102308678 -0.28816147489813743 0 0.33743581475864359 -0.28536266187014298 0 0.34308905326158867 -0.30070827197480321 0 0.35357832102308678 -0.28816147489813743 0 0.34308905326158867 -0.30070827197480321 0 0.36087634202934032 -0.30211297570133377 0 0.3603589122919777 -0.32616465434179109 0 0.34308905326158867 -0.30070827197480321 0 0.35357832102308678 -0.28816147489813743 0 0.36087634202934032 -0.30211297570133377 0 0.37861767820969228 -0.30691821554646831 0 0.36873774536035581 -0.28861226174546889 0 0.36087634202934032 -0.30211297570133377 0 0.37861767820969228 -0.30691821554646831 0 0.36087634202934032 -0.30211297570133377 0 0.3603589122919777 -0.32616465434179109 0 0.37858644206980091 -0.32769985780377792 0 0.37861767820969228 -0.30691821554646831 0 0.3603589122919777 -0.32616465434179109 0 0.37858644206980091 -0.32769985780377792 0 0.3603589122919777 -0.32616465434179109 0 0.36805061276354478 -0.3427907498460791 0 0.3603589122919777 -0.32616465434179109 0 0.34679726984937148 -0.35193202586079081 0 0.3603589122919777 -0.32616465434179109 0 0.34679726984937148 -0.35193202586079081 0 0.3423644242317993 -0.33453707324987059 0 0.3603589122919777 -0.32616465434179109 0 0.36805061276354478 -0.3427907498460791 0 0.34679726984937148 -0.35193202586079081 0 0.33163278235650262 -0.31237877804800812 0 0.34308905326158867 -0.30070827197480321 0 0.3603589122919777 -0.32616465434179109 0 0.33163278235650262 -0.31237877804800812 0 0.3603589122919777 -0.32616465434179109 0 0.3423644242317993 -0.33453707324987059 0 0.37640125955739012 -0.35149107478397351 0 0.38081427771294768 -0.36737052156009248 0 0.36600013168445039 -0.36059477107615401 0 0.36848073339739068 -0.37517807712711049 0 0.36600013168445039 -0.36059477107615401 0 0.3554566368260581 -0.37480617727887811 0 0.38081427771294768 -0.36737052156009248 0 0.36848073339739068 -0.37517807712711049 0 0.36600013168445039 -0.36059477107615401 0 0.36805061276354478 -0.3427907498460791 0 0.36600013168445039 -0.36059477107615401 0 0.34679726984937148 -0.35193202586079081 0 0.37640125955739012 -0.35149107478397351 0 0.36805061276354478 -0.3427907498460791 0 0.36600013168445039 -0.36059477107615401 0 0.36600013168445039 -0.36059477107615401 0 0.34679726984937148 -0.35193202586079081 0 0.3554566368260581 -0.37480617727887811 0 0.34679726984937148 -0.35193202586079081 0 0.34537995690420659 -0.3737828605913362 0 0.3554566368260581 -0.37480617727887811 0 0.33323562740676532 -0.37769939737979058 0 0.33171275220581908 -0.35441984147836231 0 0.32002671755222051 -0.36641101040373808 0 0.33323562740676532 -0.37769939737979058 0 0.34679726984937148 -0.35193202586079081 0 0.33323562740676532 -0.37769939737979058 0 0.34679726984937148 -0.35193202586079081 0 0.34537995690420659 -0.3737828605913362 0 0.33323562740676532 -0.37769939737979058 0 0.34679726984937148 -0.35193202586079081 0 0.33171275220581908 -0.35441984147836231 0 0.34679726984937148 -0.35193202586079081 0 0.33171275220581908 -0.35441984147836231 0 0.3423644242317993 -0.33453707324987059 0 0.33171275220581908 -0.35441984147836231 0 0.32002671755222051 -0.36641101040373808 0 0.32582974995436148 -0.33939489422587321 0 0.32002671755222051 -0.36641101040373808 0 0.32582974995436148 -0.33939489422587321 0 0.31500009593534162 -0.35119999692538878 0 0.32002671755222051 -0.36641101040373808 0 0.32582974995436148 -0.33939489422587321 0 0.33163278235650262 -0.31237877804800812 0 0.32582974995436148 -0.33939489422587321 0 0.33163278235650262 -0.31237877804800812 0 0.3423644242317993 -0.33453707324987059 0 0.32582974995436148 -0.33939489422587321 0 0.33171275220581908 -0.35441984147836231 0 0.3423644242317993 -0.33453707324987059 0 0.32582974995436148 -0.33939489422587321 0 0.31500009593534162 -0.35119999692538878 0 0.32582974995436148 -0.33939489422587321 0 0.31041762281754448 -0.32833073988017608 0 0.33163278235650262 -0.31237877804800812 0 0.32582974995436148 -0.33939489422587321 0 0.31041762281754448 -0.32833073988017608 0 0.33163278235650262 -0.31237877804800812 0 0.31041762281754448 -0.32833073988017608 0 0.30954970221622308 -0.30462347215273478 0 0.31041762281754448 -0.32833073988017608 0 0.29592063247569211 -0.31558436997640987 0 0.30954970221622308 -0.30462347215273478 0 0.31041762281754448 -0.32833073988017608 0 0.29132656616613523 -0.33188180257029998 0 0.29592063247569211 -0.31558436997640987 0 0.31041762281754448 -0.32833073988017608 0 0.29132656616613523 -0.33188180257029998 0 0.29956578362214281 -0.35549229926055048 0 0.31041762281754448 -0.32833073988017608 0 0.29956578362214281 -0.35549229926055048 0 0.29132656616613523 -0.33188180257029998 0 0.28219501787468609 -0.34702129220438421 0 0.27282035448602859 -0.33554085100614839 0 0.29132656616613523 -0.33188180257029998 0 0.29592063247569211 -0.31558436997640987 0 0.27986439667319313 -0.31630171845149863 0 0.29132656616613523 -0.33188180257029998 0 0.27986439667319313 -0.31630171845149863 0 0.27282035448602859 -0.33554085100614839 0 0.30591552541026101 -0.37751124227982003 0 0.28871394442674109 -0.38265385864092483 0 0.29956578362214281 -0.35549229926055048 0 0.30591552541026101 -0.37751124227982003 0 0.32002671755222051 -0.36641101040373808 0 0.29956578362214281 -0.35549229926055048 0 0.31500009593534162 -0.35119999692538878 0 0.32002671755222051 -0.36641101040373808 0 0.29956578362214281 -0.35549229926055048 0 0.31500009593534162 -0.35119999692538878 0 0.31041762281754448 -0.32833073988017608 0 0.29956578362214281 -0.35549229926055048 0 0.29956578362214281 -0.35549229926055048 0 0.28219501787468609 -0.34702129220438421 0 0.27571190406721402 -0.36345127203525351 0 0.29132656616613523 -0.33188180257029998 0 0.29956578362214281 -0.35549229926055048 0 0.28219501787468609 -0.34702129220438421 0 0.28871394442674109 -0.38265385864092483 0 0.29956578362214281 -0.35549229926055048 0 0.27571190406721402 -0.36345127203525351 0 0.28871394442674109 -0.38265385864092483 0 0.29956578362214281 -0.35549229926055048 0 0.28219501787468609 -0.34702129220438421 0 0.27571190406721402 -0.36345127203525351 0 0.2669677564247489 -0.35003134695070198 0 0.28219501787468609 -0.34702129220438421 0 0.2669677564247489 -0.35003134695070198 0 0.27282035448602859 -0.33554085100614839 0 0.2669677564247489 -0.35003134695070198 0 0.2543981425525324 -0.33893914275967452 0 0.24971336314328341 -0.36520417674804972 0 0.2543981425525324 -0.33893914275967452 0 0.24971336314328341 -0.36520417674804972 0 0.26416245427686541 -0.38049931320234009 0 0.27571190406721402 -0.36345127203525351 0 0.24971336314328341 -0.36520417674804972 0 0.27571190406721402 -0.36345127203525351 0 0.2669677564247489 -0.35003134695070198 0 0.24971336314328341 -0.36520417674804972 0 0.27986439667319313 -0.31630171845149863 0 0.27282035448602859 -0.33554085100614839 0 0.27986439667319313 -0.31630171845149863 0 0.27282035448602859 -0.33554085100614839 0 0.2590829219617814 -0.31267410877129931 0 0.2669677564247489 -0.35003134695070198 0 0.27282035448602859 -0.33554085100614839 0 0.2543981425525324 -0.33893914275967452 0 0.27282035448602859 -0.33554085100614839 0 0.2543981425525324 -0.33893914275967452 0 0.2590829219617814 -0.31267410877129931 0 0.2543981425525324 -0.33893914275967452 0 0.2590829219617814 -0.31267410877129931 0 0.24087195768162309 -0.32614810142562012 0 0.2543981425525324 -0.33893914275967452 0 0.2590829219617814 -0.31267410877129931 0 0.2590829219617814 -0.31267410877129931 0 0.26376770137103039 -0.2864090747829241 0 0.27385105082646688 -0.29718155094811333 0 0.2590829219617814 -0.31267410877129931 0 0.26376770137103039 -0.2864090747829241 0 0.24821325608307901 -0.29522124281265988 0 0.2590829219617814 -0.31267410877129931 0 0.26376770137103039 -0.2864090747829241 0 0.26376770137103039 -0.2864090747829241 0 0.24785603391849151 -0.27709942466880599 0 0.24821325608307901 -0.29522124281265988 0 0.26376770137103039 -0.2864090747829241 0 0.27275834958840189 -0.28372268528309152 0 0.2724225943816766 -0.27409056785933389 0 0.26376770137103039 -0.2864090747829241 0 0.27275834958840189 -0.28372268528309152 0 0.27385105082646688 -0.29718155094811333 0 0.28072449650403741 -0.28691913250301798 0 0.27385105082646688 -0.29718155094811333 0 0.2869084388603575 -0.29706258589684881 0 0.27275834958840189 -0.28372268528309152 0 0.28072449650403741 -0.28691913250301798 0 0.27385105082646688 -0.29718155094811333 0 0.27275834958840189 -0.28372268528309152 0 0.28072449650403741 -0.28691913250301798 0 0.27996448038040939 -0.28063895974691061 0 0.27986439667319313 -0.31630171845149863 0 0.2590829219617814 -0.31267410877129931 0 0.27385105082646688 -0.29718155094811333 0 0.27986439667319313 -0.31630171845149863 0 0.27385105082646688 -0.29718155094811333 0 0.2869084388603575 -0.29706258589684881 0 0.27986439667319313 -0.31630171845149863 0 0.2869084388603575 -0.29706258589684881 0 0.29592063247569211 -0.31558436997640987 0 0.27986439667319313 -0.31630171845149863 0 0.2869084388603575 -0.29706258589684881 0 0.2869084388603575 -0.29706258589684881 0 0.30298021147195658 -0.29033858393126172 0 0.29395248104752192 -0.27782345334219888 0 0.28072449650403741 -0.28691913250301798 0 0.2869084388603575 -0.29706258589684881 0 0.29395248104752192 -0.27782345334219888 0 0.2869084388603575 -0.29706258589684881 0 0.29395248104752192 -0.27782345334219888 0 0.28072449650403741 -0.28691913250301798 0 0.29395248104752192 -0.27782345334219888 0 0.27996448038040939 -0.28063895974691061 0 0.31569414790308259 -0.28159305760617132 0 0.30298021147195658 -0.29033858393126172 0 0.29395248104752192 -0.27782345334219888 0 0.31296692944630888 -0.29314018565426941 0 0.31569414790308259 -0.28159305760617132 0 0.30298021147195658 -0.29033858393126172 0 0.31296692944630888 -0.29314018565426941 0 0.30298021147195658 -0.29033858393126172 0 0.30954970221622308 -0.30462347215273478 0 0.2869084388603575 -0.29706258589684881 0 0.30298021147195658 -0.29033858393126172 0 0.30954970221622308 -0.30462347215273478 0 0.29592063247569211 -0.31558436997640987 0 0.2869084388603575 -0.29706258589684881 0 0.30954970221622308 -0.30462347215273478 0 0.30517917142926537 -0.24716040808135001 0 0.31054181011664339 -0.26140137874582919 0 0.2976408850071105 -0.26774945168120262 0 0.30517917142926537 -0.24716040808135001 0 0.2976408850071105 -0.26774945168120262 0 0.31275786215232049 -0.27168837282467972 0 0.2976408850071105 -0.26774945168120262 0 0.29395248104752192 -0.27782345334219888 0 0.31275786215232049 -0.27168837282467972 0 0.2976408850071105 -0.26774945168120262 0 0.31275786215232049 -0.27168837282467972 0 0.31054181011664339 -0.26140137874582919 0 0.2976408850071105 -0.26774945168120262 0 0.31569414790308259 -0.28159305760617132 0 0.29395248104752192 -0.27782345334219888 0 0.31569414790308259 -0.28159305760617132 0 0.31275786215232049 -0.27168837282467972 0 0.29395248104752192 -0.27782345334219888 0 0.2976408850071105 -0.26774945168120262 0 0.28600938745522969 -0.26471871668720698 0 0.2976408850071105 -0.26774945168120262 0 0.29395248104752192 -0.27782345334219888 0 0.29395248104752192 -0.27782345334219888 0 0.27996448038040939 -0.28063895974691061 0 0.2724225943816766 -0.27409056785933389 0 0.29395248104752192 -0.27782345334219888 0 0.28600938745522969 -0.26471871668720698 0 0.27658132089261911 -0.27335422882897692 0 0.2976408850071105 -0.26774945168120262 0 0.29395248104752192 -0.27782345334219888 0 0.28600938745522969 -0.26471871668720698 0 0.29395248104752192 -0.27782345334219888 0 0.2724225943816766 -0.27409056785933389 0 0.28600938745522969 -0.26471871668720698 0 0.27658132089261911 -0.27335422882897692 0 0.30517917142926537 -0.24716040808135001 0 0.28600938745522969 -0.26471871668720698 0 0.30517917142926537 -0.24716040808135001 0 0.2976408850071105 -0.26774945168120262 0 0.28600938745522969 -0.26471871668720698 0 0.30517917142926537 -0.24716040808135001 0 0.28765229627979871 -0.24304032400626949 0 0.28600938745522969 -0.26471871668720698 0 0.28600938745522969 -0.26471871668720698 0 0.26845248078028039 -0.26014404079454911 0 0.28765229627979871 -0.24304032400626949 0 0.28600938745522969 -0.26471871668720698 0 0.26845248078028039 -0.26014404079454911 0 0.26376770137103039 -0.2864090747829241 0 0.26845248078028039 -0.26014404079454911 0 0.2724225943816766 -0.27409056785933389 0 0.28600938745522969 -0.26471871668720698 0 0.26845248078028039 -0.26014404079454911 0 0.27658132089261911 -0.27335422882897692 0 0.26376770137103039 -0.2864090747829241 0 0.26845248078028039 -0.26014404079454911 0 0.29395248104752192 -0.27782345334219888 0 0.27658132089261911 -0.27335422882897692 0 0.2724225943816766 -0.27409056785933389 0 0.27275834958840189 -0.28372268528309152 0 0.27996448038040939 -0.28063895974691061 0 0.2724225943816766 -0.27409056785933389 0 0.26845248078028039 -0.26014404079454911 0 0.27658132089261911 -0.27335422882897692 0 0.2724225943816766 -0.27409056785933389 0 0.26376770137103039 -0.2864090747829241 0 0.26845248078028039 -0.26014404079454911 0 0.24785603391849151 -0.27709942466880599 0 0.26845248078028039 -0.26014404079454911 0 0.2410490216361528 -0.25300372010805161 0 0.26845248078028039 -0.26014404079454911 0 0.2410490216361528 -0.25300372010805161 0 0.24785603391849151 -0.27709942466880599 0 0.25787859859726192 -0.24372773219337371 0 0.26845248078028039 -0.26014404079454911 0 0.2410490216361528 -0.25300372010805161 0 0.2410490216361528 -0.25300372010805161 0 0.24785603391849151 -0.27709942466880599 0 0.23139485578507429 -0.27647983237136509 0 0.23139485578507429 -0.27647983237136509 0 0.2171028506536257 -0.26700629366950379 0 0.21674952071488601 -0.28686299221921707 0 0.2410490216361528 -0.25300372010805161 0 0.23139485578507429 -0.27647983237136509 0 0.2171028506536257 -0.26700629366950379 0 0.2410490216361528 -0.25300372010805161 0 0.2171028506536257 -0.26700629366950379 0 0.2136455624920251 -0.24586339942155419 0 0.2171028506536257 -0.26700629366950379 0 0.1960217485778272 -0.26205501631648559 0 0.2136455624920251 -0.24586339942155419 0 0.2171028506536257 -0.26700629366950379 0 0.2037572178097509 -0.27803645254629672 0 0.1960217485778272 -0.26205501631648559 0 0.2171028506536257 -0.26700629366950379 0 0.2037572178097509 -0.27803645254629672 0 0.21674952071488601 -0.28686299221921707 0 0.2037572178097509 -0.27803645254629672 0 0.1960217485778272 -0.26205501631648559 0 0.18672217274589489 -0.28463667424064248 0 0.1960217485778272 -0.26205501631648559 0 0.2136455624920251 -0.24586339942155419 0 0.1970165427207646 -0.2431475676051908 0 0.1960217485778272 -0.26205501631648559 0 0.1970165427207646 -0.2431475676051908 0 0.18013525364959199 -0.24590787480667409 0 0.19163287831415901 -0.30538761534618902 0 0.20219697373587131 -0.29192032270869461 0 0.2153952098199983 -0.30425933719731207 0 0.2037572178097509 -0.27803645254629672 0 0.20219697373587131 -0.29192032270869461 0 0.18672217274589489 -0.28463667424064248 0 0.19163287831415901 -0.30538761534618902 0 0.20219697373587131 -0.29192032270869461 0 0.18672217274589489 -0.28463667424064248 0 0.20219697373587131 -0.29192032270869461 0 0.21674952071488601 -0.28686299221921707 0 0.2153952098199983 -0.30425933719731207 0 0.2037572178097509 -0.27803645254629672 0 0.20219697373587131 -0.29192032270869461 0 0.21674952071488601 -0.28686299221921707 0 0.19163287831415901 -0.30538761534618902 0 0.2153952098199983 -0.30425933719731207 0 0.20381788977078771 -0.32236963909420019 0 0.2153952098199983 -0.30425933719731207 0 0.2333373149176502 -0.29099433783704243 0 0.2370223082464416 -0.30892926800322767 0 0.2153952098199983 -0.30425933719731207 0 0.2370223082464416 -0.30892926800322767 0 0.22300958304019269 -0.32335118517261402 0 0.21674952071488601 -0.28686299221921707 0 0.2153952098199983 -0.30425933719731207 0 0.2333373149176502 -0.29099433783704243 0 0.23139485578507429 -0.27647983237136509 0 0.21674952071488601 -0.28686299221921707 0 0.2333373149176502 -0.29099433783704243 0 0.24785603391849151 -0.27709942466880599 0 0.2333373149176502 -0.29099433783704243 0 0.24821325608307901 -0.29522124281265988 0 0.24785603391849151 -0.27709942466880599 0 0.23139485578507429 -0.27647983237136509 0 0.2333373149176502 -0.29099433783704243 0 0.2333373149176502 -0.29099433783704243 0 0.24821325608307901 -0.29522124281265988 0 0.2370223082464416 -0.30892926800322767 0 0.2590829219617814 -0.31267410877129931 0 0.24821325608307901 -0.29522124281265988 0 0.2370223082464416 -0.30892926800322767 0 0.2590829219617814 -0.31267410877129931 0 0.2370223082464416 -0.30892926800322767 0 0.24087195768162309 -0.32614810142562012 0 0.2543981425525324 -0.33893914275967452 0 0.24087195768162309 -0.32614810142562012 0 0.2308468326071676 -0.34684680242128502 0 0.24087195768162309 -0.32614810142562012 0 0.22300958304019269 -0.32335118517261402 0 0.2308468326071676 -0.34684680242128502 0 0.22300958304019269 -0.32335118517261402 0 0.2308468326071676 -0.34684680242128502 0 0.21275128108028149 -0.33749920242868869 0 0.2370223082464416 -0.30892926800322767 0 0.24087195768162309 -0.32614810142562012 0 0.22300958304019269 -0.32335118517261402 0 0.24971336314328341 -0.36520417674804972 0 0.2308468326071676 -0.34684680242128502 0 0.229200177642885 -0.36995291413531828 0 0.2543981425525324 -0.33893914275967452 0 0.24971336314328341 -0.36520417674804972 0 0.2308468326071676 -0.34684680242128502 0 0.229200177642885 -0.36995291413531828 0 0.20725651587090471 -0.36571099534901208 0 0.22031030243082139 -0.38906492162812378 0 0.2308468326071676 -0.34684680242128502 0 0.229200177642885 -0.36995291413531828 0 0.20725651587090471 -0.36571099534901208 0 0.2308468326071676 -0.34684680242128502 0 0.20725651587090471 -0.36571099534901208 0 0.21275128108028149 -0.33749920242868869 0 0.20725651587090471 -0.36571099534901208 0 0.21275128108028149 -0.33749920242868869 0 0.194202729310988 -0.34235706906990038 0 0.20725651587090471 -0.36571099534901208 0 0.194202729310988 -0.34235706906990038 0 0.180238718969634 -0.3612454971324468 0 0.20725651587090471 -0.36571099534901208 0 0.194202729310988 -0.34235706906990038 0 0.20725651587090471 -0.36571099534901208 0 0.19261827162763251 -0.374541644607297 0 0.180238718969634 -0.3612454971324468 0 0.22300958304019269 -0.32335118517261402 0 0.20381788977078771 -0.32236963909420019 0 0.21275128108028149 -0.33749920242868869 0 0.2153952098199983 -0.30425933719731207 0 0.22300958304019269 -0.32335118517261402 0 0.20381788977078771 -0.32236963909420019 0 0.20381788977078771 -0.32236963909420019 0 0.21275128108028149 -0.33749920242868869 0 0.194202729310988 -0.34235706906990038 0 0.20381788977078771 -0.32236963909420019 0 0.194202729310988 -0.34235706906990038 0 0.18384400034678741 -0.32250280289756078 0 0.19163287831415901 -0.30538761534618902 0 0.20381788977078771 -0.32236963909420019 0 0.18384400034678741 -0.32250280289756078 0 0.18384400034678741 -0.32250280289756078 0 0.17702055828029431 -0.33666004199980942 0 0.15719449589681389 -0.32866913917705798 0 0.194202729310988 -0.34235706906990038 0 0.18384400034678741 -0.32250280289756078 0 0.17702055828029431 -0.33666004199980942 0 0.15719449589681389 -0.32866913917705798 0 0.16581699513551909 -0.35306125248096398 0 0.17702055828029431 -0.33666004199980942 0 0.15719449589681389 -0.32866913917705798 0 0.16581699513551909 -0.35306125248096398 0 0.18384400034678741 -0.32250280289756078 0 0.15719449589681389 -0.32866913917705798 0 0.17186855286937899 -0.30453082832045192 0 0.180238718969634 -0.3612454971324468 0 0.1834568796589737 -0.38583095226508418 0 0.17443949437422429 -0.37745336578486988 0 0.180238718969634 -0.3612454971324468 0 0.16581699513551909 -0.35306125248096398 0 0.17443949437422429 -0.37745336578486988 0 0.180238718969634 -0.3612454971324468 0 0.1834568796589737 -0.38583095226508418 0 0.19261827162763251 -0.374541644607297 0 0.180238718969634 -0.3612454971324468 0 0.1834568796589737 -0.38583095226508418 0 0.17702055828029431 -0.33666004199980942 0 0.180238718969634 -0.3612454971324468 0 0.16581699513551909 -0.35306125248096398 0 0.17702055828029431 -0.33666004199980942 0 0.180238718969634 -0.3612454971324468 0 0.194202729310988 -0.34235706906990038 0 0.17702055828029431 -0.33666004199980942 0 0.180238718969634 -0.3612454971324468 0 0.16581699513551909 -0.35306125248096398 0 0.1602354860011011 -0.36875954027416918 0 0.14952990885070691 -0.36034775620209553 0 0.16581699513551909 -0.35306125248096398 0 0.17443949437422429 -0.37745336578486988 0 0.16581699513551909 -0.35306125248096398 0 0.1602354860011011 -0.36875954027416918 0 0.17443949437422429 -0.37745336578486988 0 0.1602354860011011 -0.36875954027416918 0 0.14673951295096799 -0.37363029079717242 0 0.14952990885070691 -0.36034775620209553 0 0.16581699513551909 -0.35306125248096398 0 0.14952990885070691 -0.36034775620209553 0 0.144826286403443 -0.34676284914488159 0 0.14952990885070691 -0.36034775620209553 0 0.144826286403443 -0.34676284914488159 0 0.12334710111447229 -0.36406834251145731 0 0.144826286403443 -0.34676284914488159 0 0.12334710111447229 -0.36406834251145731 0 0.144826286403443 -0.34676284914488159 0 0.12334710111447229 -0.36406834251145731 0 0.11573058637367541 -0.34380091622275832 0 0.13273239812562251 -0.3803535413873157 0 0.1208593498238435 -0.38006314209191833 0 0.12334710111447229 -0.36406834251145731 0 0.14673951295096799 -0.37363029079717242 0 0.14952990885070691 -0.36034775620209553 0 0.12334710111447229 -0.36406834251145731 0 0.14673951295096799 -0.37363029079717242 0 0.13273239812562251 -0.3803535413873157 0 0.12334710111447229 -0.36406834251145731 0 0.15719449589681389 -0.32866913917705798 0 0.13978194378111039 -0.33004063130878142 0 0.14857199665810869 -0.30427702587315197 0 0.15719449589681389 -0.32866913917705798 0 0.14857199665810869 -0.30427702587315197 0 0.15719449589681389 -0.32866913917705798 0 0.144826286403443 -0.34676284914488159 0 0.13978194378111039 -0.33004063130878142 0 0.15719449589681389 -0.32866913917705798 0 0.16581699513551909 -0.35306125248096398 0 0.144826286403443 -0.34676284914488159 0 0.13978194378111039 -0.33004063130878142 0 0.1249111379911398 -0.32186001205002218 0 0.11573058637367541 -0.34380091622275832 0 0.144826286403443 -0.34676284914488159 0 0.13978194378111039 -0.33004063130878142 0 0.11573058637367541 -0.34380091622275832 0 0.13978194378111039 -0.33004063130878142 0 0.14857199665810869 -0.30427702587315197 0 0.1249111379911398 -0.32186001205002218 0 0.14857199665810869 -0.30427702587315197 0 0.13584279120622419 -0.29064916595208462 0 0.1212075847983899 -0.30357596212866123 0 0.14857199665810869 -0.30427702587315197 0 0.1212075847983899 -0.30357596212866123 0 0.1249111379911398 -0.32186001205002218 0 0.14857199665810869 -0.30427702587315197 0 0.14941647374314521 -0.28066083506566319 0 0.1659314811884508 -0.28303851802095531 0 0.14857199665810869 -0.30427702587315197 0 0.13584279120622419 -0.29064916595208462 0 0.14941647374314521 -0.28066083506566319 0 0.13554841089854469 -0.28148943716570812 0 0.13584279120622419 -0.29064916595208462 0 0.14941647374314521 -0.28066083506566319 0 0.13554841089854469 -0.28148943716570812 0 0.13584279120622419 -0.29064916595208462 0 0.1176113560141319 -0.2851589593963586 0 0.1376178273856396 -0.2676878026278281 0 0.13932302263067731 -0.26948878824872591 0 0.1176113560141319 -0.2851589593963586 0 0.13554841089854469 -0.28148943716570812 0 0.13932302263067731 -0.26948878824872591 0 0.1176113560141319 -0.2851589593963586 0 0.13932302263067731 -0.26948878824872591 0 0.1176113560141319 -0.2851589593963586 0 0.1376178273856396 -0.2676878026278281 0 0.1200034520355143 -0.24749468667538321 0 0.1376178273856396 -0.2676878026278281 0 0.1200034520355143 -0.24749468667538321 0 0.1412434604122122 -0.24631040783256791 0 0.1376178273856396 -0.2676878026278281 0 0.16103468924722281 -0.25381861710109321 0 0.1412434604122122 -0.24631040783256791 0 0.1376178273856396 -0.2676878026278281 0 0.13932302263067731 -0.26948878824872591 0 0.16103468924722281 -0.25381861710109321 0 0.13932302263067731 -0.26948878824872591 0 0.16103468924722281 -0.25381861710109321 0 0.13932302263067731 -0.26948878824872591 0 0.14941647374314521 -0.28066083506566319 0 0.16103468924722281 -0.25381861710109321 0 0.13554841089854469 -0.28148943716570812 0 0.13932302263067731 -0.26948878824872591 0 0.14941647374314521 -0.28066083506566319 0 0.14941647374314521 -0.28066083506566319 0 0.16103468924722281 -0.25381861710109321 0 0.1659314811884508 -0.28303851802095531 0 0.16103468924722281 -0.25381861710109321 0 0.1779690690817976 -0.26589134009717008 0 0.1659314811884508 -0.28303851802095531 0 0.16103468924722281 -0.25381861710109321 0 0.1779690690817976 -0.26589134009717008 0 0.18013525364959199 -0.24590787480667409 0 0.1960217485778272 -0.26205501631648559 0 0.1779690690817976 -0.26589134009717008 0 0.18013525364959199 -0.24590787480667409 0 0.1960217485778272 -0.26205501631648559 0 0.1779690690817976 -0.26589134009717008 0 0.18672217274589489 -0.28463667424064248 0 0.1779690690817976 -0.26589134009717008 0 0.18672217274589489 -0.28463667424064248 0 0.1659314811884508 -0.28303851802095531 0 0.18672217274589489 -0.28463667424064248 0 0.17186855286937899 -0.30453082832045192 0 0.1659314811884508 -0.28303851802095531 0 0.19163287831415901 -0.30538761534618902 0 0.18384400034678741 -0.32250280289756078 0 0.17186855286937899 -0.30453082832045192 0 0.19163287831415901 -0.30538761534618902 0 0.18672217274589489 -0.28463667424064248 0 0.17186855286937899 -0.30453082832045192 0 0.14857199665810869 -0.30427702587315197 0 0.17186855286937899 -0.30453082832045192 0 0.1659314811884508 -0.28303851802095531 0 0.15719449589681389 -0.32866913917705798 0 0.14857199665810869 -0.30427702587315197 0 0.17186855286937899 -0.30453082832045192 0 0.27004646425256568 -0.5 0 0.19840125792562099 -0.499999999999995 0 0.2258071254777905 -0.47806137695806639 0 0.19840125792562099 -0.499999999999995 0 0.1955652389629654 -0.47833395417678298 0 0.19840125792562099 -0.499999999999995 0 0.1955652389629654 -0.47833395417678298 0 0.1857239970351309 -0.48926605560099218 0 0.1955652389629654 -0.47833395417678298 0 0.2258071254777905 -0.47806137695806639 0 0.20496909670773639 -0.46039718082621561 0 0.19840125792562099 -0.499999999999995 0 0.1955652389629654 -0.47833395417678298 0 0.2258071254777905 -0.47806137695806639 0 0.2532296876789632 -0.47497352743918242 0 0.27004646425256568 -0.5 0 0.2258071254777905 -0.47806137695806639 0 0.2532296876789632 -0.47497352743918242 0 0.2258071254777905 -0.47806137695806639 0 0.23317765179809191 -0.45416130837427687 0 0.2258071254777905 -0.47806137695806639 0 0.23317765179809191 -0.45416130837427687 0 0.20496909670773639 -0.46039718082621561 0 0.23317765179809191 -0.45416130837427687 0 0.20496909670773639 -0.46039718082621561 0 0.26339579246569877 -0.46312143350125029 0 0.2532296876789632 -0.47497352743918242 0 0.23317765179809191 -0.45416130837427687 0 0.26138620688844749 -0.44792543592233808 0 0.2518592606704963 -0.43815060111373921 0 0.23317765179809191 -0.45416130837427687 0 0.26138620688844749 -0.44792543592233808 0 0.23317765179809191 -0.45416130837427687 0 0.2518592606704963 -0.43815060111373921 0 0.23317765179809191 -0.45416130837427687 0 0.24161391479158839 -0.43048581688246368 0 0.23317765179809191 -0.45416130837427687 0 0.21274467024756119 -0.44537306322652892 0 0.22596778666418391 -0.43195218695593612 0 0.23317765179809191 -0.45416130837427687 0 0.22596778666418391 -0.43195218695593612 0 0.24161391479158839 -0.43048581688246368 0 0.20738663592967541 -0.43977689630152639 0 0.21274467024756119 -0.44537306322652892 0 0.21231789143938981 -0.43260924517595267 0 0.20738663592967541 -0.43977689630152639 0 0.20306963394956029 -0.44528763306514119 0 0.2014143480821905 -0.43583764373848299 0 0.20738663592967541 -0.43977689630152639 0 0.21274467024756119 -0.44537306322652892 0 0.20306963394956029 -0.44528763306514119 0 0.21274467024756119 -0.44537306322652892 0 0.20306963394956029 -0.44528763306514119 0 0.20202636709778779 -0.45196992376671852 0 0.21274467024756119 -0.44537306322652892 0 0.20496909670773639 -0.46039718082621561 0 0.20202636709778779 -0.45196992376671852 0 0.23317765179809191 -0.45416130837427687 0 0.21274467024756119 -0.44537306322652892 0 0.20496909670773639 -0.46039718082621561 0 0.1955652389629654 -0.47833395417678298 0 0.20496909670773639 -0.46039718082621561 0 0.1927292200003092 -0.45666790835357102 0 0.1955652389629654 -0.47833395417678298 0 0.1927292200003092 -0.45666790835357102 0 0.1955652389629654 -0.47833395417678298 0 0.19047701204926121 -0.46094242075341862 0 0.1927292200003092 -0.45666790835357102 0 0.20496909670773639 -0.46039718082621561 0 0.1927292200003092 -0.45666790835357102 0 0.20202636709778779 -0.45196992376671852 0 0.19047701204926121 -0.46094242075341862 0 0.1927292200003092 -0.45666790835357102 0 0.1876592352144193 -0.45673372923780892 0 0.1927292200003092 -0.45666790835357102 0 0.1876592352144193 -0.45673372923780892 0 0.18777566972406101 -0.44981142861604279 0 0.1927292200003092 -0.45666790835357102 0 0.19595067699787469 -0.4453334870477933 0 0.18989320103765239 -0.43500186253035911 0 0.1927292200003092 -0.45666790835357102 0 0.18989320103765239 -0.43500186253035911 0 0.1927292200003092 -0.45666790835357102 0 0.18777566972406101 -0.44981142861604279 0 0.18989320103765239 -0.43500186253035911 0 0.19521760998379711 -0.43854214036159178 0 0.19595067699787469 -0.4453334870477933 0 0.1916906899727929 -0.43609695451772118 0 0.19595067699787469 -0.4453334870477933 0 0.1916906899727929 -0.43609695451772118 0 0.18989320103765239 -0.43500186253035911 0 0.19521760998379711 -0.43854214036159178 0 0.19821003569121751 -0.44088076654097252 0 0.19595067699787469 -0.4453334870477933 0 0.19821003569121751 -0.44088076654097252 0 0.20306963394956029 -0.44528763306514119 0 0.19595067699787469 -0.4453334870477933 0 0.19821003569121751 -0.44088076654097252 0 0.20306963394956029 -0.44528763306514119 0 0.2014143480821905 -0.43583764373848299 0 0.19521760998379711 -0.43854214036159178 0 0.19821003569121751 -0.44088076654097252 0 0.19632921389935129 -0.43529695882979857 0 0.20306963394956029 -0.44528763306514119 0 0.20202636709778779 -0.45196992376671852 0 0.19595067699787469 -0.4453334870477933 0 0.1927292200003092 -0.45666790835357102 0 0.20202636709778779 -0.45196992376671852 0 0.19595067699787469 -0.4453334870477933 0 0.18989320103765239 -0.43500186253035911 0 0.193210065479164 -0.42351508711829272 0 0.18667504034831339 -0.41041640739772162 0 0.18989320103765239 -0.43500186253035911 0 0.18667504034831339 -0.41041640739772162 0 0.1973860855611401 -0.42692030526330021 0 0.193210065479164 -0.42351508711829272 0 0.19846083006015189 -0.42045811652912207 0 0.1973860855611401 -0.42692030526330021 0 0.19846083006015189 -0.42045811652912207 0 0.20326441538295181 -0.42746054266679712 0 0.1973860855611401 -0.42692030526330021 0 0.19826447490927249 -0.43151164360587502 0 0.20326441538295181 -0.42746054266679712 0 0.2014143480821905 -0.43583764373848299 0 0.19826447490927249 -0.43151164360587502 0 0.20326441538295181 -0.42746054266679712 0 0.19821003569121751 -0.44088076654097252 0 0.2014143480821905 -0.43583764373848299 0 0.19632921389935129 -0.43529695882979857 0 0.2014143480821905 -0.43583764373848299 0 0.19632921389935129 -0.43529695882979857 0 0.19826447490927249 -0.43151164360587502 0 0.19632921389935129 -0.43529695882979857 0 0.19826447490927249 -0.43151164360587502 0 0.1929283116207289 -0.43204276753099607 0 0.1973860855611401 -0.42692030526330021 0 0.19826447490927249 -0.43151164360587502 0 0.1929283116207289 -0.43204276753099607 0 0.1929283116207289 -0.43204276753099607 0 0.18989320103765239 -0.43500186253035911 0 0.193210065479164 -0.42351508711829272 0 0.19521760998379711 -0.43854214036159178 0 0.19632921389935129 -0.43529695882979857 0 0.19377820557052011 -0.43520734882518619 0 0.19521760998379711 -0.43854214036159178 0 0.19377820557052011 -0.43520734882518619 0 0.1916906899727929 -0.43609695451772118 0 0.19632921389935129 -0.43529695882979857 0 0.1929283116207289 -0.43204276753099607 0 0.19377820557052011 -0.43520734882518619 0 0.1929283116207289 -0.43204276753099607 0 0.19210490899723079 -0.4345610298626873 0 0.18989320103765239 -0.43500186253035911 0 0.19377820557052011 -0.43520734882518619 0 0.19210490899723079 -0.4345610298626873 0 0.1916906899727929 -0.43609695451772118 0 0.1929283116207289 -0.43204276753099607 0 0.19377820557052011 -0.43520734882518619 0 0.19210490899723079 -0.4345610298626873 0 0.1916906899727929 -0.43609695451772118 0 0.18989320103765239 -0.43500186253035911 0 0.19210490899723079 -0.4345610298626873 0 0.1916906899727929 -0.43609695451772118 0 0.18989320103765239 -0.43500186253035911 0 0.1973860855611401 -0.42692030526330021 0 0.1929283116207289 -0.43204276753099607 0 0.193210065479164 -0.42351508711829272 0 0.193210065479164 -0.42351508711829272 0 0.1939169242469973 -0.41625106345825691 0 0.18667504034831339 -0.41041640739772162 0 0.193210065479164 -0.42351508711829272 0 0.1939169242469973 -0.41625106345825691 0 0.19846083006015189 -0.42045811652912207 0 0.1968341740193896 -0.41150644481021997 0 0.19418069224578771 -0.40518464808912641 0 0.18667504034831339 -0.41041640739772162 0 0.1939169242469973 -0.41625106345825691 0 0.1968341740193896 -0.41150644481021997 0 0.18667504034831339 -0.41041640739772162 0 0.1968341740193896 -0.41150644481021997 0 0.20469814770209749 -0.41520386531910081 0 0.20485234226760879 -0.40188257102108682 0 0.19846083006015189 -0.42045811652912207 0 0.20469814770209749 -0.41520386531910081 0 0.20326441538295181 -0.42746054266679712 0 0.1939169242469973 -0.41625106345825691 0 0.1968341740193896 -0.41150644481021997 0 0.19846083006015189 -0.42045811652912207 0 0.1968341740193896 -0.41150644481021997 0 0.19846083006015189 -0.42045811652912207 0 0.20469814770209749 -0.41520386531910081 0 0.20469814770209749 -0.41520386531910081 0 0.21626227209603979 -0.41615869782113413 0 0.20326441538295181 -0.42746054266679712 0 0.20469814770209749 -0.41520386531910081 0 0.21626227209603979 -0.41615869782113413 0 0.20485234226760879 -0.40188257102108682 0 0.21626227209603979 -0.41615869782113413 0 0.20326441538295181 -0.42746054266679712 0 0.21231789143938981 -0.43260924517595267 0 0.21626227209603979 -0.41615869782113413 0 0.21231789143938981 -0.43260924517595267 0 0.22596778666418391 -0.43195218695593612 0 0.20738663592967541 -0.43977689630152639 0 0.2014143480821905 -0.43583764373848299 0 0.21231789143938981 -0.43260924517595267 0 0.2014143480821905 -0.43583764373848299 0 0.20326441538295181 -0.42746054266679712 0 0.21231789143938981 -0.43260924517595267 0 0.21274467024756119 -0.44537306322652892 0 0.21231789143938981 -0.43260924517595267 0 0.22596778666418391 -0.43195218695593612 0 0.22596778666418391 -0.43195218695593612 0 0.24161391479158839 -0.43048581688246368 0 0.2333640889907381 -0.41241884790723538 0 0.25610826383841628 -0.42120346698794331 0 0.2518592606704963 -0.43815060111373921 0 0.24161391479158839 -0.43048581688246368 0 0.25610826383841628 -0.42120346698794331 0 0.24161391479158839 -0.43048581688246368 0 0.2333640889907381 -0.41241884790723538 0 0.21626227209603979 -0.41615869782113413 0 0.22596778666418391 -0.43195218695593612 0 0.2333640889907381 -0.41241884790723538 0 0.2333640889907381 -0.41241884790723538 0 0.24502858373403441 -0.39146921073642488 0 0.22031030243082139 -0.38906492162812378 0 0.21626227209603979 -0.41615869782113413 0 0.2333640889907381 -0.41241884790723538 0 0.22031030243082139 -0.38906492162812378 0 0.2333640889907381 -0.41241884790723538 0 0.22031030243082139 -0.38906492162812378 0 0.26125098829365018 -0.39969694482297641 0 0.2333640889907381 -0.41241884790723538 0 0.24502858373403441 -0.39146921073642488 0 0.24971336314328341 -0.36520417674804972 0 0.24502858373403441 -0.39146921073642488 0 0.24971336314328341 -0.36520417674804972 0 0.229200177642885 -0.36995291413531828 0 0.24502858373403441 -0.39146921073642488 0 0.229200177642885 -0.36995291413531828 0 0.24502858373403441 -0.39146921073642488 0 0.22031030243082139 -0.38906492162812378 0 0.20725651587090471 -0.36571099534901208 0 0.22031030243082139 -0.38906492162812378 0 0.19952097201101759 -0.38537913368264481 0 0.20725651587090471 -0.36571099534901208 0 0.22031030243082139 -0.38906492162812378 0 0.21626227209603979 -0.41615869782113413 0 0.22031030243082139 -0.38906492162812378 0 0.20485234226760879 -0.40188257102108682 0 0.22031030243082139 -0.38906492162812378 0 0.20485234226760879 -0.40188257102108682 0 0.19952097201101759 -0.38537913368264481 0 0.20485234226760879 -0.40188257102108682 0 0.19159455078491761 -0.39726910731705511 0 0.19952097201101759 -0.38537913368264481 0 0.1968341740193896 -0.41150644481021997 0 0.20485234226760879 -0.40188257102108682 0 0.19418069224578771 -0.40518464808912641 0 0.20485234226760879 -0.40188257102108682 0 0.19418069224578771 -0.40518464808912641 0 0.19159455078491761 -0.39726910731705511 0 0.19418069224578771 -0.40518464808912641 0 0.19159455078491761 -0.39726910731705511 0 0.18667504034831339 -0.41041640739772162 0 0.20725651587090471 -0.36571099534901208 0 0.19261827162763251 -0.374541644607297 0 0.19952097201101759 -0.38537913368264481 0 0.19261827162763251 -0.374541644607297 0 0.19952097201101759 -0.38537913368264481 0 0.1834568796589737 -0.38583095226508418 0 0.19159455078491761 -0.39726910731705511 0 0.19952097201101759 -0.38537913368264481 0 0.1834568796589737 -0.38583095226508418 0 0.17443949437422429 -0.37745336578486988 0 0.18306199361292941 -0.40184547908877583 0 0.1834568796589737 -0.38583095226508418 0 0.17443949437422429 -0.37745336578486988 0 0.18306199361292941 -0.40184547908877583 0 0.17443949437422429 -0.37745336578486988 0 0.18306199361292941 -0.40184547908877583 0 0.1699565165384864 -0.39219147373696051 0 0.19159455078491761 -0.39726910731705511 0 0.1834568796589737 -0.38583095226508418 0 0.18667504034831339 -0.41041640739772162 0 0.1834568796589737 -0.38583095226508418 0 0.18667504034831339 -0.41041640739772162 0 0.1834568796589737 -0.38583095226508418 0 0.18306199361292941 -0.40184547908877583 0 0.18667504034831339 -0.41041640739772162 0 0.18306199361292941 -0.40184547908877583 0 0.1699565165384864 -0.39219147373696051 0 0.17103987791038719 -0.40450309618882169 0 0.18306199361292941 -0.40184547908877583 0 0.17103987791038719 -0.40450309618882169 0 0.1814131781600461 -0.40758752999736902 0 0.1699565165384864 -0.39219147373696051 0 0.17103987791038719 -0.40450309618882169 0 0.15993177942481909 -0.39557864441750712 0 0.17103987791038719 -0.40450309618882169 0 0.15993177942481909 -0.39557864441750712 0 0.14638679418839309 -0.40849626541203388 0 0.1699565165384864 -0.39219147373696051 0 0.15993177942481909 -0.39557864441750712 0 0.1595700277473481 -0.38298567724053401 0 0.17443949437422429 -0.37745336578486988 0 0.1699565165384864 -0.39219147373696051 0 0.1595700277473481 -0.38298567724053401 0 0.1602354860011011 -0.36875954027416918 0 0.17443949437422429 -0.37745336578486988 0 0.1595700277473481 -0.38298567724053401 0 0.1602354860011011 -0.36875954027416918 0 0.14673951295096799 -0.37363029079717242 0 0.1595700277473481 -0.38298567724053401 0 0.14673951295096799 -0.37363029079717242 0 0.1595700277473481 -0.38298567724053401 0 0.14586341328622179 -0.39002728499933198 0 0.14673951295096799 -0.37363029079717242 0 0.14586341328622179 -0.39002728499933198 0 0.13273239812562251 -0.3803535413873157 0 0.15993177942481909 -0.39557864441750712 0 0.1595700277473481 -0.38298567724053401 0 0.14586341328622179 -0.39002728499933198 0 0.14586341328622179 -0.39002728499933198 0 0.13273239812562251 -0.3803535413873157 0 0.12412735500694751 -0.39493505064503392 0 0.13273239812562251 -0.3803535413873157 0 0.12412735500694751 -0.39493505064503392 0 0.1208593498238435 -0.38006314209191833 0 0.14586341328622179 -0.39002728499933198 0 0.14638679418839309 -0.40849626541203388 0 0.12412735500694751 -0.39493505064503392 0 0.14638679418839309 -0.40849626541203388 0 0.1185943653130178 -0.41089393958744808 0 0.12412735500694751 -0.39493505064503392 0 0.14638679418839309 -0.40849626541203388 0 0.12412735500694751 -0.39493505064503392 0 0.15993177942481909 -0.39557864441750712 0 0.14586341328622179 -0.39002728499933198 0 0.14638679418839309 -0.40849626541203388 0 0.14638679418839309 -0.40849626541203388 0 0.12945713117598301 -0.42527718494859718 0 0.1185943653130178 -0.41089393958744808 0 0.12945713117598301 -0.42527718494859718 0 0.1521605439778134 -0.43517333823265708 0 0.13567485458578729 -0.448289196286278 0 0.14638679418839309 -0.40849626541203388 0 0.12945713117598301 -0.42527718494859718 0 0.1521605439778134 -0.43517333823265708 0 0.14638679418839309 -0.40849626541203388 0 0.1521605439778134 -0.43517333823265708 0 0.16864623336983819 -0.42205748017903449 0 0.1521605439778134 -0.43517333823265708 0 0.16864623336983819 -0.42205748017903449 0 0.1521605439778134 -0.43517333823265708 0 0.16864623336983819 -0.42205748017903449 0 0.16573483381671769 -0.43911683261624462 0 0.16864623336983819 -0.42205748017903449 0 0.17670256027174869 -0.43608133600128551 0 0.16573483381671769 -0.43911683261624462 0 0.17103987791038719 -0.40450309618882169 0 0.14638679418839309 -0.40849626541203388 0 0.16962733287145829 -0.41306172809692981 0 0.14638679418839309 -0.40849626541203388 0 0.16864623336983819 -0.42205748017903449 0 0.14638679418839309 -0.40849626541203388 0 0.16864623336983819 -0.42205748017903449 0 0.16962733287145829 -0.41306172809692981 0 0.16864623336983819 -0.42205748017903449 0 0.17965678171287719 -0.41329759239238029 0 0.18989320103765239 -0.43500186253035911 0 0.17965678171287719 -0.41329759239238029 0 0.18667504034831339 -0.41041640739772162 0 0.16864623336983819 -0.42205748017903449 0 0.16962733287145829 -0.41306172809692981 0 0.17965678171287719 -0.41329759239238029 0 0.17103987791038719 -0.40450309618882169 0 0.16962733287145829 -0.41306172809692981 0 0.17965678171287719 -0.41329759239238029 0 0.17103987791038719 -0.40450309618882169 0 0.17965678171287719 -0.41329759239238029 0 0.1814131781600461 -0.40758752999736902 0 0.18306199361292941 -0.40184547908877583 0 0.1814131781600461 -0.40758752999736902 0 0.18667504034831339 -0.41041640739772162 0 0.17965678171287719 -0.41329759239238029 0 0.1814131781600461 -0.40758752999736902 0 0.18667504034831339 -0.41041640739772162 0 0.18989320103765239 -0.43500186253035911 0 0.16864623336983819 -0.42205748017903449 0 0.18989320103765239 -0.43500186253035911 0 0.16864623336983819 -0.42205748017903449 0 0.17965678171287719 -0.41329759239238029 0 0.18989320103765239 -0.43500186253035911 0 0.16864623336983819 -0.42205748017903449 0 0.17670256027174869 -0.43608133600128551 0 0.18989320103765239 -0.43500186253035911 0 0.17670256027174869 -0.43608133600128551 0 0.18208037526260021 -0.440172852945236 0 0.17851738694434799 -0.45081987712854771 0 0.17618275988476059 -0.44374183802639611 0 0.18401323307134959 -0.44581129240036288 0 0.17851738694434799 -0.45081987712854771 0 0.1776998484129505 -0.456552179461992 0 0.17120073938054131 -0.45123220200337888 0 0.17851738694434799 -0.45081987712854771 0 0.17618275988476059 -0.44374183802639611 0 0.17120073938054131 -0.45123220200337888 0 0.17670256027174869 -0.43608133600128551 0 0.17618275988476059 -0.44374183802639611 0 0.16573483381671769 -0.43911683261624462 0 0.17670256027174869 -0.43608133600128551 0 0.17618275988476059 -0.44374183802639611 0 0.18208037526260021 -0.440172852945236 0 0.18989320103765239 -0.43500186253035911 0 0.18208037526260021 -0.440172852945236 0 0.18401323307134959 -0.44581129240036288 0 0.18777566972406101 -0.44981142861604279 0 0.18989320103765239 -0.43500186253035911 0 0.18401323307134959 -0.44581129240036288 0 0.17618275988476059 -0.44374183802639611 0 0.18208037526260021 -0.440172852945236 0 0.18401323307134959 -0.44581129240036288 0 0.18777566972406101 -0.44981142861604279 0 0.18401323307134959 -0.44581129240036288 0 0.18385690407389799 -0.45446609953290928 0 0.17851738694434799 -0.45081987712854771 0 0.18401323307134959 -0.44581129240036288 0 0.18385690407389799 -0.45446609953290928 0 0.19047701204926121 -0.46094242075341862 0 0.1876592352144193 -0.45673372923780892 0 0.1806900259799068 -0.46227126151247672 0 0.1876592352144193 -0.45673372923780892 0 0.18777566972406101 -0.44981142861604279 0 0.18385690407389799 -0.45446609953290928 0 0.19047701204926121 -0.46094242075341862 0 0.1806900259799068 -0.46227126151247672 0 0.17298031468751371 -0.48047121037671059 0 0.1876592352144193 -0.45673372923780892 0 0.18385690407389799 -0.45446609953290928 0 0.1806900259799068 -0.46227126151247672 0 0.18385690407389799 -0.45446609953290928 0 0.1806900259799068 -0.46227126151247672 0 0.1776998484129505 -0.456552179461992 0 0.17851738694434799 -0.45081987712854771 0 0.18385690407389799 -0.45446609953290928 0 0.1776998484129505 -0.456552179461992 0 0.1806900259799068 -0.46227126151247672 0 0.1776998484129505 -0.456552179461992 0 0.17146684144139809 -0.46446192971202138 0 0.1776998484129505 -0.456552179461992 0 0.17146684144139809 -0.46446192971202138 0 0.17120073938054131 -0.45123220200337888 0 0.17146684144139809 -0.46446192971202138 0 0.15759213853868431 -0.45113306297151079 0 0.14900727366634989 -0.46501884712825781 0 0.17146684144139809 -0.46446192971202138 0 0.15759213853868431 -0.45113306297151079 0 0.17120073938054131 -0.45123220200337888 0 0.1521605439778134 -0.43517333823265708 0 0.15759213853868431 -0.45113306297151079 0 0.16573483381671769 -0.43911683261624462 0 0.15759213853868431 -0.45113306297151079 0 0.17120073938054131 -0.45123220200337888 0 0.16573483381671769 -0.43911683261624462 0 0.17618275988476059 -0.44374183802639611 0 0.17120073938054131 -0.45123220200337888 0 0.16573483381671769 -0.43911683261624462 0 0.1521605439778134 -0.43517333823265708 0 0.15759213853868431 -0.45113306297151079 0 0.13567485458578729 -0.448289196286278 0 0.1521605439778134 -0.43517333823265708 0 0.13567485458578729 -0.448289196286278 0 0.13567485458578729 -0.448289196286278 0 0.1191891651937612 -0.46140505433989892 0 0.12203304576274319 -0.43975504748265359 0 0.12945713117598301 -0.42527718494859718 0 0.13567485458578729 -0.448289196286278 0 0.12203304576274319 -0.43975504748265359 0 0.13567485458578729 -0.448289196286278 0 0.1191891651937612 -0.46140505433989892 0 0.13567485458578729 -0.448289196286278 0 0.13480127744719991 -0.46410976413563299 0 0.1191891651937612 -0.46140505433989892 0 0.13567485458578729 -0.448289196286278 0 0.13480127744719991 -0.46410976413563299 0 0.14900727366634989 -0.46501884712825781 0 0.15759213853868431 -0.45113306297151079 0 0.13567485458578729 -0.448289196286278 0 0.14900727366634989 -0.46501884712825781 0 0.14900727366634989 -0.46501884712825781 0 0.15577652408963519 -0.48266000469618581 0 0.13873200589539489 -0.47945912496791759 0 0.13480127744719991 -0.46410976413563299 0 0.14900727366634989 -0.46501884712825781 0 0.13873200589539489 -0.47945912496791759 0 0.13480127744719991 -0.46410976413563299 0 0.13873200589539489 -0.47945912496791759 0 0.11801755443736479 -0.48060781756800708 0 0.13873200589539489 -0.47945912496791759 0 0.13581988522262109 -0.50000000000000244 0 0.11801755443736479 -0.48060781756800708 0 0.13581988522262109 -0.50000000000000244 0 0.11801755443736479 -0.48060781756800708 0 0.15577652408963519 -0.48266000469618581 0 0.13873200589539489 -0.47945912496791759 0 0.13581988522262109 -0.50000000000000244 0 0.15577652408963519 -0.48266000469618581 0 0.13581988522262109 -0.50000000000000244 0 0.15548361732576529 -0.50000000000000178 0 0.15577652408963519 -0.48266000469618581 0 0.15548361732576529 -0.50000000000000178 0 0.17298031468751371 -0.48047121037671059 0 0.15548361732576529 -0.50000000000000178 0 0.17298031468751371 -0.48047121037671059 0 0.1769424376256932 -0.5 0 0.15548361732576529 -0.50000000000000178 0 0.17298031468751371 -0.48047121037671059 0 0.17146684144139809 -0.46446192971202138 0 0.15577652408963519 -0.48266000469618581 0 0.17298031468751371 -0.48047121037671059 0 0.17146684144139809 -0.46446192971202138 0 0.14900727366634989 -0.46501884712825781 0 0.15577652408963519 -0.48266000469618581 0 0.19047701204926121 -0.46094242075341862 0 0.17298031468751371 -0.48047121037671059 0 0.1806900259799068 -0.46227126151247672 0 0.17146684144139809 -0.46446192971202138 0 0.17298031468751371 -0.48047121037671059 0 0.1955652389629654 -0.47833395417678298 0 0.19047701204926121 -0.46094242075341862 0 0.17298031468751371 -0.48047121037671059 0 0.1955652389629654 -0.47833395417678298 0 0.17298031468751371 -0.48047121037671059 0 0.1857239970351309 -0.48926605560099218 0 0.19840125792562099 -0.499999999999995 0 0.1857239970351309 -0.48926605560099218 0 0.1769424376256932 -0.5 0 0.17298031468751371 -0.48047121037671059 0 0.1857239970351309 -0.48926605560099218 0 0.1769424376256932 -0.5 0 0.074737975103940479 -0.48487994098964171 0 0.071046826552429457 -0.50000000000000733 0 0.059434139084113012 -0.47963991399004141 0 0.071046826552429457 -0.50000000000000733 0 0.059434139084113012 -0.47963991399004141 0 0.074737975103940479 -0.48487994098964171 0 0.05802097188470097 -0.46975988197928431 0 0.059434139084113012 -0.47963991399004141 0 0.074737975103940479 -0.48487994098964171 0 0.071955909258469009 -0.46877079283141743 0 0.05802097188470097 -0.46975988197928431 0 0.074737975103940479 -0.48487994098964171 0 0.071955909258469009 -0.46877079283141743 0 0.082737354296077953 -0.47427357099325013 0 0.074737975103940479 -0.48487994098964171 0 0.05802097188470097 -0.46975988197928431 0 0.074737975103940479 -0.48487994098964171 0 0.082737354296077953 -0.47427357099325013 0 0.094811061721812542 -0.48112121468145302 0 0.082737354296077953 -0.47427357099325013 0 0.094811061721812542 -0.48112121468145302 0 0.1002152236521098 -0.46121563513601083 0 0.074737975103940479 -0.48487994098964171 0 0.091454978323179614 -0.49999999999999939 0 0.094811061721812542 -0.48112121468145302 0 0.074737975103940479 -0.48487994098964171 0 0.091454978323179614 -0.49999999999999939 0 0.074737975103940479 -0.48487994098964171 0 0.071046826552429457 -0.50000000000000733 0 0.091454978323179614 -0.49999999999999939 0 0.1136374317729003 -0.5 0 0.11801755443736479 -0.48060781756800708 0 0.094811061721812542 -0.48112121468145302 0 0.091454978323179614 -0.49999999999999939 0 0.1136374317729003 -0.5 0 0.094811061721812542 -0.48112121468145302 0 0.13581988522262109 -0.50000000000000244 0 0.1136374317729003 -0.5 0 0.11801755443736479 -0.48060781756800708 0 0.11801755443736479 -0.48060781756800708 0 0.094811061721812542 -0.48112121468145302 0 0.1002152236521098 -0.46121563513601083 0 0.11801755443736479 -0.48060781756800708 0 0.1002152236521098 -0.46121563513601083 0 0.1002152236521098 -0.46121563513601083 0 0.1191891651937612 -0.46140505433989892 0 0.1082504500781146 -0.44478934181291102 0 0.11801755443736479 -0.48060781756800708 0 0.1002152236521098 -0.46121563513601083 0 0.1191891651937612 -0.46140505433989892 0 0.13480127744719991 -0.46410976413563299 0 0.11801755443736479 -0.48060781756800708 0 0.1191891651937612 -0.46140505433989892 0 0.1191891651937612 -0.46140505433989892 0 0.12203304576274319 -0.43975504748265359 0 0.1082504500781146 -0.44478934181291102 0 0.1002152236521098 -0.46121563513601083 0 0.1082504500781146 -0.44478934181291102 0 0.082412892866854714 -0.44182345270401441 0 0.1002152236521098 -0.46121563513601083 0 0.082412892866854714 -0.44182345270401441 0 0.082737354296077953 -0.47427357099325013 0 0.1002152236521098 -0.46121563513601083 0 0.07989865607697158 -0.46093656822545309 0 0.1002152236521098 -0.46121563513601083 0 0.082412892866854714 -0.44182345270401441 0 0.07989865607697158 -0.46093656822545309 0 0.071955909258469009 -0.46877079283141743 0 0.082737354296077953 -0.47427357099325013 0 0.07989865607697158 -0.46093656822545309 0 0.071955909258469009 -0.46877079283141743 0 0.07989865607697158 -0.46093656822545309 0 0.064942869781788204 -0.45298741250561531 0 0.071955909258469009 -0.46877079283141743 0 0.064942869781788204 -0.45298741250561531 0 0.05802097188470097 -0.46975988197928431 0 0.082412892866854714 -0.44182345270401441 0 0.07989865607697158 -0.46093656822545309 0 0.064942869781788204 -0.45298741250561531 0 0.082412892866854714 -0.44182345270401441 0 0.064942869781788204 -0.45298741250561531 0 0.064610562081599654 -0.42243127027201799 0 0.082412892866854714 -0.44182345270401441 0 0.064610562081599654 -0.42243127027201799 0 0.085410796704641828 -0.41553833344022301 0 0.082412892866854714 -0.44182345270401441 0 0.064610562081599654 -0.42243127027201799 0 0.064610562081599654 -0.42243127027201799 0 0.085410796704641828 -0.41553833344022301 0 0.071260751408415451 -0.40583032332525898 0 0.082412892866854714 -0.44182345270401441 0 0.085410796704641828 -0.41553833344022301 0 0.10565257718969159 -0.42402980380391259 0 0.1082504500781146 -0.44478934181291102 0 0.10565257718969159 -0.42402980380391259 0 0.1082504500781146 -0.44478934181291102 0 0.082412892866854714 -0.44182345270401441 0 0.10565257718969159 -0.42402980380391259 0 0.12203304576274319 -0.43975504748265359 0 0.1082504500781146 -0.44478934181291102 0 0.10565257718969159 -0.42402980380391259 0 0.12945713117598301 -0.42527718494859718 0 0.12203304576274319 -0.43975504748265359 0 0.10565257718969159 -0.42402980380391259 0 0.12945713117598301 -0.42527718494859718 0 0.10565257718969159 -0.42402980380391259 0 0.1185943653130178 -0.41089393958744808 0 0.10565257718969159 -0.42402980380391259 0 0.10305470430126849 -0.40327026579491432 0 0.10565257718969159 -0.42402980380391259 0 0.1185943653130178 -0.41089393958744808 0 0.10305470430126849 -0.40327026579491432 0 0.085410796704641828 -0.41553833344022301 0 0.10565257718969159 -0.42402980380391259 0 0.10305470430126849 -0.40327026579491432 0 0.10305470430126849 -0.40327026579491432 0 0.1092296532162271 -0.39195520602732847 0 0.1018679158255022 -0.38137383587803358 0 0.10305470430126849 -0.40327026579491432 0 0.1018679158255022 -0.38137383587803358 0 0.084827885114816814 -0.39510276155480978 0 0.10305470430126849 -0.40327026579491432 0 0.1018679158255022 -0.38137383587803358 0 0.1185943653130178 -0.41089393958744808 0 0.10305470430126849 -0.40327026579491432 0 0.1092296532162271 -0.39195520602732847 0 0.1185943653130178 -0.41089393958744808 0 0.1092296532162271 -0.39195520602732847 0 0.12412735500694751 -0.39493505064503392 0 0.12412735500694751 -0.39493505064503392 0 0.1208593498238435 -0.38006314209191833 0 0.1018679158255022 -0.38137383587803358 0 0.1092296532162271 -0.39195520602732847 0 0.12412735500694751 -0.39493505064503392 0 0.1018679158255022 -0.38137383587803358 0 0.12412735500694751 -0.39493505064503392 0 0.1018679158255022 -0.38137383587803358 0 0.1208593498238435 -0.38006314209191833 0 0.1018679158255022 -0.38137383587803358 0 0.12334710111447229 -0.36406834251145731 0 0.1018679158255022 -0.38137383587803358 0 0.1001863568717406 -0.38034937241650962 0 0.10879209213087419 -0.36797725762153549 0 0.1018679158255022 -0.38137383587803358 0 0.1001863568717406 -0.38034937241650962 0 0.092680417082859706 -0.38189565836938699 0 0.1018679158255022 -0.38137383587803358 0 0.1001863568717406 -0.38034937241650962 0 0.1001863568717406 -0.38034937241650962 0 0.092680417082859706 -0.38189565836938699 0 0.078941289569781151 -0.36740614783332631 0 0.1018679158255022 -0.38137383587803358 0 0.084827885114816814 -0.39510276155480978 0 0.1018679158255022 -0.38137383587803358 0 0.092680417082859706 -0.38189565836938699 0 0.084827885114816814 -0.39510276155480978 0 0.083667078469080447 -0.3817485906143725 0 0.076461538166658155 -0.38231907318138902 0 0.078941289569781151 -0.36740614783332631 0 0.092680417082859706 -0.38189565836938699 0 0.083667078469080447 -0.3817485906143725 0 0.078941289569781151 -0.36740614783332631 0 0.084827885114816814 -0.39510276155480978 0 0.073546264855348126 -0.39398280964304111 0 0.076461538166658155 -0.38231907318138902 0 0.083667078469080447 -0.3817485906143725 0 0.084827885114816814 -0.39510276155480978 0 0.076461538166658155 -0.38231907318138902 0 0.092680417082859706 -0.38189565836938699 0 0.083667078469080447 -0.3817485906143725 0 0.084827885114816814 -0.39510276155480978 0 0.085410796704641828 -0.41553833344022301 0 0.10305470430126849 -0.40327026579491432 0 0.084827885114816814 -0.39510276155480978 0 0.085410796704641828 -0.41553833344022301 0 0.084827885114816814 -0.39510276155480978 0 0.071260751408415451 -0.40583032332525898 0 0.084827885114816814 -0.39510276155480978 0 0.073546264855348126 -0.39398280964304111 0 0.071260751408415451 -0.40583032332525898 0 0.073546264855348126 -0.39398280964304111 0 0.071260751408415451 -0.40583032332525898 0 0.061634884731502082 -0.39267908051070671 0 0.076461538166658155 -0.38231907318138902 0 0.061634884731502082 -0.39267908051070671 0 0.076461538166658155 -0.38231907318138902 0 0.061634884731502082 -0.39267908051070671 0 0.061904282875925747 -0.37237526148823941 0 0.073546264855348126 -0.39398280964304111 0 0.076461538166658155 -0.38231907318138902 0 0.061634884731502082 -0.39267908051070671 0 0.051370350477500881 -0.3764161884637201 0 0.045801185216693012 -0.38580832539780119 0 0.043663507306638913 -0.36868104746756258 0 0.051370350477500881 -0.3764161884637201 0 0.061634884731502082 -0.39267908051070671 0 0.045801185216693012 -0.38580832539780119 0 0.051370350477500881 -0.3764161884637201 0 0.061634884731502082 -0.39267908051070671 0 0.061904282875925747 -0.37237526148823941 0 0.071260751408415451 -0.40583032332525898 0 0.061634884731502082 -0.39267908051070671 0 0.04680823129634433 -0.40303908784002201 0 0.061634884731502082 -0.39267908051070671 0 0.04680823129634433 -0.40303908784002201 0 0.045801185216693012 -0.38580832539780119 0 0.061634884731502082 -0.39267908051070671 0 0.04680823129634433 -0.40303908784002201 0 0.04680823129634433 -0.40303908784002201 0 0.02837172461734 -0.38295609391969199 0 0.04680823129634433 -0.40303908784002201 0 0.02837172461734 -0.38295609391969199 0 0.028215565298714249 -0.40094151263492078 0 0.045801185216693012 -0.38580832539780119 0 0.02837172461734 -0.38295609391969199 0 0.043663507306638913 -0.36868104746756258 0 0.04680823129634433 -0.40303908784002201 0 0.045801185216693012 -0.38580832539780119 0 0.02837172461734 -0.38295609391969199 0 0.02837172461734 -0.38295609391969199 0 0.0122991559467155 -0.37891225603134221 0 0.011208636448502229 -0.39508796301279092 0 -0.002178803782163227 -0.37161627006544062 0 0.0122991559467155 -0.37891225603134221 0 0.011208636448502229 -0.39508796301279092 0 -0.002178803782163227 -0.37161627006544062 0 0.011208636448502229 -0.39508796301279092 0 -0.002178803782163227 -0.37161627006544062 0 -0.0066930742226519926 -0.39143820132839208 0 0.011208636448502229 -0.39508796301279092 0 -0.001728596279610697 -0.40597762003102339 0 0.011208636448502229 -0.39508796301279092 0 0.0082246319185010179 -0.41465428951275207 0 -0.0066930742226519926 -0.39143820132839208 0 -0.001728596279610697 -0.40597762003102339 0 0.011208636448502229 -0.39508796301279092 0 0.011208636448502229 -0.39508796301279092 0 0.028215565298714249 -0.40094151263492078 0 0.024596076679173799 -0.41855965596013778 0 0.02837172461734 -0.38295609391969199 0 0.011208636448502229 -0.39508796301279092 0 0.028215565298714249 -0.40094151263492078 0 0.011208636448502229 -0.39508796301279092 0 0.024596076679173799 -0.41855965596013778 0 0.011208636448502229 -0.39508796301279092 0 0.024596076679173799 -0.41855965596013778 0 0.0082246319185010179 -0.41465428951275207 0 0.024596076679173799 -0.41855965596013778 0 0.0082246319185010179 -0.41465428951275207 0 0.01039378864355619 -0.42848339288335913 0 -0.009537301248459449 -0.42510302968362512 0 0.0082246319185010179 -0.41465428951275207 0 0.01039378864355619 -0.42848339288335913 0 0.024596076679173799 -0.41855965596013778 0 0.036208764147486278 -0.43891974197010591 0 0.024596076679173799 -0.41855965596013778 0 0.036208764147486278 -0.43891974197010591 0 0.020713539006084219 -0.44010250100644183 0 0.024596076679173799 -0.41855965596013778 0 0.01039378864355619 -0.42848339288335913 0 0.020713539006084219 -0.44010250100644183 0 0.024596076679173799 -0.41855965596013778 0 0.01039378864355619 -0.42848339288335913 0 0.024596076679173799 -0.41855965596013778 0 0.043950702345966319 -0.42295947833088071 0 0.036208764147486278 -0.43891974197010591 0 0.043950702345966319 -0.42295947833088071 0 0.051347790295756007 -0.43901682978775403 0 0.036208764147486278 -0.43891974197010591 0 0.04680823129634433 -0.40303908784002201 0 0.024596076679173799 -0.41855965596013778 0 0.04680823129634433 -0.40303908784002201 0 0.028215565298714249 -0.40094151263492078 0 0.024596076679173799 -0.41855965596013778 0 0.04680823129634433 -0.40303908784002201 0 0.024596076679173799 -0.41855965596013778 0 0.043950702345966319 -0.42295947833088071 0 0.064610562081599654 -0.42243127027201799 0 0.071260751408415451 -0.40583032332525898 0 0.04680823129634433 -0.40303908784002201 0 0.064610562081599654 -0.42243127027201799 0 0.04680823129634433 -0.40303908784002201 0 0.064610562081599654 -0.42243127027201799 0 0.04680823129634433 -0.40303908784002201 0 0.043950702345966319 -0.42295947833088071 0 0.064610562081599654 -0.42243127027201799 0 0.043950702345966319 -0.42295947833088071 0 0.051347790295756007 -0.43901682978775403 0 0.064942869781788204 -0.45298741250561531 0 0.064610562081599654 -0.42243127027201799 0 0.051347790295756007 -0.43901682978775403 0 0.064942869781788204 -0.45298741250561531 0 0.051347790295756007 -0.43901682978775403 0 0.047821451615799627 -0.45927982798007361 0 0.064942869781788204 -0.45298741250561531 0 0.047821451615799627 -0.45927982798007361 0 0.05802097188470097 -0.46975988197928431 0 0.047821451615799627 -0.45927982798007361 0 0.023714967739582489 -0.4565662814222432 0 0.032020960621095843 -0.47777188036233098 0 0.047821451615799627 -0.45927982798007361 0 0.036208764147486278 -0.43891974197010591 0 0.051347790295756007 -0.43901682978775403 0 0.047821451615799627 -0.45927982798007361 0 0.036208764147486278 -0.43891974197010591 0 0.047821451615799627 -0.45927982798007361 0 0.036208764147486278 -0.43891974197010591 0 0.023714967739582489 -0.4565662814222432 0 0.036208764147486278 -0.43891974197010591 0 0.020713539006084219 -0.44010250100644183 0 0.023714967739582489 -0.4565662814222432 0 -0.0013374034004768371 -0.44947558896604423 0 0.01039378864355619 -0.42848339288335913 0 0.020713539006084219 -0.44010250100644183 0 -0.0013374034004768371 -0.44947558896604423 0 0.020713539006084219 -0.44010250100644183 0 0.023714967739582489 -0.4565662814222432 0 -0.0013374034004768371 -0.44947558896604423 0 0.0068624944475057766 -0.47384814824846327 0 -0.0013374034004768371 -0.44947558896604423 0 0.023714967739582489 -0.4565662814222432 0 0.0068624944475057766 -0.47384814824846327 0 0.023714967739582489 -0.4565662814222432 0 0.0068624944475057766 -0.47384814824846327 0 0.032020960621095843 -0.47777188036233098 0 0.0068624944475057766 -0.47384814824846327 0 0.0150623922954884 -0.49822070753088238 0 0.032020960621095843 -0.47777188036233098 0 -0.015217900669161011 -0.5 0 0.0024053695883212941 -0.48891336768777249 0 0.013537008404702511 -0.5 0 0.0068624944475057766 -0.47384814824846327 0 0.0024053695883212941 -0.48891336768777249 0 0.0150623922954884 -0.49822070753088238 0 0.0068624944475057766 -0.47384814824846327 0 0.0150623922954884 -0.49822070753088238 0 0.0024053695883212941 -0.48891336768777249 0 0.0150623922954884 -0.49822070753088238 0 0.013537008404702511 -0.5 0 0.0150623922954884 -0.49822070753088238 0 0.013537008404702511 -0.5 0 0.042291917478565873 -0.5 0 0.0150623922954884 -0.49822070753088238 0 0.042291917478565873 -0.5 0 0.032020960621095843 -0.47777188036233098 0 0.042291917478565873 -0.5 0 0.032020960621095843 -0.47777188036233098 0 0.059434139084113012 -0.47963991399004141 0 0.047821451615799627 -0.45927982798007361 0 0.032020960621095843 -0.47777188036233098 0 0.059434139084113012 -0.47963991399004141 0 0.047821451615799627 -0.45927982798007361 0 0.05802097188470097 -0.46975988197928431 0 0.059434139084113012 -0.47963991399004141 0 0.047821451615799627 -0.45927982798007361 0 0.059434139084113012 -0.47963991399004141 0 0.071046826552429457 -0.50000000000000733 0 0.042291917478565873 -0.5 0 0.059434139084113012 -0.47963991399004141 0 0.078456545354339768 -0.28525100698693651 0 0.075192778843485145 -0.3004755496101415 0 0.095899689397586599 -0.3008291305439913 0 0.078456545354339768 -0.28525100698693651 0 0.095711127176573443 -0.2751242682777974 0 0.095899689397586599 -0.3008291305439913 0 0.075192778843485145 -0.3004755496101415 0 0.095899689397586599 -0.3008291305439913 0 0.074188022781041252 -0.31649930169162399 0 0.095899689397586599 -0.3008291305439913 0 0.074188022781041252 -0.31649930169162399 0 0.075192778843485145 -0.3004755496101415 0 0.074188022781041252 -0.31649930169162399 0 0.058270312985904418 -0.30816514798469019 0 0.075192778843485145 -0.3004755496101415 0 0.068995976747761104 -0.2945131319279734 0 0.058270312985904418 -0.30816514798469019 0 0.068995976747761104 -0.2945131319279734 0 0.064064269807315097 -0.28416082313012542 0 0.058270312985904418 -0.30816514798469019 0 0.078456545354339768 -0.28525100698693651 0 0.075192778843485145 -0.3004755496101415 0 0.068995976747761104 -0.2945131319279734 0 0.078456545354339768 -0.28525100698693651 0 0.068995976747761104 -0.2945131319279734 0 0.064064269807315097 -0.28416082313012542 0 0.064064269807315097 -0.28416082313012542 0 0.069858226628725775 -0.26015649827556059 0 0.078456545354339768 -0.28525100698693651 0 0.064064269807315097 -0.28416082313012542 0 0.069858226628725775 -0.26015649827556059 0 0.069858226628725775 -0.26015649827556059 0 0.095711127176573443 -0.2751242682777974 0 0.096521476943682558 -0.25181800011133371 0 0.078456545354339768 -0.28525100698693651 0 0.069858226628725775 -0.26015649827556059 0 0.095711127176573443 -0.2751242682777974 0 0.095711127176573443 -0.2751242682777974 0 0.114720785939063 -0.26575264298982931 0 0.1176113560141319 -0.2851589593963586 0 0.095711127176573443 -0.2751242682777974 0 0.096521476943682558 -0.25181800011133371 0 0.114720785939063 -0.26575264298982931 0 0.1376178273856396 -0.2676878026278281 0 0.114720785939063 -0.26575264298982931 0 0.1200034520355143 -0.24749468667538321 0 0.096521476943682558 -0.25181800011133371 0 0.114720785939063 -0.26575264298982931 0 0.1200034520355143 -0.24749468667538321 0 0.1376178273856396 -0.2676878026278281 0 0.114720785939063 -0.26575264298982931 0 0.1176113560141319 -0.2851589593963586 0 0.13584279120622419 -0.29064916595208462 0 0.1176113560141319 -0.2851589593963586 0 0.1212075847983899 -0.30357596212866123 0 0.1176113560141319 -0.2851589593963586 0 0.095899689397586599 -0.3008291305439913 0 0.1212075847983899 -0.30357596212866123 0 0.1176113560141319 -0.2851589593963586 0 0.095899689397586599 -0.3008291305439913 0 0.095711127176573443 -0.2751242682777974 0 0.1176113560141319 -0.2851589593963586 0 0.095899689397586599 -0.3008291305439913 0 0.095899689397586599 -0.3008291305439913 0 0.1212075847983899 -0.30357596212866123 0 0.1047724191350739 -0.31963875894108951 0 0.1212075847983899 -0.30357596212866123 0 0.1249111379911398 -0.32186001205002218 0 0.1047724191350739 -0.31963875894108951 0 0.1249111379911398 -0.32186001205002218 0 0.1047724191350739 -0.31963875894108951 0 0.11573058637367541 -0.34380091622275832 0 0.094619564876377599 -0.33586527524184762 0 0.1047724191350739 -0.31963875894108951 0 0.11573058637367541 -0.34380091622275832 0 0.094619564876377599 -0.33586527524184762 0 0.1047724191350739 -0.31963875894108951 0 0.086339338786571823 -0.32698567366184278 0 0.095899689397586599 -0.3008291305439913 0 0.1047724191350739 -0.31963875894108951 0 0.086339338786571823 -0.32698567366184278 0 0.1018679158255022 -0.38137383587803358 0 0.12334710111447229 -0.36406834251145731 0 0.1018679158255022 -0.38137383587803358 0 0.12334710111447229 -0.36406834251145731 0 0.10879209213087419 -0.36797725762153549 0 0.12334710111447229 -0.36406834251145731 0 0.11573058637367541 -0.34380091622275832 0 0.10879209213087419 -0.36797725762153549 0 0.11573058637367541 -0.34380091622275832 0 0.097402960874061584 -0.35810732382917831 0 0.10879209213087419 -0.36797725762153549 0 0.094619564876377599 -0.33586527524184762 0 0.11573058637367541 -0.34380091622275832 0 0.097402960874061584 -0.35810732382917831 0 0.094619564876377599 -0.33586527524184762 0 0.097402960874061584 -0.35810732382917831 0 0.1001863568717406 -0.38034937241650962 0 0.097402960874061584 -0.35810732382917831 0 0.1001863568717406 -0.38034937241650962 0 0.097402960874061584 -0.35810732382917831 0 0.10879209213087419 -0.36797725762153549 0 0.1001863568717406 -0.38034937241650962 0 0.097402960874061584 -0.35810732382917831 0 0.078941289569781151 -0.36740614783332631 0 0.1001863568717406 -0.38034937241650962 0 0.078941289569781151 -0.36740614783332631 0 0.094619564876377599 -0.33586527524184762 0 0.097402960874061584 -0.35810732382917831 0 0.084740357312199394 -0.34701535865000288 0 0.078941289569781151 -0.36740614783332631 0 0.084740357312199394 -0.34701535865000288 0 0.072564810466095128 -0.35396504242622201 0 0.097402960874061584 -0.35810732382917831 0 0.078941289569781151 -0.36740614783332631 0 0.084740357312199394 -0.34701535865000288 0 0.078941289569781151 -0.36740614783332631 0 0.072564810466095128 -0.35396504242622201 0 0.057696222267823373 -0.35446292325014028 0 0.084740357312199394 -0.34701535865000288 0 0.072564810466095128 -0.35396504242622201 0 0.073102422775426085 -0.33909783780230318 0 0.064643683218506637 -0.34920539315333932 0 0.072564810466095128 -0.35396504242622201 0 0.073102422775426085 -0.33909783780230318 0 0.064643683218506637 -0.34920539315333932 0 0.072564810466095128 -0.35396504242622201 0 0.057696222267823373 -0.35446292325014028 0 0.078941289569781151 -0.36740614783332631 0 0.057696222267823373 -0.35446292325014028 0 0.076461538166658155 -0.38231907318138902 0 0.078941289569781151 -0.36740614783332631 0 0.061904282875925747 -0.37237526148823941 0 0.078941289569781151 -0.36740614783332631 0 0.061904282875925747 -0.37237526148823941 0 0.057696222267823373 -0.35446292325014028 0 0.095899689397586599 -0.3008291305439913 0 0.086339338786571823 -0.32698567366184278 0 0.074188022781041252 -0.31649930169162399 0 0.094619564876377599 -0.33586527524184762 0 0.084740357312199394 -0.34701535865000288 0 0.086339338786571823 -0.32698567366184278 0 0.084740357312199394 -0.34701535865000288 0 0.086339338786571823 -0.32698567366184278 0 0.073102422775426085 -0.33909783780230318 0 0.073102422775426085 -0.33909783780230318 0 0.074188022781041252 -0.31649930169162399 0 0.052476356164494947 -0.33216947283925541 0 0.064643683218506637 -0.34920539315333932 0 0.073102422775426085 -0.33909783780230318 0 0.060945063747813971 -0.34285112352430303 0 0.074188022781041252 -0.31649930169162399 0 0.052476356164494947 -0.33216947283925541 0 0.086339338786571823 -0.32698567366184278 0 0.073102422775426085 -0.33909783780230318 0 0.074188022781041252 -0.31649930169162399 0 0.052476356164494947 -0.33216947283925541 0 0.058270312985904418 -0.30816514798469019 0 0.052476356164494947 -0.33216947283925541 0 0.044648526871603783 -0.31770081170742831 0 0.058270312985904418 -0.30816514798469019 0 0.074188022781041252 -0.31649930169162399 0 0.052476356164494947 -0.33216947283925541 0 0.058270312985904418 -0.30816514798469019 0 0.052476356164494947 -0.33216947283925541 0 0.047583047975914103 -0.35244241635483559 0 0.073102422775426085 -0.33909783780230318 0 0.060945063747813971 -0.34285112352430303 0 0.052476356164494947 -0.33216947283925541 0 0.060945063747813971 -0.34285112352430303 0 0.052476356164494947 -0.33216947283925541 0 0.054181307711507642 -0.34983992205818981 0 0.052476356164494947 -0.33216947283925541 0 0.04071506683574927 -0.34065806194451792 0 0.047583047975914103 -0.35244241635483559 0 0.052476356164494947 -0.33216947283925541 0 0.04071506683574927 -0.34065806194451792 0 0.044648526871603783 -0.31770081170742831 0 0.04071506683574927 -0.34065806194451792 0 0.03015636661650286 -0.3225410253719756 0 0.04071506683574927 -0.34065806194451792 0 0.03015636661650286 -0.3225410253719756 0 0.02636863849756152 -0.33688388254537838 0 0.052476356164494947 -0.33216947283925541 0 0.04071506683574927 -0.34065806194451792 0 0.04071506683574927 -0.34065806194451792 0 0.044648526871603783 -0.31770081170742831 0 0.03015636661650286 -0.3225410253719756 0 0.044648526871603783 -0.31770081170742831 0 0.03015636661650286 -0.3225410253719756 0 0.034491627806478041 -0.30853974567073322 0 0.061904282875925747 -0.37237526148823941 0 0.053259535722039633 -0.3641180164926533 0 0.057696222267823373 -0.35446292325014028 0 0.051370350477500881 -0.3764161884637201 0 0.053259535722039633 -0.3641180164926533 0 0.043663507306638913 -0.36868104746756258 0 0.051370350477500881 -0.3764161884637201 0 0.061904282875925747 -0.37237526148823941 0 0.053259535722039633 -0.3641180164926533 0 0.053259535722039633 -0.3641180164926533 0 0.048773826387857627 -0.3544856011778737 0 0.043663507306638913 -0.36868104746756258 0 0.052476356164494947 -0.33216947283925541 0 0.047583047975914103 -0.35244241635483559 0 0.054181307711507642 -0.34983992205818981 0 0.053259535722039633 -0.3641180164926533 0 0.053244657324237762 -0.3582642649149802 0 0.048773826387857627 -0.3544856011778737 0 0.053244657324237762 -0.3582642649149802 0 0.048773826387857627 -0.3544856011778737 0 0.054181307711507642 -0.34983992205818981 0 0.048773826387857627 -0.3544856011778737 0 0.047583047975914103 -0.35244241635483559 0 0.054181307711507642 -0.34983992205818981 0 0.048773826387857627 -0.3544856011778737 0 0.047583047975914103 -0.35244241635483559 0 0.053259535722039633 -0.3641180164926533 0 0.053244657324237762 -0.3582642649149802 0 0.057696222267823373 -0.35446292325014028 0 0.053244657324237762 -0.3582642649149802 0 0.057696222267823373 -0.35446292325014028 0 0.054181307711507642 -0.34983992205818981 0 0.064643683218506637 -0.34920539315333932 0 0.057696222267823373 -0.35446292325014028 0 0.054181307711507642 -0.34983992205818981 0 0.064643683218506637 -0.34920539315333932 0 0.060945063747813971 -0.34285112352430303 0 0.054181307711507642 -0.34983992205818981 0 0.048773826387857627 -0.3544856011778737 0 0.047583047975914103 -0.35244241635483559 0 0.043663507306638913 -0.36868104746756258 0 0.04071506683574927 -0.34065806194451792 0 0.047583047975914103 -0.35244241635483559 0 0.04071506683574927 -0.34065806194451792 0 0.047583047975914103 -0.35244241635483559 0 0.03985573710467899 -0.35136837444597901 0 0.04071506683574927 -0.34065806194451792 0 0.03985573710467899 -0.35136837444597901 0 0.03205896378917665 -0.35434441690964041 0 0.04071506683574927 -0.34065806194451792 0 0.03205896378917665 -0.35434441690964041 0 0.025431496553892478 -0.35168882095041942 0 0.04071506683574927 -0.34065806194451792 0 0.025431496553892478 -0.35168882095041942 0 0.03985573710467899 -0.35136837444597901 0 0.03205896378917665 -0.35434441690964041 0 0.039065869817875902 -0.35802860257492208 0 0.047583047975914103 -0.35244241635483559 0 0.03985573710467899 -0.35136837444597901 0 0.039065869817875902 -0.35802860257492208 0 0.02837172461734 -0.38295609391969199 0 0.033371525452051833 -0.36592480980272157 0 0.043663507306638913 -0.36868104746756258 0 0.047583047975914103 -0.35244241635483559 0 0.039065869817875902 -0.35802860257492208 0 0.043663507306638913 -0.36868104746756258 0 0.047583047975914103 -0.35244241635483559 0 0.043663507306638913 -0.36868104746756258 0 0.039065869817875902 -0.35802860257492208 0 0.033371525452051833 -0.36592480980272157 0 0.043663507306638913 -0.36868104746756258 0 0.03205896378917665 -0.35434441690964041 0 0.039065869817875902 -0.35802860257492208 0 0.033371525452051833 -0.36592480980272157 0 0.02837172461734 -0.38295609391969199 0 0.0099352179383349771 -0.36287309999936251 0 0.02837172461734 -0.38295609391969199 0 0.023697561729227701 -0.3656138881417908 0 0.0099352179383349771 -0.36287309999936251 0 0.02837172461734 -0.38295609391969199 0 0.033371525452051833 -0.36592480980272157 0 0.023697561729227701 -0.3656138881417908 0 0.02837172461734 -0.38295609391969199 0 0.0122991559467155 -0.37891225603134221 0 0.0099352179383349771 -0.36287309999936251 0 0.03205896378917665 -0.35434441690964041 0 0.033371525452051833 -0.36592480980272157 0 0.023697561729227701 -0.3656138881417908 0 0.023697561729227701 -0.3656138881417908 0 0.025431496553892478 -0.35168882095041942 0 0.0099352179383349771 -0.36287309999936251 0 0.025431496553892478 -0.35168882095041942 0 0.0075807645751098419 -0.34453611388615663 0 0.025431496553892478 -0.35168882095041942 0 0.0075807645751098419 -0.34453611388615663 0 0.02636863849756152 -0.33688388254537838 0 0.025431496553892478 -0.35168882095041942 0 0.0099352179383349771 -0.36287309999936251 0 0.03205896378917665 -0.35434441690964041 0 0.023697561729227701 -0.3656138881417908 0 0.025431496553892478 -0.35168882095041942 0 0.03205896378917665 -0.35434441690964041 0 0.025431496553892478 -0.35168882095041942 0 -0.0096343958099064687 -0.34155580596031437 0 0.0099352179383349771 -0.36287309999936251 0 -0.0096343958099064687 -0.34155580596031437 0 0.0075807645751098419 -0.34453611388615663 0 0.0099352179383349771 -0.36287309999936251 0 0.025431496553892478 -0.35168882095041942 0 0.0075807645751098419 -0.34453611388615663 0 0.0099352179383349771 -0.36287309999936251 0 -0.002178803782163227 -0.37161627006544062 0 0.0122991559467155 -0.37891225603134221 0 0.0099352179383349771 -0.36287309999936251 0 -0.0070150904897389628 -0.35875101633193152 0 -0.002178803782163227 -0.37161627006544062 0 0.0099352179383349771 -0.36287309999936251 0 -0.002178803782163227 -0.37161627006544062 0 0.0099352179383349771 -0.36287309999936251 0 0.03015636661650286 -0.3225410253719756 0 0.019597666397256509 -0.30442398879943339 0 0.03015636661650286 -0.3225410253719756 0 0.014793392922354411 -0.31628120652474823 0 0.019597666397256509 -0.30442398879943339 0 0.03015636661650286 -0.3225410253719756 0 0.01453256369494863 -0.32953892791496292 0 0.014793392922354411 -0.31628120652474823 0 0.03015636661650286 -0.3225410253719756 0 0.02636863849756152 -0.33688388254537838 0 0.01453256369494863 -0.32953892791496292 0 0.0075807645751098419 -0.34453611388615663 0 0.02636863849756152 -0.33688388254537838 0 0.01453256369494863 -0.32953892791496292 0 0.04071506683574927 -0.34065806194451792 0 0.025431496553892478 -0.35168882095041942 0 0.02636863849756152 -0.33688388254537838 0 0.0075807645751098419 -0.34453611388615663 0 0.01453256369494863 -0.32953892791496292 0 0.0034794820758208261 -0.33361449123698089 0 -0.010269967403673339 -0.33738340682189533 0 0.0075807645751098419 -0.34453611388615663 0 0.0034794820758208261 -0.33361449123698089 0 0.01453256369494863 -0.32953892791496292 0 0.0034794820758208261 -0.33361449123698089 0 0.001904989571353899 -0.32214434476741449 0 0.001904989571353899 -0.32214434476741449 0 0.014793392922354411 -0.31628120652474823 0 0.0019518825097332619 -0.30029273945570772 0 0.01453256369494863 -0.32953892791496292 0 0.001904989571353899 -0.32214434476741449 0 0.014793392922354411 -0.31628120652474823 0 0.0019518825097332619 -0.30029273945570772 0 0.0090389661780101715 -0.28630695222689118 0 0.019597666397256509 -0.30442398879943339 0 0.014793392922354411 -0.31628120652474823 0 0.0019518825097332619 -0.30029273945570772 0 0.019597666397256509 -0.30442398879943339 0 -0.0020851015340006161 -0.28052611142458661 0 0.0019518825097332619 -0.30029273945570772 0 0.0090389661780101715 -0.28630695222689118 0 0.0090389661780101715 -0.28630695222689118 0 0.019597666397256509 -0.30442398879943339 0 0.0090389661780101715 -0.28630695222689118 0 0.019597666397256509 -0.30442398879943339 0 0.033821918158706138 -0.27707393290215671 0 0.03015636661650286 -0.3225410253719756 0 0.019597666397256509 -0.30442398879943339 0 0.034491627806478041 -0.30853974567073322 0 0.019597666397256509 -0.30442398879943339 0 0.034491627806478041 -0.30853974567073322 0 0.043330632548044458 -0.29475484461045087 0 0.044648526871603783 -0.31770081170742831 0 0.034491627806478041 -0.30853974567073322 0 0.043330632548044458 -0.29475484461045087 0 0.019597666397256509 -0.30442398879943339 0 0.043330632548044458 -0.29475484461045087 0 0.033821918158706138 -0.27707393290215671 0 0.043330632548044458 -0.29475484461045087 0 0.062049371387241412 -0.28749956346879602 0 0.033821918158706138 -0.27707393290215671 0 0.064064269807315097 -0.28416082313012542 0 0.058270312985904418 -0.30816514798469019 0 0.062049371387241412 -0.28749956346879602 0 0.033821918158706138 -0.27707393290215671 0 0.064064269807315097 -0.28416082313012542 0 0.062049371387241412 -0.28749956346879602 0 0.058270312985904418 -0.30816514798469019 0 0.043330632548044458 -0.29475484461045087 0 0.062049371387241412 -0.28749956346879602 0 0.058270312985904418 -0.30816514798469019 0 0.044648526871603783 -0.31770081170742831 0 0.043330632548044458 -0.29475484461045087 0 0.058270312985904418 -0.30816514798469019 0 0.069858226628725775 -0.26015649827556059 0 0.051624075113339378 -0.26919050519125598 0 0.046498349670861652 -0.24826912251879649 0 0.064064269807315097 -0.28416082313012542 0 0.069858226628725775 -0.26015649827556059 0 0.051624075113339378 -0.26919050519125598 0 0.062049371387241412 -0.28749956346879602 0 0.051624075113339378 -0.26919050519125598 0 0.033821918158706138 -0.27707393290215671 0 0.064064269807315097 -0.28416082313012542 0 0.062049371387241412 -0.28749956346879602 0 0.051624075113339378 -0.26919050519125598 0 0.051624075113339378 -0.26919050519125598 0 0.033821918158706138 -0.27707393290215671 0 0.034240698289148337 -0.25967273023798509 0 0.051624075113339378 -0.26919050519125598 0 0.034240698289148337 -0.25967273023798509 0 0.046498349670861652 -0.24826912251879649 0 0.034240698289148337 -0.25967273023798509 0 0.02296875629887114 -0.2464092256209898 0 0.046498349670861652 -0.24826912251879649 0 0.034240698289148337 -0.25967273023798509 0 0.0055944649301708496 -0.26664830233551728 0 0.02296875629887114 -0.2464092256209898 0 0.0090389661780101715 -0.28630695222689118 0 0.033821918158706138 -0.27707393290215671 0 0.0055944649301708496 -0.26664830233551728 0 0.033821918158706138 -0.27707393290215671 0 0.034240698289148337 -0.25967273023798509 0 0.0055944649301708496 -0.26664830233551728 0 0.033821918158706138 -0.27707393290215671 0 0.0055944649301708496 -0.26664830233551728 0 -0.0020851015340006161 -0.28052611142458661 0 0.0090389661780101715 -0.28630695222689118 0 0.0055944649301708496 -0.26664830233551728 0 0.0055944649301708496 -0.26664830233551728 0 0.0055632338660241776 -0.24332209518663511 0 0.02296875629887114 -0.2464092256209898 0 -0.0080727856436109482 -0.2481099565327444 0 0.0055944649301708496 -0.26664830233551728 0 0.0055632338660241776 -0.24332209518663511 0 0.0055632338660241776 -0.24332209518663511 0 0.0032521440618358652 -0.23009641691855939 0 0.019268989126464159 -0.2308348024940351 0 -0.0084819670471955304 -0.2367225590632196 0 0.0055632338660241776 -0.24332209518663511 0 0.0032521440618358652 -0.23009641691855939 0 -0.0075276580997289226 -0.21896018305478171 0 0.0032521440618358652 -0.23009641691855939 0 0.012041166441398349 -0.21677938876306921 0 0.0032521440618358652 -0.23009641691855939 0 0.019268989126464159 -0.2308348024940351 0 0.012041166441398349 -0.21677938876306921 0 0.019268989126464159 -0.2308348024940351 0 0.028464877365028059 -0.21915571909051779 0 0.012041166441398349 -0.21677938876306921 0 0.019268989126464159 -0.2308348024940351 0 0.028464877365028059 -0.21915571909051779 0 0.041174919052571327 -0.22964645066930789 0 0.0055632338660241776 -0.24332209518663511 0 0.019268989126464159 -0.2308348024940351 0 0.02296875629887114 -0.2464092256209898 0 0.019268989126464159 -0.2308348024940351 0 0.02296875629887114 -0.2464092256209898 0 0.041174919052571327 -0.22964645066930789 0 -0.0075276580997289226 -0.21896018305478171 0 0.003555539334036632 -0.19934620758084881 0 0.012041166441398349 -0.21677938876306921 0 0.003555539334036632 -0.19934620758084881 0 0.012041166441398349 -0.21677938876306921 0 0.02523310686075431 -0.20228300343967229 0 0.028464877365028059 -0.21915571909051779 0 0.012041166441398349 -0.21677938876306921 0 0.02523310686075431 -0.20228300343967229 0 0.02523310686075431 -0.20228300343967229 0 0.033125333554059701 -0.1865598477748947 0 0.018588522793563201 -0.18166153924030251 0 0.003555539334036632 -0.19934620758084881 0 0.02523310686075431 -0.20228300343967229 0 0.018588522793563201 -0.18166153924030251 0 0.048648578511840943 -0.20623258170594561 0 0.049880579816306267 -0.17970719815632741 0 0.033125333554059701 -0.1865598477748947 0 0.02523310686075431 -0.20228300343967229 0 0.048648578511840943 -0.20623258170594561 0 0.033125333554059701 -0.1865598477748947 0 0.028464877365028059 -0.21915571909051779 0 0.02523310686075431 -0.20228300343967229 0 0.048648578511840943 -0.20623258170594561 0 0.028464877365028059 -0.21915571909051779 0 0.048648578511840943 -0.20623258170594561 0 0.041174919052571327 -0.22964645066930789 0 0.048648578511840943 -0.20623258170594561 0 0.059757914812518881 -0.22869522271940709 0 0.066598585428591164 -0.21133354617687591 0 0.048648578511840943 -0.20623258170594561 0 0.067160325985138131 -0.18691533881804831 0 0.049880579816306267 -0.17970719815632741 0 0.048648578511840943 -0.20623258170594561 0 0.066598585428591164 -0.21133354617687591 0 0.067160325985138131 -0.18691533881804831 0 0.069858226628725775 -0.26015649827556059 0 0.046498349670861652 -0.24826912251879649 0 0.059757914812518881 -0.22869522271940709 0 0.02296875629887114 -0.2464092256209898 0 0.046498349670861652 -0.24826912251879649 0 0.041174919052571327 -0.22964645066930789 0 0.048648578511840943 -0.20623258170594561 0 0.041174919052571327 -0.22964645066930789 0 0.059757914812518881 -0.22869522271940709 0 0.046498349670861652 -0.24826912251879649 0 0.041174919052571327 -0.22964645066930789 0 0.059757914812518881 -0.22869522271940709 0 0.069858226628725775 -0.26015649827556059 0 0.059757914812518881 -0.22869522271940709 0 0.080941623453078815 -0.2334444244951252 0 0.069858226628725775 -0.26015649827556059 0 0.096521476943682558 -0.25181800011133371 0 0.080941623453078815 -0.2334444244951252 0 0.096521476943682558 -0.25181800011133371 0 0.080941623453078815 -0.2334444244951252 0 0.102389076685389 -0.22730157072293841 0 0.080941623453078815 -0.2334444244951252 0 0.084774701335263575 -0.20710845477049339 0 0.102389076685389 -0.22730157072293841 0 0.059757914812518881 -0.22869522271940709 0 0.080941623453078815 -0.2334444244951252 0 0.066598585428591164 -0.21133354617687591 0 0.080941623453078815 -0.2334444244951252 0 0.066598585428591164 -0.21133354617687591 0 0.084774701335263575 -0.20710845477049339 0 0.084774701335263575 -0.20710845477049339 0 0.067160325985138131 -0.18691533881804831 0 0.066598585428591164 -0.21133354617687591 0 0.084774701335263575 -0.20710845477049339 0 0.067160325985138131 -0.18691533881804831 0 0.092537347032927528 -0.18889969997864839 0 0.084774701335263575 -0.20710845477049339 0 0.067160325985138131 -0.18691533881804831 0 0.084774701335263575 -0.20710845477049339 0 0.102389076685389 -0.22730157072293841 0 0.084774701335263575 -0.20710845477049339 0 0.10575093398731179 -0.20517541990618701 0 0.102389076685389 -0.22730157072293841 0 0.092537347032927528 -0.18889969997864839 0 0.10575093398731179 -0.20517541990618701 0 0.11404320040195411 -0.17785048998131209 0 0.092537347032927528 -0.18889969997864839 0 0.084774701335263575 -0.20710845477049339 0 0.10575093398731179 -0.20517541990618701 0 0.10575093398731179 -0.20517541990618701 0 0.11404320040195411 -0.17785048998131209 0 0.12592289232087811 -0.19910656028939411 0 0.10575093398731179 -0.20517541990618701 0 0.1284413173888232 -0.22347585252773641 0 0.12592289232087811 -0.19910656028939411 0 0.10575093398731179 -0.20517541990618701 0 0.102389076685389 -0.22730157072293841 0 0.1284413173888232 -0.22347585252773641 0 0.1200034520355143 -0.24749468667538321 0 0.102389076685389 -0.22730157072293841 0 0.1284413173888232 -0.22347585252773641 0 0.1200034520355143 -0.24749468667538321 0 0.102389076685389 -0.22730157072293841 0 0.096521476943682558 -0.25181800011133371 0 0.1200034520355143 -0.24749468667538321 0 0.102389076685389 -0.22730157072293841 0 0.099885875260422058 -0.15149088269105351 0 0.1161887790728692 -0.1476769396888597 0 0.1105045846919957 -0.16013033574144619 0 0.099885875260422058 -0.15149088269105351 0 0.099597293261818404 -0.1347502866929414 0 0.1161887790728692 -0.1476769396888597 0 0.099597293261818404 -0.1347502866929414 0 0.1161887790728692 -0.1476769396888597 0 0.099597293261818404 -0.1347502866929414 0 0.1047785765018954 -0.13712350701568179 0 0.1161887790728692 -0.1476769396888597 0 0.099597293261818404 -0.1347502866929414 0 0.093527805260815264 -0.13002146576964491 0 0.104312872852085 -0.12243825994362539 0 0.099597293261818404 -0.1347502866929414 0 0.093527805260815264 -0.13002146576964491 0 0.099597293261818404 -0.1347502866929414 0 0.093527805260815264 -0.13002146576964491 0 0.092996203934319052 -0.1329056080468716 0 0.099597293261818404 -0.1347502866929414 0 0.1088944047617572 -0.13480079442927331 0 0.104312872852085 -0.12243825994362539 0 0.099597293261818404 -0.1347502866929414 0 0.1047785765018954 -0.13712350701568179 0 0.1088944047617572 -0.13480079442927331 0 0.099597293261818404 -0.1347502866929414 0 0.1088944047617572 -0.13480079442927331 0 0.1047785765018954 -0.13712350701568179 0 0.1088944047617572 -0.13480079442927331 0 0.1088944047617572 -0.13480079442927331 0 0.1161887790728692 -0.1476769396888597 0 0.13638976604354719 -0.13495016646355951 0 0.1088944047617572 -0.13480079442927331 0 0.12800820934211829 -0.12401417466047961 0 0.13638976604354719 -0.13495016646355951 0 0.1047785765018954 -0.13712350701568179 0 0.1088944047617572 -0.13480079442927331 0 0.1161887790728692 -0.1476769396888597 0 0.1088944047617572 -0.13480079442927331 0 0.104312872852085 -0.12243825994362539 0 0.12800820934211829 -0.12401417466047961 0 0.1088944047617572 -0.13480079442927331 0 0.12800820934211829 -0.12401417466047961 0 0.1088944047617572 -0.13480079442927331 0 0.13638976604354719 -0.13495016646355951 0 0.1161887790728692 -0.1476769396888597 0 0.1105045846919957 -0.16013033574144619 0 0.1305387904294309 -0.15561497697083931 0 0.1105045846919957 -0.16013033574144619 0 0.11404320040195411 -0.17785048998131209 0 0.1305387904294309 -0.15561497697083931 0 0.092537347032927528 -0.18889969997864839 0 0.11404320040195411 -0.17785048998131209 0 0.090957573454969964 -0.1674487964172009 0 0.1105045846919957 -0.16013033574144619 0 0.11404320040195411 -0.17785048998131209 0 0.090957573454969964 -0.1674487964172009 0 0.099885875260422058 -0.15149088269105351 0 0.1105045846919957 -0.16013033574144619 0 0.090957573454969964 -0.1674487964172009 0 0.099885875260422058 -0.15149088269105351 0 0.090957573454969964 -0.1674487964172009 0 0.080257725164813276 -0.1505404030764457 0 0.090957573454969964 -0.1674487964172009 0 0.065342325237630991 -0.1650228072456788 0 0.080257725164813276 -0.1505404030764457 0 0.092537347032927528 -0.18889969997864839 0 0.090957573454969964 -0.1674487964172009 0 0.067160325985138131 -0.18691533881804831 0 0.090957573454969964 -0.1674487964172009 0 0.067160325985138131 -0.18691533881804831 0 0.065342325237630991 -0.1650228072456788 0 0.065342325237630991 -0.1650228072456788 0 0.080257725164813276 -0.1505404030764457 0 0.056224073158944461 -0.14994265306170279 0 0.080257725164813276 -0.1505404030764457 0 0.069539210615093855 -0.1345869923500955 0 0.056224073158944461 -0.14994265306170279 0 0.099885875260422058 -0.15149088269105351 0 0.099597293261818404 -0.1347502866929414 0 0.080257725164813276 -0.1505404030764457 0 0.099597293261818404 -0.1347502866929414 0 0.080257725164813276 -0.1505404030764457 0 0.069539210615093855 -0.1345869923500955 0 0.099597293261818404 -0.1347502866929414 0 0.092996203934319052 -0.1329056080468716 0 0.069539210615093855 -0.1345869923500955 0 0.099597293261818404 -0.1347502866929414 0 0.069539210615093855 -0.1345869923500955 0 0.092996203934319052 -0.1329056080468716 0 0.069539210615093855 -0.1345869923500955 0 0.079322302472514483 -0.11895376470488229 0 0.093527805260815264 -0.13002146576964491 0 0.092996203934319052 -0.1329056080468716 0 0.079322302472514483 -0.11895376470488229 0 0.093527805260815264 -0.13002146576964491 0 0.092996203934319052 -0.1329056080468716 0 0.069539210615093855 -0.1345869923500955 0 0.052298963826290519 -0.1211548808236817 0 0.066569319149528045 -0.1206454253796948 0 0.069539210615093855 -0.1345869923500955 0 0.039481127968369292 -0.1344236980072451 0 0.052298963826290519 -0.1211548808236817 0 0.069539210615093855 -0.1345869923500955 0 0.056224073158944461 -0.14994265306170279 0 0.039481127968369292 -0.1344236980072451 0 0.069539210615093855 -0.1345869923500955 0 0.039481127968369292 -0.1344236980072451 0 0.056224073158944461 -0.14994265306170279 0 0.038811693183881758 -0.15444647348478721 0 0.047368807546727579 -0.16279517251764489 0 0.056224073158944461 -0.14994265306170279 0 0.038811693183881758 -0.15444647348478721 0 0.039481127968369292 -0.1344236980072451 0 0.038811693183881758 -0.15444647348478721 0 0.039481127968369292 -0.1344236980072451 0 0.019056913867763529 -0.155566515408149 0 0.034777770017858589 -0.1343981464191871 0 0.039481127968369292 -0.1344236980072451 0 0.022320289212787989 -0.1422177528203018 0 0.034777770017858589 -0.1343981464191871 0 0.039481127968369292 -0.1344236980072451 0 0.034777770017858589 -0.1343981464191871 0 0.029299678594365521 -0.12697140115214181 0 0.037800108132664212 -0.12348471533883321 0 0.034777770017858589 -0.1343981464191871 0 0.039481127968369292 -0.1344236980072451 0 0.037800108132664212 -0.12348471533883321 0 0.039481127968369292 -0.1344236980072451 0 0.052298963826290519 -0.1211548808236817 0 0.039481127968369292 -0.1344236980072451 0 0.052298963826290519 -0.1211548808236817 0 0.037800108132664212 -0.12348471533883321 0 0.067160325985138131 -0.18691533881804831 0 0.065342325237630991 -0.1650228072456788 0 0.049880579816306267 -0.17970719815632741 0 0.065342325237630991 -0.1650228072456788 0 0.049880579816306267 -0.17970719815632741 0 0.047368807546727579 -0.16279517251764489 0 0.065342325237630991 -0.1650228072456788 0 0.056224073158944461 -0.14994265306170279 0 0.047368807546727579 -0.16279517251764489 0 0.049880579816306267 -0.17970719815632741 0 0.047368807546727579 -0.16279517251764489 0 0.031927543377605602 -0.16950432842919569 0 0.038811693183881758 -0.15444647348478721 0 0.047368807546727579 -0.16279517251764489 0 0.031927543377605602 -0.16950432842919569 0 0.049880579816306267 -0.17970719815632741 0 0.031927543377605602 -0.16950432842919569 0 0.033125333554059701 -0.1865598477748947 0 0.031927543377605602 -0.16950432842919569 0 0.033125333554059701 -0.1865598477748947 0 0.018588522793563201 -0.18166153924030251 0 0.031927543377605602 -0.16950432842919569 0 0.018588522793563201 -0.18166153924030251 0 0.019056913867763529 -0.155566515408149 0 0.038811693183881758 -0.15444647348478721 0 0.031927543377605602 -0.16950432842919569 0 0.019056913867763529 -0.155566515408149 0 -0.0013673002328405961 -0.1767093328090546 0 0.018588522793563201 -0.18166153924030251 0 0.019056913867763529 -0.155566515408149 0 -0.0013673002328405961 -0.1767093328090546 0 0.019056913867763529 -0.155566515408149 0 -0.0013673002328405961 -0.1767093328090546 0 0.019056913867763529 -0.155566515408149 0 0.0027310736070901482 -0.15493719994590471 0 -0.0013673002328405961 -0.1767093328090546 0 0.003555539334036632 -0.19934620758084881 0 0.018588522793563201 -0.18166153924030251 0 0.020222670022858619 -0.12863691797839069 0 0.022320289212787989 -0.1422177528203018 0 0.0088678229424013627 -0.13941235935176011 0 0.020222670022858619 -0.12863691797839069 0 0.02665510196196769 -0.1330560545925053 0 0.022320289212787989 -0.1422177528203018 0 0.034777770017858589 -0.1343981464191871 0 0.029299678594365521 -0.12697140115214181 0 0.02665510196196769 -0.1330560545925053 0 0.020222670022858619 -0.12863691797839069 0 0.029299678594365521 -0.12697140115214181 0 0.02665510196196769 -0.1330560545925053 0 0.034777770017858589 -0.1343981464191871 0 0.02665510196196769 -0.1330560545925053 0 0.022320289212787989 -0.1422177528203018 0 0.039481127968369292 -0.1344236980072451 0 0.019056913867763529 -0.155566515408149 0 0.019056913867763529 -0.155566515408149 0 0.022320289212787989 -0.1422177528203018 0 0.0088678229424013627 -0.13941235935176011 0 0.039481127968369292 -0.1344236980072451 0 0.019056913867763529 -0.155566515408149 0 0.022320289212787989 -0.1422177528203018 0 0.019056913867763529 -0.155566515408149 0 0.0027310736070901482 -0.15493719994590471 0 0.0088678229424013627 -0.13941235935176011 0 0.020222670022858619 -0.12863691797839069 0 0.0088678229424013627 -0.13941235935176011 0 0.0015243557028834459 -0.11711868301268021 0 0.020222670022858619 -0.12863691797839069 0 0.0015243557028834459 -0.11711868301268021 0 0.0144479962461943 -0.1082343501681014 0 0.020222670022858619 -0.12863691797839069 0 0.02728947708542654 -0.1146689930447462 0 0.0144479962461943 -0.1082343501681014 0 0.020222670022858619 -0.12863691797839069 0 0.029299678594365521 -0.12697140115214181 0 0.02728947708542654 -0.1146689930447462 0 0.0144479962461943 -0.1082343501681014 0 0.01674231050701382 -0.093658367309864349 0 0.03170108987002046 -0.10050694789866579 0 0.02728947708542654 -0.1146689930447462 0 0.0144479962461943 -0.1082343501681014 0 0.03170108987002046 -0.10050694789866579 0 0.01674231050701382 -0.093658367309864349 0 0.02745527456064175 -0.089089442263575569 0 0.03170108987002046 -0.10050694789866579 0 0.0144479962461943 -0.1082343501681014 0 0.001856719827670471 -0.098182337095309047 0 0.01674231050701382 -0.093658367309864349 0 0.0015243557028834459 -0.11711868301268021 0 0.0144479962461943 -0.1082343501681014 0 0.001856719827670471 -0.098182337095309047 0 0.001856719827670471 -0.098182337095309047 0 0.0065051428120863272 -0.082127796022149757 0 0.01674231050701382 -0.093658367309864349 0 0.0065051428120863272 -0.082127796022149757 0 0.018539693253586439 -0.071597204448153262 0 0.01731060528333208 -0.084118202510935727 0 0.0065051428120863272 -0.082127796022149757 0 0.01674231050701382 -0.093658367309864349 0 0.01731060528333208 -0.084118202510935727 0 0.0065051428120863272 -0.082127796022149757 0 0.018539693253586439 -0.071597204448153262 0 0.00035237720396625368 -0.061086817302918282 0 0.018539693253586439 -0.071597204448153262 0 0.00035237720396625368 -0.061086817302918282 0 0.029337839486141829 -0.062098975348790997 0 0.018539693253586439 -0.071597204448153262 0 0.036998616429076953 -0.080413518666692163 0 0.029337839486141829 -0.062098975348790997 0 0.018539693253586439 -0.071597204448153262 0 0.039278739387756327 -0.087755278287702396 0 0.018539693253586439 -0.071597204448153262 0 0.02745527456064175 -0.089089442263575569 0 0.039278739387756327 -0.087755278287702396 0 0.018539693253586439 -0.071597204448153262 0 0.01731060528333208 -0.084118202510935727 0 0.02745527456064175 -0.089089442263575569 0 0.01674231050701382 -0.093658367309864349 0 0.01731060528333208 -0.084118202510935727 0 0.02745527456064175 -0.089089442263575569 0 0.018539693253586439 -0.071597204448153262 0 0.036998616429076953 -0.080413518666692163 0 0.039278739387756327 -0.087755278287702396 0 0.02745527456064175 -0.089089442263575569 0 0.039278739387756327 -0.087755278287702396 0 0.036114206476440321 -0.094502097047588079 0 0.036998616429076953 -0.080413518666692163 0 0.039278739387756327 -0.087755278287702396 0 0.050747139898636717 -0.081209848062237813 0 0.058323301768317432 -0.063111133394663815 0 0.029337839486141829 -0.062098975348790997 0 0.036998616429076953 -0.080413518666692163 0 0.058323301768317432 -0.063111133394663815 0 0.029337839486141829 -0.062098975348790997 0 0.036998616429076953 -0.080413518666692163 0 0.058323301768317432 -0.063111133394663815 0 0.058323301768317432 -0.063111133394663815 0 0.050747139898636717 -0.081209848062237813 0 0.060228637404373828 -0.081759239016750626 0 0.036998616429076953 -0.080413518666692163 0 0.058323301768317432 -0.063111133394663815 0 0.050747139898636717 -0.081209848062237813 0 0.039278739387756327 -0.087755278287702396 0 0.050747139898636717 -0.081209848062237813 0 0.060818353003097771 -0.090653503469919336 0 0.050747139898636717 -0.081209848062237813 0 0.060228637404373828 -0.081759239016750626 0 0.060818353003097771 -0.090653503469919336 0 0.060017785521926562 -0.10391335212725129 0 0.042153090511964017 -0.099193769589441219 0 0.043653631303676513 -0.1092911725859987 0 0.060017785521926562 -0.10391335212725129 0 0.043653631303676513 -0.1092911725859987 0 0.039278739387756327 -0.087755278287702396 0 0.060818353003097771 -0.090653503469919336 0 0.060017785521926562 -0.10391335212725129 0 0.060017785521926562 -0.10391335212725129 0 0.053375718786791107 -0.1112883554404277 0 0.043653631303676513 -0.1092911725859987 0 0.039278739387756327 -0.087755278287702396 0 0.060017785521926562 -0.10391335212725129 0 0.039278739387756327 -0.087755278287702396 0 0.060017785521926562 -0.10391335212725129 0 0.042153090511964017 -0.099193769589441219 0 0.060017785521926562 -0.10391335212725129 0 0.053375718786791107 -0.1112883554404277 0 0.065116799684213397 -0.10788606364011991 0 0.052298963826290519 -0.1211548808236817 0 0.066569319149528045 -0.1206454253796948 0 0.065116799684213397 -0.10788606364011991 0 0.052298963826290519 -0.1211548808236817 0 0.065116799684213397 -0.10788606364011991 0 0.052298963826290519 -0.1211548808236817 0 0.053375718786791107 -0.1112883554404277 0 0.065116799684213397 -0.10788606364011991 0 0.052298963826290519 -0.1211548808236817 0 0.053375718786791107 -0.1112883554404277 0 0.043653631303676513 -0.1092911725859987 0 0.02728947708542654 -0.1146689930447462 0 0.037800108132664212 -0.12348471533883321 0 0.043653631303676513 -0.1092911725859987 0 0.02728947708542654 -0.1146689930447462 0 0.043653631303676513 -0.1092911725859987 0 0.052298963826290519 -0.1211548808236817 0 0.037800108132664212 -0.12348471533883321 0 0.043653631303676513 -0.1092911725859987 0 0.029299678594365521 -0.12697140115214181 0 0.02728947708542654 -0.1146689930447462 0 0.037800108132664212 -0.12348471533883321 0 0.02728947708542654 -0.1146689930447462 0 0.03170108987002046 -0.10050694789866579 0 0.043653631303676513 -0.1092911725859987 0 0.036114206476440321 -0.094502097047588079 0 0.03170108987002046 -0.10050694789866579 0 0.042153090511964017 -0.099193769589441219 0 0.02745527456064175 -0.089089442263575569 0 0.036114206476440321 -0.094502097047588079 0 0.03170108987002046 -0.10050694789866579 0 0.039278739387756327 -0.087755278287702396 0 0.036114206476440321 -0.094502097047588079 0 0.042153090511964017 -0.099193769589441219 0 0.03170108987002046 -0.10050694789866579 0 0.042153090511964017 -0.099193769589441219 0 0.043653631303676513 -0.1092911725859987 0 0.025695344612614111 0.0095801541182225364 0 0.02812452509478746 -0.0099579005571815878 0 0.006935528729737548 -0.0054826371559186567 0 0.02812452509478746 -0.0099579005571815878 0 0.006935528729737548 -0.0054826371559186567 0 0.01889941714368459 -0.025130787452367569 0 0.006935528729737548 -0.0054826371559186567 0 0.0027408304473846411 -0.028176541972939319 0 0.01889941714368459 -0.025130787452367569 0 0.02812452509478746 -0.0099579005571815878 0 0.01889941714368459 -0.025130787452367569 0 0.035567370731091272 -0.02454493013615917 0 0.01889941714368459 -0.025130787452367569 0 0.02846567832778216 -0.042756626880165419 0 0.035567370731091272 -0.02454493013615917 0 0.01889941714368459 -0.025130787452367569 0 0.02846567832778216 -0.042756626880165419 0 0.0096258971738255473 -0.043108802377643002 0 0.02846567832778216 -0.042756626880165419 0 0.0096258971738255473 -0.043108802377643002 0 0.016945448047928951 -0.052262805477379423 0 0.01889941714368459 -0.025130787452367569 0 0.0096258971738255473 -0.043108802377643002 0 -0.01026660782967455 -0.041229232136501717 0 0.0027408304473846411 -0.028176541972939319 0 0.0096258971738255473 -0.043108802377643002 0 0.0027408304473846411 -0.028176541972939319 0 0.01889941714368459 -0.025130787452367569 0 0.0096258971738255473 -0.043108802377643002 0 0.0096258971738255473 -0.043108802377643002 0 0.00035237720396625368 -0.061086817302918282 0 0.016945448047928951 -0.052262805477379423 0 0.00035237720396625368 -0.061086817302918282 0 0.016945448047928951 -0.052262805477379423 0 0.029337839486141829 -0.062098975348790997 0 0.0096258971738255473 -0.043108802377643002 0 0.00035237720396625368 -0.061086817302918282 0 0.00035237720396625368 -0.061086817302918282 0 0.029337839486141829 -0.062098975348790997 0 0.02846567832778216 -0.042756626880165419 0 0.016945448047928951 -0.052262805477379423 0 0.029337839486141829 -0.062098975348790997 0 0.02846567832778216 -0.042756626880165419 0 0.029337839486141829 -0.062098975348790997 0 0.044041605111135473 -0.049431168693685697 0 0.058323301768317432 -0.063111133394663815 0 0.029337839486141829 -0.062098975348790997 0 0.044041605111135473 -0.049431168693685697 0 0.058323301768317432 -0.063111133394663815 0 0.044041605111135473 -0.049431168693685697 0 0.059903341899081253 -0.040049795258846832 0 0.059903341899081253 -0.040049795258846832 0 0.045154502468205723 -0.035444412579530127 0 0.052999286202529479 -0.022291816621987929 0 0.044041605111135473 -0.049431168693685697 0 0.059903341899081253 -0.040049795258846832 0 0.045154502468205723 -0.035444412579530127 0 0.02846567832778216 -0.042756626880165419 0 0.044041605111135473 -0.049431168693685697 0 0.045154502468205723 -0.035444412579530127 0 0.02846567832778216 -0.042756626880165419 0 0.045154502468205723 -0.035444412579530127 0 0.035567370731091272 -0.02454493013615917 0 0.045154502468205723 -0.035444412579530127 0 0.035567370731091272 -0.02454493013615917 0 0.052999286202529479 -0.022291816621987929 0 0.035567370731091272 -0.02454493013615917 0 0.052999286202529479 -0.022291816621987929 0 0.04138045704507981 -0.013293391242584921 0 0.02812452509478746 -0.0099579005571815878 0 0.035567370731091272 -0.02454493013615917 0 0.04138045704507981 -0.013293391242584921 0 0.059903341899081253 -0.040049795258846832 0 0.052999286202529479 -0.022291816621987929 0 0.073093181043766914 -0.026775388104941698 0 0.052999286202529479 -0.022291816621987929 0 0.049896637954744763 -0.0073960790217490677 0 0.04138045704507981 -0.013293391242584921 0 0.052999286202529479 -0.022291816621987929 0 0.049896637954744763 -0.0073960790217490677 0 0.066530330394949447 -0.012320269852860621 0 0.049896637954744763 -0.0073960790217490677 0 0.040314465242246092 -0.002276229875846851 0 0.04138045704507981 -0.013293391242584921 0 0.025695344612614111 0.0095801541182225364 0 0.02812452509478746 -0.0099579005571815878 0 0.040314465242246092 -0.002276229875846851 0 0.046640351189982193 0.001482106492276504 0 0.049896637954744763 -0.0073960790217490677 0 0.040314465242246092 -0.002276229875846851 0 0.02812452509478746 -0.0099579005571815878 0 0.040314465242246092 -0.002276229875846851 0 0.04138045704507981 -0.013293391242584921 0 0.075461568133428525 0.0044331687040122013 0 0.081703970602104437 -0.011974759962048749 0 0.098011391193308373 -0.0056982583262641584 0 0.075461568133428525 0.0044331687040122013 0 0.049896637954744763 -0.0073960790217490677 0 0.075461568133428525 0.0044331687040122013 0 0.049896637954744763 -0.0073960790217490677 0 0.066530330394949447 -0.012320269852860621 0 0.075461568133428525 0.0044331687040122013 0 0.081703970602104437 -0.011974759962048749 0 0.066530330394949447 -0.012320269852860621 0 0.081703970602104437 -0.011974759962048749 0 0.066530330394949447 -0.012320269852860621 0 0.073093181043766914 -0.026775388104941698 0 0.052999286202529479 -0.022291816621987929 0 0.066530330394949447 -0.012320269852860621 0 0.073093181043766914 -0.026775388104941698 0 0.081703970602104437 -0.011974759962048749 0 0.097837743661838034 -0.031049975793767819 0 0.098011391193308373 -0.0056982583262641584 0 0.081703970602104437 -0.011974759962048749 0 0.073093181043766914 -0.026775388104941698 0 0.097837743661838034 -0.031049975793767819 0 0.078080522715077566 -0.047080554594215653 0 0.097861902682226248 -0.045151270938537998 0 0.097837743661838034 -0.031049975793767819 0 0.073093181043766914 -0.026775388104941698 0 0.078080522715077566 -0.047080554594215653 0 0.097837743661838034 -0.031049975793767819 0 0.078080522715077566 -0.047080554594215653 0 0.097837743661838034 -0.031049975793767819 0 0.059903341899081253 -0.040049795258846832 0 0.073093181043766914 -0.026775388104941698 0 0.078080522715077566 -0.047080554594215653 0 0.058323301768317432 -0.063111133394663815 0 0.078080522715077566 -0.047080554594215653 0 0.058323301768317432 -0.063111133394663815 0 0.059903341899081253 -0.040049795258846832 0 0.078080522715077566 -0.047080554594215653 0 0.058323301768317432 -0.063111133394663815 0 0.078080522715077566 -0.047080554594215653 0 0.081939961595450139 -0.063935815506958552 0 0.078080522715077566 -0.047080554594215653 0 0.094142039140793971 -0.055881476276546937 0 0.081939961595450139 -0.063935815506958552 0 0.078080522715077566 -0.047080554594215653 0 0.094142039140793971 -0.055881476276546937 0 0.097861902682226248 -0.045151270938537998 0 0.094142039140793971 -0.055881476276546937 0 0.081939961595450139 -0.063935815506958552 0 0.1067368008806147 -0.064801708903802782 0 0.094142039140793971 -0.055881476276546937 0 0.1075629424949773 -0.053875431803618333 0 0.097861902682226248 -0.045151270938537998 0 0.094142039140793971 -0.055881476276546937 0 0.1075629424949773 -0.053875431803618333 0 0.1067368008806147 -0.064801708903802782 0 0.1075629424949773 -0.053875431803618333 0 0.1067368008806147 -0.064801708903802782 0 0.1075629424949773 -0.053875431803618333 0 0.1232921759667842 -0.047663851323270827 0 0.1067368008806147 -0.064801708903802782 0 0.1232921759667842 -0.047663851323270827 0 0.1067368008806147 -0.064801708903802782 0 0.1075629424949773 -0.053875431803618333 0 0.1232921759667842 -0.047663851323270827 0 0.1109518143893137 -0.039435966374661548 0 0.1232921759667842 -0.047663851323270827 0 0.1067368008806147 -0.064801708903802782 0 0.13548767730717889 -0.06580567532731052 0 0.1232921759667842 -0.047663851323270827 0 0.1109518143893137 -0.039435966374661548 0 0.124582941869709 -0.030507807285028901 0 0.1109518143893137 -0.039435966374661548 0 0.097861902682226248 -0.045151270938537998 0 0.097837743661838034 -0.031049975793767819 0 0.1075629424949773 -0.053875431803618333 0 0.1109518143893137 -0.039435966374661548 0 0.097861902682226248 -0.045151270938537998 0 0.097837743661838034 -0.031049975793767819 0 0.1175949646085984 -0.015019396993320021 0 0.097837743661838034 -0.031049975793767819 0 0.1175949646085984 -0.015019396993320021 0 0.098011391193308373 -0.0056982583262641584 0 0.1109518143893137 -0.039435966374661548 0 0.097837743661838034 -0.031049975793767819 0 0.1175949646085984 -0.015019396993320021 0 0.1109518143893137 -0.039435966374661548 0 0.124582941869709 -0.030507807285028901 0 0.1175949646085984 -0.015019396993320021 0 0.124582941869709 -0.030507807285028901 0 0.1175949646085984 -0.015019396993320021 0 0.13165260102391191 -0.019660205177744808 0 0.11882011836095251 0.0065886106746579649 0 0.1175949646085984 -0.015019396993320021 0 0.098011391193308373 -0.0056982583262641584 0 0.11882011836095251 0.0065886106746579649 0 0.13735218555535891 0.001011181807127467 0 0.1175949646085984 -0.015019396993320021 0 0.073111172643960082 -0.099610417542301155 0 0.10058413041743761 -0.090581864498492995 0 0.088608598291174498 -0.101420796185217 0 0.073111172643960082 -0.099610417542301155 0 0.10058413041743761 -0.090581864498492995 0 0.083297568291202648 -0.10670285905343881 0 0.088608598291174498 -0.101420796185217 0 0.073111172643960082 -0.099610417542301155 0 0.083297568291202648 -0.10670285905343881 0 0.088608598291174498 -0.101420796185217 0 0.097441521812097198 -0.10878804364663471 0 0.093527805260815264 -0.13002146576964491 0 0.079322302472514483 -0.11895376470488229 0 0.097441521812097198 -0.10878804364663471 0 0.083297568291202648 -0.10670285905343881 0 0.079322302472514483 -0.11895376470488229 0 0.097441521812097198 -0.10878804364663471 0 0.093527805260815264 -0.13002146576964491 0 0.079322302472514483 -0.11895376470488229 0 0.079322302472514483 -0.11895376470488229 0 0.065116799684213397 -0.10788606364011991 0 0.083297568291202648 -0.10670285905343881 0 0.079322302472514483 -0.11895376470488229 0 0.065116799684213397 -0.10788606364011991 0 0.079322302472514483 -0.11895376470488229 0 0.066569319149528045 -0.1206454253796948 0 0.065116799684213397 -0.10788606364011991 0 0.069539210615093855 -0.1345869923500955 0 0.079322302472514483 -0.11895376470488229 0 0.066569319149528045 -0.1206454253796948 0 0.060017785521926562 -0.10391335212725129 0 0.065116799684213397 -0.10788606364011991 0 0.060017785521926562 -0.10391335212725129 0 0.073111172643960082 -0.099610417542301155 0 0.065116799684213397 -0.10788606364011991 0 0.073111172643960082 -0.099610417542301155 0 0.083297568291202648 -0.10670285905343881 0 0.065116799684213397 -0.10788606364011991 0 0.073111172643960082 -0.099610417542301155 0 0.060017785521926562 -0.10391335212725129 0 0.065116799684213397 -0.10788606364011991 0 0.073111172643960082 -0.099610417542301155 0 0.060818353003097771 -0.090653503469919336 0 0.060017785521926562 -0.10391335212725129 0 0.073111172643960082 -0.099610417542301155 0 0.060818353003097771 -0.090653503469919336 0 0.073111172643960082 -0.099610417542301155 0 0.074211161232423301 -0.082716200610011378 0 0.060228637404373828 -0.081759239016750626 0 0.060818353003097771 -0.090653503469919336 0 0.074211161232423301 -0.082716200610011378 0 0.058323301768317432 -0.063111133394663815 0 0.081939961595450139 -0.063935815506958552 0 0.058323301768317432 -0.063111133394663815 0 0.074211161232423301 -0.082716200610011378 0 0.081939961595450139 -0.063935815506958552 0 0.058323301768317432 -0.063111133394663815 0 0.060228637404373828 -0.081759239016750626 0 0.074211161232423301 -0.082716200610011378 0 0.074211161232423301 -0.082716200610011378 0 0.081939961595450139 -0.063935815506958552 0 0.089190063779311518 -0.082965808471458069 0 0.081939961595450139 -0.063935815506958552 0 0.089190063779311518 -0.082965808471458069 0 0.1052689549146623 -0.0663211994006144 0 0.073111172643960082 -0.099610417542301155 0 0.074211161232423301 -0.082716200610011378 0 0.089190063779311518 -0.082965808471458069 0 0.073111172643960082 -0.099610417542301155 0 0.089190063779311518 -0.082965808471458069 0 0.073111172643960082 -0.099610417542301155 0 0.089190063779311518 -0.082965808471458069 0 0.10058413041743761 -0.090581864498492995 0 0.089190063779311518 -0.082965808471458069 0 0.1017080788123951 -0.087804556385465471 0 0.1052689549146623 -0.0663211994006144 0 0.089190063779311518 -0.082965808471458069 0 0.10058413041743761 -0.090581864498492995 0 0.1017080788123951 -0.087804556385465471 0 0.1017080788123951 -0.087804556385465471 0 0.1084674426683357 -0.077888137089068013 0 0.1052689549146623 -0.0663211994006144 0 0.089190063779311518 -0.082965808471458069 0 0.1052689549146623 -0.0663211994006144 0 0.081939961595450139 -0.063935815506958552 0 0.1067368008806147 -0.064801708903802782 0 0.1052689549146623 -0.0663211994006144 0 0.081939961595450139 -0.063935815506958552 0 0.1067368008806147 -0.064801708903802782 0 0.1017080788123951 -0.087804556385465471 0 0.1052689549146623 -0.0663211994006144 0 0.1084674426683357 -0.077888137089068013 0 0.1067368008806147 -0.064801708903802782 0 0.1052689549146623 -0.0663211994006144 0 0.1067368008806147 -0.064801708903802782 0 0.1052689549146623 -0.0663211994006144 0 0.1067368008806147 -0.064801708903802782 0 0.13548767730717889 -0.06580567532731052 0 0.1084674426683357 -0.077888137089068013 0 0.1067368008806147 -0.064801708903802782 0 0.1232061248222129 -0.075206297362028066 0 0.1067368008806147 -0.064801708903802782 0 0.1232061248222129 -0.075206297362028066 0 0.13548767730717889 -0.06580567532731052 0 0.1017080788123951 -0.087804556385465471 0 0.1084674426683357 -0.077888137089068013 0 0.1272797878356694 -0.088593758706814907 0 0.1017080788123951 -0.087804556385465471 0 0.1272797878356694 -0.088593758706814907 0 0.1084674426683357 -0.077888137089068013 0 0.1232061248222129 -0.075206297362028066 0 0.1272797878356694 -0.088593758706814907 0 0.1017080788123951 -0.087804556385465471 0 0.11567178204704499 -0.10568275569041199 0 0.1272797878356694 -0.088593758706814907 0 0.1017080788123951 -0.087804556385465471 0 0.11567178204704499 -0.10568275569041199 0 0.097441521812097198 -0.10878804364663471 0 0.1017080788123951 -0.087804556385465471 0 0.097441521812097198 -0.10878804364663471 0 0.088608598291174498 -0.101420796185217 0 0.10058413041743761 -0.090581864498492995 0 0.097441521812097198 -0.10878804364663471 0 0.10058413041743761 -0.090581864498492995 0 0.1017080788123951 -0.087804556385465471 0 0.097441521812097198 -0.10878804364663471 0 0.093527805260815264 -0.13002146576964491 0 0.097441521812097198 -0.10878804364663471 0 0.104312872852085 -0.12243825994362539 0 0.093527805260815264 -0.13002146576964491 0 0.097441521812097198 -0.10878804364663471 0 0.11567178204704499 -0.10568275569041199 0 0.097441521812097198 -0.10878804364663471 0 0.104312872852085 -0.12243825994362539 0 0.11567178204704499 -0.10568275569041199 0 0.104312872852085 -0.12243825994362539 0 0.12800820934211829 -0.12401417466047961 0 0.12800820934211829 -0.12401417466047961 0 0.14712201392247631 -0.1132275548916801 0 0.13655559816636781 -0.1031347463460832 0 0.12800820934211829 -0.12401417466047961 0 0.14712201392247631 -0.1132275548916801 0 0.11567178204704499 -0.10568275569041199 0 0.12800820934211829 -0.12401417466047961 0 0.13655559816636781 -0.1031347463460832 0 0.12800820934211829 -0.12401417466047961 0 0.14712201392247631 -0.1132275548916801 0 0.1486045981545247 -0.12747252536747111 0 0.14712201392247631 -0.1132275548916801 0 0.16095359288685571 -0.1184472051676727 0 0.1486045981545247 -0.12747252536747111 0 0.15146120268426411 -0.099532086410862586 0 0.13655559816636781 -0.1031347463460832 0 0.1528514968589437 -0.089382961028164357 0 0.14712201392247631 -0.1132275548916801 0 0.15146120268426411 -0.099532086410862586 0 0.16623581850283431 -0.10244093512288061 0 0.14712201392247631 -0.1132275548916801 0 0.15146120268426411 -0.099532086410862586 0 0.13655559816636781 -0.1031347463460832 0 0.11567178204704499 -0.10568275569041199 0 0.13655559816636781 -0.1031347463460832 0 0.1272797878356694 -0.088593758706814907 0 0.1272797878356694 -0.088593758706814907 0 0.13805891541926751 -0.078942206783145619 0 0.1528514968589437 -0.089382961028164357 0 0.1272797878356694 -0.088593758706814907 0 0.1528514968589437 -0.089382961028164357 0 0.13655559816636781 -0.1031347463460832 0 0.1272797878356694 -0.088593758706814907 0 0.1528514968589437 -0.089382961028164357 0 0.1232061248222129 -0.075206297362028066 0 0.1272797878356694 -0.088593758706814907 0 0.13805891541926751 -0.078942206783145619 0 0.1232061248222129 -0.075206297362028066 0 0.13805891541926751 -0.078942206783145619 0 0.13548767730717889 -0.06580567532731052 0 0.13548767730717889 -0.06580567532731052 0 0.16423855373374319 -0.066809641750814969 0 0.13548767730717889 -0.06580567532731052 0 0.1516507619880918 -0.076739651506421189 0 0.16423855373374319 -0.066809641750814969 0 0.13548767730717889 -0.06580567532731052 0 0.16423855373374319 -0.066809641750814969 0 0.16004124225532049 -0.061841453839887157 0 0.13805891541926751 -0.078942206783145619 0 0.13548767730717889 -0.06580567532731052 0 0.1516507619880918 -0.076739651506421189 0 0.13805891541926751 -0.078942206783145619 0 0.1516507619880918 -0.076739651506421189 0 0.1528514968589437 -0.089382961028164357 0 0.15146120268426411 -0.099532086410862586 0 0.1528514968589437 -0.089382961028164357 0 0.15581646250916109 -0.090151240212135456 0 0.1528514968589437 -0.089382961028164357 0 0.15581646250916109 -0.090151240212135456 0 0.17842320588221819 -0.090172163349513806 0 0.1528514968589437 -0.089382961028164357 0 0.17842320588221819 -0.090172163349513806 0 0.15581646250916109 -0.090151240212135456 0 0.16859491992305889 -0.093070393687126218 0 0.17842320588221819 -0.090172163349513806 0 0.1528514968589437 -0.089382961028164357 0 0.1653897445003264 -0.079862578323319361 0 0.17842320588221819 -0.090172163349513806 0 0.1516507619880918 -0.076739651506421189 0 0.1528514968589437 -0.089382961028164357 0 0.1653897445003264 -0.079862578323319361 0 0.1516507619880918 -0.076739651506421189 0 0.1653897445003264 -0.079862578323319361 0 0.16423855373374319 -0.066809641750814969 0 0.1653897445003264 -0.079862578323319361 0 0.16423855373374319 -0.066809641750814969 0 0.17833356117891219 -0.077628002067558224 0 0.16423855373374319 -0.066809641750814969 0 0.1727598808088672 -0.056322389892066158 0 0.1929894301603077 -0.067813608174319001 0 0.16423855373374319 -0.066809641750814969 0 0.1929894301603077 -0.067813608174319001 0 0.16423855373374319 -0.066809641750814969 0 0.17833356117891219 -0.077628002067558224 0 0.1929894301603077 -0.067813608174319001 0 0.17833356117891219 -0.077628002067558224 0 0.19040307974074269 -0.080139672987034255 0 0.1929894301603077 -0.067813608174319001 0 0.16859491992305889 -0.093070393687126218 0 0.17842320588221819 -0.090172163349513806 0 0.17335524666804841 -0.094081054567607611 0 0.17842320588221819 -0.090172163349513806 0 0.17824607109877541 -0.095663109832525739 0 0.17335524666804841 -0.094081054567607611 0 0.1653897445003264 -0.079862578323319361 0 0.17833356117891219 -0.077628002067558224 0 0.17842320588221819 -0.090172163349513806 0 0.17833356117891219 -0.077628002067558224 0 0.1854866420256687 -0.084161575248007242 0 0.19040307974074269 -0.080139672987034255 0 0.17833356117891219 -0.077628002067558224 0 0.17842320588221819 -0.090172163349513806 0 0.1854866420256687 -0.084161575248007242 0 0.18404025852736719 -0.096743595743047278 0 0.18504385230606449 -0.10434071571553651 0 0.19243594079672521 -0.096163448387799222 0 0.17824607109877541 -0.095663109832525739 0 0.18504385230606449 -0.10434071571553651 0 0.16623581850283431 -0.10244093512288061 0 0.18504385230606449 -0.10434071571553651 0 0.18014950107347269 -0.1188522098678762 0 0.16623581850283431 -0.10244093512288061 0 0.18404025852736719 -0.096743595743047278 0 0.17824607109877541 -0.095663109832525739 0 0.18504385230606449 -0.10434071571553651 0 0.17842320588221819 -0.090172163349513806 0 0.18404025852736719 -0.096743595743047278 0 0.19243594079672521 -0.096163448387799222 0 0.17842320588221819 -0.090172163349513806 0 0.18404025852736719 -0.096743595743047278 0 0.17824607109877541 -0.095663109832525739 0 0.17824607109877541 -0.095663109832525739 0 0.17335524666804841 -0.094081054567607611 0 0.16623581850283431 -0.10244093512288061 0 0.17824607109877541 -0.095663109832525739 0 0.16623581850283431 -0.10244093512288061 0 0.18504385230606449 -0.10434071571553651 0 0.18014950107347269 -0.1188522098678762 0 0.1922879604253335 -0.1099500278873989 0 0.18014950107347269 -0.1188522098678762 0 0.16623581850283431 -0.10244093512288061 0 0.18014950107347269 -0.1188522098678762 0 0.16095359288685571 -0.1184472051676727 0 0.16623581850283431 -0.10244093512288061 0 0.14712201392247631 -0.1132275548916801 0 0.16095359288685571 -0.1184472051676727 0 0.16623581850283431 -0.10244093512288061 0 0.18014950107347269 -0.1188522098678762 0 0.16095359288685571 -0.1184472051676727 0 0.16265603278097029 -0.1302428005884553 0 0.14712201392247631 -0.1132275548916801 0 0.16623581850283431 -0.10244093512288061 0 0.15581646250916109 -0.090151240212135456 0 0.16859491992305889 -0.093070393687126218 0 0.16623581850283431 -0.10244093512288061 0 0.15146120268426411 -0.099532086410862586 0 0.15581646250916109 -0.090151240212135456 0 0.16623581850283431 -0.10244093512288061 0 0.15581646250916109 -0.090151240212135456 0 0.16623581850283431 -0.10244093512288061 0 0.16859491992305889 -0.093070393687126218 0 0.17335524666804841 -0.094081054567607611 0 0.16623581850283431 -0.10244093512288061 0 0.13735218555535891 0.001011181807127467 0 0.1449152044553462 -0.019939696741877431 0 0.14216046477152491 0.0049125148476896544 0 0.15727218843160701 -0.01758578836774349 0 0.15849764294065671 -0.0060544572746906826 0 0.14216046477152491 0.0049125148476896544 0 0.15727218843160701 -0.01758578836774349 0 0.14216046477152491 0.0049125148476896544 0 0.1449152044553462 -0.019939696741877431 0 0.15727218843160701 -0.01758578836774349 0 0.14216046477152491 0.0049125148476896544 0 0.13735218555535891 0.001011181807127467 0 0.1449152044553462 -0.019939696741877431 0 0.13735218555535891 0.001011181807127467 0 0.1175949646085984 -0.015019396993320021 0 0.13735218555535891 0.001011181807127467 0 0.1175949646085984 -0.015019396993320021 0 0.13165260102391191 -0.019660205177744808 0 0.13735218555535891 0.001011181807127467 0 0.13165260102391191 -0.019660205177744808 0 0.1449152044553462 -0.019939696741877431 0 0.13165260102391191 -0.019660205177744808 0 0.13984755105295521 -0.030525993742740402 0 0.1449152044553462 -0.019939696741877431 0 0.124582941869709 -0.030507807285028901 0 0.13165260102391191 -0.019660205177744808 0 0.13984755105295521 -0.030525993742740402 0 0.1449152044553462 -0.019939696741877431 0 0.15247822335533329 -0.040890575290882317 0 0.15727218843160701 -0.01758578836774349 0 0.13984755105295521 -0.030525993742740402 0 0.1449152044553462 -0.019939696741877431 0 0.15247822335533329 -0.040890575290882317 0 0.1449152044553462 -0.019939696741877431 0 0.15247822335533329 -0.040890575290882317 0 0.15247822335533329 -0.040890575290882317 0 0.1379109625223634 -0.045605004272587249 0 0.14629243763992239 -0.054068479542427092 0 0.13984755105295521 -0.030525993742740402 0 0.15247822335533329 -0.040890575290882317 0 0.1379109625223634 -0.045605004272587249 0 0.1232921759667842 -0.047663851323270827 0 0.13984755105295521 -0.030525993742740402 0 0.1379109625223634 -0.045605004272587249 0 0.1232921759667842 -0.047663851323270827 0 0.124582941869709 -0.030507807285028901 0 0.13984755105295521 -0.030525993742740402 0 0.1232921759667842 -0.047663851323270827 0 0.13984755105295521 -0.030525993742740402 0 0.1232921759667842 -0.047663851323270827 0 0.13548767730717889 -0.06580567532731052 0 0.1379109625223634 -0.045605004272587249 0 0.13548767730717889 -0.06580567532731052 0 0.1379109625223634 -0.045605004272587249 0 0.14629243763992239 -0.054068479542427092 0 0.13548767730717889 -0.06580567532731052 0 0.14629243763992239 -0.054068479542427092 0 0.16004124225532049 -0.061841453839887157 0 0.15247822335533329 -0.040890575290882317 0 0.14629243763992239 -0.054068479542427092 0 0.16004124225532049 -0.061841453839887157 0 0.15247822335533329 -0.040890575290882317 0 0.16004124225532049 -0.061841453839887157 0 0.1644158146278025 -0.049784627651503079 0 0.1644158146278025 -0.049784627651503079 0 0.1727598808088672 -0.056322389892066158 0 0.1723839120916891 -0.040084091583176683 0 0.15247822335533329 -0.040890575290882317 0 0.16004124225532049 -0.061841453839887157 0 0.16423855373374319 -0.066809641750814969 0 0.16004124225532049 -0.061841453839887157 0 0.1727598808088672 -0.056322389892066158 0 0.16004124225532049 -0.061841453839887157 0 0.1644158146278025 -0.049784627651503079 0 0.1727598808088672 -0.056322389892066158 0 0.1727598808088672 -0.056322389892066158 0 0.18434240851125541 -0.050289724698312777 0 0.1723839120916891 -0.040084091583176683 0 0.1727598808088672 -0.056322389892066158 0 0.18434240851125541 -0.050289724698312777 0 0.1929894301603077 -0.067813608174319001 0 0.1723839120916891 -0.040084091583176683 0 0.18077822909658589 -0.032018797610549231 0 0.17598651952492231 -0.0227560541305885 0 0.18434240851125541 -0.050289724698312777 0 0.1723839120916891 -0.040084091583176683 0 0.18674227588606429 -0.037749552466939278 0 0.1723839120916891 -0.040084091583176683 0 0.18674227588606429 -0.037749552466939278 0 0.18077822909658589 -0.032018797610549231 0 0.18674227588606429 -0.037749552466939278 0 0.18077822909658589 -0.032018797610549231 0 0.18610830639217099 -0.030062433202775862 0 0.15247822335533329 -0.040890575290882317 0 0.1723839120916891 -0.040084091583176683 0 0.15727218843160701 -0.01758578836774349 0 0.15247822335533329 -0.040890575290882317 0 0.1644158146278025 -0.049784627651503079 0 0.1723839120916891 -0.040084091583176683 0 0.1723839120916891 -0.040084091583176683 0 0.15727218843160701 -0.01758578836774349 0 0.1723839120916891 -0.040084091583176683 0 0.1668946229318731 -0.019675061199070819 0 0.17598651952492231 -0.0227560541305885 0 0.1723839120916891 -0.040084091583176683 0 0.15727218843160701 -0.01758578836774349 0 0.1668946229318731 -0.019675061199070819 0 0.1668946229318731 -0.019675061199070819 0 0.17598651952492231 -0.0227560541305885 0 0.16985348277487761 -0.0099868764823510571 0 0.18077822909658589 -0.032018797610549231 0 0.18438258456793261 -0.021379302004443181 0 0.17598651952492231 -0.0227560541305885 0 0.18077822909658589 -0.032018797610549231 0 0.18610830639217099 -0.030062433202775862 0 0.18438258456793261 -0.021379302004443181 0 0.18438258456793261 -0.021379302004443181 0 0.17598651952492231 -0.0227560541305885 0 0.17878486519392331 -0.011645355321630489 0 0.17598651952492231 -0.0227560541305885 0 0.17878486519392331 -0.011645355321630489 0 0.16985348277487761 -0.0099868764823510571 0 0.17878486519392331 -0.011645355321630489 0 0.17506184651935949 -0.0021247232161890161 0 0.16985348277487761 -0.0099868764823510571 0 0.18438258456793261 -0.021379302004443181 0 0.17878486519392331 -0.011645355321630489 0 0.18863989258252481 -0.001979820774580698 0 0.17878486519392331 -0.011645355321630489 0 0.17506184651935949 -0.0021247232161890161 0 0.18863989258252481 -0.001979820774580698 0 0.1628037813635097 0.0015330777282007481 0 0.17506184651935949 -0.0021247232161890161 0 0.16985348277487761 -0.0099868764823510571 0 0.1668946229318731 -0.019675061199070819 0 0.16985348277487761 -0.0099868764823510571 0 0.15849764294065671 -0.0060544572746906826 0 0.15727218843160701 -0.01758578836774349 0 0.1668946229318731 -0.019675061199070819 0 0.15849764294065671 -0.0060544572746906826 0 0.1628037813635097 0.0015330777282007481 0 0.16985348277487761 -0.0099868764823510571 0 0.15849764294065671 -0.0060544572746906826 0 0.1628037813635097 0.0015330777282007481 0 0.15453230216132671 0.0032055715019124438 0 0.15849764294065671 -0.0060544572746906826 0 0.21174544862736719 0.0096628206364345465 0 0.20589386385567829 -0.0063134785331596111 0 0.2185782736923042 -0.0038367730406402641 0 0.20589386385567829 -0.0063134785331596111 0 0.2185782736923042 -0.0038367730406402641 0 0.2199828155312514 -0.0225516893132638 0 0.20589386385567829 -0.0063134785331596111 0 0.18863989258252481 -0.001979820774580698 0 0.1936475112771239 -0.030998707124919651 0 0.20589386385567829 -0.0063134785331596111 0 0.1936475112771239 -0.030998707124919651 0 0.20001428446098229 -0.034334459813343092 0 0.18863989258252481 -0.001979820774580698 0 0.1936475112771239 -0.030998707124919651 0 0.20589386385567829 -0.0063134785331596111 0 0.20001428446098229 -0.034334459813343092 0 0.18438258456793261 -0.021379302004443181 0 0.18863989258252481 -0.001979820774580698 0 0.1936475112771239 -0.030998707124919651 0 0.18610830639217099 -0.030062433202775862 0 0.18438258456793261 -0.021379302004443181 0 0.1936475112771239 -0.030998707124919651 0 0.20589386385567829 -0.0063134785331596111 0 0.20001428446098229 -0.034334459813343092 0 0.2199828155312514 -0.0225516893132638 0 0.20001428446098229 -0.034334459813343092 0 0.22061008072662569 -0.045125245157715169 0 0.20001428446098229 -0.034334459813343092 0 0.22061008072662569 -0.045125245157715169 0 0.2199828155312514 -0.0225516893132638 0 0.20001428446098229 -0.034334459813343092 0 0.19683654360934791 -0.049478981375062181 0 0.22061008072662569 -0.045125245157715169 0 0.1936475112771239 -0.030998707124919651 0 0.19683654360934791 -0.049478981375062181 0 0.18674227588606429 -0.037749552466939278 0 0.1936475112771239 -0.030998707124919651 0 0.19683654360934791 -0.049478981375062181 0 0.1936475112771239 -0.030998707124919651 0 0.20001428446098229 -0.034334459813343092 0 0.19683654360934791 -0.049478981375062181 0 0.1936475112771239 -0.030998707124919651 0 0.20001428446098229 -0.034334459813343092 0 0.18674227588606429 -0.037749552466939278 0 0.18610830639217099 -0.030062433202775862 0 0.1936475112771239 -0.030998707124919651 0 0.18434240851125541 -0.050289724698312777 0 0.18674227588606429 -0.037749552466939278 0 0.19683654360934791 -0.049478981375062181 0 0.20001428446098229 -0.034334459813343092 0 0.19683654360934791 -0.049478981375062181 0 0.19683654360934791 -0.049478981375062181 0 0.1929894301603077 -0.067813608174319001 0 0.2000429458732931 -0.068059913463883598 0 0.19683654360934791 -0.049478981375062181 0 0.21158346953455981 -0.057932445704329483 0 0.2000429458732931 -0.068059913463883598 0 0.19683654360934791 -0.049478981375062181 0 0.2000429458732931 -0.068059913463883598 0 0.19683654360934791 -0.049478981375062181 0 0.1929894301603077 -0.067813608174319001 0 0.18434240851125541 -0.050289724698312777 0 0.19683654360934791 -0.049478981375062181 0 0.1929894301603077 -0.067813608174319001 0 0.19683654360934791 -0.049478981375062181 0 0.21158346953455981 -0.057932445704329483 0 0.22061008072662569 -0.045125245157715169 0 0.24120587699226881 -0.055916030502087773 0 0.22061008072662569 -0.045125245157715169 0 0.2288443079289719 -0.069065642820655804 0 0.21158346953455981 -0.057932445704329483 0 0.22061008072662569 -0.045125245157715169 0 0.2288443079289719 -0.069065642820655804 0 0.24120587699226881 -0.055916030502087773 0 0.22061008072662569 -0.045125245157715169 0 0.25030159180115191 -0.034143426788088307 0 0.24120587699226881 -0.055916030502087773 0 0.23430517811137791 -0.037629801295311363 0 0.25030159180115191 -0.034143426788088307 0 0.23430517811137791 -0.037629801295311363 0 0.23651070060392609 -0.023431292744830981 0 0.22061008072662569 -0.045125245157715169 0 0.23430517811137791 -0.037629801295311363 0 0.2199828155312514 -0.0225516893132638 0 0.24120587699226881 -0.055916030502087773 0 0.22061008072662569 -0.045125245157715169 0 0.23430517811137791 -0.037629801295311363 0 0.2199828155312514 -0.0225516893132638 0 0.23651070060392609 -0.023431292744830981 0 0.2300866381754704 -0.0072438550720441714 0 0.23430517811137791 -0.037629801295311363 0 0.2199828155312514 -0.0225516893132638 0 0.23651070060392609 -0.023431292744830981 0 0.25030159180115191 -0.034143426788088307 0 0.23651070060392609 -0.023431292744830981 0 0.2464198669495459 -0.012097030270161889 0 0.23790413247208811 0.0091049515404343275 0 0.2464198669495459 -0.012097030270161889 0 0.2300866381754704 -0.0072438550720441714 0 0.23651070060392609 -0.023431292744830981 0 0.2464198669495459 -0.012097030270161889 0 0.2300866381754704 -0.0072438550720441714 0 0.2185782736923042 -0.0038367730406402641 0 0.2199828155312514 -0.0225516893132638 0 0.2300866381754704 -0.0072438550720441714 0 0.22518260227175371 0.0072623370788317187 0 0.2185782736923042 -0.0038367730406402641 0 0.2300866381754704 -0.0072438550720441714 0 0.20666963866093291 -0.1113398018781358 0 0.20399491490549271 -0.090961365670864353 0 0.20666963866093291 -0.1113398018781358 0 0.23081911420975029 -0.091789222750733895 0 0.20666963866093291 -0.1113398018781358 0 0.20399491490549271 -0.090961365670864353 0 0.23081911420975029 -0.091789222750733895 0 0.2184940671700534 -0.12394732724419751 0 0.20666963866093291 -0.1113398018781358 0 0.22056261316880149 -0.1108234873110058 0 0.2184940671700534 -0.12394732724419751 0 0.20975191972323501 -0.12432290509972491 0 0.20666963866093291 -0.1113398018781358 0 0.2184940671700534 -0.12394732724419751 0 0.20666963866093291 -0.1113398018781358 0 0.20975191972323501 -0.12432290509972491 0 0.20666963866093291 -0.1113398018781358 0 0.1971408692894723 -0.1190539635876471 0 0.20975191972323501 -0.12432290509972491 0 0.20666963866093291 -0.1113398018781358 0 0.18014950107347269 -0.1188522098678762 0 0.1971408692894723 -0.1190539635876471 0 0.19406318364410949 -0.13526348461287321 0 0.20666963866093291 -0.1113398018781358 0 0.1971408692894723 -0.1190539635876471 0 0.18014950107347269 -0.1188522098678762 0 0.1971408692894723 -0.1190539635876471 0 0.1922879604253335 -0.1099500278873989 0 0.20666963866093291 -0.1113398018781358 0 0.1971408692894723 -0.1190539635876471 0 0.1922879604253335 -0.1099500278873989 0 0.20666963866093291 -0.1113398018781358 0 0.19243594079672521 -0.096163448387799222 0 0.20399491490549271 -0.090961365670864353 0 0.18504385230606449 -0.10434071571553651 0 0.1922879604253335 -0.1099500278873989 0 0.19243594079672521 -0.096163448387799222 0 0.20666963866093291 -0.1113398018781358 0 0.1922879604253335 -0.1099500278873989 0 0.19243594079672521 -0.096163448387799222 0 0.20666963866093291 -0.1113398018781358 0 0.19243594079672521 -0.096163448387799222 0 0.1854866420256687 -0.084161575248007242 0 0.19040307974074269 -0.080139672987034255 0 0.20399491490549271 -0.090961365670864353 0 0.17842320588221819 -0.090172163349513806 0 0.19243594079672521 -0.096163448387799222 0 0.20399491490549271 -0.090961365670864353 0 0.17842320588221819 -0.090172163349513806 0 0.20399491490549271 -0.090961365670864353 0 0.17842320588221819 -0.090172163349513806 0 0.1854866420256687 -0.084161575248007242 0 0.20399491490549271 -0.090961365670864353 0 0.2000429458732931 -0.068059913463883598 0 0.20399491490549271 -0.090961365670864353 0 0.19040307974074269 -0.080139672987034255 0 0.2000429458732931 -0.068059913463883598 0 0.20399491490549271 -0.090961365670864353 0 0.19040307974074269 -0.080139672987034255 0 0.1929894301603077 -0.067813608174319001 0 0.2000429458732931 -0.068059913463883598 0 0.19040307974074269 -0.080139672987034255 0 0.1929894301603077 -0.067813608174319001 0 0.1929894301603077 -0.067813608174319001 0 0.2000429458732931 -0.068059913463883598 0 0.2000429458732931 -0.068059913463883598 0 0.2288443079289719 -0.069065642820655804 0 0.2000429458732931 -0.068059913463883598 0 0.21771238563745279 -0.081480669998114597 0 0.2288443079289719 -0.069065642820655804 0 0.21158346953455981 -0.057932445704329483 0 0.2000429458732931 -0.068059913463883598 0 0.2288443079289719 -0.069065642820655804 0 0.2000429458732931 -0.068059913463883598 0 0.20399491490549271 -0.090961365670864353 0 0.21771238563745279 -0.081480669998114597 0 0.20399491490549271 -0.090961365670864353 0 0.21771238563745279 -0.081480669998114597 0 0.23081911420975029 -0.091789222750733895 0 0.20399491490549271 -0.090961365670864353 0 0.23081911420975029 -0.091789222750733895 0 0.21771238563745279 -0.081480669998114597 0 0.23081911420975029 -0.091789222750733895 0 0.2288443079289719 -0.069065642820655804 0 0.25764566998465072 -0.070071372177431313 0 0.24120587699226881 -0.055916030502087773 0 0.2288443079289719 -0.069065642820655804 0 0.25764566998465072 -0.070071372177431313 0 0.2288443079289719 -0.069065642820655804 0 0.25764566998465072 -0.070071372177431313 0 0.2288443079289719 -0.069065642820655804 0 0.24423239209720191 -0.080930297464084477 0 0.25666672159796139 -0.092586939936295867 0 0.23081911420975029 -0.091789222750733895 0 0.23081911420975029 -0.091789222750733895 0 0.2288443079289719 -0.069065642820655804 0 0.24423239209720191 -0.080930297464084477 0 0.25666672159796139 -0.092586939936295867 0 0.23081911420975029 -0.091789222750733895 0 0.24423239209720191 -0.080930297464084477 0 0.23081911420975029 -0.091789222750733895 0 0.24423239209720191 -0.080930297464084477 0 0.25666672159796139 -0.092586939936295867 0 0.23081911420975029 -0.091789222750733895 0 0.23839025179526999 -0.1151992729885977 0 0.20666963866093291 -0.1113398018781358 0 0.23081911420975029 -0.091789222750733895 0 0.22056261316880149 -0.1108234873110058 0 0.23081911420975029 -0.091789222750733895 0 0.22056261316880149 -0.1108234873110058 0 0.23839025179526999 -0.1151992729885977 0 0.2184940671700534 -0.12394732724419751 0 0.22056261316880149 -0.1108234873110058 0 0.23839025179526999 -0.1151992729885977 0 0.2184940671700534 -0.12394732724419751 0 0.23839025179526999 -0.1151992729885977 0 0.22928680998153819 -0.13545484142638689 0 0.25915390151091949 -0.11811210275817149 0 0.25133622254172122 -0.13557462765415079 0 0.23839025179526999 -0.1151992729885977 0 0.25133622254172122 -0.13557462765415079 0 0.25208407187516418 -0.1419613505697605 0 0.23274332603383319 -0.13914027229300069 0 0.25133622254172122 -0.13557462765415079 0 0.23839025179526999 -0.1151992729885977 0 0.22928680998153819 -0.13545484142638689 0 0.25133622254172122 -0.13557462765415079 0 0.22928680998153819 -0.13545484142638689 0 0.25133622254172122 -0.13557462765415079 0 0.23274332603383319 -0.13914027229300069 0 0.22928680998153819 -0.13545484142638689 0 0.25208407187516418 -0.1419613505697605 0 0.23274332603383319 -0.13914027229300069 0 0.2530488896403309 -0.16079061319898569 0 0.23274332603383319 -0.13914027229300069 0 0.2530488896403309 -0.16079061319898569 0 0.23274332603383319 -0.13914027229300069 0 0.2334622085995452 -0.15779257262933219 0 0.2530488896403309 -0.16079061319898569 0 0.25208407187516418 -0.1419613505697605 0 0.23274332603383319 -0.13914027229300069 0 0.22694604844669111 -0.15137512496012309 0 0.2202725953444182 -0.1456731206256075 0 0.22100128495381829 -0.16152072110389429 0 0.22694604844669111 -0.15137512496012309 0 0.23274332603383319 -0.13914027229300069 0 0.2334622085995452 -0.15779257262933219 0 0.22694604844669111 -0.15137512496012309 0 0.2202725953444182 -0.1456731206256075 0 0.23274332603383319 -0.13914027229300069 0 0.23274332603383319 -0.13914027229300069 0 0.20959101376118139 -0.13576323162740581 0 0.22928680998153819 -0.13545484142638689 0 0.2116749968128239 -0.1353591630196288 0 0.23274332603383319 -0.13914027229300069 0 0.22928680998153819 -0.13545484142638689 0 0.2116749968128239 -0.1353591630196288 0 0.2184940671700534 -0.12394732724419751 0 0.22928680998153819 -0.13545484142638689 0 0.2116749968128239 -0.1353591630196288 0 0.2202725953444182 -0.1456731206256075 0 0.23274332603383319 -0.13914027229300069 0 0.20959101376118139 -0.13576323162740581 0 0.23274332603383319 -0.13914027229300069 0 0.22928680998153819 -0.13545484142638689 0 0.2184940671700534 -0.12394732724419751 0 0.22928680998153819 -0.13545484142638689 0 0.23274332603383319 -0.13914027229300069 0 0.20959101376118139 -0.13576323162740581 0 0.2116749968128239 -0.1353591630196288 0 0.20975191972323501 -0.12432290509972491 0 0.2116749968128239 -0.1353591630196288 0 0.19406318364410949 -0.13526348461287321 0 0.2184940671700534 -0.12394732724419751 0 0.20975191972323501 -0.12432290509972491 0 0.2116749968128239 -0.1353591630196288 0 0.20959101376118139 -0.13576323162740581 0 0.2116749968128239 -0.1353591630196288 0 0.19406318364410949 -0.13526348461287321 0 0.2202725953444182 -0.1456731206256075 0 0.21077041390333781 -0.15496976615408631 0 0.22100128495381829 -0.16152072110389429 0 0.2202725953444182 -0.1456731206256075 0 0.20959101376118139 -0.13576323162740581 0 0.21077041390333781 -0.15496976615408631 0 0.20959101376118139 -0.13576323162740581 0 0.21077041390333781 -0.15496976615408631 0 0.19406318364410949 -0.13526348461287321 0 0.21077041390333781 -0.15496976615408631 0 0.19019323353294471 -0.15547991582157239 0 0.19406318364410949 -0.13526348461287321 0 0.21077041390333781 -0.15496976615408631 0 0.19406318364410949 -0.13526348461287321 0 0.20975191972323501 -0.12432290509972491 0 0.1971408692894723 -0.1190539635876471 0 0.19406318364410949 -0.13526348461287321 0 0.2116749968128239 -0.1353591630196288 0 0.19406318364410949 -0.13526348461287321 0 0.2064216300685435 -0.1763378775815001 0 0.19333004299069351 -0.19482382871724169 0 0.185888281266576 -0.1738959907954824 0 0.21077041390333781 -0.15496976615408631 0 0.19019323353294471 -0.15547991582157239 0 0.2064216300685435 -0.1763378775815001 0 0.19019323353294471 -0.15547991582157239 0 0.2064216300685435 -0.1763378775815001 0 0.185888281266576 -0.1738959907954824 0 0.21077041390333781 -0.15496976615408631 0 0.2064216300685435 -0.1763378775815001 0 0.22100128495381829 -0.16152072110389429 0 0.2064216300685435 -0.1763378775815001 0 0.22637928715471201 -0.1750627007060517 0 0.22100128495381829 -0.16152072110389429 0 0.2064216300685435 -0.1763378775815001 0 0.22637928715471201 -0.1750627007060517 0 0.2213864998634191 -0.19074186604973761 0 0.22637928715471201 -0.1750627007060517 0 0.2363010186387848 -0.18586727398715949 0 0.2213864998634191 -0.19074186604973761 0 0.22637928715471201 -0.1750627007060517 0 0.22100128495381829 -0.16152072110389429 0 0.2334622085995452 -0.15779257262933219 0 0.22637928715471201 -0.1750627007060517 0 0.2334622085995452 -0.15779257262933219 0 0.24133419147104179 -0.17110858194103351 0 0.22694604844669111 -0.15137512496012309 0 0.22100128495381829 -0.16152072110389429 0 0.2334622085995452 -0.15779257262933219 0 0.2530488896403309 -0.16079061319898569 0 0.2334622085995452 -0.15779257262933219 0 0.24133419147104179 -0.17110858194103351 0 0.2550208565069661 -0.17514012483034949 0 0.2530488896403309 -0.16079061319898569 0 0.24133419147104179 -0.17110858194103351 0 0.22637928715471201 -0.1750627007060517 0 0.24133419147104179 -0.17110858194103351 0 0.2363010186387848 -0.18586727398715949 0 0.25030889548151403 -0.1837077448593728 0 0.2550208565069661 -0.17514012483034949 0 0.24133419147104179 -0.17110858194103351 0 0.25030889548151403 -0.1837077448593728 0 0.24133419147104179 -0.17110858194103351 0 0.2363010186387848 -0.18586727398715949 0 0.25030889548151403 -0.1837077448593728 0 0.2363010186387848 -0.18586727398715949 0 0.24624710011957149 -0.19756578472926509 0 0.2363010186387848 -0.18586727398715949 0 0.24624710011957149 -0.19756578472926509 0 0.23232272155890341 -0.19906227567560569 0 0.24624710011957149 -0.19756578472926509 0 0.2390873575194972 -0.2119906927462733 0 0.23232272155890341 -0.19906227567560569 0 0.25806059678156651 -0.21160485628964759 0 0.24624710011957149 -0.19756578472926509 0 0.2390873575194972 -0.2119906927462733 0 0.25806059678156651 -0.21160485628964759 0 0.2390873575194972 -0.2119906927462733 0 0.2485278721491469 -0.22983386195931649 0 0.22156570902884701 -0.2081716276760221 0 0.2275965143199381 -0.22680811778712909 0 0.21130945108473639 -0.22000441216527869 0 0.2390873575194972 -0.2119906927462733 0 0.22156570902884701 -0.2081716276760221 0 0.23232272155890341 -0.19906227567560569 0 0.2390873575194972 -0.2119906927462733 0 0.22156570902884701 -0.2081716276760221 0 0.2275965143199381 -0.22680811778712909 0 0.22156570902884701 -0.2081716276760221 0 0.2213864998634191 -0.19074186604973761 0 0.23232272155890341 -0.19906227567560569 0 0.2363010186387848 -0.18586727398715949 0 0.2213864998634191 -0.19074186604973761 0 0.23232272155890341 -0.19906227567560569 0 0.2410490216361528 -0.25300372010805161 0 0.2485278721491469 -0.22983386195931649 0 0.2275965143199381 -0.22680811778712909 0 0.25787859859726192 -0.24372773219337371 0 0.2410490216361528 -0.25300372010805161 0 0.2485278721491469 -0.22983386195931649 0 0.2390873575194972 -0.2119906927462733 0 0.2485278721491469 -0.22983386195931649 0 0.2275965143199381 -0.22680811778712909 0 0.2410490216361528 -0.25300372010805161 0 0.2275965143199381 -0.22680811778712909 0 0.2136455624920251 -0.24586339942155419 0 0.2410490216361528 -0.25300372010805161 0 0.2136455624920251 -0.24586339942155419 0 0.2136455624920251 -0.24586339942155419 0 0.1995187067769538 -0.22648505830905971 0 0.1970165427207646 -0.2431475676051908 0 0.2275965143199381 -0.22680811778712909 0 0.2136455624920251 -0.24586339942155419 0 0.21130945108473639 -0.22000441216527869 0 0.2136455624920251 -0.24586339942155419 0 0.21130945108473639 -0.22000441216527869 0 0.1995187067769538 -0.22648505830905971 0 0.1995187067769538 -0.22648505830905971 0 0.1970165427207646 -0.2431475676051908 0 0.1843931124890181 -0.23269732176232691 0 0.21130945108473639 -0.22000441216527869 0 0.1995187067769538 -0.22648505830905971 0 0.19847161958806309 -0.21206345826637629 0 0.2064216300685435 -0.1763378775815001 0 0.2213864998634191 -0.19074186604973761 0 0.20705859430259141 -0.20063481153153051 0 0.22156570902884701 -0.2081716276760221 0 0.2213864998634191 -0.19074186604973761 0 0.20705859430259141 -0.20063481153153051 0 0.22156570902884701 -0.2081716276760221 0 0.21130945108473639 -0.22000441216527869 0 0.20705859430259141 -0.20063481153153051 0 0.21130945108473639 -0.22000441216527869 0 0.20705859430259141 -0.20063481153153051 0 0.19847161958806309 -0.21206345826637629 0 0.19847161958806309 -0.21206345826637629 0 0.19333004299069351 -0.19482382871724169 0 0.184507054165965 -0.21658659277756609 0 0.1995187067769538 -0.22648505830905971 0 0.19847161958806309 -0.21206345826637629 0 0.184507054165965 -0.21658659277756609 0 0.20705859430259141 -0.20063481153153051 0 0.19847161958806309 -0.21206345826637629 0 0.19333004299069351 -0.19482382871724169 0 0.2064216300685435 -0.1763378775815001 0 0.20705859430259141 -0.20063481153153051 0 0.19333004299069351 -0.19482382871724169 0 0.1776330785524223 -0.18942424135099509 0 0.184507054165965 -0.21658659277756609 0 0.16837846483810831 -0.20319749351435479 0 0.19333004299069351 -0.19482382871724169 0 0.1776330785524223 -0.18942424135099509 0 0.184507054165965 -0.21658659277756609 0 0.1776330785524223 -0.18942424135099509 0 0.184507054165965 -0.21658659277756609 0 0.184507054165965 -0.21658659277756609 0 0.1749867686249286 -0.21735889230250449 0 0.16837846483810831 -0.20319749351435479 0 0.1749867686249286 -0.21735889230250449 0 0.16837846483810831 -0.20319749351435479 0 0.15045483047290331 -0.2082327262959493 0 0.1749867686249286 -0.21735889230250449 0 0.15045483047290331 -0.2082327262959493 0 0.1749867686249286 -0.21735889230250449 0 0.16226861639455931 -0.22172210758959859 0 0.15045483047290331 -0.2082327262959493 0 0.16837846483810831 -0.20319749351435479 0 0.15045483047290331 -0.2082327262959493 0 0.15431059237432221 -0.18438501484475869 0 0.1776330785524223 -0.18942424135099509 0 0.16837846483810831 -0.20319749351435479 0 0.15431059237432221 -0.18438501484475869 0 0.1970165427207646 -0.2431475676051908 0 0.18013525364959199 -0.24590787480667409 0 0.1843931124890181 -0.23269732176232691 0 0.18013525364959199 -0.24590787480667409 0 0.1843931124890181 -0.23269732176232691 0 0.17030829067285161 -0.2305872157882054 0 0.1995187067769538 -0.22648505830905971 0 0.1749867686249286 -0.21735889230250449 0 0.1995187067769538 -0.22648505830905971 0 0.1749867686249286 -0.21735889230250449 0 0.1843931124890181 -0.23269732176232691 0 0.1995187067769538 -0.22648505830905971 0 0.184507054165965 -0.21658659277756609 0 0.1749867686249286 -0.21735889230250449 0 0.1749867686249286 -0.21735889230250449 0 0.1843931124890181 -0.23269732176232691 0 0.17030829067285161 -0.2305872157882054 0 0.16226861639455931 -0.22172210758959859 0 0.17030829067285161 -0.2305872157882054 0 0.15332457580755371 -0.23070959597173549 0 0.1749867686249286 -0.21735889230250449 0 0.16226861639455931 -0.22172210758959859 0 0.17030829067285161 -0.2305872157882054 0 0.16103468924722281 -0.25381861710109321 0 0.18013525364959199 -0.24590787480667409 0 0.17030829067285161 -0.2305872157882054 0 0.16103468924722281 -0.25381861710109321 0 0.17030829067285161 -0.2305872157882054 0 0.15332457580755371 -0.23070959597173549 0 0.16103468924722281 -0.25381861710109321 0 0.1412434604122122 -0.24631040783256791 0 0.15332457580755371 -0.23070959597173549 0 0.1412434604122122 -0.24631040783256791 0 0.15332457580755371 -0.23070959597173549 0 0.1284413173888232 -0.22347585252773641 0 0.15332457580755371 -0.23070959597173549 0 0.1284413173888232 -0.22347585252773641 0 0.15045483047290331 -0.2082327262959493 0 0.16226861639455931 -0.22172210758959859 0 0.15332457580755371 -0.23070959597173549 0 0.15045483047290331 -0.2082327262959493 0 0.1200034520355143 -0.24749468667538321 0 0.1412434604122122 -0.24631040783256791 0 0.1284413173888232 -0.22347585252773641 0 0.15045483047290331 -0.2082327262959493 0 0.12592289232087811 -0.19910656028939411 0 0.15431059237432221 -0.18438501484475869 0 0.15045483047290331 -0.2082327262959493 0 0.12592289232087811 -0.19910656028939411 0 0.1284413173888232 -0.22347585252773641 0 0.15045483047290331 -0.2082327262959493 0 0.12592289232087811 -0.19910656028939411 0 0.11404320040195411 -0.17785048998131209 0 0.12592289232087811 -0.19910656028939411 0 0.1362427207560932 -0.1734399905344442 0 0.12592289232087811 -0.19910656028939411 0 0.1362427207560932 -0.1734399905344442 0 0.15431059237432221 -0.18438501484475869 0 0.1362427207560932 -0.1734399905344442 0 0.15431059237432221 -0.18438501484475869 0 0.1498051255961938 -0.157092757972084 0 0.11404320040195411 -0.17785048998131209 0 0.1362427207560932 -0.1734399905344442 0 0.1305387904294309 -0.15561497697083931 0 0.1362427207560932 -0.1734399905344442 0 0.1498051255961938 -0.157092757972084 0 0.1305387904294309 -0.15561497697083931 0 0.1498051255961938 -0.157092757972084 0 0.1305387904294309 -0.15561497697083931 0 0.13638976604354719 -0.13495016646355951 0 0.1161887790728692 -0.1476769396888597 0 0.1305387904294309 -0.15561497697083931 0 0.13638976604354719 -0.13495016646355951 0 0.12800820934211829 -0.12401417466047961 0 0.13638976604354719 -0.13495016646355951 0 0.1486045981545247 -0.12747252536747111 0 0.13638976604354719 -0.13495016646355951 0 0.16388512732533739 -0.13509953849785281 0 0.13638976604354719 -0.13495016646355951 0 0.1486045981545247 -0.12747252536747111 0 0.16388512732533739 -0.13509953849785281 0 0.1498051255961938 -0.157092757972084 0 0.13638976604354719 -0.13495016646355951 0 0.16388512732533739 -0.13509953849785281 0 0.16388512732533739 -0.13509953849785281 0 0.17075910293887969 -0.16226188992442411 0 0.1498051255961938 -0.157092757972084 0 0.16388512732533739 -0.13509953849785281 0 0.17075910293887969 -0.16226188992442411 0 0.18014950107347269 -0.1188522098678762 0 0.16265603278097029 -0.1302428005884553 0 0.16388512732533739 -0.13509953849785281 0 0.16095359288685571 -0.1184472051676727 0 0.1486045981545247 -0.12747252536747111 0 0.16265603278097029 -0.1302428005884553 0 0.1486045981545247 -0.12747252536747111 0 0.16265603278097029 -0.1302428005884553 0 0.16388512732533739 -0.13509953849785281 0 0.16265603278097029 -0.1302428005884553 0 0.16388512732533739 -0.13509953849785281 0 0.19406318364410949 -0.13526348461287321 0 0.16388512732533739 -0.13509953849785281 0 0.18014950107347269 -0.1188522098678762 0 0.19406318364410949 -0.13526348461287321 0 0.18014950107347269 -0.1188522098678762 0 0.19406318364410949 -0.13526348461287321 0 0.16388512732533739 -0.13509953849785281 0 0.19019323353294471 -0.15547991582157239 0 0.16388512732533739 -0.13509953849785281 0 0.17075910293887969 -0.16226188992442411 0 0.19019323353294471 -0.15547991582157239 0 0.19406318364410949 -0.13526348461287321 0 0.16388512732533739 -0.13509953849785281 0 0.19019323353294471 -0.15547991582157239 0 0.185888281266576 -0.1738959907954824 0 0.17075910293887969 -0.16226188992442411 0 0.1776330785524223 -0.18942424135099509 0 0.185888281266576 -0.1738959907954824 0 0.17075910293887969 -0.16226188992442411 0 0.1776330785524223 -0.18942424135099509 0 0.17075910293887969 -0.16226188992442411 0 0.19333004299069351 -0.19482382871724169 0 0.1776330785524223 -0.18942424135099509 0 0.185888281266576 -0.1738959907954824 0 0.1776330785524223 -0.18942424135099509 0 0.15431059237432221 -0.18438501484475869 0 0.17075910293887969 -0.16226188992442411 0 0.15431059237432221 -0.18438501484475869 0 0.1498051255961938 -0.157092757972084 0 0.17075910293887969 -0.16226188992442411 0 
</DataArray>
</Points>
<Cells>
<DataArray type="UInt32" Name="connectivity" format="ascii">
0 1 2 3 4 5 6 7 8 9 10 11 12 13 14 15 16 17 18 19 20 21 22 23 24 25 26 27 28 29 30 31 32 33 34 35 36 37 38 39 40 41 42 43 44 45 46 47 48 49 50 51 52 53 54 55 56 57 58 59 60 61 62 63 64 65 66 67 68 69 70 71 72 73 74 75 76 77 78 79 80 81 82 83 84 85 86 87 88 89 90 91 92 93 94 95 96 97 98 99 100 101 102 103 104 105 106 107 108 109 110 111 112 113 114 115 116 117 118 119 120 121 122 123 124 125 126 127 128 129 130 131 132 133 134 135 136 137 138 139 140 141 142 143 144 145 146 147 148 149 150 151 152 153 154 155 156 157 158 159 160 161 162 163 164 165 166 167 168 169 170 171 172 173 174 175 176 177 178 179 180 181 182 183 184 185 186 187 188 189 190 191 192 193 194 195 196 197 198 199 200 201 202 203 204 205 206 207 208 209 210 211 212 213 214 215 216 217 218 219 220 221 222 223 224 225 226 227 228 229 230 231 232 233 234 235 236 237 238 239 240 241 242 243 244 245 246 247 248 249 250 251 252 253 254 255 256 257 258 259 260 261 262 263 264 265 266 267 268 269 270 271 272 273 274 275 276 277 278 279 280 281 282 283 284 285 286 287 288 289 290 291 292 293 294 295 296 297 298 299 300 301 302 303 304 305 306 307 308 309 310 311 312 313 314 315 316 317 318 319 320 321 322 323 324 325 326 327 328 329 330 331 332 333 334 335 336 337 338 339 340 341 342 343 344 345 346 347 348 349 350 351 352 353 354 355 356 357 358 359 360 361 362 363 364 365 366 367 368 369 370 371 372 373 374 375 376 377 378 379 380 381 382 383 384 385 386 387 388 389 390 391 392 393 394 395 396 397 398 399 400 401 402 403 404 405 406 407 408 409 410 411 412 413 414 415 416 417 418 419 420 421 422 423 424 425 426 427 428 429 430 431 432 433 434 435 436 437 438 439 440 441 442 443 444 445 446 447 448 449 450 451 452 453 454 455 456 457 458 459 460 461 462 463 464 465 466 467 468 469 470 471 472 473 474 475 476 477 478 479 480 481 482 483 484 485 486 487 488 489 490 491 492 493 494 495 496 497 498 499 500 501 502 503 504 505 506 507 508 509 510 511 512 513 514 515 516 517 518 519 520 521 522 523 524 525 526 527 528 529 530 531 532 533 534 535 536 537 538 539 540 541 542 543 544 545 546 547 548 549 550 551 552 553 554 555 556 557 558 559 560 561 562 563 564 565 566 567 568 569 570 571 572 573 574 575 576 577 578 579 580 581 582 583 584 585 586 587 588 589 590 591 592 593 594 595 596 597 598 599 600 601 602 603 604 605 606 607 608 609 610 611 612 613 614 615 616 617 618 619 620 621 622 623 624 625 626 627 628 629 630 631 632 633 634 635 636 637 638 639 640 641 642 643 644 645 646 647 648 649 650 651 652 653 654 655 656 657 658 659 660 661 662 663 664 665 666 667 668 669 670 671 672 673 674 675 676 677 678 679 680 681 682 683 684 685 686 687 688 689 690 691 692 693 694 695 696 697 698 699 700 701 702 703 704 705 706 707 708 709 710 711 712 713 714 715 716 717 718 719 720 721 722 723 724 725 726 727 728 729 730 731 732 733 734 735 736 737 738 739 740 741 742 743 744 745 746 747 748 749 750 751 752 753 754 755 756 757 758 759 760 761 762 763 764 765 766 767 768 769 770 771 772 773 774 775 776 777 778 779 780 781 782 783 784 785 786 787 788 789 790 791 792 793 794 795 796 797 798 799 800 801 802 803 804 805 806 807 808 809 810 811 812 813 814 815 816 817 818 819 820 821 822 823 824 825 826 827 828 829 830 831 832 833 834 835 836 837 838 839 840 841 842 843 844 845 846 847 848 849 850 851 852 853 854 855 856 857 858 859 860 861 862 863 864 865 866 867 868 869 870 871 872 873 874 875 876 877 878 879 880 881 882 883 884 885 886 887 888 889 890 891 892 893 894 895 896 897 898 899 900 901 902 903 904 905 906 907 908 909 910 911 912 913 914 915 916 917 918 919 920 921 922 923 924 925 926 927 928 929 930 931 932 933 934 935 936 937 938 939 940 941 942 943 944 945 946 947 948 949 950 951 952 953 954 955 956 957 958 959 960 961 962 963 964 965 966 967 968 969 970 971 972 973 974 975 976 977 978 979 980 981 982 983 984 985 986 987 988 989 990 991 992 993 994 995 996 997 998 999 1000 1001 1002 1003 1004 1005 1006 1007 1008 1009 1010 1011 1012 1013 1014 1015 1016 1017 1018 1019 1020 1021 1022 1023 1024 1025 1026 1027 1028 1029 1030 1031 1032 1033 1034 1035 1036 1037 1038 1039 1040 1041 1042 1043 1044 1045 1046 1047 1048 1049 1050 1051 1052 1053 1054 1055 1056 1057 1058 1059 1060 1061 1062 1063 1064 1065 1066 1067 1068 1069 1070 1071 1072 1073 1074 1075 1076 1077 1078 1079 1080 1081 1082 1083 1084 1085 1086 1087 1088 1089 1090 1091 1092 1093 1094 1095 1096 1097 1098 1099 1100 1101 1102 1103 1104 1105 1106 1107 1108 1109 1110 1111 1112 1113 1114 1115 1116 1117 1118 1119 1120 1121 1122 1123 1124 1125 1126 1127 1128 1129 1130 1131 1132 1133 1134 1135 1136 1137 1138 1139 1140 1141 1142 1143 1144 1145 1146 1147 1148 1149 1150 1151 1152 1153 1154 1155 1156 1157 1158 1159 1160 1161 1162 1163 1164 1165 1166 1167 1168 1169 1170 1171 1172 1173 1174 1175 1176 1177 1178 1179 1180 1181 1182 1183 1184 1185 1186 1187 1188 1189 1190 1191 1192 1193 1194 1195 1196 1197 1198 1199 1200 1201 1202 1203 1204 1205 1206 1207 1208 1209 1210 1211 1212 1213 1214 1215 1216 1217 1218 1219 1220 1221 1222 1223 1224 1225 1226 1227 1228 1229 1230 1231 1232 1233 1234 1235 1236 1237 1238 1239 1240 1241 1242 1243 1244 1245 1246 1247 1248 1249 1250 1251 1252 1253 1254 1255 1256 1257 1258 1259 1260 1261 1262 1263 1264 1265 1266 1267 1268 1269 1270 1271 1272 1273 1274 1275 1276 1277 1278 1279 1280 1281 1282 1283 1284 1285 1286 1287 1288 1289 1290 1291 1292 1293 1294 1295 1296 1297 1298 1299 1300 1301 1302 1303 1304 1305 1306 1307 1308 1309 1310 1311 1312 1313 1314 1315 1316 1317 1318 1319 1320 1321 1322 1323 1324 1325 1326 1327 1328 1329 1330 1331 1332 1333 1334 1335 1336 1337 1338 1339 1340 1341 1342 1343 1344 1345 1346 1347 1348 1349 1350 1351 1352 1353 1354 1355 1356 1357 1358 1359 1360 1361 1362 1363 1364 1365 1366 1367 1368 1369 1370 1371 1372 1373 1374 1375 1376 1377 1378 1379 1380 1381 1382 1383 1384 1385 1386 1387 1388 1389 1390 1391 1392 1393 1394 1395 1396 1397 1398 1399 1400 1401 1402 1403 1404 1405 1406 1407 1408 1409 1410 1411 1412 1413 1414 1415 1416 1417 1418 1419 1420 1421 1422 1423 1424 1425 1426 1427 1428 1429 1430 1431 1432 1433 1434 1435 1436 1437 1438 1439 1440 1441 1442 1443 1444 1445 1446 1447 1448 1449 1450 1451 1452 1453 1454 1455 1456 1457 1458 1459 1460 1461 1462 1463 1464 1465 1466 1467 1468 1469 1470 1471 1472 1473 1474 1475 1476 1477 1478 1479 1480 1481 1482 1483 1484 1485 1486 1487 1488 1489 1490 1491 1492 1493 1494 1495 1496 1497 1498 1499 1500 1501 1502 1503 1504 1505 1506 1507 1508 1509 1510 1511 1512 1513 1514 1515 1516 1517 1518 1519 1520 1521 1522 1523 1524 1525 1526 1527 1528 1529 1530 1531 1532 1533 1534 1535 1536 1537 1538 1539 1540 1541 1542 1543 1544 1545 1546 1547 1548 1549 1550 1551 1552 1553 1554 1555 1556 1557 1558 1559 1560 1561 1562 1563 1564 1565 1566 1567 1568 1569 1570 1571 1572 1573 1574 1575 1576 1577 1578 1579 1580 1581 1582 1583 1584 1585 1586 1587 1588 1589 1590 1591 1592 1593 1594 1595 1596 1597 1598 1599 1600 1601 1602 1603 1604 1605 1606 1607 1608 1609 1610 1611 1612 1613 1614 1615 1616 1617 1618 1619 1620 1621 1622 1623 1624 1625 1626 1627 1628 1629 1630 1631 1632 1633 1634 1635 1636 1637 1638 1639 1640 1641 1642 1643 1644 1645 1646 1647 1648 1649 1650 1651 1652 1653 1654 1655 1656 1657 1658 1659 1660 1661 1662 1663 1664 1665 1666 1667 1668 1669 1670 1671 1672 1673 1674 1675 1676 1677 1678 1679 1680 1681 1682 1683 1684 1685 1686 1687 1688 1689 1690 1691 1692 1693 1694 1695 1696 1697 1698 1699 1700 1701 1702 1703 1704 1705 1706 1707 1708 1709 1710 1711 1712 1713 1714 1715 1716 1717 1718 1719 1720 1721 1722 1723 1724 1725 1726 1727 1728 1729 1730 1731 1732 1733 1734 1735 1736 1737 1738 1739 1740 1741 1742 1743 1744 1745 1746 1747 1748 1749 1750 1751 1752 1753 1754 1755 1756 1757 1758 1759 1760 1761 1762 1763 1764 1765 1766 1767 1768 1769 1770 1771 1772 1773 1774 1775 1776 1777 1778 1779 1780 1781 1782 1783 1784 1785 1786 1787 1788 1789 1790 1791 1792 1793 1794 1795 1796 1797 1798 1799 1800 1801 1802 1803 1804 1805 1806 1807 1808 1809 1810 1811 1812 1813 1814 1815 1816 1817 1818 1819 1820 1821 1822 1823 1824 1825 1826 1827 1828 1829 1830 1831 1832 1833 1834 1835 1836 1837 1838 1839 1840 1841 1842 1843 1844 1845 1846 1847 1848 1849 1850 1851 1852 1853 1854 1855 1856 1857 1858 1859 1860 1861 1862 1863 1864 1865 1866 1867 1868 1869 1870 1871 1872 1873 1874 1875 1876 1877 1878 1879 1880 1881 1882 1883 1884 1885 1886 1887 1888 1889 1890 1891 1892 1893 1894 1895 1896 1897 1898 1899 1900 1901 1902 1903 1904 1905 1906 1907 1908 1909 1910 1911 1912 1913 1914 1915 1916 1917 1918 1919 1920 1921 1922 1923 1924 1925 1926 1927 1928 1929 1930 1931 1932 1933 1934 1935 1936 1937 1938 1939 1940 1941 1942 1943 1944 1945 1946 1947 1948 1949 1950 1951 1952 1953 1954 1955 1956 1957 1958 1959 1960 1961 1962 1963 1964 1965 1966 1967 1968 1969 1970 1971 1972 1973 1974 1975 1976 1977 1978 1979 1980 1981 1982 1983 1984 1985 1986 1987 1988 1989 1990 1991 1992 1993 1994 1995 1996 1997 1998 1999 2000 2001 2002 2003 2004 2005 2006 2007 2008 2009 2010 2011 2012 2013 2014 2015 2016 2017 2018 2019 2020 2021 2022 2023 2024 2025 2026 2027 2028 2029 2030 2031 2032 2033 2034 2035 2036 2037 2038 2039 2040 2041 2042 2043 2044 2045 2046 2047 2048 2049 2050 2051 2052 2053 2054 2055 2056 2057 2058 2059 2060 2061 2062 2063 2064 2065 2066 2067 2068 2069 2070 2071 2072 2073 2074 2075 2076 2077 2078 2079 2080 2081 2082 2083 2084 2085 2086 2087 2088 2089 2090 2091 2092 2093 2094 2095 2096 2097 2098 2099 2100 2101 2102 2103 2104 2105 2106 2107 2108 2109 2110 2111 2112 2113 2114 2115 2116 2117 2118 2119 2120 2121 2122 2123 2124 2125 2126 2127 2128 2129 2130 2131 2132 2133 2134 2135 2136 2137 2138 2139 2140 2141 2142 2143 2144 2145 2146 2147 2148 2149 2150 2151 2152 2153 2154 2155 2156 2157 2158 2159 2160 2161 2162 2163 2164 2165 2166 2167 2168 2169 2170 2171 2172 2173 2174 2175 2176 2177 2178 2179 2180 2181 2182 2183 2184 2185 2186 2187 2188 2189 2190 2191 2192 2193 2194 2195 2196 2197 2198 2199 2200 2201 2202 2203 2204 2205 2206 2207 2208 2209 2210 2211 2212 2213 2214 2215 2216 2217 2218 2219 2220 2221 2222 2223 2224 2225 2226 2227 2228 2229 2230 2231 2232 2233 2234 2235 2236 2237 2238 2239 2240 2241 2242 2243 2244 2245 2246 2247 2248 2249 2250 2251 2252 2253 2254 2255 2256 2257 2258 2259 2260 2261 2262 2263 2264 2265 2266 2267 2268 2269 2270 2271 2272 2273 2274 2275 2276 2277 2278 2279 2280 2281 2282 2283 2284 2285 2286 2287 2288 2289 2290 2291 2292 2293 2294 2295 2296 2297 2298 2299 2300 2301 2302 2303 2304 2305 2306 2307 2308 2309 2310 2311 2312 2313 2314 2315 2316 2317 2318 2319 2320 2321 2322 2323 2324 2325 2326 2327 2328 2329 2330 2331 2332 2333 2334 2335 2336 2337 2338 2339 2340 2341 2342 2343 2344 2345 2346 2347 2348 2349 2350 2351 2352 2353 2354 2355 2356 2357 2358 2359 2360 2361 2362 2363 2364 2365 2366 2367 2368 2369 2370 2371 2372 2373 2374 2375 2376 2377 2378 2379 2380 2381 2382 2383 2384 2385 2386 2387 2388 2389 2390 2391 2392 2393 2394 2395 2396 2397 2398 2399 2400 2401 2402 2403 2404 2405 2406 2407 2408 2409 2410 2411 2412 2413 2414 2415 2416 2417 2418 2419 2420 2421 2422 2423 2424 2425 2426 2427 2428 2429 2430 2431 2432 2433 2434 2435 2436 2437 2438 2439 2440 2441 2442 2443 2444 2445 2446 2447 2448 2449 2450 2451 2452 2453 2454 2455 2456 2457 2458 2459 2460 2461 2462 2463 2464 2465 2466 2467 2468 2469 2470 2471 2472 2473 2474 2475 2476 2477 2478 2479 2480 2481 2482 2483 2484 2485 2486 2487 2488 2489 2490 2491 2492 2493 2494 2495 2496 2497 2498 2499 2500 2501 2502 2503 2504 2505 2506 2507 2508 2509 2510 2511 2512 2513 2514 2515 2516 2517 2518 2519 2520 2521 2522 2523 2524 2525 2526 2527 2528 2529 2530 2531 2532 2533 2534 2535 2536 2537 2538 2539 2540 2541 2542 2543 2544 2545 2546 2547 2548 2549 2550 2551 2552 2553 2554 2555 2556 2557 2558 2559 2560 2561 2562 2563 2564 2565 2566 2567 2568 2569 2570 2571 2572 2573 2574 2575 2576 2577 2578 2579 2580 2581 2582 2583 2584 2585 2586 2587 2588 2589 2590 2591 2592 2593 2594 2595 2596 2597 2598 2599 2600 2601 2602 2603 2604 2605 2606 2607 2608 2609 2610 2611 2612 2613 2614 2615 2616 2617 2618 2619 2620 2621 2622 2623 2624 2625 2626 2627 2628 2629 2630 2631 2632 2633 2634 2635 2636 2637 2638 2639 2640 2641 2642 2643 2644 2645 2646 2647 2648 2649 2650 2651 2652 2653 2654 2655 2656 2657 2658 2659 2660 2661 2662 2663 2664 2665 2666 2667 2668 2669 2670 2671 2672 2673 2674 2675 2676 2677 2678 2679 2680 2681 2682 2683 2684 2685 2686 2687 2688 2689 2690 2691 2692 2693 2694 2695 2696 2697 2698 2699 2700 2701 2702 2703 2704 2705 2706 2707 2708 2709 2710 2711 2712 2713 2714 2715 2716 2717 2718 2719 2720 2721 2722 2723 2724 2725 2726 2727 2728 2729 2730 2731 2732 2733 2734 2735 2736 2737 2738 2739 2740 2741 2742 2743 2744 2745 2746 2747 2748 2749 2750 2751 2752 2753 2754 2755 2756 2757 2758 2759 2760 2761 2762 2763 2764 2765 2766 2767 2768 2769 2770 2771 2772 2773 2774 2775 2776 2777 2778 2779 2780 2781 2782 2783 2784 2785 2786 2787 2788 2789 2790 2791 2792 2793 2794 2795 2796 2797 2798 2799 2800 2801 2802 2803 2804 2805 2806 2807 2808 2809 2810 2811 2812 2813 2814 2815 2816 2817 2818 2819 2820 2821 2822 2823 2824 2825 2826 2827 2828 2829 2830 2831 2832 2833 2834 2835 2836 2837 2838 2839 2840 2841 2842 2843 2844 2845 2846 2847 2848 2849 2850 2851 2852 2853 2854 2855 2856 2857 2858 2859 2860 2861 2862 2863 2864 2865 2866 2867 2868 2869 2870 2871 2872 2873 2874 2875 2876 2877 2878 2879 2880 2881 2882 2883 2884 2885 2886 2887 2888 2889 2890 2891 2892 2893 2894 2895 2896 2897 2898 2899 2900 2901 2902 2903 2904 2905 2906 2907 2908 2909 2910 2911 2912 2913 2914 2915 2916 2917 2918 2919 2920 2921 2922 2923 2924 2925 2926 2927 2928 2929 2930 2931 2932 2933 2934 2935 2936 2937 2938 2939 2940 2941 2942 2943 2944 2945 2946 2947 2948 2949 2950 2951 2952 2953 2954 2955 2956 2957 2958 2959 2960 2961 2962 2963 2964 2965 2966 2967 2968 2969 2970 2971 2972 2973 2974 2975 2976 2977 2978 2979 2980 2981 2982 2983 2984 2985 2986 2987 2988 2989 2990 2991 2992 2993 2994 2995 2996 2997 2998 2999 3000 3001 3002 3003 3004 3005 3006 3007 3008 3009 3010 3011 3012 3013 3014 3015 3016 3017 3018 3019 3020 3021 3022 3023 3024 3025 3026 3027 3028 3029 3030 3031 3032 3033 3034 3035 3036 3037 3038 3039 3040 3041 3042 3043 3044 3045 3046 3047 3048 3049 3050 3051 3052 3053 3054 3055 3056 3057 3058 3059 3060 3061 3062 3063 3064 3065 3066 3067 3068 3069 3070 3071 3072 3073 3074 3075 3076 3077 3078 3079 3080 3081 3082 3083 3084 3085 3086 3087 3088 3089 3090 3091 3092 3093 3094 3095 3096 3097 3098 3099 3100 3101 3102 3103 3104 3105 3106 3107 3108 3109 3110 3111 3112 3113 3114 3115 3116 3117 3118 3119 3120 3121 3122 3123 3124 3125 3126 3127 3128 3129 3130 3131 3132 3133 3134 3135 3136 3137 3138 3139 3140 3141 3142 3143 3144 3145 3146 3147 3148 3149 3150 3151 3152 3153 3154 3155 3156 3157 3158 3159 3160 3161 3162 3163 3164 3165 3166 3167 3168 3169 3170 3171 3172 3173 3174 3175 3176 3177 3178 3179 3180 3181 3182 3183 3184 3185 3186 3187 3188 3189 3190 3191 3192 3193 3194 3195 3196 3197 3198 3199 3200 3201 3202 3203 3204 3205 3206 3207 3208 3209 3210 3211 3212 3213 3214 3215 3216 3217 3218 3219 3220 3221 3222 3223 3224 3225 3226 3227 3228 3229 3230 3231 3232 3233 3234 3235 3236 3237 3238 3239 3240 3241 3242 3243 3244 3245 3246 3247 3248 3249 3250 3251 3252 3253 3254 3255 3256 3257 3258 3259 3260 3261 3262 3263 3264 3265 3266 3267 3268 3269 3270 3271 3272 3273 3274 3275 3276 3277 3278 3279 3280 3281 3282 3283 3284 3285 3286 3287 3288 3289 3290 3291 3292 3293 3294 3295 3296 3297 3298 3299 3300 3301 3302 3303 3304 3305 3306 3307 3308 3309 3310 3311 3312 3313 3314 3315 3316 3317 3318 3319 3320 3321 3322 3323 3324 3325 3326 3327 3328 3329 3330 3331 3332 3333 3334 3335 3336 3337 3338 3339 3340 3341 3342 3343 3344 3345 3346 3347 3348 3349 3350 3351 3352 3353 3354 3355 3356 3357 3358 3359 3360 3361 3362 3363 3364 3365 3366 3367 3368 3369 3370 3371 3372 3373 3374 3375 3376 3377 3378 3379 3380 3381 3382 3383 3384 3385 3386 3387 3388 3389 3390 3391 3392 3393 3394 3395 3396 3397 3398 3399 3400 3401 3402 3403 3404 3405 3406 3407 3408 3409 3410 3411 3412 3413 3414 3415 3416 3417 3418 3419 3420 3421 3422 3423 3424 3425 3426 3427 3428 3429 3430 3431 3432 3433 3434 3435 3436 3437 3438 3439 3440 3441 3442 3443 3444 3445 3446 3447 3448 3449 3450 3451 3452 3453 3454 3455 3456 3457 3458 3459 3460 3461 3462 3463 3464 3465 3466 3467 3468 3469 3470 3471 3472 3473 3474 3475 3476 3477 3478 3479 3480 3481 3482 3483 3484 3485 3486 3487 3488 3489 3490 3491 3492 3493 3494 3495 3496 3497 3498 3499 3500 3501 3502 3503 3504 3505 3506 3507 3508 3509 3510 3511 3512 3513 3514 3515 3516 3517 3518 3519 3520 3521 3522 3523 3524 3525 3526 3527 3528 3529 3530 3531 3532 3533 3534 3535 3536 3537 3538 3539 3540 3541 3542 3543 3544 3545 3546 3547 3548 3549 3550 3551 3552 3553 3554 3555 3556 3557 3558 3559 3560 3561 3562 3563 3564 3565 3566 3567 3568 3569 3570 3571 3572 3573 3574 3575 3576 3577 3578 3579 3580 3581 3582 3583 3584 3585 3586 3587 3588 3589 3590 3591 3592 3593 3594 3595 3596 3597 3598 3599 3600 3601 3602 3603 3604 3605 3606 3607 3608 3609 3610 3611 3612 3613 3614 3615 3616 3617 3618 3619 3620 3621 3622 3623 3624 3625 3626 3627 3628 3629 3630 3631 3632 3633 3634 3635 3636 3637 3638 3639 3640 3641 3642 3643 3644 3645 3646 3647 3648 3649 3650 3651 3652 3653 3654 3655 3656 3657 3658 3659 3660 3661 3662 3663 3664 3665 3666 3667 3668 3669 3670 3671 3672 3673 3674 3675 3676 3677 3678 3679 3680 3681 3682 3683 3684 3685 3686 3687 3688 3689 3690 3691 3692 3693 3694 3695 3696 3697 3698 3699 3700 3701 3702 3703 3704 3705 3706 3707 3708 3709 3710 3711 3712 3713 3714 3715 3716 3717 3718 3719 3720 3721 3722 3723 3724 3725 3726 3727 3728 3729 3730 3731 3732 3733 3734 3735 3736 3737 3738 3739 3740 3741 3742 3743 3744 3745 3746 3747 3748 3749 3750 3751 3752 3753 3754 3755 3756 3757 3758 3759 3760 3761 3762 3763 3764 3765 3766 3767 3768 3769 3770 3771 3772 3773 3774 3775 3776 3777 3778 3779 3780 3781 3782 3783 3784 3785 3786 3787 3788 3789 3790 3791 3792 3793 3794 3795 3796 3797 3798 3799 3800 3801 3802 3803 3804 3805 3806 3807 3808 3809 3810 3811 3812 3813 3814 3815 3816 3817 3818 3819 3820 3821 3822 3823 3824 3825 3826 3827 3828 3829 3830 3831 3832 3833 3834 3835 3836 3837 3838 3839 3840 3841 3842 3843 3844 3845 3846 3847 3848 3849 3850 3851 3852 3853 3854 3855 3856 3857 3858 3859 3860 3861 3862 3863 3864 3865 3866 3867 3868 3869 3870 3871 3872 3873 3874 3875 3876 3877 3878 3879 3880 3881 3882 3883 3884 3885 3886 3887 3888 3889 3890 3891 3892 3893 3894 3895 3896 3897 3898 3899 3900 3901 3902 3903 3904 3905 3906 3907 3908 3909 3910 3911 3912 3913 3914 3915 3916 3917 3918 3919 3920 3921 3922 3923 3924 3925 3926 3927 3928 3929 3930 3931 3932 3933 3934 3935 3936 3937 3938 3939 3940 3941 3942 3943 3944 3945 3946 3947 3948 3949 3950 3951 3952 3953 3954 3955 3956 3957 3958 3959 3960 3961 3962 3963 3964 3965 3966 3967 3968 3969 3970 3971 3972 3973 3974 3975 3976 3977 3978 3979 3980 3981 3982 3983 3984 3985 3986 3987 3988 3989 3990 3991 3992 3993 3994 3995 3996 3997 3998 3999 4000 4001 4002 4003 4004 4005 4006 4007 4008 4009 4010 4011 4012 4013 4014 4015 4016 4017 4018 4019 4020 4021 4022 4023 4024 4025 4026 4027 4028 4029 4030 4031 4032 4033 4034 4035 4036 4037 4038 4039 4040 4041 4042 4043 4044 4045 4046 4047 4048 4049 4050 4051 4052 4053 4054 4055 4056 4057 4058 4059 4060 4061 4062 4063 4064 4065 4066 4067 4068 4069 4070 4071 4072 4073 4074 4075 4076 4077 4078 4079 4080 4081 4082 4083 4084 4085 4086 4087 4088 4089 4090 4091 4092 4093 4094 4095 4096 4097 4098 4099 4100 4101 4102 4103 4104 4105 4106 4107 4108 4109 4110 4111 4112 4113 4114 4115 4116 4117 4118 4119 4120 4121 4122 4123 4124 4125 4126 4127 4128 4129 4130 4131 4132 4133 4134 4135 4136 4137 4138 4139 4140 4141 4142 4143 4144 4145 4146 4147 4148 4149 4150 4151 4152 4153 4154 4155 4156 4157 4158 4159 4160 4161 4162 4163 4164 4165 4166 4167 4168 4169 4170 4171 4172 4173 4174 4175 4176 4177 4178 4179 4180 4181 4182 4183 4184 4185 4186 4187 4188 4189 4190 4191 4192 4193 4194 4195 4196 4197 4198 4199 4200 4201 4202 4203 4204 4205 4206 4207 4208 4209 4210 4211 4212 4213 4214 4215 4216 4217 4218 4219 4220 4221 4222 4223 4224 4225 4226 4227 4228 4229 4230 4231 4232 4233 4234 4235 4236 4237 4238 4239 4240 4241 4242 4243 4244 4245 4246 4247 4248 4249 4250 4251 4252 4253 4254 4255 4256 4257 4258 4259 4260 4261 4262 4263 4264 4265 4266 4267 4268 4269 4270 4271 4272 4273 4274 4275 4276 4277 4278 4279 4280 4281 4282 4283 4284 4285 4286 4287 4288 4289 4290 4291 4292 4293 4294 4295 4296 4297 4298 4299 4300 4301 4302 4303 4304 4305 4306 4307 4308 4309 4310 4311 4312 4313 4314 4315 4316 4317 4318 4319 4320 4321 4322 4323 4324 4325 4326 4327 4328 4329 4330 4331 4332 4333 4334 4335 4336 4337 4338 4339 4340 4341 4342 4343 4344 4345 4346 4347 4348 4349 4350 4351 4352 4353 4354 4355 4356 4357 4358 4359 4360 4361 4362 4363 4364 4365 4366 4367 4368 4369 4370 4371 4372 4373 4374 4375 4376 4377 4378 4379 4380 4381 4382 4383 4384 4385 4386 4387 4388 4389 4390 4391 4392 4393 4394 4395 4396 4397 4398 4399 4400 4401 4402 4403 4404 4405 4406 4407 4408 4409 4410 4411 4412 4413 4414 4415 4416 4417 4418 4419 4420 4421 4422 4423 4424 4425 4426 4427 4428 4429 4430 4431 4432 4433 4434 4435 4436 4437 4438 4439 4440 4441 4442 4443 4444 4445 4446 4447 4448 4449 4450 4451 4452 4453 4454 4455 4456 4457 4458 4459 4460 4461 4462 4463 4464 4465 4466 4467 4468 4469 4470 4471 4472 4473 4474 4475 4476 4477 4478 4479 4480 4481 4482 4483 4484 4485 4486 4487 4488 4489 4490 4491 4492 4493 4494 4495 4496 4497 4498 4499 4500 4501 4502 4503 4504 4505 4506 4507 4508 4509 4510 4511 4512 4513 4514 4515 4516 4517 4518 4519 4520 4521 4522 4523 4524 4525 4526 4527 4528 4529 4530 4531 4532 4533 4534 4535 4536 4537 4538 4539 4540 4541 4542 4543 4544 4545 4546 4547 4548 4549 4550 4551 4552 4553 4554 4555 4556 4557 4558 4559 4560 4561 4562 4563 4564 4565 4566 4567 4568 4569 4570 4571 4572 4573 4574 4575 4576 4577 4578 4579 4580 4581 4582 4583 4584 4585 4586 4587 4588 4589 4590 4591 4592 4593 4594 4595 4596 4597 4598 4599 4600 4601 4602 4603 4604 4605 4606 4607 4608 4609 4610 4611 4612 4613 4614 4615 4616 4617 4618 4619 4620 4621 4622 4623 4624 4625 4626 4627 4628 4629 4630 4631 4632 4633 4634 4635 4636 4637 4638 4639 4640 4641 4642 4643 4644 4645 4646 4647 4648 4649 4650 4651 4652 4653 4654 4655 4656 4657 4658 4659 4660 4661 4662 4663 4664 4665 4666 4667 4668 4669 4670 4671 4672 4673 4674 4675 4676 4677 4678 4679 4680 4681 4682 4683 4684 4685 4686 4687 4688 4689 4690 4691 4692 4693 4694 4695 4696 4697 4698 4699 4700 4701 4702 4703 4704 4705 4706 4707 4708 4709 4710 4711 4712 4713 4714 4715 4716 4717 4718 4719 4720 4721 4722 4723 4724 4725 4726 4727 4728 4729 4730 4731 4732 4733 4734 4735 4736 4737 4738 4739 4740 4741 4742 4743 4744 4745 4746 4747 4748 4749 4750 4751 4752 4753 4754 4755 4756 4757 4758 4759 4760 4761 4762 4763 4764 4765 4766 4767 4768 4769 4770 4771 4772 4773 4774 4775 4776 4777 4778 4779 4780 4781 4782 4783 4784 4785 4786 4787 4788 4789 4790 4791 4792 4793 4794 4795 4796 4797 4798 4799 4800 4801 4802 4803 4804 4805 4806 4807 4808 4809 4810 4811 4812 4813 4814 4815 4816 4817 4818 4819 4820 4821 4822 4823 4824 4825 4826 4827 4828 4829 4830 4831 4832 4833 4834 4835 4836 4837 4838 4839 4840 4841 4842 4843 4844 4845 4846 4847 4848 4849 4850 4851 4852 4853 4854 4855 4856 4857 4858 4859 4860 4861 4862 4863 4864 4865 4866 4867 4868 4869 4870 4871 4872 4873 4874 4875 4876 4877 4878 4879 4880 4881 4882 4883 4884 4885 4886 4887 4888 4889 4890 4891 4892 4893 4894 4895 4896 4897 4898 4899 4900 4901 4902 4903 4904 4905 4906 4907 4908 4909 4910 4911 4912 4913 4914 4915 4916 4917 4918 4919 4920 4921 4922 4923 4924 4925 4926 4927 4928 4929 4930 4931 4932 4933 4934 4935 4936 4937 4938 4939 4940 4941 4942 4943 4944 4945 4946 4947 4948 4949 4950 4951 4952 4953 4954 4955 4956 4957 4958 4959 4960 4961 4962 4963 4964 4965 4966 4967 4968 4969 4970 4971 4972 4973 4974 4975 4976 4977 4978 4979 4980 4981 4982 4983 4984 4985 4986 4987 4988 4989 4990 4991 4992 4993 4994 4995 4996 4997 4998 4999 5000 5001 5002 5003 5004 5005 5006 5007 5008 5009 5010 5011 5012 5013 5014 5015 5016 5017 5018 5019 5020 5021 5022 5023 5024 5025 5026 5027 5028 5029 5030 5031 5032 5033 5034 5035 5036 5037 5038 5039 5040 5041 5042 5043 5044 5045 5046 5047 5048 5049 5050 5051 5052 5053 5054 5055 5056 5057 5058 5059 5060 5061 5062 5063 5064 5065 5066 5067 5068 5069 5070 5071 5072 5073 5074 5075 5076 5077 5078 5079 5080 5081 5082 5083 5084 5085 5086 5087 5088 5089 5090 5091 5092 5093 5094 5095 5096 5097 5098 5099 5100 5101 5102 5103 5104 5105 5106 5107 5108 5109 5110 5111 5112 5113 5114 5115 5116 5117 5118 5119 5120 5121 5122 5123 5124 5125 5126 5127 5128 5129 5130 5131 5132 5133 5134 5135 5136 5137 5138 5139 5140 5141 5142 5143 5144 5145 5146 5147 5148 5149 5150 5151 5152 5153 5154 5155 5156 5157 5158 5159 5160 5161 5162 5163 5164 5165 5166 5167 5168 5169 5170 5171 5172 5173 5174 5175 5176 5177 5178 5179 5180 5181 5182 5183 5184 5185 5186 5187 5188 5189 5190 5191 5192 5193 5194 5195 5196 5197 5198 5199 5200 5201 5202 5203 5204 5205 5206 5207 5208 5209 5210 5211 5212 5213 5214 5215 5216 5217 5218 5219 5220 5221 5222 5223 5224 5225 5226 5227 5228 5229 5230 5231 5232 5233 5234 5235 5236 5237 5238 5239 5240 5241 5242 5243 5244 5245 5246 5247 5248 5249 5250 5251 5252 5253 5254 5255 5256 5257 5258 5259 5260 5261 5262 5263 5264 5265 5266 5267 5268 5269 5270 5271 5272 5273 5274 5275 5276 5277 5278 5279 5280 5281 5282 5283 5284 5285 5286 5287 5288 5289 5290 5291 5292 5293 5294 5295 5296 5297 5298 5299 5300 5301 5302 5303 5304 5305 5306 5307 5308 5309 5310 5311 5312 5313 5314 5315 5316 5317 5318 5319 5320 5321 5322 5323 5324 5325 5326 5327 5328 5329 5330 5331 5332 5333 5334 5335 5336 5337 5338 5339 5340 5341 5342 5343 5344 5345 5346 5347 5348 5349 5350 5351 5352 5353 5354 5355 5356 5357 5358 5359 5360 5361 5362 5363 5364 5365 5366 5367 5368 5369 5370 5371 5372 5373 5374 5375 5376 5377 5378 5379 5380 5381 5382 5383 5384 5385 5386 5387 5388 5389 5390 5391 5392 5393 5394 5395 5396 5397 5398 5399 5400 5401 5402 5403 5404 5405 5406 5407 5408 5409 5410 5411 5412 5413 5414 5415 5416 5417 5418 5419 5420 5421 5422 5423 5424 5425 5426 5427 5428 5429 5430 5431 5432 5433 5434 5435 5436 5437 5438 5439 5440 5441 5442 5443 5444 5445 5446 5447 5448 5449 5450 5451 5452 5453 5454 5455 5456 5457 5458 5459 5460 5461 5462 5463 5464 5465 5466 5467 5468 5469 5470 5471 5472 5473 5474 5475 5476 5477 5478 5479 5480 5481 5482 5483 5484 5485 5486 5487 5488 5489 5490 5491 5492 5493 5494 5495 5496 5497 5498 5499 5500 5501 5502 5503 5504 5505 5506 5507 5508 5509 5510 5511 5512 5513 5514 5515 5516 5517 5518 5519 5520 5521 5522 5523 5524 5525 5526 5527 5528 5529 5530 5531 5532 5533 5534 5535 5536 5537 5538 5539 5540 5541 5542 5543 5544 5545 5546 5547 5548 5549 5550 5551 5552 5553 5554 5555 5556 5557 5558 5559 5560 5561 5562 5563 5564 5565 5566 5567 5568 5569 5570 5571 5572 5573 5574 5575 5576 5577 5578 5579 5580 5581 5582 5583 5584 5585 5586 5587 5588 5589 5590 5591 5592 5593 5594 5595 5596 5597 5598 5599 5600 5601 5602 5603 5604 5605 5606 5607 5608 5609 5610 5611 5612 5613 5614 5615 5616 5617 5618 5619 5620 5621 5622 5623 5624 5625 5626 5627 5628 5629 5630 5631 5632 5633 5634 5635 5636 5637 5638 5639 5640 5641 5642 5643 5644 5645 5646 5647 5648 5649 5650 5651 5652 5653 5654 5655 5656 5657 5658 5659 5660 5661 5662 5663 5664 5665 5666 5667 5668 5669 5670 5671 5672 5673 5674 5675 5676 5677 5678 5679 5680 5681 5682 5683 5684 5685 5686 5687 5688 5689 5690 5691 5692 5693 5694 5695 5696 5697 5698 5699 5700 5701 5702 5703 5704 5705 5706 5707 5708 5709 5710 5711 5712 5713 5714 5715 5716 5717 5718 5719 5720 5721 5722 5723 5724 5725 5726 5727 5728 5729 5730 5731 5732 5733 5734 5735 5736 5737 5738 5739 5740 5741 5742 5743 5744 5745 5746 5747 5748 5749 5750 5751 5752 5753 5754 5755 5756 5757 5758 5759 5760 5761 5762 5763 5764 5765 5766 5767 5768 5769 5770 5771 5772 5773 5774 5775 5776 5777 5778 5779 5780 5781 5782 5783 5784 5785 5786 5787 5788 5789 5790 5791 5792 5793 5794 5795 5796 5797 5798 5799 5800 5801 5802 5803 5804 5805 5806 5807 5808 5809 5810 5811 5812 5813 5814 5815 5816 5817 5818 5819 5820 5821 5822 5823 5824 5825 5826 5827 5828 5829 5830 5831 5832 5833 5834 5835 5836 5837 5838 5839 5840 5841 5842 5843 5844 5845 5846 5847 5848 5849 5850 5851 5852 5853 5854 5855 5856 5857 5858 5859 5860 5861 5862 5863 5864 5865 5866 5867 5868 5869 5870 5871 5872 5873 5874 5875 5876 5877 5878 5879 5880 5881 5882 5883 5884 5885 5886 5887 5888 5889 5890 5891 5892 5893 5894 5895 5896 5897 5898 5899 5900 5901 5902 5903 5904 5905 5906 5907 5908 5909 5910 5911 5912 5913 5914 5915 5916 5917 5918 5919 5920 5921 5922 5923 5924 5925 5926 5927 5928 5929 5930 5931 5932 5933 5934 5935 5936 5937 5938 5939 5940 5941 5942 5943 5944 5945 5946 5947 5948 5949 5950 5951 5952 5953 5954 5955 5956 5957 5958 5959 5960 5961 5962 5963 5964 5965 5966 5967 5968 5969 5970 5971 5972 5973 5974 5975 5976 5977 5978 5979 5980 5981 5982 5983 5984 5985 5986 5987 5988 5989 5990 5991 5992 5993 5994 5995 5996 5997 5998 5999 6000 6001 6002 6003 6004 6005 6006 6007 6008 6009 6010 6011 6012 6013 6014 6015 6016 6017 6018 6019 6020 6021 6022 6023 6024 6025 6026 6027 6028 6029 6030 6031 6032 6033 6034 6035 6036 6037 6038 6039 6040 6041 6042 6043 6044 6045 6046 6047 6048 6049 6050 6051 6052 6053 6054 6055 6056 6057 6058 6059 6060 6061 6062 6063 6064 6065 6066 6067 6068 6069 6070 6071 6072 6073 6074 6075 6076 6077 6078 6079 6080 6081 6082 6083 6084 6085 6086 6087 6088 6089 6090 6091 6092 6093 6094 6095 6096 6097 6098 6099 6100 6101 6102 6103 6104 6105 6106 6107 6108 6109 6110 6111 6112 6113 6114 6115 6116 6117 6118 6119 6120 6121 6122 6123 6124 6125 6126 6127 6128 6129 6130 6131 6132 6133 6134 6135 6136 6137 6138 6139 6140 6141 6142 6143 6144 6145 6146 6147 6148 6149 6150 6151 6152 6153 6154 6155 6156 6157 6158 6159 6160 6161 6162 6163 6164 6165 6166 6167 6168 6169 6170 6171 6172 6173 6174 6175 6176 6177 6178 6179 6180 6181 6182 6183 6184 6185 6186 6187 6188 6189 6190 6191 6192 6193 6194 6195 6196 6197 6198 6199 6200 6201 6202 6203 6204 6205 6206 6207 6208 6209 6210 6211 6212 6213 6214 6215 6216 6217 6218 6219 6220 6221 6222 6223 6224 6225 6226 6227 6228 6229 6230 6231 6232 6233 6234 6235 6236 6237 6238 6239 6240 6241 6242 6243 6244 6245 6246 6247 6248 6249 6250 6251 6252 6253 6254 6255 6256 6257 6258 6259 6260 6261 6262 6263 6264 6265 6266 6267 6268 6269 6270 6271 6272 6273 6274 6275 6276 6277 6278 6279 6280 6281 6282 6283 6284 6285 6286 6287 6288 6289 6290 6291 6292 6293 6294 6295 6296 6297 6298 6299 6300 6301 6302 6303 6304 6305 6306 6307 6308 6309 6310 6311 6312 6313 6314 6315 6316 6317 6318 6319 6320 6321 6322 6323 6324 6325 6326 6327 6328 6329 6330 6331 6332 6333 6334 6335 6336 6337 6338 6339 6340 6341 6342 6343 6344 6345 6346 6347 6348 6349 6350 6351 6352 6353 6354 6355 6356 6357 6358 6359 6360 6361 6362 6363 6364 6365 6366 6367 6368 6369 6370 6371 6372 6373 6374 6375 6376 6377 6378 6379 6380 6381 6382 6383 6384 6385 6386 6387 6388 6389 6390 6391 6392 6393 6394 6395 6396 6397 6398 6399 6400 6401 6402 6403 6404 6405 6406 6407 6408 6409 6410 6411 6412 6413 6414 6415 6416 6417 6418 6419 6420 6421 6422 6423 6424 6425 6426 6427 6428 6429 6430 6431 6432 6433 6434 6435 6436 6437 6438 6439 6440 6441 6442 6443 6444 6445 6446 6447 6448 6449 6450 6451 6452 6453 6454 6455 6456 6457 6458 6459 6460 6461 6462 6463 6464 6465 6466 6467 6468 6469 6470 6471 6472 6473 6474 6475 6476 6477 6478 6479 6480 6481 6482 6483 6484 6485 6486 6487 6488 6489 6490 6491 6492 6493 6494 6495 6496 6497 6498 6499 6500 6501 6502 6503 6504 6505 6506 6507 6508 6509 6510 6511 6512 6513 6514 6515 6516 6517 6518 6519 6520 6521 6522 6523 6524 6525 6526 6527 6528 6529 6530 6531 6532 6533 6534 6535 6536 6537 6538 6539 6540 6541 6542 6543 6544 6545 6546 6547 6548 6549 6550 6551 6552 6553 6554 6555 6556 6557 6558 6559 6560 6561 6562 6563 6564 6565 6566 6567 6568 6569 6570 6571 6572 6573 6574 6575 6576 6577 6578 6579 6580 6581 6582 6583 6584 6585 6586 6587 6588 6589 6590 6591 6592 6593 6594 6595 6596 6597 6598 6599 6600 6601 6602 6603 6604 6605 6606 6607 6608 6609 6610 6611 6612 6613 6614 6615 6616 6617 6618 6619 6620 6621 6622 6623 6624 6625 6626 6627 6628 6629 6630 6631 6632 6633 6634 6635 6636 6637 6638 6639 6640 6641 6642 6643 6644 6645 6646 6647 6648 6649 6650 6651 6652 6653 6654 6655 6656 6657 6658 6659 6660 6661 6662 6663 6664 6665 6666 6667 6668 6669 6670 6671 6672 6673 6674 6675 6676 6677 6678 6679 6680 6681 6682 6683 6684 6685 6686 6687 6688 6689 6690 6691 6692 6693 6694 6695 6696 6697 6698 6699 6700 6701 6702 6703 6704 6705 6706 6707 6708 6709 6710 6711 6712 6713 6714 6715 6716 6717 6718 6719 6720 6721 6722 6723 6724 6725 6726 6727 6728 6729 6730 6731 6732 6733 6734 6735 6736 6737 6738 6739 6740 6741 6742 6743 6744 6745 6746 6747 6748 6749 6750 6751 6752 6753 6754 6755 6756 6757 6758 6759 6760 6761 6762 6763 6764 6765 6766 6767 6768 6769 6770 6771 6772 6773 6774 6775 6776 6777 6778 6779 6780 6781 6782 6783 6784 6785 6786 6787 6788 6789 6790 6791 6792 6793 6794 6795 6796 6797 6798 6799 6800 6801 6802 6803 6804 6805 6806 6807 6808 6809 6810 6811 6812 6813 6814 6815 6816 6817 6818 6819 6820 6821 6822 6823 6824 6825 6826 6827 6828 6829 6830 6831 6832 6833 6834 6835 6836 6837 6838 6839 6840 6841 6842 6843 6844 6845 6846 6847 6848 6849 6850 6851 6852 6853 6854 6855 6856 6857 6858 6859 6860 6861 6862 6863 6864 6865 6866 6867 6868 6869 6870 6871 6872 6873 6874 6875 6876 6877 6878 6879 6880 6881 6882 6883 6884 6885 6886 6887 6888 6889 6890 6891 6892 6893 6894 6895 6896 6897 6898 6899 6900 6901 6902 6903 6904 6905 6906 6907 6908 6909 6910 6911 6912 6913 6914 6915 6916 6917 6918 6919 6920 6921 6922 6923 6924 6925 6926 6927 6928 6929 6930 6931 6932 6933 6934 6935 6936 6937 6938 6939 6940 6941 6942 6943 6944 6945 6946 6947 6948 6949 6950 6951 6952 6953 6954 6955 6956 6957 6958 6959 6960 6961 6962 6963 6964 6965 6966 6967 6968 6969 6970 6971 6972 6973 6974 6975 6976 6977 6978 6979 6980 6981 6982 6983 6984 6985 6986 6987 6988 6989 6990 6991 6992 6993 6994 6995 6996 6997 6998 6999 7000 7001 7002 7003 7004 7005 7006 7007 7008 7009 7010 7011 7012 7013 7014 7015 7016 7017 7018 7019 7020 7021 7022 7023 7024 7025 7026 7027 7028 7029 7030 7031 7032 7033 7034 7035 7036 7037 7038 7039 7040 7041 7042 7043 7044 7045 7046 7047 7048 7049 7050 7051 7052 7053 7054 7055 7056 7057 7058 7059 7060 7061 7062 7063 7064 7065 7066 7067 7068 7069 7070 7071 7072 7073 7074 7075 7076 7077 7078 7079 7080 7081 7082 7083 7084 7085 7086 7087 7088 7089 7090 7091 7092 7093 7094 7095 7096 7097 7098 7099 7100 7101 7102 7103 7104 7105 7106 7107 7108 7109 7110 7111 7112 7113 7114 7115 7116 7117 7118 7119 7120 7121 7122 7123 7124 7125 7126 7127 7128 7129 7130 7131 7132 7133 7134 7135 7136 7137 7138 7139 7140 7141 7142 7143 7144 7145 7146 7147 7148 7149 7150 7151 7152 7153 7154 7155 7156 7157 7158 7159 7160 7161 7162 7163 7164 7165 7166 7167 7168 7169 7170 7171 7172 7173 7174 7175 7176 7177 7178 7179 7180 7181 7182 7183 7184 7185 7186 7187 7188 7189 7190 7191 7192 7193 7194 7195 7196 7197 7198 7199 7200 7201 7202 7203 7204 7205 7206 7207 7208 7209 7210 7211 7212 7213 7214 7215 7216 7217 7218 7219 7220 7221 7222 7223 7224 7225 7226 7227 7228 7229 7230 7231 7232 7233 7234 7235 7236 7237 7238 7239 7240 7241 7242 7243 7244 7245 7246 7247 7248 7249 7250 7251 7252 7253 7254 7255 7256 7257 7258 7259 7260 7261 7262 7263 7264 7265 7266 7267 7268 7269 7270 7271 7272 7273 7274 7275 7276 7277 7278 7279 7280 7281 7282 7283 7284 7285 7286 7287 7288 7289 7290 7291 7292 7293 7294 7295 7296 7297 7298 7299 7300 7301 7302 7303 7304 7305 7306 7307 7308 7309 7310 7311 7312 7313 7314 7315 7316 7317 7318 7319 7320 7321 7322 7323 7324 7325 7326 7327 7328 7329 7330 7331 7332 7333 7334 7335 7336 7337 7338 7339 7340 7341 7342 7343 7344 7345 7346 7347 7348 7349 7350 7351 7352 7353 7354 7355 7356 7357 7358 7359 7360 7361 7362 7363 7364 7365 7366 7367 7368 7369 7370 7371 7372 7373 7374 7375 7376 7377 7378 7379 7380 7381 7382 7383 7384 7385 7386 7387 7388 7389 7390 7391 7392 7393 7394 7395 7396 7397 7398 7399 7400 7401 7402 7403 7404 7405 7406 7407 7408 7409 7410 7411 7412 7413 7414 7415 7416 7417 7418 7419 7420 7421 7422 7423 7424 7425 7426 7427 7428 7429 7430 7431 7432 7433 7434 7435 7436 7437 7438 7439 7440 7441 7442 7443 7444 7445 7446 7447 7448 7449 7450 7451 7452 7453 7454 7455 7456 7457 7458 7459 7460 7461 7462 7463 7464 7465 7466 7467 7468 7469 7470 7471 7472 7473 7474 7475 7476 7477 7478 7479 7480 7481 7482 7483 7484 7485 7486 7487 7488 7489 7490 7491 7492 7493 7494 7495 7496 7497 7498 7499 7500 7501 7502 7503 7504 7505 7506 7507 7508 7509 7510 7511 7512 7513 7514 7515 7516 7517 7518 7519 7520 7521 7522 7523 7524 7525 7526 7527 7528 7529 7530 7531 7532 7533 7534 7535 7536 7537 7538 7539 7540 7541 7542 7543 7544 7545 7546 7547 7548 7549 7550 7551 7552 7553 7554 7555 7556 7557 7558 7559 7560 7561 7562 7563 7564 7565 7566 7567 7568 7569 7570 7571 7572 7573 7574 7575 7576 7577 7578 7579 7580 7581 7582 7583 7584 7585 7586 7587 7588 7589 7590 7591 7592 7593 7594 7595 7596 7597 7598 7599 7600 7601 7602 7603 7604 7605 7606 7607 7608 7609 7610 7611 7612 7613 7614 7615 7616 7617 7618 7619 7620 7621 7622 7623 7624 7625 7626 7627 7628 7629 7630 7631 7632 7633 7634 7635 7636 7637 7638 7639 7640 7641 7642 7643 7644 7645 7646 7647 7648 7649 7650 7651 7652 7653 7654 7655 7656 7657 7658 7659 7660 7661 7662 7663 7664 7665 7666 7667 7668 7669 7670 7671 7672 7673 7674 7675 7676 7677 7678 7679 7680 7681 7682 7683 7684 7685 7686 7687 7688 7689 7690 7691 7692 7693 7694 7695 7696 7697 7698 7699 7700 7701 7702 7703 7704 7705 7706 7707 7708 7709 7710 7711 7712 7713 7714 7715 7716 7717 7718 7719 7720 7721 7722 7723 7724 7725 7726 7727 7728 7729 7730 7731 7732 7733 7734 7735 7736 7737 7738 7739 7740 7741 7742 7743 7744 7745 7746 7747 7748 7749 7750 7751 7752 7753 7754 7755 7756 7757 7758 7759 7760 7761 7762 7763 7764 7765 7766 7767 7768 7769 7770 7771 7772 7773 7774 7775 7776 7777 7778 7779 7780 7781 7782 7783 7784 7785 7786 7787 7788 7789 7790 7791 7792 7793 7794 7795 7796 7797 7798 7799 7800 7801 7802 7803 7804 7805 7806 7807 7808 7809 7810 7811 7812 7813 7814 7815 7816 7817 7818 7819 7820 7821 7822 7823 7824 7825 7826 7827 7828 7829 7830 7831 7832 7833 7834 7835 7836 7837 7838 7839 7840 7841 7842 7843 7844 7845 7846 7847 7848 7849 7850 7851 7852 7853 7854 7855 7856 7857 7858 7859 7860 7861 7862 7863 7864 7865 7866 7867 7868 7869 7870 7871 7872 7873 7874 7875 7876 7877 7878 7879 7880 7881 7882 7883 7884 7885 7886 7887 7888 7889 7890 7891 7892 7893 7894 7895 7896 7897 7898 7899 7900 7901 7902 7903 7904 7905 7906 7907 7908 7909 7910 7911 7912 7913 7914 7915 7916 7917 7918 7919 7920 7921 7922 7923 7924 7925 7926 7927 7928 7929 7930 7931 7932 7933 7934 7935 7936 7937 7938 7939 7940 7941 7942 7943 7944 7945 7946 7947 7948 7949 7950 7951 7952 7953 7954 7955 7956 7957 7958 7959 7960 7961 7962 7963 7964 7965 7966 7967 7968 7969 7970 7971 7972 7973 7974 7975 7976 7977 7978 7979 7980 7981 7982 7983 7984 7985 7986 7987 7988 7989 7990 7991 7992 7993 7994 7995 7996 7997 7998 7999 8000 8001 8002 8003 8004 8005 8006 8007 8008 8009 8010 8011 8012 8013 8014 8015 8016 8017 8018 8019 8020 8021 8022 8023 8024 8025 8026 8027 8028 8029 8030 8031 8032 8033 8034 8035 8036 8037 8038 8039 8040 8041 8042 8043 8044 8045 8046 8047 8048 8049 8050 8051 8052 8053 8054 8055 8056 8057 8058 8059 8060 8061 8062 8063 8064 8065 8066 8067 8068 8069 8070 8071 8072 8073 8074 8075 8076 8077 8078 8079 8080 8081 8082 8083 8084 8085 8086 8087 8088 8089 8090 8091 8092 8093 8094 8095 8096 8097 8098 8099 8100 8101 8102 8103 8104 8105 8106 8107 8108 8109 8110 8111 8112 8113 8114 8115 8116 8117 8118 8119 8120 8121 8122 8123 8124 8125 8126 8127 8128 8129 8130 8131 8132 8133 8134 8135 8136 8137 8138 8139 8140 8141 8142 8143 8144 8145 8146 8147 8148 8149 8150 8151 8152 8153 8154 8155 8156 8157 8158 8159 8160 8161 8162 8163 8164 8165 8166 8167 8168 8169 8170 8171 8172 8173 8174 8175 8176 8177 8178 8179 8180 8181 8182 8183 8184 8185 8186 8187 8188 8189 8190 8191 8192 8193 8194 8195 8196 8197 8198 8199 8200 8201 8202 8203 8204 8205 8206 8207 8208 8209 8210 8211 8212 8213 8214 8215 8216 8217 8218 8219 8220 8221 8222 8223 8224 8225 8226 8227 8228 8229 8230 8231 8232 8233 8234 8235 8236 8237 8238 8239 8240 8241 8242 8243 8244 8245 8246 8247 8248 8249 8250 8251 8252 8253 8254 8255 8256 8257 8258 8259 8260 8261 8262 8263 8264 8265 8266 8267 8268 8269 8270 8271 8272 8273 8274 8275 8276 8277 8278 8279 8280 8281 8282 8283 8284 8285 8286 8287 8288 8289 8290 8291 8292 8293 8294 8295 8296 8297 8298 8299 8300 8301 8302 8303 8304 8305 8306 8307 8308 8309 8310 8311 8312 8313 8314 8315 8316 8317 8318 8319 8320 8321 8322 8323 8324 8325 8326 8327 8328 8329 8330 8331 8332 8333 8334 8335 8336 8337 8338 8339 8340 8341 8342 8343 8344 8345 8346 8347 8348 8349 8350 8351 8352 8353 8354 8355 8356 8357 8358 8359 8360 8361 8362 8363 8364 8365 8366 8367 8368 8369 8370 8371 8372 8373 8374 8375 8376 8377 8378 8379 8380 8381 8382 8383 8384 8385 8386 8387 8388 8389 8390 8391 8392 8393 8394 8395 8396 8397 8398 8399 8400 8401 8402 8403 8404 8405 8406 8407 8408 8409 8410 8411 8412 8413 8414 8415 8416 8417 8418 8419 8420 8421 8422 8423 8424 8425 8426 8427 8428 8429 8430 8431 8432 8433 8434 8435 8436 8437 8438 8439 8440 8441 8442 8443 8444 8445 8446 8447 8448 8449 8450 8451 8452 8453 8454 8455 8456 8457 8458 8459 8460 8461 8462 8463 8464 8465 8466 8467 8468 8469 8470 8471 8472 8473 8474 8475 8476 8477 8478 8479 8480 8481 8482 8483 8484 8485 8486 8487 8488 8489 8490 8491 8492 8493 8494 8495 8496 8497 8498 8499 8500 8501 8502 8503 8504 8505 8506 8507 8508 8509 8510 8511 8512 8513 8514 8515 8516 8517 8518 8519 8520 8521 8522 8523 8524 8525 8526 8527 8528 8529 8530 8531 8532 8533 8534 8535 8536 8537 8538 8539 8540 8541 8542 8543 8544 8545 8546 8547 8548 8549 8550 8551 8552 8553 8554 8555 8556 8557 8558 8559 8560 8561 8562 8563 8564 8565 8566 8567 8568 8569 8570 8571 8572 8573 8574 8575 8576 8577 8578 8579 8580 8581 8582 8583 8584 8585 8586 8587 8588 8589 8590 8591 8592 8593 8594 8595 8596 8597 8598 8599 8600 8601 8602 8603 8604 8605 8606 8607 8608 8609 8610 8611 8612 8613 8614 8615 8616 8617 8618 8619 8620 8621 8622 8623 8624 8625 8626 8627 8628 8629 8630 8631 8632 8633 8634 8635 8636 8637 8638 8639 8640 8641 8642 8643 8644 8645 8646 8647 8648 8649 8650 8651 8652 8653 8654 8655 8656 8657 8658 8659 8660 8661 8662 8663 8664 8665 8666 8667 8668 8669 8670 8671 8672 8673 8674 8675 8676 8677 8678 8679 8680 8681 8682 8683 8684 8685 8686 8687 8688 8689 8690 8691 8692 8693 8694 8695 8696 8697 8698 8699 8700 8701 8702 8703 8704 8705 8706 8707 8708 8709 8710 8711 8712 8713 8714 8715 8716 8717 8718 8719 8720 8721 8722 8723 8724 8725 8726 8727 8728 8729 8730 8731 8732 8733 8734 8735 8736 8737 8738 8739 8740 8741 8742 8743 8744 8745 8746 8747 8748 8749 8750 8751 8752 8753 8754 8755 8756 8757 8758 8759 8760 8761 8762 8763 8764 8765 8766 8767 8768 8769 8770 8771 8772 8773 8774 8775 8776 8777 8778 8779 8780 8781 8782 8783 8784 8785 8786 8787 8788 8789 8790 8791 8792 8793 8794 8795 8796 8797 8798 8799 8800 8801 8802 8803 8804 8805 8806 8807 8808 8809 8810 8811 8812 8813 8814 8815 8816 8817 8818 8819 8820 8821 8822 8823 8824 8825 8826 8827 8828 8829 8830 8831 8832 8833 8834 8835 8836 8837 8838 8839 8840 8841 8842 8843 8844 8845 8846 8847 8848 8849 8850 8851 8852 8853 8854 8855 8856 8857 8858 8859 8860 8861 8862 8863 8864 8865 8866 8867 8868 8869 8870 8871 8872 8873 8874 8875 8876 8877 8878 8879 8880 8881 8882 8883 8884 8885 8886 8887 8888 8889 8890 8891 8892 8893 8894 8895 8896 8897 8898 8899 8900 8901 8902 8903 8904 8905 8906 8907 8908 8909 8910 8911 8912 8913 8914 8915 8916 8917 8918 8919 8920 8921 8922 8923 8924 8925 8926 8927 8928 8929 8930 8931 8932 8933 8934 8935 8936 8937 8938 8939 8940 8941 8942 8943 8944 8945 8946 8947 8948 8949 8950 8951 8952 8953 8954 8955 8956 8957 8958 8959 8960 8961 8962 8963 8964 8965 8966 8967 8968 8969 8970 8971 8972 8973 8974 8975 8976 8977 8978 8979 8980 8981 8982 8983 8984 8985 8986 8987 8988 8989 8990 8991 8992 8993 8994 8995 8996 8997 8998 8999 9000 9001 9002 9003 9004 9005 9006 9007 9008 9009 9010 9011 9012 9013 9014 9015 9016 9017 9018 9019 9020 9021 9022 9023 9024 9025 9026 9027 9028 9029 9030 9031 9032 9033 9034 9035 9036 9037 9038 9039 9040 9041 9042 9043 9044 9045 9046 9047 9048 9049 9050 9051 9052 9053 9054 9055 9056 9057 9058 9059 9060 9061 9062 9063 9064 9065 9066 9067 9068 9069 9070 9071 9072 9073 9074 9075 9076 9077 9078 9079 9080 9081 9082 9083 9084 9085 9086 9087 9088 9089 9090 9091 9092 9093 9094 9095 9096 9097 9098 9099 9100 9101 9102 9103 9104 9105 9106 9107 9108 9109 9110 9111 9112 9113 9114 9115 9116 9117 9118 9119 9120 9121 9122 9123 9124 9125 9126 9127 9128 9129 9130 9131 9132 9133 9134 9135 9136 9137 9138 9139 9140 9141 9142 9143 9144 9145 9146 9147 9148 9149 9150 9151 9152 9153 9154 9155 9156 9157 9158 9159 9160 9161 9162 9163 9164 9165 9166 9167 9168 9169 9170 9171 9172 9173 9174 9175 9176 9177 9178 9179 9180 9181 9182 9183 9184 9185 9186 9187 9188 9189 9190 9191 9192 9193 9194 9195 9196 9197 9198 9199 9200 9201 9202 9203 9204 9205 9206 9207 9208 9209 9210 9211 9212 9213 9214 9215 9216 9217 9218 9219 9220 9221 9222 9223 9224 9225 9226 9227 9228 9229 9230 9231 9232 9233 9234 9235 9236 9237 9238 9239 9240 9241 9242 9243 9244 9245 9246 9247 9248 9249 9250 9251 9252 9253 9254 9255 9256 9257 9258 9259 9260 9261 9262 9263 9264 9265 9266 9267 9268 9269 9270 9271 9272 9273 9274 9275 9276 9277 9278 9279 9280 9281 9282 9283 9284 9285 9286 9287 9288 9289 9290 9291 9292 9293 9294 9295 9296 9297 9298 9299 9300 9301 9302 9303 9304 9305 9306 9307 9308 9309 9310 9311 9312 9313 9314 9315 9316 9317 9318 9319 9320 9321 9322 9323 9324 9325 9326 9327 9328 9329 9330 9331 9332 9333 9334 9335 9336 9337 9338 9339 9340 9341 9342 9343 9344 9345 9346 9347 9348 9349 9350 9351 9352 9353 9354 9355 9356 9357 9358 9359 9360 9361 9362 9363 9364 9365 9366 9367 9368 9369 9370 9371 9372 9373 9374 9375 9376 9377 9378 9379 9380 9381 9382 9383 9384 9385 9386 9387 9388 9389 9390 9391 9392 9393 9394 9395 9396 9397 9398 9399 9400 9401 9402 9403 9404 9405 9406 9407 9408 9409 9410 9411 9412 9413 9414 9415 9416 9417 9418 9419 9420 9421 9422 9423 9424 9425 9426 9427 9428 9429 9430 9431 9432 9433 9434 9435 9436 9437 9438 9439 9440 9441 9442 9443 9444 9445 9446 9447 9448 9449 9450 9451 9452 9453 9454 9455 9456 9457 9458 9459 9460 9461 9462 9463 9464 9465 9466 9467 9468 9469 9470 9471 9472 9473 9474 9475 9476 9477 9478 9479 9480 9481 9482 9483 9484 9485 9486 9487 9488 9489 9490 9491 9492 9493 9494 9495 9496 9497 9498 9499 9500 9501 9502 9503 9504 9505 9506 9507 9508 9509 9510 9511 9512 9513 9514 9515 9516 9517 9518 9519 9520 9521 9522 9523 9524 9525 9526 9527 9528 9529 9530 9531 9532 9533 9534 9535 9536 9537 9538 9539 9540 9541 9542 9543 9544 9545 9546 9547 9548 9549 9550 9551 9552 9553 9554 9555 9556 9557 9558 9559 9560 9561 9562 9563 9564 9565 9566 9567 9568 9569 9570 9571 9572 9573 9574 9575 9576 9577 9578 9579 9580 9581 9582 9583 9584 9585 9586 9587 9588 9589 9590 9591 9592 9593 9594 9595 9596 9597 9598 9599 9600 9601 9602 9603 9604 9605 9606 9607 9608 9609 9610 9611 9612 9613 9614 9615 9616 9617 9618 9619 9620 9621 9622 9623 9624 9625 9626 9627 9628 9629 9630 9631 9632 9633 9634 9635 9636 9637 9638 9639 9640 9641 9642 9643 9644 9645 9646 9647 9648 9649 9650 9651 9652 9653 9654 9655 9656 9657 9658 9659 9660 9661 9662 9663 9664 9665 9666 9667 9668 9669 9670 9671 9672 9673 9674 9675 9676 9677 9678 9679 9680 9681 9682 9683 9684 9685 9686 9687 9688 9689 9690 9691 9692 9693 9694 9695 9696 9697 9698 9699 9700 9701 9702 9703 9704 9705 9706 9707 9708 9709 9710 9711 9712 9713 9714 9715 9716 9717 9718 9719 9720 9721 9722 9723 9724 9725 9726 9727 9728 9729 9730 9731 9732 9733 9734 9735 9736 9737 9738 9739 9740 9741 9742 9743 9744 9745 9746 9747 9748 9749 9750 9751 9752 9753 9754 9755 9756 9757 9758 9759 9760 9761 9762 9763 9764 9765 9766 9767 9768 9769 9770 9771 9772 9773 9774 9775 9776 9777 9778 9779 9780 9781 9782 9783 9784 9785 9786 9787 9788 9789 9790 9791 9792 9793 9794 9795 9796 9797 9798 9799 9800 9801 9802 9803 9804 9805 9806 9807 9808 9809 9810 9811 9812 9813 9814 9815 9816 9817 9818 9819 9820 9821 9822 9823 9824 9825 9826 9827 9828 9829 9830 9831 9832 9833 9834 9835 9836 9837 9838 9839 9840 9841 9842 9843 9844 9845 9846 9847 9848 9849 9850 9851 9852 9853 9854 9855 9856 9857 9858 9859 9860 9861 9862 9863 9864 9865 9866 9867 9868 9869 9870 9871 9872 9873 9874 9875 9876 9877 9878 9879 9880 9881 9882 9883 9884 9885 9886 9887 9888 9889 9890 9891 9892 9893 9894 9895 9896 9897 9898 9899 9900 9901 9902 9903 9904 9905 9906 9907 9908 9909 9910 9911 9912 9913 9914 9915 9916 9917 9918 9919 9920 9921 9922 9923 9924 9925 9926 9927 9928 9929 9930 9931 9932 9933 9934 9935 9936 9937 9938 9939 9940 9941 9942 9943 9944 9945 9946 9947 9948 9949 9950 9951 9952 9953 9954 9955 9956 9957 9958 9959 9960 9961 9962 9963 9964 9965 9966 9967 9968 9969 9970 9971 9972 9973 9974 9975 9976 9977 9978 9979 9980 9981 9982 9983 9984 9985 9986 9987 9988 9989 9990 9991 9992 9993 9994 9995 9996 9997 9998 9999 10000 10001 10002 10003 10004 10005 10006 10007 10008 10009 10010 10011 10012 10013 10014 10015 10016 10017 10018 10019 10020 10021 10022 10023 10024 10025 10026 10027 10028 10029 10030 10031 10032 10033 10034 10035 10036 10037 10038 10039 10040 10041 10042 10043 10044 10045 10046 10047 10048 10049 10050 10051 10052 10053 10054 10055 10056 10057 10058 10059 10060 10061 10062 10063 10064 10065 10066 10067 10068 10069 10070 10071 10072 10073 10074 10075 10076 10077 10078 10079 10080 10081 10082 10083 10084 10085 10086 10087 10088 10089 10090 10091 10092 10093 10094 10095 10096 10097 10098 10099 10100 10101 10102 10103 10104 10105 10106 10107 10108 10109 10110 10111 10112 10113 10114 10115 10116 10117 10118 10119 10120 10121 10122 10123 10124 10125 10126 10127 10128 10129 10130 10131 10132 10133 10134 10135 10136 10137 10138 10139 10140 10141 10142 10143 10144 10145 10146 10147 10148 10149 10150 10151 10152 10153 10154 10155 10156 10157 10158 10159 10160 10161 10162 10163 10164 10165 10166 10167 10168 10169 10170 10171 10172 10173 10174 10175 10176 10177 10178 10179 10180 10181 10182 10183 10184 10185 10186 10187 10188 10189 10190 10191 10192 10193 10194 10195 10196 10197 10198 10199 10200 10201 10202 10203 10204 10205 10206 10207 10208 10209 10210 10211 10212 10213 10214 10215 10216 10217 10218 10219 10220 10221 10222 10223 10224 10225 10226 10227 10228 10229 10230 10231 10232 10233 10234 10235 10236 10237 10238 10239 10240 10241 10242 10243 10244 10245 10246 10247 10248 10249 10250 10251 10252 10253 10254 10255 10256 10257 10258 10259 10260 10261 10262 10263 10264 10265 10266 10267 10268 10269 10270 10271 10272 10273 10274 10275 10276 10277 10278 10279 10280 10281 10282 10283 10284 10285 10286 10287 10288 10289 10290 10291 10292 10293 10294 10295 10296 10297 10298 10299 10300 10301 10302 10303 10304 10305 10306 10307 10308 10309 10310 10311 10312 10313 10314 10315 10316 10317 10318 10319 10320 10321 10322 10323 10324 10325 10326 10327 10328 10329 10330 10331 10332 10333 10334 10335 10336 10337 10338 10339 10340 10341 10342 10343 10344 10345 10346 10347 10348 10349 10350 10351 10352 10353 10354 10355 10356 10357 10358 10359 10360 10361 10362 10363 10364 10365 10366 10367 10368 10369 10370 10371 10372 10373 10374 10375 10376 10377 10378 10379 10380 10381 10382 10383 10384 10385 10386 10387 10388 10389 10390 10391 10392 10393 10394 10395 10396 10397 10398 10399 10400 10401 10402 10403 10404 10405 10406 10407 10408 10409 10410 10411 10412 10413 10414 10415 10416 10417 10418 10419 10420 10421 10422 10423 10424 10425 10426 10427 10428 10429 10430 10431 10432 10433 10434 10435 10436 10437 10438 10439 10440 10441 10442 10443 10444 10445 10446 10447 10448 10449 10450 10451 10452 10453 10454 10455 10456 10457 10458 10459 10460 10461 10462 10463 10464 10465 10466 10467 10468 10469 10470 10471 10472 10473 10474 10475 10476 10477 10478 10479 10480 10481 10482 10483 10484 10485 10486 10487 10488 10489 10490 10491 10492 10493 10494 10495 10496 10497 10498 10499 10500 10501 10502 10503 10504 10505 10506 10507 10508 10509 10510 10511 10512 10513 10514 10515 10516 10517 10518 10519 10520 10521 10522 10523 10524 10525 10526 10527 10528 10529 10530 10531 10532 10533 10534 10535 10536 10537 10538 10539 10540 10541 10542 10543 10544 10545 10546 10547 10548 10549 10550 10551 10552 10553 10554 10555 10556 10557 10558 10559 10560 10561 10562 10563 10564 10565 10566 10567 10568 10569 10570 10571 10572 10573 10574 10575 10576 10577 10578 10579 10580 10581 10582 10583 10584 10585 10586 10587 10588 10589 10590 10591 10592 10593 10594 10595 10596 10597 10598 10599 10600 10601 10602 10603 10604 10605 10606 10607 10608 10609 10610 10611 10612 10613 10614 10615 10616 10617 10618 10619 10620 10621 10622 10623 10624 10625 10626 10627 10628 10629 10630 10631 10632 10633 10634 10635 10636 10637 10638 10639 10640 10641 10642 10643 10644 10645 10646 10647 10648 10649 10650 10651 10652 10653 10654 10655 10656 10657 10658 10659 10660 10661 10662 10663 10664 10665 10666 10667 10668 10669 10670 10671 10672 10673 10674 10675 10676 10677 10678 10679 10680 10681 10682 10683 10684 10685 10686 10687 10688 10689 10690 10691 10692 10693 10694 10695 10696 10697 10698 10699 10700 10701 10702 10703 10704 10705 10706 10707 10708 10709 10710 10711 10712 10713 10714 10715 10716 10717 10718 10719 10720 10721 10722 10723 10724 10725 10726 10727 10728 10729 10730 10731 10732 10733 10734 10735 10736 10737 10738 10739 10740 10741 10742 10743 10744 10745 10746 10747 10748 10749 10750 10751 10752 10753 10754 10755 10756 10757 10758 10759 10760 10761 10762 10763 10764 10765 10766 10767 10768 10769 10770 10771 10772 10773 10774 10775 10776 10777 10778 10779 10780 10781 10782 10783 10784 10785 10786 10787 10788 10789 10790 10791 10792 10793 10794 10795 10796 10797 10798 10799 10800 10801 10802 10803 10804 10805 10806 10807 10808 10809 10810 10811 10812 10813 10814 10815 10816 10817 10818 10819 10820 10821 10822 10823 10824 10825 10826 10827 10828 10829 10830 10831 10832 10833 10834 10835 10836 10837 10838 10839 10840 10841 10842 10843 10844 10845 10846 10847 10848 10849 10850 10851 10852 10853 10854 10855 10856 10857 10858 10859 10860 10861 10862 10863 10864 10865 10866 10867 10868 10869 10870 10871 10872 10873 10874 10875 10876 10877 10878 10879 10880 10881 10882 10883 10884 10885 10886 10887 10888 10889 10890 10891 10892 10893 10894 10895 10896 10897 10898 10899 10900 10901 10902 10903 10904 10905 10906 10907 10908 10909 10910 10911 10912 10913 10914 10915 10916 10917 10918 10919 10920 10921 10922 10923 10924 10925 10926 10927 10928 10929 10930 10931 10932 10933 10934 10935 10936 10937 10938 10939 10940 10941 10942 10943 10944 10945 10946 10947 10948 10949 10950 10951 10952 10953 10954 10955 10956 10957 10958 10959 10960 10961 10962 10963 10964 10965 10966 10967 10968 10969 10970 10971 10972 10973 10974 10975 10976 10977 10978 10979 10980 10981 10982 10983 10984 10985 10986 10987 10988 10989 10990 10991 10992 10993 10994 10995 10996 10997 10998 10999 11000 11001 11002 11003 11004 11005 11006 11007 11008 11009 11010 11011 11012 11013 11014 11015 11016 11017 11018 11019 11020 11021 11022 11023 11024 11025 11026 11027 11028 11029 11030 11031 11032 11033 11034 11035 11036 11037 11038 11039 11040 11041 11042 11043 11044 11045 11046 11047 11048 11049 11050 11051 11052 11053 11054 11055 11056 11057 11058 11059 11060 11061 11062 11063 11064 11065 11066 11067 11068 11069 11070 11071 11072 11073 11074 11075 11076 11077 11078 11079 11080 11081 11082 11083 11084 11085 11086 11087 11088 11089 11090 11091 11092 11093 11094 11095 11096 11097 11098 11099 11100 11101 11102 11103 11104 11105 11106 11107 11108 11109 11110 11111 11112 11113 11114 11115 11116 11117 11118 11119 11120 11121 11122 11123 11124 11125 11126 11127 11128 11129 11130 11131 11132 11133 11134 11135 11136 11137 11138 11139 11140 11141 11142 11143 11144 11145 11146 11147 11148 11149 11150 11151 11152 11153 11154 11155 11156 11157 11158 11159 11160 11161 11162 11163 11164 11165 11166 11167 11168 11169 11170 11171 11172 11173 11174 11175 11176 11177 11178 11179 11180 11181 11182 11183 11184 11185 11186 11187 11188 11189 11190 11191 11192 11193 11194 11195 11196 11197 11198 11199 11200 11201 11202 11203 11204 11205 11206 11207 11208 11209 11210 11211 11212 11213 11214 11215 11216 11217 11218 11219 11220 11221 11222 11223 11224 11225 11226 11227 11228 11229 11230 11231 11232 11233 11234 11235 11236 11237 11238 11239 11240 11241 11242 11243 11244 11245 11246 11247 11248 11249 11250 11251 11252 11253 11254 11255 11256 11257 11258 11259 11260 11261 11262 11263 11264 11265 11266 11267 11268 11269 11270 11271 11272 11273 11274 11275 11276 11277 11278 11279 11280 11281 11282 11283 11284 11285 11286 11287 11288 11289 11290 11291 11292 11293 11294 11295 11296 11297 11298 11299 11300 11301 11302 11303 11304 11305 11306 11307 11308 11309 11310 11311 11312 11313 11314 11315 11316 11317 11318 11319 11320 11321 11322 11323 11324 11325 11326 11327 11328 11329 11330 11331 11332 11333 11334 11335 11336 11337 11338 11339 11340 11341 11342 11343 11344 11345 11346 11347 11348 11349 11350 11351 11352 11353 11354 11355 11356 11357 11358 11359 11360 11361 11362 11363 11364 11365 11366 11367 11368 11369 11370 11371 11372 11373 11374 11375 11376 11377 11378 11379 11380 11381 11382 11383 11384 11385 11386 11387 11388 11389 11390 11391 11392 11393 11394 11395 11396 11397 11398 11399 11400 11401 11402 11403 11404 11405 11406 11407 11408 11409 11410 11411 11412 11413 11414 11415 11416 11417 11418 11419 11420 11421 11422 11423 11424 11425 11426 11427 11428 11429 11430 11431 11432 11433 11434 11435 11436 11437 11438 11439 11440 11441 11442 11443 11444 11445 11446 11447 11448 11449 11450 11451 11452 11453 11454 11455 11456 11457 11458 11459 11460 11461 11462 11463 11464 11465 11466 11467 11468 11469 11470 11471 11472 11473 11474 11475 11476 11477 11478 11479 11480 11481 11482 11483 11484 11485 11486 11487 11488 11489 11490 11491 11492 11493 11494 11495 11496 11497 11498 11499 11500 11501 11502 11503 11504 11505 11506 11507 11508 11509 11510 11511 11512 11513 11514 11515 11516 11517 11518 11519 11520 11521 11522 11523 11524 11525 11526 11527 11528 11529 11530 11531 11532 11533 11534 11535 11536 11537 11538 11539 11540 11541 11542 11543 11544 11545 11546 11547 11548 11549 11550 11551 11552 11553 11554 11555 11556 11557 11558 11559 11560 11561 11562 11563 11564 11565 11566 11567 11568 11569 11570 11571 11572 11573 11574 11575 11576 11577 11578 11579 11580 11581 11582 11583 11584 11585 11586 11587 11588 11589 11590 11591 11592 11593 11594 11595 11596 11597 11598 11599 11600 11601 11602 11603 11604 11605 11606 11607 11608 11609 11610 11611 11612 11613 11614 11615 11616 11617 11618 11619 11620 11621 11622 11623 11624 11625 11626 11627 11628 11629 11630 11631 11632 11633 11634 11635 11636 11637 11638 11639 11640 11641 11642 11643 11644 11645 11646 11647 11648 11649 11650 11651 11652 11653 11654 11655 11656 11657 11658 11659 11660 11661 11662 11663 11664 11665 11666 11667 11668 11669 11670 11671 11672 11673 11674 11675 11676 11677 11678 11679 11680 11681 11682 11683 11684 11685 11686 11687 11688 11689 11690 11691 11692 11693 11694 11695 11696 11697 11698 11699 11700 11701 11702 11703 11704 11705 11706 11707 11708 11709 11710 11711 11712 11713 11714 11715 11716 11717 11718 11719 11720 11721 11722 11723 11724 11725 11726 11727 11728 11729 11730 11731 11732 11733 11734 11735 11736 11737 11738 11739 11740 11741 11742 11743 11744 11745 11746 11747 11748 11749 11750 11751 11752 11753 11754 11755 11756 11757 11758 11759 11760 11761 11762 11763 11764 11765 11766 11767 11768 11769 11770 11771 11772 11773 11774 11775 11776 11777 11778 11779 11780 11781 11782 11783 11784 11785 11786 11787 11788 11789 11790 11791 11792 11793 11794 11795 11796 11797 11798 11799 11800 11801 11802 11803 11804 11805 11806 11807 11808 11809 11810 11811 11812 11813 11814 11815 11816 11817 11818 11819 11820 11821 11822 11823 11824 11825 11826 11827 11828 11829 11830 11831 11832 11833 11834 11835 11836 11837 11838 11839 11840 11841 11842 11843 11844 11845 11846 11847 11848 11849 11850 11851 11852 11853 11854 11855 11856 11857 11858 11859 11860 11861 11862 11863 11864 11865 11866 11867 11868 11869 11870 11871 11872 11873 11874 11875 11876 11877 11878 11879 11880 11881 11882 11883 11884 11885 11886 11887 11888 11889 11890 11891 11892 11893 11894 11895 11896 11897 11898 11899 11900 11901 11902 11903 11904 11905 11906 11907 11908 11909 11910 11911 11912 11913 11914 11915 11916 11917 11918 11919 11920 11921 11922 11923 11924 11925 11926 11927 11928 11929 11930 11931 11932 11933 11934 11935 11936 11937 11938 11939 11940 11941 11942 11943 11944 11945 11946 11947 11948 11949 11950 11951 11952 11953 11954 11955 11956 11957 11958 11959 11960 11961 11962 11963 11964 11965 11966 11967 11968 11969 11970 11971 11972 11973 11974 11975 11976 11977 11978 11979 11980 11981 11982 11983 11984 11985 11986 11987 11988 11989 11990 11991 11992 11993 11994 11995 11996 11997 11998 11999 12000 12001 12002 12003 12004 12005 12006 12007 12008 12009 12010 12011 12012 12013 12014 12015 12016 12017 12018 12019 12020 12021 12022 12023 12024 12025 12026 12027 12028 12029 12030 12031 12032 12033 12034 12035 12036 12037 12038 12039 12040 12041 12042 12043 12044 12045 12046 12047 12048 12049 12050 12051 12052 12053 12054 12055 12056 12057 12058 12059 12060 12061 12062 12063 12064 12065 12066 12067 12068 12069 12070 12071 12072 12073 12074 12075 12076 12077 12078 12079 12080 12081 12082 12083 12084 12085 12086 12087 12088 12089 12090 12091 12092 12093 12094 12095 12096 12097 12098 12099 12100 12101 12102 12103 12104 12105 12106 12107 12108 12109 12110 12111 12112 12113 12114 12115 12116 12117 12118 12119 12120 12121 12122 12123 12124 12125 12126 12127 12128 12129 12130 12131 12132 12133 12134 12135 12136 12137 12138 12139 12140 12141 12142 12143 12144 12145 12146 12147 12148 12149 12150 12151 12152 12153 12154 12155 12156 12157 12158 12159 12160 12161 12162 12163 12164 12165 12166 12167 12168 12169 12170 12171 12172 12173 12174 12175 12176 12177 12178 12179 12180 12181 12182 12183 12184 12185 12186 12187 12188 12189 12190 12191 12192 12193 12194 12195 12196 12197 12198 12199 12200 12201 12202 12203 12204 12205 12206 12207 12208 12209 12210 12211 12212 12213 12214 12215 12216 12217 12218 12219 12220 12221 12222 12223 12224 12225 12226 12227 12228 12229 12230 12231 12232 12233 12234 12235 12236 12237 12238 12239 12240 12241 12242 12243 12244 12245 12246 12247 12248 12249 12250 12251 12252 12253 12254 12255 12256 12257 12258 12259 12260 12261 12262 12263 12264 12265 12266 12267 12268 12269 12270 12271 12272 12273 12274 12275 12276 12277 12278 12279 12280 12281 12282 12283 12284 12285 12286 12287 12288 12289 12290 12291 12292 12293 12294 12295 12296 12297 12298 12299 12300 12301 12302 12303 12304 12305 12306 12307 12308 12309 12310 12311 12312 12313 12314 12315 12316 12317 12318 12319 12320 12321 12322 12323 12324 12325 12326 12327 12328 12329 12330 12331 12332 12333 12334 12335 12336 12337 12338 12339 12340 12341 12342 12343 12344 12345 12346 12347 12348 12349 12350 12351 12352 12353 12354 12355 12356 12357 12358 12359 12360 12361 12362 12363 12364 12365 12366 12367 12368 12369 12370 12371 12372 12373 12374 12375 12376 12377 12378 12379 12380 12381 12382 12383 12384 12385 12386 12387 12388 12389 12390 12391 12392 12393 12394 12395 12396 12397 12398 12399 12400 12401 12402 12403 12404 12405 12406 12407 12408 12409 12410 12411 12412 12413 12414 12415 12416 12417 12418 12419 12420 12421 12422 12423 12424 12425 12426 12427 12428 12429 12430 12431 12432 12433 12434 12435 12436 12437 12438 12439 12440 12441 12442 12443 12444 12445 12446 12447 12448 12449 12450 12451 12452 12453 12454 12455 12456 12457 12458 12459 12460 12461 12462 12463 12464 12465 12466 12467 12468 12469 12470 12471 12472 12473 12474 12475 12476 12477 12478 12479 12480 12481 12482 12483 12484 12485 12486 12487 12488 12489 12490 12491 12492 12493 12494 12495 12496 12497 12498 12499 12500 12501 12502 12503 12504 12505 12506 12507 12508 12509 12510 12511 12512 12513 12514 12515 12516 12517 12518 12519 12520 12521 12522 12523 12524 12525 12526 12527 12528 12529 12530 12531 12532 12533 12534 12535 12536 12537 12538 12539 12540 12541 12542 12543 12544 12545 12546 12547 12548 12549 12550 12551 12552 12553 12554 12555 12556 12557 12558 12559 12560 12561 12562 12563 12564 12565 12566 12567 12568 12569 12570 12571 12572 12573 12574 12575 12576 12577 12578 12579 12580 12581 12582 12583 12584 12585 12586 12587 12588 12589 12590 12591 12592 12593 12594 12595 12596 12597 12598 12599 12600 12601 12602 12603 12604 12605 12606 12607 12608 12609 12610 12611 12612 12613 12614 12615 12616 12617 12618 12619 12620 12621 12622 12623 12624 12625 12626 12627 12628 12629 12630 12631 12632 12633 12634 12635 12636 12637 12638 12639 12640 12641 12642 12643 12644 12645 12646 12647 12648 12649 12650 12651 12652 12653 12654 12655 12656 12657 12658 12659 12660 12661 12662 12663 12664 12665 12666 12667 12668 12669 12670 12671 12672 12673 12674 12675 12676 12677 12678 12679 12680 12681 12682 12683 12684 12685 12686 12687 12688 12689 12690 12691 12692 12693 12694 12695 12696 12697 12698 12699 12700 12701 12702 12703 12704 12705 12706 12707 12708 12709 12710 12711 12712 12713 12714 12715 12716 12717 12718 12719 12720 12721 12722 12723 12724 12725 12726 12727 12728 12729 12730 12731 12732 12733 12734 12735 12736 12737 12738 12739 12740 12741 12742 12743 12744 12745 12746 12747 12748 12749 12750 12751 12752 12753 12754 12755 12756 12757 12758 12759 12760 12761 12762 12763 12764 12765 12766 12767 12768 12769 12770 12771 12772 12773 12774 12775 12776 12777 12778 12779 12780 12781 12782 12783 12784 12785 12786 12787 12788 12789 12790 12791 12792 12793 12794 12795 12796 12797 12798 12799 12800 12801 12802 12803 12804 12805 12806 12807 12808 12809 12810 12811 12812 12813 12814 12815 12816 12817 12818 12819 12820 12821 12822 12823 12824 12825 12826 12827 12828 12829 12830 12831 12832 12833 12834 12835 12836 12837 12838 12839 12840 12841 12842 12843 12844 12845 12846 12847 12848 12849 12850 12851 12852 12853 12854 12855 12856 12857 12858 12859 12860 12861 12862 12863 12864 12865 12866 12867 12868 12869 12870 12871 12872 12873 12874 12875 12876 12877 12878 12879 12880 12881 12882 12883 12884 12885 12886 12887 12888 12889 12890 12891 12892 12893 12894 12895 12896 12897 12898 12899 12900 12901 12902 12903 12904 12905 12906 12907 12908 12909 12910 12911 12912 12913 12914 12915 12916 12917 12918 12919 12920 12921 12922 12923 12924 12925 12926 12927 12928 12929 12930 12931 12932 12933 12934 12935 12936 12937 12938 12939 12940 12941 12942 12943 12944 12945 12946 12947 12948 12949 12950 12951 12952 12953 12954 12955 12956 12957 12958 12959 12960 12961 12962 12963 12964 12965 12966 12967 12968 12969 12970 12971 12972 12973 12974 12975 12976 12977 12978 12979 12980 12981 12982 12983 12984 12985 12986 12987 12988 12989 12990 12991 12992 12993 12994 12995 12996 12997 12998 12999 13000 13001 13002 13003 13004 13005 13006 13007 13008 13009 13010 13011 13012 13013 13014 13015 13016 13017 13018 13019 13020 13021 13022 13023 13024 13025 13026 13027 13028 13029 13030 13031 13032 13033 13034 13035 13036 13037 13038 13039 13040 13041 13042 13043 13044 13045 13046 13047 13048 13049 13050 13051 13052 13053 13054 13055 13056 13057 13058 13059 13060 13061 13062 13063 13064 13065 13066 13067 13068 13069 13070 13071 13072 13073 13074 13075 13076 13077 13078 13079 13080 13081 13082 13083 13084 13085 13086 13087 13088 13089 13090 13091 13092 13093 13094 13095 13096 13097 13098 13099 13100 13101 13102 13103 13104 13105 13106 13107 13108 13109 13110 13111 13112 13113 13114 13115 13116 13117 13118 13119 13120 13121 13122 13123 13124 13125 13126 13127 13128 13129 13130 13131 13132 13133 13134 13135 13136 13137 13138 13139 13140 13141 13142 13143 13144 13145 13146 13147 13148 13149 13150 13151 13152 13153 13154 13155 13156 13157 13158 13159 13160 13161 13162 13163 13164 13165 13166 13167 13168 13169 13170 13171 13172 13173 13174 13175 13176 13177 13178 13179 13180 13181 13182 13183 13184 13185 13186 13187 13188 13189 13190 13191 13192 13193 13194 13195 13196 13197 13198 13199 13200 13201 13202 13203 13204 13205 13206 13207 13208 13209 13210 13211 13212 13213 13214 13215 13216 13217 13218 13219 13220 13221 13222 13223 13224 13225 13226 13227 13228 13229 13230 13231 13232 13233 13234 13235 13236 13237 13238 13239 13240 13241 13242 13243 13244 13245 13246 13247 13248 13249 13250 13251 13252 13253 13254 13255 13256 13257 13258 13259 13260 13261 13262 13263 13264 13265 13266 13267 13268 13269 13270 13271 13272 13273 13274 13275 13276 13277 13278 13279 13280 13281 13282 13283 13284 13285 13286 13287 13288 13289 13290 13291 13292 13293 13294 13295 13296 13297 13298 13299 13300 13301 13302 13303 13304 13305 13306 13307 13308 13309 13310 13311 13312 13313 13314 13315 13316 13317 13318 13319 13320 13321 13322 13323 13324 13325 13326 13327 13328 13329 13330 13331 13332 13333 13334 13335 13336 13337 13338 13339 13340 13341 13342 13343 13344 13345 13346 13347 13348 13349 13350 13351 13352 13353 13354 13355 13356 13357 13358 13359 13360 13361 13362 13363 13364 13365 13366 13367 13368 13369 13370 13371 13372 13373 13374 13375 13376 13377 13378 13379 13380 13381 13382 13383 13384 13385 13386 13387 13388 13389 13390 13391 13392 13393 13394 13395 13396 13397 13398 13399 13400 13401 13402 13403 13404 13405 13406 13407 13408 13409 13410 13411 13412 13413 13414 13415 13416 13417 13418 13419 13420 13421 13422 13423 13424 13425 13426 13427 13428 13429 13430 13431 13432 13433 13434 13435 13436 13437 13438 13439 13440 13441 13442 13443 13444 13445 13446 13447 13448 13449 13450 13451 13452 13453 13454 13455 13456 13457 13458 13459 13460 13461 13462 13463 13464 13465 13466 13467 13468 13469 13470 13471 13472 13473 13474 13475 13476 13477 13478 13479 13480 13481 13482 13483 13484 13485 13486 13487 13488 13489 13490 13491 13492 13493 13494 13495 13496 13497 13498 13499 13500 13501 13502 13503 13504 13505 13506 13507 13508 13509 13510 13511 13512 13513 13514 13515 13516 13517 13518 13519 13520 13521 13522 13523 13524 13525 13526 13527 13528 13529 13530 13531 13532 13533 13534 13535 13536 13537 13538 13539 13540 13541 13542 13543 13544 13545 13546 13547 13548 13549 13550 13551 13552 13553 13554 13555 13556 13557 13558 13559 13560 13561 13562 13563 13564 13565 13566 13567 13568 13569 13570 13571 13572 13573 13574 13575 13576 13577 13578 13579 13580 13581 13582 13583 13584 13585 13586 13587 13588 13589 13590 13591 13592 13593 13594 13595 13596 13597 13598 13599 13600 13601 13602 13603 13604 13605 13606 13607 13608 13609 13610 13611 13612 13613 13614 13615 13616 13617 13618 13619 13620 13621 13622 13623 13624 13625 13626 13627 13628 13629 13630 13631 13632 13633 13634 13635 13636 13637 13638 13639 13640 13641 13642 13643 13644 13645 13646 13647 13648 13649 13650 13651 13652 13653 13654 13655 13656 13657 13658 13659 13660 13661 13662 13663 13664 13665 13666 13667 13668 13669 13670 13671 13672 13673 13674 13675 13676 13677 13678 13679 13680 13681 13682 13683 13684 13685 13686 13687 13688 13689 13690 13691 13692 13693 13694 13695 13696 13697 13698 13699 13700 13701 13702 13703 13704 13705 13706 13707 13708 13709 13710 13711 13712 13713 13714 13715 13716 13717 13718 13719 13720 13721 13722 13723 13724 13725 13726 13727 13728 13729 13730 13731 13732 13733 13734 13735 13736 13737 13738 13739 13740 13741 13742 13743 13744 13745 13746 13747 13748 13749 13750 13751 13752 13753 13754 13755 13756 13757 13758 13759 13760 13761 13762 13763 13764 13765 13766 13767 13768 13769 13770 13771 13772 13773 13774 13775 13776 13777 13778 13779 13780 13781 13782 13783 13784 13785 13786 13787 13788 13789 13790 13791 13792 13793 13794 13795 13796 13797 13798 13799 13800 13801 13802 13803 13804 13805 13806 13807 13808 13809 13810 13811 13812 13813 13814 13815 13816 13817 13818 13819 13820 13821 13822 13823 13824 13825 13826 13827 13828 13829 13830 13831 13832 13833 13834 13835 13836 13837 13838 13839 13840 13841 13842 13843 13844 13845 13846 13847 13848 13849 13850 13851 13852 13853 13854 13855 13856 13857 13858 13859 13860 13861 13862 13863 13864 13865 13866 13867 13868 13869 13870 13871 13872 13873 13874 13875 13876 13877 13878 13879 13880 13881 13882 13883 13884 13885 13886 13887 13888 13889 13890 13891 13892 13893 13894 13895 13896 13897 13898 13899 13900 13901 13902 13903 13904 13905 13906 13907 13908 13909 13910 13911 13912 13913 13914 13915 13916 13917 13918 13919 13920 13921 13922 13923 13924 13925 13926 13927 13928 13929 13930 13931 13932 13933 13934 13935 13936 13937 13938 13939 13940 13941 13942 13943 13944 13945 13946 13947 13948 13949 13950 13951 13952 13953 13954 13955 13956 13957 13958 13959 13960 13961 13962 13963 13964 13965 13966 13967 13968 13969 13970 13971 13972 13973 13974 13975 13976 13977 13978 13979 13980 13981 13982 13983 13984 13985 13986 13987 13988 13989 13990 13991 13992 13993 13994 13995 13996 13997 13998 13999 14000 14001 14002 14003 14004 14005 14006 14007 14008 14009 14010 14011 14012 14013 14014 14015 14016 14017 14018 14019 14020 14021 14022 14023 14024 14025 14026 14027 14028 14029 14030 14031 14032 14033 14034 14035 14036 14037 14038 14039 14040 14041 14042 14043 14044 14045 14046 14047 14048 14049 14050 14051 14052 14053 14054 14055 14056 14057 14058 14059 14060 14061 14062 14063 14064 14065 14066 14067 14068 14069 14070 14071 14072 14073 14074 14075 14076 14077 14078 14079 14080 14081 14082 14083 14084 14085 14086 14087 14088 14089 14090 14091 14092 14093 14094 14095 14096 14097 14098 14099 14100 14101 14102 14103 14104 14105 14106 14107 14108 14109 14110 14111 14112 14113 14114 14115 14116 14117 14118 14119 14120 14121 14122 14123 14124 14125 14126 14127 14128 14129 14130 14131 14132 14133 14134 14135 14136 14137 14138 14139 14140 14141 14142 14143 14144 14145 14146 14147 14148 14149 14150 14151 14152 14153 14154 14155 14156 14157 14158 14159 14160 14161 14162 14163 14164 14165 14166 14167 14168 14169 14170 14171 14172 14173 14174 14175 14176 14177 14178 14179 14180 14181 14182 14183 14184 14185 14186 14187 14188 14189 14190 14191 14192 14193 14194 14195 14196 14197 14198 14199 14200 14201 14202 14203 14204 14205 14206 14207 14208 14209 14210 14211 14212 14213 14214 14215 14216 14217 14218 14219 14220 14221 14222 14223 14224 14225 14226 14227 14228 14229 14230 14231 14232 14233 14234 14235 14236 14237 14238 14239 14240 14241 14242 14243 14244 14245 14246 14247 14248 14249 14250 14251 14252 14253 14254 14255 14256 14257 14258 14259 14260 14261 14262 14263 14264 14265 14266 14267 14268 14269 14270 14271 14272 14273 14274 14275 14276 14277 14278 14279 14280 14281 14282 14283 14284 14285 14286 14287 14288 14289 14290 14291 14292 14293 14294 14295 14296 14297 14298 14299 14300 14301 14302 14303 14304 14305 14306 14307 14308 14309 14310 14311 14312 14313 14314 14315 14316 14317 14318 14319 14320 14321 14322 14323 14324 14325 14326 14327 14328 14329 14330 14331 14332 14333 14334 14335 14336 14337 14338 14339 14340 14341 14342 14343 14344 14345 14346 14347 14348 14349 14350 14351 14352 14353 14354 14355 14356 14357 14358 14359 14360 14361 14362 14363 14364 14365 14366 14367 14368 14369 14370 14371 14372 14373 14374 14375 14376 14377 14378 14379 14380 14381 14382 14383 14384 14385 14386 14387 14388 14389 14390 14391 14392 14393 14394 14395 14396 14397 14398 14399 14400 14401 14402 14403 14404 14405 14406 14407 14408 14409 14410 14411 14412 14413 14414 14415 14416 14417 14418 14419 14420 14421 14422 14423 14424 14425 14426 14427 14428 14429 14430 14431 14432 14433 14434 14435 14436 14437 14438 14439 14440 14441 14442 14443 14444 14445 14446 14447 14448 14449 14450 14451 14452 14453 14454 14455 14456 14457 14458 14459 14460 14461 14462 14463 14464 14465 14466 14467 14468 14469 14470 14471 14472 14473 14474 14475 14476 14477 14478 14479 14480 14481 14482 14483 14484 14485 14486 14487 14488 14489 14490 14491 14492 14493 14494 14495 14496 14497 14498 14499 14500 14501 14502 14503 14504 14505 14506 14507 14508 14509 14510 14511 14512 14513 14514 14515 14516 14517 14518 14519 14520 14521 14522 14523 14524 14525 14526 14527 14528 14529 14530 14531 14532 14533 14534 14535 14536 14537 14538 14539 14540 14541 14542 14543 14544 14545 14546 14547 14548 14549 14550 14551 14552 14553 14554 14555 14556 14557 14558 14559 14560 14561 14562 14563 14564 14565 14566 14567 14568 14569 14570 14571 14572 14573 14574 14575 14576 14577 14578 14579 14580 14581 14582 14583 14584 14585 14586 14587 14588 14589 14590 14591 14592 14593 14594 14595 14596 14597 14598 14599 14600 14601 14602 14603 14604 14605 14606 14607 14608 14609 14610 14611 14612 14613 14614 14615 14616 14617 14618 14619 14620 14621 14622 14623 14624 14625 14626 14627 14628 14629 14630 14631 14632 14633 14634 14635 14636 14637 14638 14639 14640 14641 14642 14643 14644 14645 14646 14647 14648 14649 14650 14651 14652 14653 14654 14655 14656 14657 14658 14659 14660 14661 14662 14663 14664 14665 14666 14667 14668 14669 14670 14671 14672 14673 14674 14675 14676 14677 14678 14679 14680 14681 14682 14683 14684 14685 14686 14687 14688 14689 14690 14691 14692 14693 14694 14695 14696 14697 14698 14699 14700 14701 14702 14703 14704 14705 14706 14707 14708 14709 14710 14711 14712 14713 14714 14715 14716 14717 14718 14719 14720 14721 14722 14723 14724 14725 14726 14727 14728 14729 14730 14731 14732 14733 14734 14735 14736 14737 14738 14739 14740 14741 14742 14743 14744 14745 14746 14747 14748 14749 14750 14751 14752 14753 14754 14755 14756 14757 14758 14759 14760 14761 14762 14763 14764 14765 14766 14767 14768 14769 14770 14771 14772 14773 14774 14775 14776 14777 14778 14779 14780 14781 14782 14783 14784 14785 14786 14787 14788 14789 14790 14791 14792 14793 14794 14795 14796 14797 14798 14799 14800 14801 14802 14803 14804 14805 14806 14807 14808 14809 14810 14811 14812 14813 14814 14815 14816 14817 14818 14819 14820 14821 14822 14823 14824 14825 14826 14827 14828 14829 14830 14831 14832 14833 14834 14835 14836 14837 14838 14839 14840 14841 14842 14843 14844 14845 14846 14847 14848 14849 14850 14851 14852 14853 14854 14855 14856 14857 14858 14859 14860 14861 14862 14863 14864 14865 14866 14867 14868 14869 14870 14871 14872 14873 14874 14875 14876 14877 14878 14879 14880 14881 14882 14883 14884 14885 14886 14887 14888 14889 14890 14891 14892 14893 14894 14895 14896 14897 14898 14899 14900 14901 14902 14903 14904 14905 14906 14907 14908 14909 14910 14911 14912 14913 14914 14915 14916 14917 14918 14919 14920 14921 14922 14923 14924 14925 14926 14927 14928 14929 14930 14931 14932 14933 14934 14935 14936 14937 14938 14939 14940 14941 14942 14943 14944 14945 14946 14947 14948 14949 14950 14951 14952 14953 14954 14955 14956 14957 14958 14959 14960 14961 14962 14963 14964 14965 14966 14967 14968 14969 14970 14971 14972 14973 14974 14975 14976 14977 14978 14979 14980 14981 14982 14983 14984 14985 14986 14987 14988 14989 14990 14991 14992 14993 14994 14995 14996 14997 14998 14999 15000 15001 15002 15003 15004 15005 15006 15007 15008 15009 15010 15011 15012 15013 15014 15015 15016 15017 15018 15019 15020 15021 15022 15023 15024 15025 15026 15027 15028 15029 15030 15031 15032 15033 15034 15035 15036 15037 15038 15039 15040 15041 15042 15043 15044 15045 15046 15047 15048 15049 15050 15051 15052 15053 15054 15055 15056 15057 15058 15059 15060 15061 15062 15063 15064 15065 15066 15067 15068 15069 15070 15071 15072 15073 15074 15075 15076 15077 15078 15079 15080 15081 15082 15083 15084 15085 15086 15087 15088 15089 15090 15091 15092 15093 15094 15095 15096 15097 15098 15099 15100 15101 15102 15103 15104 15105 15106 15107 15108 15109 15110 15111 15112 15113 15114 15115 15116 15117 15118 15119 15120 15121 15122 15123 15124 15125 15126 15127 15128 15129 15130 15131 15132 15133 15134 15135 15136 15137 15138 15139 15140 15141 15142 15143 15144 15145 15146 15147 15148 15149 15150 15151 15152 15153 15154 15155 15156 15157 15158 15159 15160 15161 15162 15163 15164 15165 15166 15167 15168 15169 15170 15171 15172 15173 15174 15175 15176 15177 15178 15179 15180 15181 15182 15183 15184 15185 15186 15187 15188 15189 15190 15191 15192 15193 15194 15195 15196 15197 15198 15199 15200 15201 15202 15203 15204 15205 15206 15207 15208 15209 15210 15211 15212 15213 15214 15215 15216 15217 15218 15219 15220 15221 15222 15223 15224 15225 15226 15227 15228 15229 15230 15231 15232 15233 15234 15235 15236 15237 15238 15239 15240 15241 15242 15243 15244 15245 15246 15247 15248 15249 15250 15251 15252 15253 15254 15255 15256 15257 15258 15259 15260 15261 15262 15263 15264 15265 15266 15267 15268 15269 15270 15271 15272 15273 15274 15275 15276 15277 15278 15279 15280 15281 15282 15283 15284 15285 15286 15287 15288 15289 15290 15291 15292 15293 15294 15295 15296 15297 15298 15299 15300 15301 15302 15303 15304 15305 15306 15307 15308 15309 15310 15311 15312 15313 15314 15315 15316 15317 15318 15319 15320 15321 15322 15323 15324 15325 15326 15327 15328 15329 15330 15331 15332 15333 15334 15335 15336 15337 15338 15339 15340 15341 15342 15343 15344 15345 15346 15347 15348 15349 15350 15351 15352 15353 15354 15355 15356 15357 15358 15359 15360 15361 15362 15363 15364 15365 15366 15367 15368 15369 15370 15371 15372 15373 15374 15375 15376 15377 15378 15379 15380 15381 15382 15383 15384 15385 15386 15387 15388 15389 15390 15391 15392 15393 15394 15395 15396 15397 15398 15399 15400 15401 15402 15403 15404 15405 15406 15407 15408 15409 15410 15411 15412 15413 15414 15415 15416 15417 15418 15419 15420 15421 15422 15423 15424 15425 15426 15427 15428 15429 15430 15431 15432 15433 15434 15435 15436 15437 15438 15439 15440 15441 15442 15443 15444 15445 15446 15447 15448 15449 15450 15451 15452 15453 15454 15455 15456 15457 15458 15459 15460 15461 15462 15463 15464 15465 15466 15467 15468 15469 15470 15471 15472 15473 15474 15475 15476 15477 15478 15479 15480 15481 15482 15483 15484 15485 15486 15487 15488 15489 15490 15491 15492 15493 15494 15495 15496 15497 15498 15499 15500 15501 15502 15503 15504 15505 15506 15507 15508 15509 15510 15511 15512 15513 15514 15515 15516 15517 15518 15519 15520 15521 15522 15523 15524 15525 15526 15527 15528 15529 15530 15531 15532 15533 15534 15535 15536 15537 15538 15539 15540 15541 15542 15543 15544 15545 15546 15547 15548 15549 15550 15551 15552 15553 15554 15555 15556 15557 15558 15559 15560 15561 15562 15563 15564 15565 15566 15567 15568 15569 15570 15571 15572 15573 15574 15575 15576 15577 15578 15579 15580 15581 15582 15583 15584 15585 15586 15587 15588 15589 15590 15591 15592 15593 15594 15595 15596 15597 15598 15599 15600 15601 15602 15603 15604 15605 15606 15607 15608 15609 15610 15611 15612 15613 15614 15615 15616 15617 15618 15619 15620 15621 15622 15623 15624 15625 15626 15627 15628 15629 15630 15631 15632 15633 15634 15635 15636 15637 15638 15639 15640 15641 15642 15643 15644 15645 15646 15647 15648 15649 15650 15651 15652 15653 15654 15655 15656 15657 15658 15659 15660 15661 15662 15663 15664 15665 15666 15667 15668 15669 15670 15671 15672 15673 15674 15675 15676 15677 15678 15679 15680 15681 15682 15683 15684 15685 15686 15687 15688 15689 15690 15691 15692 15693 15694 15695 15696 15697 15698 15699 15700 15701 15702 15703 15704 15705 15706 15707 15708 15709 15710 15711 15712 15713 15714 15715 15716 15717 15718 15719 15720 15721 15722 15723 15724 15725 15726 15727 15728 15729 15730 15731 15732 15733 15734 15735 15736 15737 15738 15739 15740 15741 15742 15743 15744 15745 15746 15747 15748 15749 15750 15751 15752 15753 15754 15755 15756 15757 15758 15759 15760 15761 15762 15763 15764 15765 15766 15767 15768 15769 15770 15771 15772 15773 15774 15775 15776 15777 15778 15779 15780 15781 15782 15783 15784 15785 15786 15787 15788 15789 15790 15791 15792 15793 15794 15795 15796 15797 15798 15799 15800 15801 15802 15803 15804 15805 15806 15807 15808 15809 15810 15811 15812 15813 15814 15815 15816 15817 15818 15819 15820 15821 15822 15823 15824 15825 15826 15827 15828 15829 15830 15831 15832 15833 15834 15835 15836 15837 15838 15839 15840 15841 15842 15843 15844 15845 15846 15847 15848 15849 15850 15851 15852 15853 15854 15855 15856 15857 15858 15859 15860 15861 15862 15863 15864 15865 15866 15867 15868 15869 15870 15871 15872 15873 15874 15875 15876 15877 15878 15879 15880 15881 15882 15883 15884 15885 15886 15887 15888 15889 15890 15891 15892 15893 15894 15895 15896 15897 15898 15899 15900 15901 15902 15903 15904 15905 15906 15907 15908 15909 15910 15911 15912 15913 15914 15915 15916 15917 15918 15919 15920 15921 15922 15923 15924 15925 15926 15927 15928 15929 15930 15931 15932 15933 15934 15935 15936 15937 15938 15939 15940 15941 15942 15943 15944 15945 15946 15947 15948 15949 15950 15951 15952 15953 15954 15955 15956 15957 15958 15959 15960 15961 15962 15963 15964 15965 15966 15967 15968 15969 15970 15971 15972 15973 15974 15975 15976 15977 15978 15979 15980 15981 15982 15983 15984 15985 15986 15987 15988 15989 15990 15991 15992 15993 15994 15995 15996 15997 15998 15999 16000 16001 16002 16003 16004 16005 16006 16007 16008 16009 16010 16011 16012 16013 16014 16015 16016 16017 16018 16019 16020 16021 16022 16023 16024 16025 16026 16027 16028 16029 16030 16031 16032 16033 16034 16035 16036 16037 16038 16039 16040 16041 16042 16043 16044 16045 16046 16047 16048 16049 16050 16051 16052 16053 16054 16055 16056 16057 16058 16059 16060 16061 16062 16063 16064 16065 16066 16067 16068 16069 16070 16071 16072 16073 16074 16075 16076 16077 16078 16079 16080 16081 16082 16083 16084 16085 16086 16087 16088 16089 16090 16091 16092 16093 16094 16095 16096 16097 16098 16099 16100 16101 16102 16103 16104 16105 16106 16107 16108 16109 16110 16111 16112 16113 16114 16115 16116 16117 16118 16119 16120 16121 16122 16123 16124 16125 16126 16127 16128 16129 16130 16131 16132 16133 16134 16135 16136 16137 16138 16139 16140 16141 16142 16143 16144 16145 16146 16147 16148 16149 16150 16151 16152 16153 16154 16155 16156 16157 16158 16159 16160 16161 16162 16163 16164 16165 16166 16167 16168 16169 16170 16171 16172 16173 16174 16175 16176 16177 16178 16179 16180 16181 16182 16183 16184 16185 16186 16187 16188 16189 16190 16191 16192 16193 16194 16195 16196 16197 16198 16199 16200 16201 16202 16203 16204 16205 16206 16207 16208 16209 16210 16211 16212 16213 16214 16215 16216 16217 16218 16219 16220 16221 16222 16223 16224 16225 16226 16227 16228 16229 16230 16231 16232 16233 16234 16235 16236 16237 16238 16239 16240 16241 16242 16243 16244 16245 16246 16247 16248 16249 16250 16251 16252 16253 16254 16255 16256 16257 16258 16259 16260 16261 16262 16263 16264 16265 16266 16267 16268 16269 16270 16271 16272 16273 16274 16275 16276 16277 16278 16279 16280 16281 16282 16283 16284 16285 16286 16287 16288 16289 16290 16291 16292 16293 16294 16295 16296 16297 16298 16299 16300 16301 16302 16303 16304 16305 16306 16307 16308 16309 16310 16311 16312 16313 16314 16315 16316 16317 16318 16319 16320 16321 16322 16323 16324 16325 16326 16327 16328 16329 16330 16331 16332 16333 16334 16335 16336 16337 16338 16339 16340 16341 16342 16343 16344 16345 16346 16347 16348 16349 16350 16351 16352 16353 16354 16355 16356 16357 16358 16359 16360 16361 16362 16363 16364 16365 16366 16367 16368 16369 16370 16371 16372 16373 16374 16375 16376 16377 16378 16379 16380 16381 16382 16383 16384 16385 16386 16387 16388 16389 16390 16391 16392 16393 16394 16395 16396 16397 16398 16399 16400 16401 16402 16403 16404 16405 16406 16407 16408 16409 16410 16411 16412 16413 16414 16415 16416 16417 16418 16419 16420 16421 16422 16423 16424 16425 16426 16427 16428 16429 16430 16431 16432 16433 16434 16435 16436 16437 16438 16439 16440 16441 16442 16443 16444 16445 16446 16447 16448 16449 16450 16451 16452 16453 16454 16455 16456 16457 16458 16459 16460 16461 16462 16463 16464 16465 16466 16467 16468 16469 16470 16471 16472 16473 16474 16475 16476 16477 16478 16479 16480 16481 16482 16483 16484 16485 16486 16487 16488 16489 16490 16491 16492 16493 16494 16495 16496 16497 16498 16499 16500 16501 16502 16503 16504 16505 16506 16507 16508 16509 16510 16511 16512 16513 16514 16515 16516 16517 16518 16519 16520 16521 16522 16523 16524 16525 16526 16527 16528 16529 16530 16531 16532 16533 16534 16535 16536 16537 16538 16539 16540 16541 16542 16543 16544 16545 16546 16547 16548 16549 16550 16551 16552 16553 16554 16555 16556 16557 16558 16559 16560 16561 16562 16563 16564 16565 16566 16567 16568 16569 16570 16571 16572 16573 16574 16575 16576 16577 16578 16579 16580 16581 16582 16583 16584 16585 16586 16587 16588 16589 16590 16591 16592 16593 16594 16595 16596 16597 16598 16599 16600 16601 16602 16603 16604 16605 16606 16607 16608 16609 16610 16611 16612 16613 16614 16615 16616 16617 16618 16619 16620 16621 16622 16623 16624 16625 16626 16627 16628 16629 16630 16631 16632 16633 16634 16635 16636 16637 16638 16639 16640 16641 16642 16643 16644 16645 16646 16647 16648 16649 16650 16651 16652 16653 16654 16655 16656 16657 16658 16659 16660 16661 16662 16663 16664 16665 16666 16667 16668 16669 16670 16671 16672 16673 16674 16675 16676 16677 16678 16679 16680 16681 16682 16683 16684 16685 16686 16687 16688 16689 16690 16691 16692 16693 16694 16695 16696 16697 16698 16699 16700 16701 16702 16703 16704 16705 16706 16707 16708 16709 16710 16711 16712 16713 16714 16715 16716 16717 16718 16719 16720 16721 16722 16723 16724 16725 16726 16727 16728 16729 16730 16731 16732 16733 16734 16735 16736 16737 16738 16739 16740 16741 16742 16743 16744 16745 16746 16747 16748 16749 16750 16751 16752 16753 16754 16755 16756 16757 16758 16759 16760 16761 16762 16763 16764 16765 16766 16767 16768 16769 16770 16771 16772 16773 16774 16775 16776 16777 16778 16779 16780 16781 16782 16783 16784 16785 16786 16787 16788 16789 16790 16791 16792 16793 16794 16795 16796 16797 16798 16799 16800 16801 16802 16803 16804 16805 16806 16807 16808 16809 16810 16811 16812 16813 16814 16815 16816 16817 16818 16819 16820 16821 16822 16823 16824 16825 16826 16827 16828 16829 16830 16831 16832 16833 16834 16835 16836 16837 16838 16839 16840 16841 16842 16843 16844 16845 16846 16847 16848 16849 16850 16851 16852 16853 16854 16855 16856 16857 16858 16859 16860 16861 16862 16863 16864 16865 16866 16867 16868 16869 16870 16871 16872 16873 16874 16875 16876 16877 16878 16879 16880 16881 16882 16883 16884 16885 16886 16887 16888 16889 16890 16891 16892 16893 16894 16895 16896 16897 16898 16899 16900 16901 16902 16903 16904 16905 16906 16907 16908 16909 16910 16911 16912 16913 16914 16915 16916 16917 16918 16919 16920 16921 16922 16923 16924 16925 16926 16927 16928 16929 16930 16931 16932 16933 16934 16935 16936 16937 16938 16939 16940 16941 16942 16943 16944 16945 16946 16947 16948 16949 16950 16951 16952 16953 16954 16955 16956 16957 16958 16959 16960 16961 16962 16963 16964 16965 16966 16967 16968 16969 16970 16971 16972 16973 16974 16975 16976 16977 16978 16979 16980 16981 16982 16983 16984 16985 16986 16987 16988 16989 16990 16991 16992 16993 16994 16995 16996 16997 16998 16999 17000 17001 17002 17003 17004 17005 17006 17007 17008 17009 17010 17011 17012 17013 17014 17015 17016 17017 17018 17019 17020 17021 17022 17023 17024 17025 17026 17027 17028 17029 17030 17031 17032 17033 17034 17035 17036 17037 17038 17039 17040 17041 17042 17043 17044 17045 17046 17047 17048 17049 17050 17051 17052 17053 17054 17055 17056 17057 17058 17059 17060 17061 17062 17063 17064 17065 17066 17067 17068 17069 17070 17071 17072 17073 17074 17075 17076 17077 17078 17079 17080 17081 17082 17083 17084 17085 17086 17087 17088 17089 17090 17091 17092 17093 17094 17095 17096 17097 17098 17099 17100 17101 17102 17103 17104 17105 17106 17107 17108 17109 17110 17111 17112 17113 17114 17115 17116 17117 17118 17119 17120 17121 17122 17123 17124 17125 17126 17127 17128 17129 17130 17131 17132 17133 17134 17135 17136 17137 17138 17139 17140 17141 17142 17143 17144 17145 17146 17147 17148 17149 17150 17151 17152 17153 17154 17155 17156 17157 17158 17159 17160 17161 17162 17163 17164 17165 17166 17167 17168 17169 17170 17171 17172 17173 17174 17175 17176 17177 17178 17179 17180 17181 17182 17183 17184 17185 17186 17187 17188 17189 17190 17191 17192 17193 17194 17195 17196 17197 17198 17199 17200 17201 17202 17203 17204 17205 17206 17207 17208 17209 17210 17211 17212 17213 17214 17215 17216 17217 17218 17219 17220 17221 17222 17223 17224 17225 17226 17227 17228 17229 17230 17231 17232 17233 17234 17235 17236 17237 17238 17239 17240 17241 17242 17243 17244 17245 17246 17247 17248 17249 17250 17251 17252 17253 17254 17255 17256 17257 17258 17259 17260 17261 17262 17263 17264 17265 17266 17267 17268 17269 17270 17271 17272 17273 17274 17275 17276 17277 17278 17279 17280 17281 17282 17283 17284 17285 17286 17287 17288 17289 17290 17291 17292 17293 17294 17295 17296 17297 17298 17299 17300 17301 17302 17303 17304 17305 17306 17307 17308 17309 17310 17311 17312 17313 17314 17315 17316 17317 17318 17319 17320 17321 17322 17323 17324 17325 17326 17327 17328 17329 17330 17331 17332 17333 17334 17335 17336 17337 17338 17339 17340 17341 17342 17343 17344 17345 17346 17347 17348 17349 17350 17351 17352 17353 17354 17355 17356 17357 17358 17359 17360 17361 17362 17363 17364 17365 17366 17367 17368 17369 17370 17371 17372 17373 17374 17375 17376 17377 17378 17379 17380 17381 17382 17383 17384 17385 17386 17387 17388 17389 17390 17391 17392 17393 17394 17395 17396 17397 17398 17399 17400 17401 17402 17403 17404 17405 17406 17407 17408 17409 17410 17411 17412 17413 17414 17415 17416 17417 17418 17419 17420 17421 17422 17423 17424 17425 17426 17427 17428 17429 17430 17431 17432 17433 17434 17435 17436 17437 17438 17439 17440 17441 17442 17443 17444 17445 17446 17447 17448 17449 17450 17451 17452 17453 17454 17455 17456 17457 17458 17459 17460 17461 17462 17463 17464 17465 17466 17467 17468 17469 17470 17471 17472 17473 17474 17475 17476 17477 17478 17479 17480 17481 17482 17483 17484 17485 17486 17487 17488 17489 17490 17491 17492 17493 17494 17495 17496 17497 17498 17499 17500 17501 17502 17503 17504 17505 17506 17507 17508 17509 17510 17511 17512 17513 17514 17515 17516 17517 17518 17519 17520 17521 17522 17523 17524 17525 17526 17527 17528 17529 17530 17531 17532 17533 17534 17535 17536 17537 17538 17539 17540 17541 17542 17543 17544 17545 17546 17547 17548 17549 17550 17551 17552 17553 17554 17555 17556 17557 17558 17559 17560 17561 17562 17563 17564 17565 17566 17567 17568 17569 17570 17571 17572 17573 17574 17575 17576 17577 17578 17579 17580 17581 17582 17583 17584 17585 17586 17587 17588 17589 17590 17591 17592 17593 17594 17595 17596 17597 17598 17599 17600 17601 17602 17603 17604 17605 17606 17607 17608 17609 17610 17611 17612 17613 17614 17615 17616 17617 17618 17619 17620 17621 17622 17623 17624 17625 17626 17627 17628 17629 17630 17631 17632 17633 17634 17635 17636 17637 17638 17639 17640 17641 17642 17643 17644 17645 17646 17647 17648 17649 17650 17651 17652 17653 17654 17655 17656 17657 17658 17659 17660 17661 17662 17663 17664 17665 17666 17667 17668 17669 17670 17671 17672 17673 17674 17675 17676 17677 17678 17679 17680 17681 17682 17683 17684 17685 17686 17687 17688 17689 17690 17691 17692 17693 17694 17695 17696 17697 17698 17699 17700 17701 17702 17703 17704 17705 17706 17707 17708 17709 17710 17711 17712 17713 17714 17715 17716 17717 17718 17719 17720 17721 17722 17723 17724 17725 17726 17727 17728 17729 17730 17731 17732 17733 17734 17735 17736 17737 17738 17739 17740 17741 17742 17743 17744 17745 17746 17747 17748 17749 17750 17751 17752 17753 17754 17755 17756 17757 17758 17759 17760 17761 17762 17763 17764 17765 17766 17767 17768 17769 17770 17771 17772 17773 17774 17775 17776 17777 17778 17779 17780 17781 17782 17783 17784 17785 17786 17787 17788 17789 17790 17791 17792 17793 17794 17795 17796 17797 17798 17799 17800 17801 17802 17803 17804 17805 17806 17807 17808 17809 17810 17811 17812 17813 17814 17815 17816 17817 17818 17819 17820 17821 17822 17823 17824 17825 17826 17827 17828 17829 17830 17831 17832 17833 17834 17835 17836 17837 17838 17839 17840 17841 17842 17843 17844 17845 17846 17847 17848 17849 17850 17851 17852 17853 17854 17855 17856 17857 17858 17859 17860 17861 17862 17863 17864 17865 17866 17867 17868 17869 17870 17871 17872 17873 17874 17875 17876 17877 17878 17879 17880 17881 17882 17883 17884 17885 17886 17887 17888 17889 17890 17891 17892 17893 17894 17895 17896 17897 17898 17899 17900 17901 17902 17903 17904 17905 17906 17907 17908 17909 17910 17911 17912 17913 17914 17915 17916 17917 17918 17919 17920 17921 17922 17923 17924 17925 17926 17927 17928 17929 17930 17931 17932 17933 17934 17935 17936 17937 17938 17939 17940 17941 17942 17943 17944 17945 17946 17947 17948 17949 17950 17951 17952 17953 17954 17955 17956 17957 17958 17959 17960 17961 17962 17963 17964 17965 17966 17967 17968 17969 17970 17971 17972 17973 17974 17975 17976 17977 17978 17979 17980 17981 17982 17983 17984 17985 17986 17987 17988 17989 17990 17991 17992 17993 17994 17995 17996 17997 17998 17999 18000 18001 18002 18003 18004 18005 18006 18007 18008 18009 18010 18011 18012 18013 18014 18015 18016 18017 18018 18019 18020 18021 18022 18023 18024 18025 18026 18027 18028 18029 18030 18031 18032 18033 18034 18035 18036 18037 18038 18039 18040 18041 18042 18043 18044 18045 18046 18047 18048 18049 18050 18051 18052 18053 18054 18055 18056 18057 18058 18059 18060 18061 18062 18063 18064 18065 18066 18067 18068 18069 18070 18071 18072 18073 18074 18075 18076 18077 18078 18079 18080 18081 18082 18083 18084 18085 18086 18087 18088 18089 18090 18091 18092 18093 18094 18095 18096 18097 18098 18099 18100 18101 18102 18103 18104 18105 18106 18107 18108 18109 18110 18111 18112 18113 18114 18115 18116 18117 18118 18119 18120 18121 18122 18123 18124 18125 18126 18127 18128 18129 18130 18131 18132 18133 18134 18135 18136 18137 18138 18139 18140 18141 18142 18143 18144 18145 18146 18147 18148 18149 18150 18151 18152 18153 18154 18155 18156 18157 18158 18159 18160 18161 18162 18163 18164 18165 18166 18167 18168 18169 18170 18171 18172 18173 18174 18175 18176 18177 18178 18179 18180 18181 18182 18183 18184 18185 18186 18187 18188 18189 18190 18191 18192 18193 18194 18195 18196 18197 18198 18199 18200 18201 18202 18203 18204 18205 18206 18207 18208 18209 18210 18211 18212 18213 18214 18215 18216 18217 18218 18219 18220 18221 18222 18223 18224 18225 18226 18227 18228 18229 18230 18231 18232 18233 18234 18235 18236 18237 18238 18239 18240 18241 18242 18243 18244 18245 18246 18247 18248 18249 18250 18251 18252 18253 18254 18255 18256 18257 18258 18259 18260 18261 18262 18263 18264 18265 18266 18267 18268 18269 18270 18271 18272 18273 18274 18275 18276 18277 18278 18279 18280 18281 18282 18283 18284 18285 18286 18287 18288 18289 18290 18291 18292 18293 18294 18295 18296 18297 18298 18299 18300 18301 18302 18303 18304 18305 18306 18307 18308 18309 18310 18311 18312 18313 18314 18315 18316 18317 18318 18319 18320 18321 18322 18323 18324 18325 18326 18327 18328 18329 18330 18331 18332 18333 18334 18335 18336 18337 18338 18339 18340 18341 18342 18343 18344 18345 18346 18347 18348 18349 18350 18351 18352 18353 18354 18355 18356 18357 18358 18359 18360 18361 18362 18363 18364 18365 18366 18367 18368 18369 18370 18371 18372 18373 18374 18375 18376 18377 18378 18379 18380 18381 18382 18383 18384 18385 18386 18387 18388 18389 18390 18391 18392 18393 18394 18395 18396 18397 18398 18399 18400 18401 18402 18403 18404 18405 18406 18407 18408 18409 18410 18411 18412 18413 18414 18415 18416 18417 18418 18419 18420 18421 18422 18423 18424 18425 18426 18427 18428 18429 18430 18431 18432 18433 18434 18435 18436 18437 18438 18439 18440 18441 18442 18443 18444 18445 18446 18447 18448 18449 18450 18451 18452 18453 18454 18455 18456 18457 18458 18459 18460 18461 18462 18463 18464 18465 18466 18467 18468 18469 18470 18471 18472 18473 18474 18475 18476 18477 18478 18479 18480 18481 18482 18483 18484 18485 18486 18487 18488 18489 18490 18491 18492 18493 18494 18495 18496 18497 18498 18499 18500 18501 18502 18503 18504 18505 18506 18507 18508 18509 18510 18511 18512 18513 18514 18515 18516 18517 18518 18519 18520 18521 18522 18523 18524 18525 18526 18527 18528 18529 18530 18531 18532 18533 18534 18535 18536 18537 18538 18539 18540 18541 18542 18543 18544 18545 18546 18547 18548 18549 18550 18551 18552 18553 18554 18555 18556 18557 18558 18559 18560 18561 18562 18563 18564 18565 18566 18567 18568 18569 18570 18571 18572 18573 18574 18575 18576 18577 18578 18579 18580 18581 18582 18583 18584 18585 18586 18587 18588 18589 18590 18591 18592 18593 18594 18595 18596 18597 18598 18599 18600 18601 18602 18603 18604 18605 18606 18607 18608 18609 18610 18611 18612 18613 18614 18615 18616 18617 18618 18619 18620 18621 18622 18623 18624 18625 18626 18627 18628 18629 18630 18631 18632 18633 18634 18635 18636 18637 18638 18639 18640 18641 18642 18643 18644 18645 18646 18647 18648 18649 18650 18651 18652 18653 18654 18655 18656 18657 18658 18659 18660 18661 18662 18663 18664 18665 18666 18667 18668 18669 18670 18671 18672 18673 18674 18675 18676 18677 18678 18679 18680 18681 18682 18683 18684 18685 18686 18687 18688 18689 18690 18691 18692 18693 18694 18695 18696 18697 18698 18699 18700 18701 18702 18703 18704 18705 18706 18707 18708 18709 18710 18711 18712 18713 18714 18715 18716 18717 18718 18719 18720 18721 18722 18723 18724 18725 18726 18727 18728 18729 18730 18731 18732 18733 18734 18735 18736 18737 18738 18739 18740 18741 18742 18743 18744 18745 18746 18747 18748 18749 18750 18751 18752 18753 18754 18755 18756 18757 18758 18759 18760 18761 18762 18763 18764 18765 18766 18767 18768 18769 18770 18771 18772 18773 18774 18775 18776 18777 18778 18779 18780 18781 18782 18783 18784 18785 18786 18787 18788 18789 18790 18791 18792 18793 18794 18795 18796 18797 18798 18799 18800 18801 18802 18803 18804 18805 18806 18807 18808 18809 18810 18811 18812 18813 18814 18815 18816 18817 18818 18819 18820 18821 18822 18823 18824 18825 18826 18827 18828 18829 18830 18831 18832 18833 18834 18835 18836 18837 18838 18839 18840 18841 18842 18843 18844 18845 18846 18847 18848 18849 18850 18851 18852 18853 18854 18855 18856 18857 18858 18859 18860 18861 18862 18863 18864 18865 18866 18867 18868 18869 18870 18871 18872 18873 18874 18875 18876 18877 18878 18879 18880 18881 18882 18883 18884 18885 18886 18887 18888 18889 18890 18891 18892 18893 18894 18895 18896 18897 18898 18899 18900 18901 18902 18903 18904 18905 18906 18907 18908 18909 18910 18911 18912 18913 18914 18915 18916 18917 18918 18919 18920 18921 18922 18923 18924 18925 18926 18927 18928 18929 18930 18931 18932 18933 18934 18935 18936 18937 18938 18939 18940 18941 18942 18943 18944 18945 18946 18947 18948 18949 18950 18951 18952 18953 18954 18955 18956 18957 18958 18959 18960 18961 18962 18963 18964 18965 18966 18967 18968 18969 18970 18971 18972 18973 18974 18975 18976 18977 18978 18979 18980 18981 18982 18983 18984 18985 18986 18987 18988 18989 18990 18991 18992 18993 18994 18995 18996 18997 18998 18999 19000 19001 19002 19003 19004 19005 19006 19007 19008 19009 19010 19011 19012 19013 19014 19015 19016 19017 19018 19019 19020 19021 19022 19023 19024 19025 19026 19027 19028 19029 19030 19031 19032 19033 19034 19035 19036 19037 19038 19039 19040 19041 19042 19043 19044 19045 19046 19047 19048 19049 19050 19051 19052 19053 19054 19055 19056 19057 19058 19059 19060 19061 19062 19063 19064 19065 19066 19067 19068 19069 19070 19071 19072 19073 19074 19075 19076 19077 19078 19079 19080 19081 19082 19083 19084 19085 19086 19087 19088 19089 19090 19091 19092 19093 19094 19095 19096 19097 19098 19099 19100 19101 19102 19103 19104 19105 19106 19107 19108 19109 19110 19111 19112 19113 19114 19115 19116 19117 19118 19119 19120 19121 19122 19123 19124 19125 19126 19127 19128 19129 19130 19131 19132 19133 19134 19135 19136 19137 19138 19139 19140 19141 19142 19143 19144 19145 19146 19147 19148 19149 19150 19151 19152 19153 19154 19155 19156 19157 19158 19159 19160 19161 19162 19163 19164 19165 19166 19167 19168 19169 19170 19171 19172 19173 19174 19175 19176 19177 19178 19179 19180 19181 19182 19183 19184 19185 19186 19187 19188 19189 19190 19191 19192 19193 19194 19195 19196 19197 19198 19199 19200 19201 19202 19203 19204 19205 19206 19207 19208 19209 19210 19211 19212 19213 19214 19215 19216 19217 19218 19219 19220 19221 19222 19223 19224 19225 19226 19227 19228 19229 19230 19231 19232 19233 19234 19235 19236 19237 19238 19239 19240 19241 19242 19243 19244 19245 19246 19247 19248 19249 19250 19251 19252 19253 19254 19255 19256 19257 19258 19259 19260 19261 19262 19263 19264 19265 19266 19267 19268 19269 19270 19271 19272 19273 19274 19275 19276 19277 19278 19279 19280 19281 19282 19283 19284 19285 19286 19287 19288 19289 19290 19291 19292 19293 19294 19295 19296 19297 19298 19299 19300 19301 19302 19303 19304 19305 19306 19307 19308 19309 19310 19311 19312 19313 19314 19315 19316 19317 19318 19319 19320 19321 19322 19323 19324 19325 19326 19327 19328 19329 19330 19331 19332 19333 19334 19335 19336 19337 19338 19339 19340 19341 19342 19343 19344 19345 19346 19347 19348 19349 19350 19351 19352 19353 19354 19355 19356 19357 19358 19359 19360 19361 19362 19363 19364 19365 19366 19367 19368 19369 19370 19371 19372 19373 19374 19375 19376 19377 19378 19379 19380 19381 19382 19383 19384 19385 19386 19387 19388 19389 19390 19391 19392 19393 19394 19395 19396 19397 19398 19399 19400 19401 19402 19403 19404 19405 19406 19407 19408 19409 19410 19411 19412 19413 19414 19415 19416 19417 19418 19419 19420 19421 19422 19423 19424 19425 19426 19427 19428 19429 19430 19431 19432 19433 19434 19435 19436 19437 19438 19439 19440 19441 19442 19443 19444 19445 19446 19447 19448 19449 19450 19451 19452 19453 19454 19455 19456 19457 19458 19459 19460 19461 19462 19463 19464 19465 19466 19467 19468 19469 19470 19471 19472 19473 19474 19475 19476 19477 19478 19479 19480 19481 19482 19483 19484 19485 19486 19487 19488 19489 19490 19491 19492 19493 19494 19495 19496 19497 19498 19499 19500 19501 19502 19503 19504 19505 19506 19507 19508 19509 19510 19511 19512 19513 19514 19515 19516 19517 19518 19519 19520 19521 19522 19523 19524 19525 19526 19527 19528 19529 19530 19531 19532 19533 19534 19535 19536 19537 19538 19539 19540 19541 19542 19543 19544 19545 19546 19547 19548 19549 19550 19551 19552 19553 19554 19555 19556 19557 19558 19559 19560 19561 19562 19563 19564 19565 19566 19567 19568 19569 19570 19571 19572 19573 19574 19575 19576 19577 19578 19579 19580 19581 19582 19583 19584 19585 19586 19587 19588 19589 19590 19591 19592 19593 19594 19595 19596 19597 19598 19599 19600 19601 19602 19603 19604 19605 19606 19607 19608 19609 19610 19611 19612 19613 19614 19615 19616 19617 19618 19619 19620 19621 19622 19623 19624 19625 19626 19627 19628 19629 19630 19631 19632 19633 19634 19635 19636 19637 19638 19639 19640 19641 19642 19643 19644 19645 19646 19647 19648 19649 19650 19651 19652 19653 19654 19655 19656 19657 19658 19659 19660 19661 19662 19663 19664 19665 19666 19667 19668 19669 19670 19671 19672 19673 19674 19675 19676 19677 19678 19679 19680 19681 19682 19683 19684 19685 19686 19687 19688 19689 19690 19691 19692 19693 19694 19695 19696 19697 19698 19699 19700 19701 19702 19703 19704 19705 19706 19707 19708 19709 19710 19711 19712 19713 19714 19715 19716 19717 19718 19719 19720 19721 19722 19723 19724 19725 19726 19727 19728 19729 19730 19731 19732 19733 19734 19735 19736 19737 19738 19739 19740 19741 19742 19743 19744 19745 19746 19747 19748 19749 19750 19751 19752 19753 19754 19755 19756 19757 19758 19759 19760 19761 19762 19763 19764 19765 19766 19767 19768 19769 19770 19771 19772 19773 19774 19775 19776 19777 19778 19779 19780 19781 19782 19783 19784 19785 19786 19787 19788 19789 19790 19791 19792 19793 19794 19795 19796 19797 19798 19799 19800 19801 19802 19803 19804 19805 19806 19807 19808 19809 19810 19811 19812 19813 19814 19815 19816 19817 19818 19819 19820 19821 19822 19823 19824 19825 19826 19827 19828 19829 19830 19831 19832 19833 19834 19835 19836 19837 19838 19839 19840 19841 19842 19843 19844 19845 19846 19847 19848 19849 19850 19851 19852 19853 19854 19855 19856 19857 19858 19859 19860 19861 19862 19863 19864 19865 19866 19867 19868 19869 19870 19871 19872 19873 19874 19875 19876 19877 19878 19879 19880 19881 19882 19883 19884 19885 19886 19887 19888 19889 19890 19891 19892 19893 19894 19895 19896 19897 19898 19899 19900 19901 19902 19903 19904 19905 19906 19907 19908 19909 19910 19911 19912 19913 19914 19915 19916 19917 19918 19919 19920 19921 19922 19923 19924 19925 19926 19927 19928 19929 19930 19931 19932 19933 19934 19935 19936 19937 19938 19939 19940 19941 19942 19943 19944 19945 19946 19947 19948 19949 19950 19951 19952 19953 19954 19955 19956 19957 19958 19959 19960 19961 19962 19963 19964 19965 19966 19967 19968 19969 19970 19971 19972 19973 19974 19975 19976 19977 19978 19979 19980 19981 19982 19983 19984 19985 19986 19987 19988 19989 19990 19991 19992 19993 19994 19995 19996 19997 19998 19999 20000 20001 20002 20003 20004 20005 20006 20007 20008 20009 20010 20011 20012 20013 20014 20015 20016 20017 20018 20019 20020 20021 20022 20023 20024 20025 20026 20027 20028 20029 20030 20031 20032 20033 20034 20035 20036 20037 20038 20039 20040 20041 20042 20043 20044 20045 20046 20047 20048 20049 20050 20051 20052 20053 20054 20055 20056 20057 20058 20059 20060 20061 20062 20063 20064 20065 20066 20067 20068 20069 20070 20071 20072 20073 20074 20075 20076 20077 20078 20079 20080 20081 20082 20083 20084 20085 20086 20087 20088 20089 20090 20091 20092 20093 20094 20095 20096 20097 20098 20099 20100 20101 20102 20103 20104 20105 20106 20107 20108 20109 20110 20111 20112 20113 20114 20115 20116 20117 20118 20119 20120 20121 20122 20123 20124 20125 20126 20127 20128 20129 20130 20131 20132 20133 20134 20135 20136 20137 20138 20139 20140 20141 20142 20143 20144 20145 20146 20147 20148 20149 20150 20151 20152 20153 20154 20155 20156 20157 20158 20159 20160 20161 20162 20163 20164 20165 20166 20167 20168 20169 20170 20171 20172 20173 20174 20175 20176 20177 20178 20179 20180 20181 20182 20183 20184 20185 20186 20187 20188 20189 20190 20191 20192 20193 20194 20195 20196 20197 20198 20199 20200 20201 20202 20203 20204 20205 20206 20207 20208 20209 20210 20211 20212 20213 20214 20215 20216 20217 20218 20219 20220 20221 20222 20223 20224 20225 20226 20227 20228 20229 20230 20231 20232 20233 20234 20235 20236 20237 20238 20239 20240 20241 20242 20243 20244 20245 20246 20247 20248 20249 20250 20251 20252 20253 20254 20255 20256 20257 20258 20259 20260 20261 20262 20263 20264 20265 20266 20267 20268 20269 20270 20271 20272 20273 20274 20275 20276 20277 20278 20279 20280 20281 20282 20283 20284 20285 20286 20287 20288 20289 20290 20291 20292 20293 20294 20295 20296 20297 20298 20299 20300 20301 20302 20303 20304 20305 20306 20307 20308 20309 20310 20311 20312 20313 20314 20315 20316 20317 20318 20319 20320 20321 20322 20323 20324 20325 20326 20327 20328 20329 20330 20331 20332 20333 20334 20335 20336 20337 20338 20339 20340 20341 20342 20343 20344 20345 20346 20347 20348 20349 20350 20351 20352 20353 20354 20355 20356 20357 20358 20359 20360 20361 20362 20363 20364 20365 20366 20367 20368 20369 20370 20371 20372 20373 20374 20375 20376 20377 20378 20379 20380 20381 20382 20383 20384 20385 20386 20387 20388 20389 20390 20391 20392 20393 20394 20395 20396 20397 20398 20399 20400 20401 20402 20403 20404 20405 20406 20407 20408 20409 20410 20411 20412 20413 20414 20415 20416 20417 20418 20419 20420 20421 20422 20423 20424 20425 20426 20427 20428 20429 20430 20431 20432 20433 20434 20435 20436 20437 20438 20439 20440 20441 20442 20443 20444 20445 20446 20447 20448 20449 20450 20451 20452 20453 20454 20455 20456 20457 20458 20459 20460 20461 20462 20463 20464 20465 20466 20467 20468 20469 20470 20471 20472 20473 20474 20475 20476 20477 20478 20479 20480 20481 20482 20483 20484 20485 20486 20487 20488 20489 20490 20491 20492 20493 20494 20495 20496 20497 20498 20499 20500 20501 20502 20503 20504 20505 20506 20507 20508 20509 20510 20511 20512 20513 20514 20515 20516 20517 20518 20519 20520 20521 20522 20523 20524 20525 20526 20527 20528 20529 20530 20531 20532 20533 20534 20535 20536 20537 20538 20539 20540 20541 20542 20543 20544 20545 20546 20547 20548 20549 20550 20551 20552 20553 20554 20555 20556 20557 20558 20559 20560 20561 20562 20563 20564 20565 20566 20567 20568 20569 20570 20571 20572 20573 20574 20575 20576 20577 20578 20579 20580 20581 20582 20583 20584 20585 20586 20587 20588 20589 20590 20591 20592 20593 20594 20595 20596 20597 20598 20599 20600 20601 20602 20603 20604 20605 20606 20607 20608 20609 20610 20611 20612 20613 20614 20615 20616 20617 20618 20619 20620 20621 20622 20623 20624 20625 20626 20627 20628 20629 20630 20631 20632 20633 20634 20635 20636 20637 20638 20639 20640 20641 20642 20643 20644 20645 20646 20647 20648 20649 20650 20651 20652 20653 20654 20655 20656 20657 20658 20659 20660 20661 20662 20663 20664 20665 20666 20667 20668 20669 20670 20671 20672 20673 20674 20675 20676 20677 20678 20679 20680 20681 20682 20683 20684 20685 20686 20687 20688 20689 20690 20691 20692 20693 20694 20695 20696 20697 20698 20699 20700 20701 20702 20703 20704 20705 20706 20707 20708 20709 20710 20711 20712 20713 20714 20715 20716 20717 20718 20719 20720 20721 20722 20723 20724 20725 20726 20727 20728 20729 20730 20731 20732 20733 20734 20735 20736 20737 20738 20739 20740 20741 20742 20743 20744 20745 20746 20747 20748 20749 20750 20751 20752 20753 20754 20755 20756 20757 20758 20759 20760 20761 20762 20763 20764 20765 20766 20767 20768 20769 20770 20771 20772 20773 20774 20775 20776 20777 20778 20779 20780 20781 20782 20783 20784 20785 20786 20787 20788 20789 20790 20791 20792 20793 20794 20795 20796 20797 20798 20799 20800 20801 20802 20803 20804 20805 20806 20807 20808 20809 20810 20811 20812 20813 20814 20815 20816 20817 20818 20819 20820 20821 20822 20823 20824 20825 20826 20827 20828 20829 20830 20831 20832 20833 20834 20835 20836 20837 20838 20839 20840 20841 20842 20843 20844 20845 20846 20847 20848 20849 20850 20851 20852 20853 20854 20855 20856 20857 20858 20859 20860 20861 20862 20863 20864 20865 20866 20867 20868 20869 20870 20871 20872 20873 20874 20875 20876 20877 20878 20879 20880 20881 20882 20883 20884 20885 20886 20887 20888 20889 20890 20891 20892 20893 20894 20895 20896 20897 20898 20899 20900 20901 20902 20903 20904 20905 20906 20907 20908 20909 20910 20911 20912 20913 20914 20915 20916 20917 20918 20919 20920 20921 20922 20923 20924 20925 20926 20927 20928 20929 20930 20931 20932 20933 20934 20935 20936 20937 20938 20939 20940 20941 20942 20943 20944 20945 20946 20947 20948 20949 20950 20951 20952 20953 20954 20955 20956 20957 20958 20959 20960 20961 20962 20963 20964 20965 20966 20967 20968 20969 20970 20971 20972 20973 20974 20975 20976 20977 20978 20979 20980 20981 20982 20983 20984 20985 20986 20987 20988 20989 20990 20991 20992 20993 20994 20995 20996 20997 20998 20999 21000 21001 21002 21003 21004 21005 21006 21007 21008 21009 21010 21011 21012 21013 21014 21015 21016 21017 21018 21019 21020 21021 21022 21023 21024 21025 21026 21027 21028 21029 21030 21031 21032 21033 21034 21035 21036 21037 21038 21039 21040 21041 21042 21043 21044 21045 21046 21047 21048 21049 21050 21051 21052 21053 21054 21055 21056 21057 21058 21059 21060 21061 21062 21063 21064 21065 21066 21067 21068 21069 21070 21071 21072 21073 21074 21075 21076 21077 21078 21079 21080 21081 21082 21083 21084 21085 21086 21087 21088 21089 21090 21091 21092 21093 21094 21095 21096 21097 21098 21099 21100 21101 21102 21103 21104 21105 21106 21107 21108 21109 21110 21111 21112 21113 21114 21115 21116 21117 21118 21119 21120 21121 21122 21123 21124 21125 21126 21127 21128 21129 21130 21131 21132 21133 21134 21135 21136 21137 21138 21139 21140 21141 21142 21143 21144 21145 21146 21147 21148 21149 21150 21151 21152 21153 21154 21155 21156 21157 21158 21159 21160 21161 21162 21163 21164 21165 21166 21167 21168 21169 21170 21171 21172 21173 21174 21175 21176 21177 21178 21179 21180 21181 21182 21183 21184 21185 21186 21187 21188 21189 21190 21191 21192 21193 21194 21195 21196 21197 21198 21199 21200 21201 21202 21203 21204 21205 21206 21207 21208 21209 21210 21211 21212 21213 21214 21215 21216 21217 21218 21219 21220 21221 21222 21223 21224 21225 21226 21227 21228 21229 21230 21231 21232 21233 21234 21235 21236 21237 21238 21239 21240 21241 21242 21243 21244 21245 21246 21247 21248 21249 21250 21251 21252 21253 21254 21255 21256 21257 21258 21259 21260 21261 21262 21263 21264 21265 21266 21267 21268 21269 21270 21271 21272 21273 21274 21275 21276 21277 21278 21279 21280 21281 21282 21283 21284 21285 21286 21287 21288 21289 21290 21291 21292 21293 21294 21295 21296 21297 21298 21299 21300 21301 21302 21303 21304 21305 21306 21307 21308 21309 21310 21311 21312 21313 21314 21315 21316 21317 21318 21319 21320 21321 21322 21323 21324 21325 21326 21327 21328 21329 21330 21331 21332 21333 21334 21335 21336 21337 21338 21339 21340 21341 21342 21343 21344 21345 21346 21347 21348 21349 21350 21351 21352 21353 21354 21355 21356 21357 21358 21359 21360 21361 21362 21363 21364 21365 21366 21367 21368 21369 21370 21371 21372 21373 21374 21375 21376 21377 21378 21379 21380 21381 21382 21383 21384 21385 21386 21387 21388 21389 21390 21391 21392 21393 21394 21395 21396 21397 21398 21399 21400 21401 21402 21403 21404 21405 21406 21407 21408 21409 21410 21411 21412 21413 21414 21415 21416 21417 21418 21419 21420 21421 21422 21423 21424 21425 21426 21427 21428 21429 21430 21431 21432 21433 21434 21435 21436 21437 21438 21439 21440 21441 21442 21443 21444 21445 21446 21447 21448 21449 21450 21451 21452 21453 21454 21455 21456 21457 21458 21459 21460 21461 21462 21463 21464 21465 21466 21467 21468 21469 21470 21471 21472 21473 21474 21475 21476 21477 21478 21479 21480 21481 21482 21483 21484 21485 21486 21487 21488 21489 21490 21491 21492 21493 21494 21495 21496 21497 21498 21499 21500 21501 21502 21503 21504 21505 21506 21507 21508 21509 21510 21511 21512 21513 21514 21515 21516 21517 21518 21519 21520 21521 21522 21523 21524 21525 21526 21527 21528 21529 21530 21531 21532 21533 21534 21535 21536 21537 21538 21539 21540 21541 21542 21543 21544 21545 21546 21547 21548 21549 21550 21551 21552 21553 21554 21555 21556 21557 21558 21559 21560 21561 21562 21563 21564 21565 21566 21567 21568 21569 21570 21571 21572 21573 21574 21575 21576 21577 21578 21579 21580 21581 21582 21583 21584 21585 21586 21587 21588 21589 21590 21591 21592 21593 21594 21595 21596 21597 21598 21599 21600 21601 21602 21603 21604 21605 21606 21607 21608 21609 21610 21611 21612 21613 21614 21615 21616 21617 21618 21619 21620 21621 21622 21623 21624 21625 21626 21627 21628 21629 21630 21631 21632 21633 21634 21635 21636 21637 21638 21639 21640 21641 21642 21643 21644 21645 21646 21647 21648 21649 21650 21651 21652 21653 21654 21655 21656 21657 21658 21659 21660 21661 21662 21663 21664 21665 21666 21667 21668 21669 21670 21671 21672 21673 21674 21675 21676 21677 21678 21679 21680 21681 21682 21683 21684 21685 21686 21687 21688 21689 21690 21691 21692 21693 21694 21695 21696 21697 21698 21699 21700 21701 21702 21703 21704 21705 21706 21707 21708 21709 21710 21711 21712 21713 21714 21715 21716 21717 21718 21719 21720 21721 21722 21723 21724 21725 21726 21727 21728 21729 21730 21731 21732 21733 21734 21735 21736 21737 21738 21739 21740 21741 21742 21743 21744 21745 21746 21747 21748 21749 21750 21751 21752 21753 21754 21755 21756 21757 21758 21759 21760 21761 21762 21763 21764 21765 21766 21767 21768 21769 21770 21771 21772 21773 21774 21775 21776 21777 21778 21779 21780 21781 21782 21783 21784 21785 21786 21787 21788 21789 21790 21791 21792 21793 21794 21795 21796 21797 21798 21799 21800 21801 21802 21803 21804 21805 21806 21807 21808 21809 21810 21811 21812 21813 21814 21815 21816 21817 21818 21819 21820 21821 21822 21823 21824 21825 21826 21827 21828 21829 21830 21831 21832 21833 21834 21835 21836 21837 21838 21839 21840 21841 21842 21843 21844 21845 21846 21847 21848 21849 21850 21851 21852 21853 21854 21855 21856 21857 21858 21859 21860 21861 21862 21863 21864 21865 21866 21867 21868 21869 21870 21871 21872 21873 21874 21875 21876 21877 21878 21879 21880 21881 21882 21883 21884 21885 21886 21887 21888 21889 21890 21891 21892 21893 21894 21895 21896 21897 21898 21899 21900 21901 21902 21903 21904 21905 21906 21907 21908 21909 21910 21911 21912 21913 21914 21915 21916 21917 21918 21919 21920 21921 21922 21923 21924 21925 21926 21927 21928 21929 21930 21931 21932 21933 21934 21935 21936 21937 21938 21939 21940 21941 21942 21943 21944 21945 21946 21947 21948 21949 21950 21951 21952 21953 21954 21955 21956 21957 21958 21959 21960 21961 21962 21963 21964 21965 21966 21967 21968 21969 21970 21971 21972 21973 21974 21975 21976 21977 21978 21979 21980 21981 21982 21983 21984 21985 21986 21987 21988 21989 21990 21991 21992 21993 21994 21995 21996 21997 21998 21999 22000 22001 22002 22003 22004 22005 22006 22007 22008 22009 22010 22011 22012 22013 22014 22015 22016 22017 22018 22019 22020 22021 22022 22023 22024 22025 22026 22027 22028 22029 22030 22031 22032 22033 22034 22035 22036 22037 22038 22039 22040 22041 22042 22043 22044 22045 22046 22047 22048 22049 22050 22051 22052 22053 22054 22055 22056 22057 22058 22059 22060 22061 22062 22063 22064 22065 22066 22067 22068 22069 22070 22071 22072 22073 22074 22075 22076 22077 22078 22079 22080 22081 22082 22083 22084 22085 22086 22087 22088 22089 22090 22091 22092 22093 22094 22095 22096 22097 22098 22099 22100 22101 22102 22103 22104 22105 22106 22107 22108 22109 22110 22111 22112 22113 22114 22115 22116 22117 22118 22119 22120 22121 22122 22123 22124 22125 22126 22127 22128 22129 22130 22131 22132 22133 22134 22135 22136 22137 22138 22139 22140 22141 22142 22143 22144 22145 22146 22147 22148 22149 22150 22151 22152 22153 22154 22155 22156 22157 22158 22159 22160 22161 22162 22163 22164 22165 22166 22167 22168 22169 22170 22171 22172 22173 22174 22175 22176 22177 22178 22179 22180 22181 22182 22183 22184 22185 22186 22187 22188 22189 22190 22191 22192 22193 22194 22195 22196 22197 22198 22199 22200 22201 22202 22203 22204 22205 22206 22207 22208 22209 22210 22211 22212 22213 22214 22215 22216 22217 22218 22219 22220 22221 22222 22223 22224 22225 22226 22227 22228 22229 22230 22231 22232 22233 22234 22235 22236 22237 22238 22239 22240 22241 22242 22243 22244 22245 22246 22247 22248 22249 22250 22251 22252 22253 22254 22255 22256 22257 22258 22259 22260 22261 22262 22263 22264 22265 22266 22267 22268 22269 22270 22271 22272 22273 22274 22275 22276 22277 22278 22279 22280 22281 22282 22283 22284 22285 22286 22287 22288 22289 22290 22291 22292 22293 22294 22295 22296 22297 22298 22299 22300 22301 22302 22303 22304 22305 22306 22307 22308 22309 22310 22311 22312 22313 22314 22315 22316 22317 22318 22319 22320 22321 22322 22323 22324 22325 22326 22327 22328 22329 22330 22331 22332 22333 22334 22335 22336 22337 22338 22339 22340 22341 22342 22343 22344 22345 22346 22347 22348 22349 22350 22351 22352 22353 22354 22355 22356 22357 22358 22359 22360 22361 22362 22363 22364 22365 22366 22367 22368 22369 22370 22371 22372 22373 22374 22375 22376 22377 22378 22379 22380 22381 22382 22383 22384 22385 22386 22387 22388 22389 22390 22391 22392 22393 22394 22395 22396 22397 22398 22399 22400 22401 22402 22403 22404 22405 22406 22407 22408 22409 22410 22411 22412 22413 22414 22415 22416 22417 22418 22419 22420 22421 22422 22423 22424 22425 22426 22427 22428 22429 22430 22431 22432 22433 22434 22435 22436 22437 22438 22439 22440 22441 22442 22443 22444 22445 22446 22447 22448 22449 22450 22451 22452 22453 22454 22455 22456 22457 22458 22459 22460 22461 22462 22463 22464 22465 22466 22467 22468 22469 22470 22471 22472 22473 22474 22475 22476 22477 22478 22479 22480 22481 22482 22483 22484 22485 22486 22487 22488 22489 22490 22491 22492 22493 22494 22495 22496 22497 22498 22499 22500 22501 22502 22503 22504 22505 22506 22507 22508 22509 22510 22511 22512 22513 22514 22515 22516 22517 22518 22519 22520 22521 22522 22523 22524 22525 22526 22527 22528 22529 22530 22531 22532 22533 22534 22535 22536 22537 22538 22539 22540 22541 22542 22543 22544 22545 22546 22547 22548 22549 22550 22551 22552 22553 22554 22555 22556 22557 22558 22559 22560 22561 22562 22563 22564 22565 22566 22567 22568 22569 22570 22571 22572 22573 22574 22575 22576 22577 22578 22579 22580 22581 22582 22583 22584 22585 22586 22587 22588 22589 22590 22591 22592 22593 22594 22595 22596 22597 22598 22599 22600 22601 22602 22603 22604 22605 22606 22607 22608 22609 22610 22611 22612 22613 22614 22615 22616 22617 22618 22619 22620 22621 22622 22623 22624 22625 22626 22627 22628 22629 22630 22631 22632 22633 22634 22635 22636 22637 22638 22639 22640 22641 22642 22643 22644 22645 22646 22647 22648 22649 22650 22651 22652 22653 22654 22655 22656 22657 22658 22659 22660 22661 22662 22663 22664 22665 22666 22667 22668 22669 22670 22671 22672 22673 22674 22675 22676 22677 22678 22679 22680 22681 22682 22683 22684 22685 22686 22687 22688 22689 22690 22691 22692 22693 22694 22695 22696 22697 22698 22699 22700 22701 22702 22703 22704 22705 22706 22707 22708 22709 22710 22711 22712 22713 22714 22715 22716 22717 22718 22719 22720 22721 22722 22723 22724 22725 22726 22727 22728 22729 22730 22731 22732 22733 22734 22735 22736 22737 22738 22739 22740 22741 22742 22743 22744 22745 22746 22747 22748 22749 22750 22751 22752 22753 22754 22755 22756 22757 22758 22759 22760 22761 22762 22763 22764 22765 22766 22767 22768 22769 22770 22771 22772 22773 22774 22775 22776 22777 22778 22779 22780 22781 22782 22783 22784 22785 22786 22787 22788 22789 22790 22791 22792 22793 22794 22795 22796 22797 22798 22799 22800 22801 22802 22803 22804 22805 22806 22807 22808 22809 22810 22811 22812 22813 22814 22815 22816 22817 22818 22819 22820 22821 22822 22823 22824 22825 22826 22827 22828 22829 22830 22831 22832 22833 22834 22835 22836 22837 22838 22839 22840 22841 22842 22843 22844 22845 22846 22847 22848 22849 22850 22851 22852 22853 22854 22855 22856 22857 22858 22859 22860 22861 22862 22863 22864 22865 22866 22867 22868 22869 22870 22871 22872 22873 22874 22875 22876 22877 22878 22879 22880 22881 22882 22883 22884 22885 22886 22887 22888 22889 22890 22891 22892 22893 22894 22895 22896 22897 22898 22899 22900 22901 22902 22903 22904 22905 22906 22907 22908 22909 22910 22911 22912 22913 22914 22915 22916 22917 22918 22919 22920 22921 22922 22923 22924 22925 22926 22927 22928 22929 22930 22931 22932 22933 22934 22935 22936 22937 22938 22939 22940 22941 22942 22943 22944 22945 22946 22947 22948 22949 22950 22951 22952 22953 22954 22955 22956 22957 22958 22959 22960 22961 22962 22963 22964 22965 22966 22967 22968 22969 22970 22971 22972 22973 22974 22975 22976 22977 22978 22979 22980 22981 22982 22983 22984 22985 22986 22987 22988 22989 22990 22991 22992 22993 22994 22995 22996 22997 22998 22999 23000 23001 23002 23003 23004 23005 23006 23007 23008 23009 23010 23011 23012 23013 23014 23015 23016 23017 23018 23019 23020 23021 23022 23023 23024 23025 23026 23027 23028 23029 23030 23031 23032 23033 23034 23035 23036 23037 23038 23039 23040 23041 23042 23043 23044 23045 23046 23047 23048 23049 23050 23051 23052 23053 23054 23055 23056 23057 23058 23059 23060 23061 23062 23063 23064 23065 23066 23067 23068 23069 23070 23071 23072 23073 23074 23075 23076 23077 23078 23079 23080 23081 23082 23083 23084 23085 23086 23087 23088 23089 23090 23091 23092 23093 23094 23095 23096 23097 23098 23099 23100 23101 23102 23103 23104 23105 23106 23107 23108 23109 23110 23111 23112 23113 23114 23115 23116 23117 23118 23119 23120 23121 23122 23123 23124 23125 23126 23127 23128 23129 23130 23131 23132 23133 23134 23135 23136 23137 23138 23139 23140 23141 23142 23143 23144 23145 23146 23147 23148 23149 23150 23151 23152 23153 23154 23155 23156 23157 23158 23159 23160 23161 23162 23163 23164 23165 23166 23167 23168 23169 23170 23171 23172 23173 23174 23175 23176 23177 23178 23179 23180 23181 23182 23183 23184 23185 23186 23187 23188 23189 23190 23191 23192 23193 23194 23195 23196 23197 23198 23199 23200 23201 23202 23203 23204 23205 23206 23207 23208 23209 23210 23211 23212 23213 23214 23215 23216 23217 23218 23219 23220 23221 23222 23223 23224 23225 23226 23227 23228 23229 23230 23231 23232 23233 23234 23235 23236 23237 23238 23239 23240 23241 23242 23243 23244 23245 23246 23247 23248 23249 23250 23251 23252 23253 23254 23255 23256 23257 23258 23259 23260 23261 23262 23263 23264 23265 23266 23267 23268 23269 23270 23271 23272 23273 23274 23275 23276 23277 23278 23279 23280 23281 23282 23283 23284 23285 23286 23287 23288 23289 23290 23291 23292 23293 23294 23295 23296 23297 23298 23299 23300 23301 23302 23303 23304 23305 23306 23307 23308 23309 23310 23311 23312 23313 23314 23315 23316 23317 23318 23319 23320 23321 23322 23323 23324 23325 23326 23327 23328 23329 23330 23331 23332 23333 23334 23335 23336 23337 23338 23339 23340 23341 23342 23343 23344 23345 23346 23347 23348 23349 23350 23351 23352 23353 23354 23355 23356 23357 23358 23359 23360 23361 23362 23363 23364 23365 23366 23367 23368 23369 23370 23371 23372 23373 23374 23375 23376 23377 23378 23379 23380 23381 23382 23383 23384 23385 23386 23387 23388 23389 23390 23391 23392 23393 23394 23395 23396 23397 23398 23399 23400 23401 23402 23403 23404 23405 23406 23407 23408 23409 23410 23411 23412 23413 23414 23415 23416 23417 23418 23419 23420 23421 23422 23423 23424 23425 23426 23427 23428 23429 23430 23431 23432 23433 23434 23435 23436 23437 23438 23439 23440 23441 23442 23443 23444 23445 23446 23447 23448 23449 23450 23451 23452 23453 23454 23455 23456 23457 23458 23459 23460 23461 23462 23463 23464 23465 23466 23467 23468 23469 23470 23471 23472 23473 23474 23475 23476 23477 23478 23479 23480 23481 23482 23483 23484 23485 23486 23487 23488 23489 23490 23491 23492 23493 23494 23495 23496 23497 23498 23499 23500 23501 23502 23503 23504 23505 23506 23507 23508 23509 23510 23511 23512 23513 23514 23515 23516 23517 23518 23519 23520 23521 23522 23523 23524 23525 23526 23527 23528 23529 23530 23531 23532 23533 23534 23535 23536 23537 23538 23539 23540 23541 23542 23543 23544 23545 23546 23547 23548 23549 23550 23551 23552 23553 23554 23555 23556 23557 23558 23559 23560 23561 23562 23563 23564 23565 23566 23567 23568 23569 23570 23571 23572 23573 23574 23575 23576 23577 23578 23579 23580 23581 23582 23583 23584 23585 23586 23587 23588 23589 23590 23591 23592 23593 23594 23595 23596 23597 23598 23599 23600 23601 23602 23603 23604 23605 23606 23607 23608 23609 23610 23611 23612 23613 23614 23615 23616 23617 23618 23619 23620 23621 23622 23623 23624 23625 23626 23627 23628 23629 23630 23631 23632 23633 23634 23635 23636 23637 23638 23639 23640 23641 23642 23643 23644 23645 23646 23647 23648 23649 23650 23651 23652 23653 23654 23655 23656 23657 23658 23659 23660 23661 23662 23663 23664 23665 23666 23667 23668 23669 23670 23671 23672 23673 23674 23675 23676 23677 23678 23679 23680 23681 23682 23683 23684 23685 23686 23687 23688 23689 23690 23691 23692 23693 23694 23695 23696 23697 23698 23699 23700 23701 23702 23703 23704 23705 23706 23707 23708 23709 23710 23711 23712 23713 23714 23715 23716 23717 23718 23719 23720 23721 23722 23723 23724 23725 23726 23727 23728 23729 23730 23731 23732 23733 23734 23735 23736 23737 23738 23739 23740 23741 23742 23743 23744 23745 23746 23747 23748 23749 23750 23751 23752 23753 23754 23755 23756 23757 23758 23759 23760 23761 23762 23763 23764 23765 23766 23767 23768 23769 23770 23771 23772 23773 23774 23775 23776 23777 23778 23779 23780 23781 23782 23783 23784 23785 23786 23787 23788 23789 23790 23791 23792 23793 23794 23795 23796 23797 23798 23799 23800 23801 23802 23803 23804 23805 23806 23807 23808 23809 23810 23811 23812 23813 23814 23815 23816 23817 23818 23819 23820 23821 23822 23823 23824 23825 23826 23827 23828 23829 23830 23831 23832 23833 23834 23835 23836 23837 23838 23839 23840 23841 23842 23843 23844 23845 23846 23847 23848 23849 23850 23851 23852 23853 23854 23855 23856 23857 23858 23859 23860 23861 23862 23863 23864 23865 23866 23867 23868 23869 23870 23871 23872 23873 23874 23875 23876 23877 23878 23879 23880 23881 23882 23883 23884 23885 23886 23887 23888 23889 23890 23891 23892 23893 23894 23895 23896 23897 23898 23899 23900 23901 23902 23903 23904 23905 23906 23907 23908 23909 23910 23911 23912 23913 23914 23915 23916 23917 23918 23919 23920 23921 23922 23923 23924 23925 23926 23927 23928 23929 23930 23931 23932 23933 23934 23935 23936 23937 23938 23939 23940 23941 23942 23943 23944 23945 23946 23947 23948 23949 23950 23951 23952 23953 23954 23955 23956 23957 23958 23959 23960 23961 23962 23963 23964 23965 23966 23967 23968 23969 23970 23971 23972 23973 23974 23975 23976 23977 23978 23979 23980 23981 23982 23983 23984 23985 23986 23987 23988 23989 23990 23991 23992 23993 23994 23995 23996 23997 23998 23999 24000 24001 24002 24003 24004 24005 24006 24007 24008 24009 24010 24011 24012 24013 24014 24015 24016 24017 24018 24019 24020 24021 24022 24023 24024 24025 24026 24027 24028 24029 24030 24031 24032 24033 24034 24035 24036 24037 24038 24039 24040 24041 24042 24043 24044 24045 24046 24047 24048 24049 24050 24051 24052 24053 24054 24055 24056 24057 24058 24059 24060 24061 24062 24063 24064 24065 24066 24067 24068 24069 24070 24071 24072 24073 24074 24075 24076 24077 24078 24079 24080 24081 24082 24083 24084 24085 24086 24087 24088 24089 24090 24091 24092 24093 24094 24095 24096 24097 24098 24099 24100 24101 24102 24103 24104 24105 24106 24107 24108 24109 24110 24111 24112 24113 24114 24115 24116 24117 24118 24119 24120 24121 24122 24123 24124 24125 24126 24127 24128 24129 24130 24131 24132 24133 24134 24135 24136 24137 24138 24139 24140 24141 24142 24143 24144 24145 24146 24147 24148 24149 24150 24151 24152 24153 24154 24155 24156 24157 24158 24159 24160 24161 24162 24163 24164 24165 24166 24167 24168 24169 24170 24171 24172 24173 24174 24175 24176 24177 24178 24179 24180 24181 24182 24183 24184 24185 24186 24187 24188 24189 24190 24191 24192 24193 24194 24195 24196 24197 24198 24199 24200 24201 24202 24203 24204 24205 24206 24207 24208 24209 24210 24211 24212 24213 24214 24215 24216 24217 24218 24219 24220 24221 24222 24223 24224 24225 24226 24227 24228 24229 24230 24231 24232 24233 24234 24235 24236 24237 24238 24239 24240 24241 24242 24243 24244 24245 24246 24247 24248 24249 24250 24251 24252 24253 24254 24255 24256 24257 24258 24259 24260 24261 24262 24263 24264 24265 24266 24267 24268 24269 24270 24271 24272 24273 24274 24275 24276 24277 24278 24279 24280 24281 24282 24283 24284 24285 24286 24287 24288 24289 24290 24291 24292 24293 24294 24295 24296 24297 24298 24299 24300 24301 24302 24303 24304 24305 24306 24307 24308 24309 24310 24311 24312 24313 24314 24315 24316 24317 24318 24319 24320 24321 24322 24323 24324 24325 24326 24327 24328 24329 24330 24331 24332 24333 24334 24335 24336 24337 24338 24339 24340 24341 24342 24343 24344 24345 24346 24347 24348 24349 24350 24351 24352 24353 24354 24355 24356 24357 24358 24359 24360 24361 24362 24363 24364 24365 24366 24367 24368 24369 24370 24371 24372 24373 24374 24375 24376 24377 24378 24379 24380 24381 24382 24383 24384 24385 24386 24387 24388 24389 24390 24391 24392 24393 24394 24395 24396 24397 24398 24399 24400 24401 24402 24403 24404 24405 24406 24407 24408 24409 24410 24411 24412 24413 24414 24415 24416 24417 24418 24419 24420 24421 24422 24423 24424 24425 24426 24427 24428 24429 24430 24431 24432 24433 24434 24435 24436 24437 24438 24439 24440 24441 24442 24443 24444 24445 24446 24447 24448 24449 24450 24451 24452 24453 24454 24455 24456 24457 24458 24459 24460 24461 24462 24463 24464 24465 24466 24467 24468 24469 24470 24471 24472 24473 24474 24475 24476 24477 24478 24479 24480 24481 24482 24483 24484 24485 24486 24487 24488 24489 24490 24491 24492 24493 24494 24495 24496 24497 24498 24499 24500 24501 24502 24503 24504 24505 24506 24507 24508 24509 24510 24511 24512 24513 24514 24515 24516 24517 24518 24519 24520 24521 24522 24523 24524 24525 24526 24527 24528 24529 24530 24531 24532 24533 24534 24535 24536 24537 24538 24539 24540 24541 24542 24543 24544 24545 24546 24547 24548 24549 24550 24551 24552 24553 24554 24555 24556 24557 24558 24559 24560 24561 24562 24563 24564 24565 24566 24567 24568 24569 24570 24571 24572 24573 24574 24575 24576 24577 24578 24579 24580 24581 24582 24583 24584 24585 24586 24587 24588 24589 24590 24591 24592 24593 24594 24595 24596 24597 24598 24599 24600 24601 24602 24603 24604 24605 24606 24607 24608 24609 24610 24611 24612 24613 24614 24615 24616 24617 24618 24619 24620 24621 24622 24623 24624 24625 24626 24627 24628 24629 24630 24631 24632 24633 24634 24635 24636 24637 24638 24639 24640 24641 24642 24643 24644 24645 24646 24647 24648 24649 24650 24651 24652 24653 24654 24655 24656 24657 24658 24659 24660 24661 24662 24663 24664 24665 24666 24667 24668 24669 24670 24671 24672 24673 24674 24675 24676 24677 24678 24679 24680 24681 24682 24683 24684 24685 24686 24687 24688 24689 24690 24691 24692 24693 24694 24695 24696 24697 24698 24699 24700 24701 24702 24703 24704 24705 24706 24707 24708 24709 24710 24711 24712 24713 24714 24715 24716 24717 24718 24719 24720 24721 24722 24723 24724 24725 24726 24727 24728 24729 24730 24731 24732 24733 24734 24735 24736 24737 24738 24739 24740 24741 24742 24743 24744 24745 24746 24747 24748 24749 24750 24751 24752 24753 24754 24755 24756 24757 24758 24759 24760 24761 24762 24763 24764 24765 24766 24767 24768 24769 24770 24771 24772 24773 24774 24775 24776 24777 24778 24779 24780 24781 24782 24783 24784 24785 24786 24787 24788 24789 24790 24791 24792 24793 24794 24795 24796 24797 24798 24799 24800 24801 24802 24803 24804 24805 24806 24807 24808 24809 24810 24811 24812 24813 24814 24815 24816 24817 24818 24819 24820 24821 24822 24823 24824 24825 24826 24827 24828 24829 24830 24831 24832 24833 24834 24835 24836 24837 24838 24839 24840 24841 24842 24843 24844 24845 24846 24847 24848 24849 24850 24851 24852 24853 24854 24855 24856 24857 24858 24859 24860 24861 24862 24863 24864 24865 24866 24867 24868 24869 24870 24871 24872 24873 24874 24875 24876 24877 24878 24879 24880 24881 24882 24883 24884 24885 24886 24887 24888 24889 24890 24891 24892 24893 24894 24895 24896 24897 24898 24899 24900 24901 24902 24903 24904 24905 24906 24907 24908 24909 24910 24911 24912 24913 24914 24915 24916 24917 24918 24919 24920 24921 24922 24923 24924 24925 24926 24927 24928 24929 24930 24931 24932 24933 24934 24935 24936 24937 24938 24939 24940 24941 24942 24943 24944 24945 24946 24947 24948 24949 24950 24951 24952 24953 24954 24955 24956 24957 24958 24959 24960 24961 24962 24963 24964 24965 24966 24967 24968 24969 24970 24971 24972 24973 24974 24975 24976 24977 24978 24979 24980 24981 24982 24983 24984 24985 24986 24987 24988 24989 24990 24991 24992 24993 24994 24995 24996 24997 24998 24999 25000 25001 25002 25003 25004 25005 25006 25007 25008 25009 25010 25011 25012 25013 25014 25015 25016 25017 25018 25019 25020 25021 25022 25023 25024 25025 25026 25027 25028 25029 25030 25031 25032 25033 25034 25035 25036 25037 25038 25039 25040 25041 25042 25043 25044 25045 25046 25047 25048 25049 25050 25051 25052 25053 25054 25055 25056 25057 25058 25059 25060 25061 25062 25063 25064 25065 25066 25067 25068 25069 25070 25071 25072 25073 25074 25075 25076 25077 25078 25079 25080 25081 25082 25083 25084 25085 25086 25087 25088 25089 25090 25091 25092 25093 25094 25095 25096 25097 25098 25099 25100 25101 25102 25103 25104 25105 25106 25107 25108 25109 25110 25111 25112 25113 25114 25115 25116 25117 25118 25119 25120 25121 25122 25123 25124 25125 25126 25127 25128 25129 25130 25131 25132 25133 25134 25135 25136 25137 25138 25139 25140 25141 25142 25143 25144 25145 25146 25147 25148 25149 25150 25151 25152 25153 25154 25155 25156 25157 25158 25159 25160 25161 25162 25163 25164 25165 25166 25167 25168 25169 25170 25171 25172 25173 25174 25175 25176 25177 25178 25179 25180 25181 25182 25183 25184 25185 25186 25187 25188 25189 25190 25191 25192 25193 25194 25195 25196 25197 25198 25199 25200 25201 25202 25203 25204 25205 25206 25207 25208 25209 25210 25211 25212 25213 25214 25215 25216 25217 25218 25219 25220 25221 25222 25223 25224 25225 25226 25227 25228 25229 25230 25231 25232 25233 25234 25235 25236 25237 25238 25239 25240 25241 25242 25243 25244 25245 25246 25247 25248 25249 25250 25251 25252 25253 25254 25255 25256 25257 25258 25259 25260 25261 25262 25263 25264 25265 25266 25267 25268 25269 25270 25271 25272 25273 25274 25275 25276 25277 25278 25279 25280 25281 25282 25283 25284 25285 25286 25287 25288 25289 25290 25291 25292 25293 25294 25295 25296 25297 25298 25299 25300 25301 25302 25303 25304 25305 25306 25307 25308 25309 25310 25311 25312 25313 25314 25315 25316 25317 25318 25319 25320 25321 25322 25323 25324 25325 25326 25327 25328 25329 25330 25331 25332 25333 25334 25335 25336 25337 25338 25339 25340 25341 25342 25343 25344 25345 25346 25347 25348 25349 25350 25351 25352 25353 25354 25355 25356 25357 25358 25359 25360 25361 25362 25363 25364 25365 25366 25367 25368 25369 25370 25371 25372 25373 25374 25375 25376 25377 25378 25379 25380 25381 25382 25383 25384 25385 25386 25387 25388 25389 25390 25391 25392 25393 25394 25395 25396 25397 25398 25399 25400 25401 25402 25403 25404 25405 25406 25407 25408 25409 25410 25411 25412 25413 25414 25415 25416 25417 25418 25419 25420 25421 25422 25423 25424 25425 25426 25427 25428 25429 25430 25431 25432 25433 25434 25435 25436 25437 25438 25439 25440 25441 25442 25443 25444 25445 25446 25447 25448 25449 25450 25451 25452 25453 25454 25455 25456 25457 25458 25459 25460 25461 25462 25463 25464 25465 25466 25467 25468 25469 25470 25471 25472 25473 25474 25475 25476 25477 25478 25479 25480 25481 25482 25483 25484 25485 25486 25487 25488 25489 25490 25491 25492 25493 25494 25495 25496 25497 25498 25499 25500 25501 25502 25503 25504 25505 25506 25507 25508 25509 25510 25511 25512 25513 25514 25515 25516 25517 25518 25519 25520 25521 25522 25523 25524 25525 25526 25527 25528 25529 25530 25531 25532 25533 25534 25535 25536 25537 25538 25539 25540 25541 25542 25543 25544 25545 25546 25547 25548 25549 25550 25551 25552 25553 25554 25555 25556 25557 25558 25559 25560 25561 25562 25563 25564 25565 25566 25567 25568 25569 25570 25571 25572 25573 25574 25575 25576 25577 25578 25579 25580 25581 25582 25583 25584 25585 25586 25587 25588 25589 25590 25591 25592 25593 25594 25595 25596 25597 25598 25599 25600 25601 25602 25603 25604 25605 25606 25607 25608 25609 25610 25611 25612 25613 25614 25615 25616 25617 25618 25619 25620 25621 25622 25623 25624 25625 25626 25627 25628 25629 25630 25631 25632 25633 25634 25635 25636 25637 25638 25639 25640 25641 25642 25643 25644 25645 25646 25647 25648 25649 25650 25651 25652 25653 25654 25655 25656 25657 25658 25659 25660 25661 25662 25663 25664 25665 25666 25667 25668 25669 25670 25671 25672 25673 25674 25675 25676 25677 25678 25679 25680 25681 25682 25683 25684 25685 25686 25687 25688 25689 25690 25691 25692 25693 25694 25695 25696 25697 25698 25699 25700 25701 25702 25703 25704 25705 25706 25707 25708 25709 25710 25711 25712 25713 25714 25715 25716 25717 25718 25719 25720 25721 25722 25723 25724 25725 25726 25727 25728 25729 25730 25731 25732 25733 25734 25735 25736 25737 25738 25739 25740 25741 25742 25743 25744 25745 25746 25747 25748 25749 25750 25751 25752 25753 25754 25755 25756 25757 25758 25759 25760 25761 25762 25763 25764 25765 25766 25767 25768 25769 25770 25771 25772 25773 25774 25775 25776 25777 25778 25779 25780 25781 25782 25783 25784 25785 25786 25787 25788 25789 25790 25791 25792 25793 25794 25795 25796 25797 25798 25799 25800 25801 25802 25803 25804 25805 25806 25807 25808 25809 25810 25811 25812 25813 25814 25815 25816 25817 25818 25819 25820 25821 25822 25823 25824 25825 25826 25827 25828 25829 25830 25831 25832 25833 25834 25835 25836 25837 25838 25839 25840 25841 25842 25843 25844 25845 25846 25847 25848 25849 25850 25851 25852 25853 25854 25855 25856 25857 25858 25859 25860 25861 25862 25863 25864 25865 25866 25867 25868 25869 25870 25871 25872 25873 25874 25875 25876 25877 25878 25879 25880 25881 25882 25883 25884 25885 25886 25887 25888 25889 25890 25891 25892 25893 25894 25895 25896 25897 25898 25899 25900 25901 25902 25903 25904 25905 25906 25907 25908 25909 25910 25911 25912 25913 25914 25915 25916 25917 25918 25919 25920 25921 25922 25923 25924 25925 25926 25927 25928 25929 25930 25931 25932 25933 25934 25935 25936 25937 25938 25939 25940 25941 25942 25943 25944 25945 25946 25947 25948 25949 25950 25951 25952 25953 25954 25955 25956 25957 25958 25959 25960 25961 25962 25963 25964 25965 25966 25967 25968 25969 25970 25971 25972 25973 25974 25975 25976 25977 25978 25979 25980 25981 25982 25983 25984 25985 25986 25987 25988 25989 25990 25991 25992 25993 25994 25995 25996 25997 25998 25999 26000 26001 26002 26003 26004 26005 26006 26007 26008 26009 26010 26011 26012 26013 26014 26015 26016 26017 26018 26019 26020 26021 26022 26023 26024 26025 26026 26027 26028 26029 26030 26031 26032 26033 26034 26035 26036 26037 26038 26039 26040 26041 26042 26043 26044 26045 26046 26047 26048 26049 26050 26051 26052 26053 26054 26055 26056 26057 26058 26059 26060 26061 26062 26063 26064 26065 26066 26067 26068 26069 26070 26071 26072 26073 26074 26075 26076 26077 26078 26079 26080 26081 26082 26083 26084 26085 26086 26087 26088 26089 26090 26091 26092 26093 26094 26095 26096 26097 26098 26099 26100 26101 26102 26103 26104 26105 26106 26107 26108 26109 26110 26111 26112 26113 26114 26115 26116 26117 26118 26119 26120 26121 26122 26123 26124 26125 26126 26127 26128 26129 26130 26131 26132 26133 26134 26135 26136 26137 26138 26139 26140 26141 26142 26143 26144 26145 26146 26147 26148 26149 26150 26151 26152 26153 26154 26155 26156 26157 26158 26159 26160 26161 26162 26163 26164 26165 26166 26167 26168 26169 26170 26171 26172 26173 26174 26175 26176 26177 26178 26179 26180 26181 26182 26183 26184 26185 26186 26187 26188 26189 26190 26191 26192 26193 26194 26195 26196 26197 26198 26199 26200 26201 26202 26203 26204 26205 26206 26207 26208 26209 26210 26211 26212 26213 26214 26215 26216 26217 26218 26219 26220 26221 26222 26223 26224 26225 26226 26227 26228 26229 26230 26231 26232 26233 26234 26235 26236 26237 26238 26239 26240 26241 26242 26243 26244 26245 26246 26247 26248 26249 26250 26251 26252 26253 26254 26255 26256 26257 26258 26259 26260 26261 26262 26263 26264 26265 26266 26267 26268 26269 26270 26271 26272 26273 26274 26275 26276 26277 26278 26279 26280 26281 26282 26283 26284 26285 26286 26287 26288 26289 26290 26291 26292 26293 26294 26295 26296 26297 26298 26299 26300 26301 26302 26303 26304 26305 26306 26307 26308 26309 26310 26311 26312 26313 26314 26315 26316 26317 26318 26319 26320 26321 26322 26323 26324 26325 26326 26327 26328 26329 26330 26331 26332 26333 26334 26335 26336 26337 26338 26339 26340 26341 26342 26343 26344 26345 26346 26347 26348 26349 26350 26351 26352 26353 26354 26355 26356 26357 26358 26359 26360 26361 26362 26363 26364 26365 26366 26367 26368 26369 26370 26371 26372 26373 26374 26375 26376 26377 26378 26379 26380 26381 26382 26383 26384 26385 26386 26387 26388 26389 26390 26391 26392 26393 26394 26395 26396 26397 26398 26399 26400 26401 26402 26403 26404 26405 26406 26407 26408 26409 26410 26411 26412 26413 26414 26415 26416 26417 26418 26419 26420 26421 26422 26423 26424 26425 26426 26427 26428 26429 26430 26431 26432 26433 26434 26435 26436 26437 26438 26439 26440 26441 26442 26443 26444 26445 26446 26447 26448 26449 26450 26451 26452 26453 26454 26455 26456 26457 26458 26459 26460 26461 26462 26463 26464 26465 26466 26467 26468 26469 26470 26471 26472 26473 26474 26475 26476 26477 26478 26479 26480 26481 26482 26483 26484 26485 26486 26487 26488 26489 26490 26491 26492 26493 26494 26495 26496 26497 26498 26499 26500 26501 26502 26503 26504 26505 26506 26507 26508 26509 26510 26511 26512 26513 26514 26515 26516 26517 26518 26519 26520 26521 26522 26523 26524 26525 26526 26527 26528 26529 26530 26531 26532 26533 26534 26535 26536 26537 26538 26539 26540 26541 26542 26543 26544 26545 26546 26547 26548 26549 26550 26551 26552 26553 26554 26555 26556 26557 26558 26559 26560 26561 26562 26563 26564 26565 26566 26567 26568 26569 26570 26571 26572 26573 26574 26575 26576 26577 26578 26579 26580 26581 26582 26583 26584 26585 26586 26587 26588 26589 26590 26591 26592 26593 26594 26595 26596 26597 26598 26599 26600 26601 26602 26603 26604 26605 26606 26607 26608 26609 26610 26611 26612 26613 26614 26615 26616 26617 26618 26619 26620 26621 26622 26623 26624 26625 26626 26627 26628 26629 26630 26631 26632 26633 26634 26635 26636 26637 26638 26639 26640 26641 26642 26643 26644 26645 26646 26647 26648 26649 26650 26651 26652 26653 26654 26655 26656 26657 26658 26659 26660 26661 26662 26663 26664 26665 26666 26667 26668 26669 26670 26671 26672 26673 26674 26675 26676 26677 26678 26679 26680 26681 26682 26683 26684 26685 26686 26687 26688 26689 26690 26691 26692 26693 26694 26695 26696 26697 26698 26699 26700 26701 26702 26703 26704 26705 26706 26707 26708 26709 26710 26711 26712 26713 26714 26715 26716 26717 26718 26719 26720 26721 26722 26723 26724 26725 26726 26727 26728 26729 26730 26731 26732 26733 26734 26735 26736 26737 26738 26739 26740 26741 26742 26743 26744 26745 26746 26747 26748 26749 26750 26751 26752 26753 26754 26755 26756 26757 26758 26759 26760 26761 26762 26763 26764 26765 26766 26767 26768 26769 26770 26771 26772 26773 26774 26775 26776 26777 26778 26779 26780 26781 26782 26783 26784 26785 26786 26787 26788 26789 26790 26791 26792 26793 26794 26795 26796 26797 26798 26799 26800 26801 26802 26803 26804 26805 26806 26807 26808 26809 26810 26811 26812 26813 26814 26815 26816 26817 26818 26819 26820 26821 26822 26823 26824 26825 26826 26827 26828 26829 26830 26831 26832 26833 26834 26835 26836 26837 26838 26839 26840 26841 26842 26843 26844 26845 26846 26847 26848 26849 26850 26851 26852 26853 26854 26855 26856 26857 26858 26859 26860 26861 26862 26863 26864 26865 26866 26867 26868 26869 26870 26871 26872 26873 26874 26875 26876 26877 26878 26879 26880 26881 26882 26883 26884 26885 26886 26887 26888 26889 26890 26891 26892 26893 26894 26895 26896 26897 26898 26899 26900 26901 26902 26903 26904 26905 26906 26907 26908 26909 26910 26911 26912 26913 26914 26915 26916 26917 26918 26919 26920 26921 26922 26923 26924 26925 26926 26927 26928 26929 26930 26931 26932 26933 26934 26935 26936 26937 26938 26939 26940 26941 26942 26943 26944 26945 26946 26947 26948 26949 26950 26951 26952 26953 26954 26955 26956 26957 26958 26959 26960 26961 26962 26963 26964 26965 26966 26967 26968 26969 26970 26971 26972 26973 26974 26975 26976 26977 26978 26979 26980 26981 26982 26983 26984 26985 26986 26987 26988 26989 26990 26991 26992 26993 26994 26995 26996 26997 26998 26999 27000 27001 27002 27003 27004 27005 27006 27007 27008 27009 27010 27011 27012 27013 27014 27015 27016 27017 27018 27019 27020 27021 27022 27023 27024 27025 27026 27027 27028 27029 27030 27031 27032 27033 27034 27035 27036 27037 27038 27039 27040 27041 27042 27043 27044 27045 27046 27047 27048 27049 27050 27051 27052 27053 27054 27055 27056 27057 27058 27059 27060 27061 27062 27063 27064 27065 27066 27067 27068 27069 27070 27071 27072 27073 27074 27075 27076 27077 27078 27079 27080 27081 27082 27083 27084 27085 27086 27087 27088 27089 27090 27091 27092 27093 27094 27095 27096 27097 27098 27099 27100 27101 27102 27103 27104 27105 27106 27107 27108 27109 27110 27111 27112 27113 27114 27115 27116 27117 27118 27119 27120 27121 27122 27123 27124 27125 27126 27127 27128 27129 27130 27131 27132 27133 27134 27135 27136 27137 27138 27139 27140 27141 27142 27143 27144 27145 27146 27147 27148 27149 27150 27151 27152 27153 27154 27155 27156 27157 27158 27159 27160 27161 27162 27163 27164 27165 27166 27167 27168 27169 27170 27171 27172 27173 27174 27175 27176 27177 27178 27179 27180 27181 27182 27183 27184 27185 27186 27187 27188 27189 27190 27191 27192 27193 27194 27195 27196 27197 27198 27199 27200 27201 27202 27203 27204 27205 27206 27207 27208 27209 27210 27211 27212 27213 27214 27215 27216 27217 27218 27219 27220 27221 27222 27223 27224 27225 27226 27227 27228 27229 27230 27231 27232 27233 27234 27235 27236 27237 27238 27239 27240 27241 27242 27243 27244 27245 27246 27247 27248 27249 27250 27251 27252 27253 27254 27255 27256 27257 27258 27259 27260 27261 27262 27263 27264 27265 27266 27267 27268 27269 27270 27271 27272 27273 27274 27275 27276 27277 27278 27279 27280 27281 27282 27283 27284 27285 27286 27287 27288 27289 27290 27291 27292 27293 27294 27295 27296 27297 27298 27299 27300 27301 27302 27303 27304 27305 27306 27307 27308 27309 27310 27311 27312 27313 27314 27315 27316 27317 27318 27319 27320 27321 27322 27323 27324 27325 27326 27327 27328 27329 27330 27331 27332 27333 27334 27335 27336 27337 27338 27339 27340 27341 27342 27343 27344 27345 27346 27347 27348 27349 27350 27351 27352 27353 27354 27355 27356 27357 27358 27359 27360 27361 27362 27363 27364 27365 27366 27367 27368 27369 27370 27371 27372 27373 27374 27375 27376 27377 27378 27379 27380 27381 27382 27383 27384 27385 27386 27387 27388 27389 27390 27391 27392 27393 27394 27395 27396 27397 27398 27399 27400 27401 27402 27403 27404 27405 27406 27407 27408 27409 27410 27411 27412 27413 27414 27415 27416 27417 27418 27419 27420 27421 27422 27423 27424 27425 27426 27427 27428 27429 27430 27431 27432 27433 27434 27435 27436 27437 27438 27439 27440 27441 27442 27443 27444 27445 27446 27447 27448 27449 27450 27451 27452 27453 27454 27455 27456 27457 27458 27459 27460 27461 27462 27463 27464 27465 27466 27467 27468 27469 27470 27471 27472 27473 27474 27475 27476 27477 27478 27479 27480 27481 27482 27483 27484 27485 27486 27487 27488 27489 27490 27491 27492 27493 27494 27495 27496 27497 27498 27499 27500 27501 27502 27503 27504 27505 27506 27507 27508 27509 27510 27511 27512 27513 27514 27515 27516 27517 27518 27519 27520 27521 27522 27523 27524 27525 27526 27527 27528 27529 27530 27531 27532 27533 27534 27535 27536 27537 27538 27539 27540 27541 27542 27543 27544 27545 27546 27547 27548 27549 27550 27551 27552 27553 27554 27555 27556 27557 27558 27559 27560 27561 27562 27563 27564 27565 27566 27567 27568 27569 27570 27571 27572 27573 27574 27575 27576 27577 27578 27579 27580 27581 27582 27583 27584 27585 27586 27587 27588 27589 27590 27591 27592 27593 27594 27595 27596 27597 27598 27599 27600 27601 27602 27603 27604 27605 27606 27607 27608 27609 27610 27611 27612 27613 27614 27615 27616 27617 27618 27619 27620 27621 27622 27623 27624 27625 27626 27627 27628 27629 27630 27631 27632 27633 27634 27635 27636 27637 27638 27639 27640 27641 27642 27643 27644 27645 27646 27647 27648 27649 27650 27651 27652 27653 27654 27655 27656 27657 27658 27659 27660 27661 27662 27663 27664 27665 27666 27667 27668 27669 27670 27671 27672 27673 27674 27675 27676 27677 27678 27679 27680 27681 27682 27683 27684 27685 27686 27687 27688 27689 27690 27691 27692 27693 27694 27695 27696 27697 27698 27699 27700 27701 27702 27703 27704 27705 27706 27707 27708 27709 27710 27711 27712 27713 27714 27715 27716 27717 27718 27719 27720 27721 27722 27723 27724 27725 27726 27727 27728 27729 27730 27731 27732 27733 27734 27735 27736 27737 27738 27739 27740 27741 27742 27743 27744 27745 27746 27747 27748 27749 27750 27751 27752 27753 27754 27755 27756 27757 27758 27759 27760 27761 27762 27763 27764 27765 27766 27767 27768 27769 27770 27771 27772 27773 27774 27775 27776 27777 27778 27779 27780 27781 27782 27783 27784 27785 27786 27787 27788 27789 27790 27791 27792 27793 27794 27795 27796 27797 27798 27799 27800 27801 27802 27803 27804 27805 27806 27807 27808 27809 27810 27811 27812 27813 27814 27815 27816 27817 27818 27819 27820 27821 27822 27823 27824 27825 27826 27827 27828 27829 27830 27831 27832 27833 27834 27835 27836 27837 27838 27839 27840 27841 27842 27843 27844 27845 27846 27847 27848 27849 27850 27851 27852 27853 27854 27855 27856 27857 27858 27859 27860 27861 27862 27863 27864 27865 27866 27867 27868 27869 27870 27871 27872 27873 27874 27875 27876 27877 27878 27879 27880 27881 27882 27883 27884 27885 27886 27887 27888 27889 27890 27891 27892 27893 27894 27895 27896 27897 27898 27899 27900 27901 27902 27903 27904 27905 27906 27907 27908 27909 27910 27911 27912 27913 27914 27915 27916 27917 27918 27919 27920 27921 27922 27923 27924 27925 27926 27927 27928 27929 27930 27931 27932 27933 27934 27935 27936 27937 27938 27939 27940 27941 27942 27943 27944 27945 27946 27947 27948 27949 27950 27951 27952 27953 27954 27955 27956 27957 27958 27959 27960 27961 27962 27963 27964 27965 27966 27967 27968 27969 27970 27971 27972 27973 27974 27975 27976 27977 27978 27979 27980 27981 27982 27983 27984 27985 27986 27987 27988 27989 27990 27991 27992 27993 27994 27995 27996 27997 27998 27999 28000 28001 28002 28003 28004 28005 28006 28007 28008 28009 28010 28011 28012 28013 28014 28015 28016 28017 28018 28019 28020 28021 28022 28023 28024 28025 28026 28027 28028 28029 28030 28031 28032 28033 28034 28035 28036 28037 28038 28039 28040 28041 28042 28043 28044 28045 28046 28047 28048 28049 28050 28051 28052 28053 28054 28055 28056 28057 28058 28059 28060 28061 28062 28063 28064 28065 28066 28067 28068 28069 28070 28071 28072 28073 28074 28075 28076 28077 28078 28079 28080 28081 28082 28083 28084 28085 28086 28087 28088 28089 28090 28091 28092 28093 28094 28095 28096 28097 28098 28099 28100 28101 28102 28103 28104 28105 28106 28107 28108 28109 28110 28111 28112 28113 28114 28115 28116 28117 28118 28119 28120 28121 28122 28123 28124 28125 28126 28127 28128 28129 28130 28131 28132 28133 28134 28135 28136 28137 28138 28139 28140 28141 28142 28143 28144 28145 28146 28147 28148 28149 28150 28151 28152 28153 28154 28155 28156 28157 28158 28159 28160 28161 28162 28163 28164 28165 28166 28167 28168 28169 28170 28171 28172 28173 28174 28175 28176 28177 28178 28179 28180 28181 28182 28183 28184 28185 28186 28187 28188 28189 28190 28191 28192 28193 28194 28195 28196 28197 28198 28199 28200 28201 28202 28203 28204 28205 28206 28207 28208 28209 28210 28211 28212 28213 28214 28215 28216 28217 28218 28219 28220 28221 28222 28223 28224 28225 28226 28227 28228 28229 28230 28231 28232 28233 28234 28235 28236 28237 28238 28239 28240 28241 28242 28243 28244 28245 28246 28247 28248 28249 28250 28251 28252 28253 28254 28255 28256 28257 28258 28259 28260 28261 28262 28263 28264 28265 28266 28267 28268 28269 28270 28271 28272 28273 28274 28275 28276 28277 28278 28279 28280 28281 28282 28283 28284 28285 28286 28287 28288 28289 28290 28291 28292 28293 28294 28295 28296 28297 28298 28299 28300 28301 28302 28303 28304 28305 28306 28307 28308 28309 28310 28311 28312 28313 28314 28315 28316 28317 28318 28319 28320 28321 28322 28323 28324 28325 28326 28327 28328 28329 28330 28331 28332 28333 28334 28335 28336 28337 28338 28339 28340 28341 28342 28343 28344 28345 28346 28347 28348 28349 28350 28351 28352 28353 28354 28355 28356 28357 28358 28359 28360 28361 28362 28363 28364 28365 28366 28367 28368 28369 28370 28371 28372 28373 28374 28375 28376 28377 28378 28379 28380 28381 28382 28383 28384 28385 28386 28387 28388 28389 28390 28391 28392 28393 28394 28395 28396 28397 28398 28399 28400 28401 28402 28403 28404 28405 28406 28407 28408 28409 28410 28411 28412 28413 28414 28415 28416 28417 28418 28419 28420 28421 28422 28423 28424 28425 28426 28427 28428 28429 28430 28431 28432 28433 28434 28435 28436 28437 28438 28439 28440 28441 28442 28443 28444 28445 28446 28447 28448 28449 28450 28451 28452 28453 28454 28455 28456 28457 28458 28459 28460 28461 28462 28463 28464 28465 28466 28467 28468 28469 28470 28471 28472 28473 28474 28475 28476 28477 28478 28479 28480 28481 28482 28483 28484 28485 28486 28487 28488 28489 28490 28491 28492 28493 28494 28495 28496 28497 28498 28499 28500 28501 28502 28503 28504 28505 28506 28507 28508 28509 28510 28511 28512 28513 28514 28515 28516 28517 28518 28519 28520 28521 28522 28523 28524 28525 28526 28527 28528 28529 28530 28531 28532 28533 28534 28535 28536 28537 28538 28539 28540 28541 28542 28543 28544 28545 28546 28547 28548 28549 28550 28551 28552 28553 28554 28555 28556 28557 28558 28559 28560 28561 28562 28563 28564 28565 28566 28567 28568 28569 28570 28571 28572 28573 28574 28575 28576 28577 28578 28579 28580 28581 28582 28583 28584 28585 28586 28587 28588 28589 28590 28591 28592 28593 28594 28595 28596 28597 28598 28599 28600 28601 28602 28603 28604 28605 28606 28607 28608 28609 28610 28611 28612 28613 28614 28615 28616 28617 28618 28619 28620 28621 28622 28623 28624 28625 28626 28627 28628 28629 28630 28631 28632 28633 28634 28635 28636 28637 28638 28639 28640 28641 28642 28643 28644 28645 28646 28647 28648 28649 28650 28651 28652 28653 28654 28655 28656 28657 28658 28659 28660 28661 28662 28663 28664 28665 28666 28667 28668 28669 28670 28671 28672 28673 28674 28675 28676 28677 28678 28679 28680 28681 28682 28683 28684 28685 28686 28687 28688 28689 28690 28691 28692 28693 28694 28695 28696 28697 28698 28699 28700 28701 28702 28703 28704 28705 28706 28707 28708 28709 28710 28711 28712 28713 28714 28715 28716 28717 28718 28719 28720 28721 28722 28723 28724 28725 28726 28727 28728 28729 28730 28731 28732 28733 28734 28735 28736 28737 28738 28739 28740 28741 28742 28743 28744 28745 28746 28747 28748 28749 28750 28751 28752 28753 28754 28755 28756 28757 28758 28759 28760 28761 28762 28763 28764 28765 28766 28767 28768 28769 28770 28771 28772 28773 28774 28775 28776 28777 28778 28779 28780 28781 28782 28783 28784 28785 28786 28787 28788 28789 28790 28791 28792 28793 28794 28795 28796 28797 28798 28799 28800 28801 28802 28803 28804 28805 28806 28807 28808 28809 28810 28811 28812 28813 28814 28815 28816 28817 28818 28819 28820 28821 28822 28823 28824 28825 28826 28827 28828 28829 28830 28831 28832 28833 28834 28835 28836 28837 28838 28839 28840 28841 28842 28843 28844 28845 28846 28847 28848 28849 28850 28851 28852 28853 28854 28855 28856 28857 28858 28859 28860 28861 28862 28863 28864 28865 28866 28867 28868 28869 28870 28871 28872 28873 28874 28875 28876 28877 28878 28879 28880 28881 28882 28883 28884 28885 28886 28887 28888 28889 28890 28891 28892 28893 28894 28895 28896 28897 28898 28899 28900 28901 28902 28903 28904 28905 28906 28907 28908 28909 28910 28911 28912 28913 28914 28915 28916 28917 28918 28919 28920 28921 28922 28923 28924 28925 28926 28927 28928 28929 28930 28931 28932 28933 28934 28935 28936 28937 28938 28939 28940 28941 28942 28943 28944 28945 28946 28947 28948 28949 28950 28951 28952 28953 28954 28955 28956 28957 28958 28959 28960 28961 28962 28963 28964 28965 28966 28967 28968 28969 28970 28971 28972 28973 28974 28975 28976 28977 28978 28979 28980 28981 28982 28983 28984 28985 28986 28987 28988 28989 28990 28991 28992 28993 28994 28995 28996 28997 28998 28999 29000 29001 29002 29003 29004 29005 29006 29007 29008 29009 29010 29011 29012 29013 29014 29015 29016 29017 29018 29019 29020 29021 29022 29023 29024 29025 29026 29027 29028 29029 29030 29031 29032 29033 29034 29035 29036 29037 29038 29039 29040 29041 29042 29043 29044 29045 29046 29047 29048 29049 29050 29051 29052 29053 29054 29055 29056 29057 29058 29059 29060 29061 29062 29063 29064 29065 29066 29067 29068 29069 29070 29071 29072 29073 29074 29075 29076 29077 29078 29079 29080 29081 29082 29083 29084 29085 29086 29087 29088 29089 29090 29091 29092 29093 29094 29095 29096 29097 29098 29099 29100 29101 29102 29103 29104 29105 29106 29107 29108 29109 29110 29111 29112 29113 29114 29115 29116 29117 29118 29119 29120 29121 29122 29123 29124 29125 29126 29127 29128 29129 29130 29131 29132 29133 29134 29135 29136 29137 29138 29139 29140 29141 29142 29143 29144 29145 29146 29147 29148 29149 29150 29151 29152 29153 29154 29155 29156 29157 29158 29159 29160 29161 29162 29163 29164 29165 29166 29167 29168 29169 29170 29171 29172 29173 29174 29175 29176 29177 29178 29179 29180 29181 29182 29183 29184 29185 29186 29187 29188 29189 29190 29191 29192 29193 29194 29195 29196 29197 29198 29199 29200 29201 29202 29203 29204 29205 29206 29207 29208 29209 29210 29211 29212 29213 29214 29215 29216 29217 29218 29219 29220 29221 29222 29223 29224 29225 29226 29227 29228 29229 29230 29231 29232 29233 29234 29235 29236 29237 29238 29239 29240 29241 29242 29243 29244 29245 29246 29247 29248 29249 29250 29251 29252 29253 29254 29255 29256 29257 29258 29259 29260 29261 29262 29263 29264 29265 29266 29267 29268 29269 29270 29271 29272 29273 29274 29275 29276 29277 29278 29279 29280 29281 29282 29283 29284 29285 29286 29287 29288 29289 29290 29291 29292 29293 29294 29295 29296 29297 29298 29299 29300 29301 29302 29303 29304 29305 29306 29307 29308 29309 29310 29311 29312 29313 29314 29315 29316 29317 29318 29319 29320 29321 29322 29323 29324 29325 29326 29327 29328 29329 29330 29331 29332 29333 29334 29335 29336 29337 29338 29339 29340 29341 29342 29343 29344 29345 29346 29347 29348 29349 29350 29351 29352 29353 29354 29355 29356 29357 29358 29359 29360 29361 29362 29363 29364 29365 29366 29367 29368 29369 29370 29371 29372 29373 29374 29375 29376 29377 29378 29379 29380 29381 29382 29383 29384 29385 29386 29387 29388 29389 29390 29391 29392 29393 29394 29395 29396 29397 29398 29399 29400 29401 29402 29403 29404 29405 29406 29407 29408 29409 29410 29411 29412 29413 29414 29415 29416 29417 29418 29419 29420 29421 29422 29423 29424 29425 29426 29427 29428 29429 29430 29431 29432 29433 29434 29435 29436 29437 29438 29439 29440 29441 29442 29443 29444 29445 29446 29447 29448 29449 29450 29451 29452 29453 29454 29455 29456 29457 29458 29459 29460 29461 29462 29463 29464 29465 29466 29467 29468 29469 29470 29471 29472 29473 29474 29475 29476 29477 29478 29479 29480 29481 29482 29483 29484 29485 29486 29487 29488 29489 29490 29491 29492 29493 29494 29495 29496 29497 29498 29499 29500 29501 29502 29503 29504 29505 29506 29507 29508 29509 29510 29511 29512 29513 29514 29515 29516 29517 29518 29519 29520 29521 29522 29523 29524 29525 29526 29527 29528 29529 29530 29531 29532 29533 29534 29535 29536 29537 29538 29539 29540 29541 29542 29543 29544 29545 29546 29547 29548 29549 29550 29551 29552 29553 29554 29555 29556 29557 29558 29559 29560 29561 29562 29563 29564 29565 29566 29567 29568 29569 29570 29571 29572 29573 29574 29575 29576 29577 29578 29579 29580 29581 29582 29583 29584 29585 29586 29587 29588 29589 29590 29591 29592 29593 29594 29595 29596 29597 29598 29599 29600 29601 29602 29603 29604 29605 29606 29607 29608 29609 29610 29611 29612 29613 29614 29615 29616 29617 29618 29619 29620 29621 29622 29623 29624 29625 29626 29627 29628 29629 29630 29631 29632 29633 29634 29635 29636 29637 29638 29639 29640 29641 29642 29643 29644 29645 29646 29647 29648 29649 29650 29651 29652 29653 29654 29655 29656 29657 29658 29659 29660 29661 29662 29663 29664 29665 29666 29667 29668 29669 29670 29671 29672 29673 29674 29675 29676 29677 29678 29679 29680 29681 29682 29683 29684 29685 29686 29687 29688 29689 29690 29691 29692 29693 29694 29695 29696 29697 29698 29699 29700 29701 29702 29703 29704 29705 29706 29707 29708 29709 29710 29711 29712 29713 29714 29715 29716 29717 29718 29719 29720 29721 29722 29723 29724 29725 29726 29727 29728 29729 29730 29731 29732 29733 29734 29735 29736 29737 29738 29739 29740 29741 29742 29743 29744 29745 29746 29747 29748 29749 29750 29751 29752 29753 29754 29755 29756 29757 29758 29759 29760 29761 29762 29763 29764 29765 29766 29767 29768 29769 29770 29771 29772 29773 29774 29775 29776 29777 29778 29779 29780 29781 29782 29783 29784 29785 29786 29787 29788 29789 29790 29791 29792 29793 29794 29795 29796 29797 29798 29799 29800 29801 29802 29803 29804 29805 29806 29807 29808 29809 29810 29811 29812 29813 29814 29815 29816 29817 29818 29819 29820 29821 29822 29823 29824 29825 29826 29827 29828 29829 29830 29831 29832 29833 29834 29835 29836 29837 29838 29839 29840 29841 29842 29843 29844 29845 29846 29847 29848 29849 29850 29851 29852 29853 29854 29855 29856 29857 29858 29859 29860 29861 29862 29863 29864 29865 29866 29867 29868 29869 29870 29871 29872 29873 29874 29875 29876 29877 29878 29879 29880 29881 29882 29883 29884 29885 29886 29887 29888 29889 29890 29891 29892 29893 29894 29895 29896 29897 29898 29899 29900 29901 29902 29903 29904 29905 29906 29907 29908 29909 29910 29911 29912 29913 29914 29915 29916 29917 29918 29919 29920 29921 29922 29923 29924 29925 29926 29927 29928 29929 29930 29931 29932 29933 29934 29935 29936 29937 29938 29939 29940 29941 29942 29943 29944 29945 29946 29947 29948 29949 29950 29951 29952 29953 29954 29955 29956 29957 29958 29959 29960 29961 29962 29963 29964 29965 29966 29967 29968 29969 29970 29971 29972 29973 29974 29975 29976 29977 29978 29979 29980 29981 29982 29983 29984 29985 29986 29987 29988 29989 29990 29991 29992 29993 29994 29995 29996 29997 29998 29999 30000 30001 30002 30003 30004 30005 30006 30007 30008 30009 30010 30011 30012 30013 30014 30015 30016 30017 30018 30019 30020 30021 30022 30023 30024 30025 30026 30027 30028 30029 30030 30031 30032 30033 30034 30035 30036 30037 30038 30039 30040 30041 30042 30043 30044 30045 30046 30047 30048 30049 30050 30051 30052 30053 30054 30055 30056 30057 30058 30059 30060 30061 30062 30063 30064 30065 30066 30067 30068 30069 30070 30071 30072 30073 30074 30075 30076 30077 30078 30079 30080 30081 30082 30083 30084 30085 30086 30087 30088 30089 30090 30091 30092 30093 30094 30095 30096 30097 30098 30099 30100 30101 30102 30103 30104 30105 30106 30107 30108 30109 30110 30111 30112 30113 30114 30115 30116 30117 30118 30119 30120 30121 30122 30123 30124 30125 30126 30127 30128 30129 30130 30131 30132 30133 30134 30135 30136 30137 30138 30139 30140 30141 30142 30143 30144 30145 30146 30147 30148 30149 30150 30151 30152 30153 30154 30155 30156 30157 30158 30159 30160 30161 30162 30163 30164 30165 30166 30167 30168 30169 30170 30171 30172 30173 30174 30175 30176 30177 30178 30179 30180 30181 30182 30183 30184 30185 30186 30187 30188 30189 30190 30191 30192 30193 30194 30195 30196 30197 30198 30199 30200 30201 30202 30203 30204 30205 30206 30207 30208 30209 30210 30211 30212 30213 30214 30215 30216 30217 30218 30219 30220 30221 30222 30223 30224 30225 30226 30227 30228 30229 30230 30231 30232 30233 30234 30235 30236 30237 30238 30239 30240 30241 30242 30243 30244 30245 30246 30247 30248 30249 30250 30251 30252 30253 30254 30255 30256 30257 30258 30259 30260 30261 30262 30263 30264 30265 30266 30267 30268 30269 30270 30271 30272 30273 30274 30275 30276 30277 30278 30279 30280 30281 30282 30283 30284 30285 30286 30287 30288 30289 30290 30291 30292 30293 30294 30295 30296 30297 30298 30299 30300 30301 30302 30303 30304 30305 30306 30307 30308 30309 30310 30311 30312 30313 30314 30315 30316 30317 30318 30319 30320 30321 30322 30323 30324 30325 30326 30327 30328 30329 30330 30331 30332 30333 30334 30335 30336 30337 30338 30339 30340 30341 30342 30343 30344 30345 30346 30347 30348 30349 30350 30351 30352 30353 30354 30355 30356 30357 30358 30359 30360 30361 30362 30363 30364 30365 30366 30367 30368 30369 30370 30371 30372 30373 30374 30375 30376 30377 30378 30379 30380 30381 30382 30383 30384 30385 30386 30387 30388 30389 30390 30391 30392 30393 30394 30395 30396 30397 30398 30399 30400 30401 30402 30403 30404 30405 30406 30407 30408 30409 30410 30411 30412 30413 30414 30415 30416 30417 30418 30419 30420 30421 30422 30423 30424 30425 30426 30427 30428 30429 30430 30431 30432 30433 30434 30435 30436 30437 30438 30439 30440 30441 30442 30443 30444 30445 30446 30447 30448 30449 30450 30451 30452 30453 30454 30455 30456 30457 30458 30459 30460 30461 30462 30463 30464 30465 30466 30467 30468 30469 30470 30471 30472 30473 30474 30475 30476 30477 30478 30479 30480 30481 30482 30483 30484 30485 30486 30487 30488 30489 30490 30491 30492 30493 30494 30495 30496 30497 30498 30499 30500 30501 30502 30503 30504 30505 30506 30507 30508 30509 30510 30511 30512 30513 30514 30515 30516 30517 30518 30519 30520 30521 30522 30523 30524 30525 30526 30527 30528 30529 30530 30531 30532 30533 30534 30535 30536 30537 30538 30539 30540 30541 30542 30543 30544 30545 30546 30547 30548 30549 30550 30551 30552 30553 30554 30555 30556 30557 30558 30559 30560 30561 30562 30563 30564 30565 30566 30567 30568 30569 30570 30571 30572 30573 30574 30575 30576 30577 30578 30579 30580 30581 30582 30583 30584 30585 30586 30587 30588 30589 30590 30591 30592 30593 30594 30595 30596 30597 30598 30599 30600 30601 30602 30603 30604 30605 30606 30607 30608 30609 30610 30611 30612 30613 30614 30615 30616 30617 30618 30619 30620 30621 30622 30623 30624 30625 30626 30627 30628 30629 30630 30631 30632 30633 30634 30635 30636 30637 30638 30639 30640 30641 30642 30643 30644 30645 30646 30647 30648 30649 30650 30651 30652 30653 30654 30655 30656 30657 30658 30659 30660 30661 30662 30663 30664 30665 30666 30667 30668 30669 30670 30671 30672 30673 30674 30675 30676 30677 30678 30679 30680 30681 30682 30683 30684 30685 30686 30687 30688 30689 30690 30691 30692 30693 30694 30695 30696 30697 30698 30699 30700 30701 30702 30703 30704 30705 30706 30707 30708 30709 30710 30711 30712 30713 30714 30715 30716 30717 30718 30719 30720 30721 30722 30723 30724 30725 30726 30727 30728 30729 30730 30731 30732 30733 30734 30735 30736 30737 30738 30739 30740 30741 30742 30743 30744 30745 30746 30747 30748 30749 30750 30751 30752 30753 30754 30755 30756 30757 30758 30759 30760 30761 30762 30763 30764 30765 30766 30767 30768 30769 30770 30771 30772 30773 30774 30775 30776 30777 30778 30779 30780 30781 30782 30783 30784 30785 30786 30787 30788 30789 30790 30791 30792 30793 30794 30795 30796 30797 30798 30799 30800 30801 30802 30803 30804 30805 30806 30807 30808 30809 30810 30811 30812 30813 30814 30815 30816 30817 30818 30819 30820 30821 30822 30823 30824 30825 30826 30827 30828 30829 30830 30831 30832 30833 30834 30835 30836 30837 30838 30839 30840 30841 30842 30843 30844 30845 30846 30847 30848 30849 30850 30851 30852 30853 30854 30855 30856 30857 30858 30859 30860 30861 30862 30863 30864 30865 30866 30867 30868 30869 30870 30871 30872 30873 30874 30875 30876 30877 30878 30879 30880 
</DataArray>
<DataArray type="UInt32" Name="offsets" format="ascii">
3 6 8 11 14 17 20 22 25 28 31 34 37 40 43 46 49 52 55 58 60 63 66 69 72 74 77 80 83 86 89 92 95 97 100 103 106 109 112 115 118 121 123 126 129 132 135 138 141 144 147 150 153 156 158 160 163 166 169 172 175 178 181 184 186 189 192 195 198 201 204 207 210 213 216 219 222 225 228 231 234 237 240 243 246 249 252 254 257 260 263 266 269 272 275 278 281 284 287 289 292 295 298 300 303 306 309 312 315 318 321 324 327 330 333 336 339 342 345 348 351 354 357 360 363 366 369 372 375 378 381 384 387 390 393 396 399 402 405 408 411 414 417 420 423 426 429 432 435 437 440 442 445 448 451 454 457 460 463 466 469 472 475 478 481 484 487 490 493 496 499 502 505 508 511 514 517 520 522 525 528 530 533 535 538 541 544 547 550 553 556 559 562 565 568 571 574 577 579 582 584 587 590 593 596 599 602 605 607 610 612 615 618 621 624 627 630 632 635 638 640 643 646 649 652 655 658 660 662 665 668 670 673 675 678 680 682 685 688 691 693 696 699 702 705 708 711 714 717 720 723 726 729 732 734 737 740 743 746 749 752 755 757 760 763 766 769 772 775 778 780 783 786 789 792 794 797 800 803 806 809 812 814 817 820 823 825 828 831 834 837 840 843 846 848 851 854 857 860 863 866 868 871 874 877 880 883 886 888 891 894 897 900 903 906 909 911 914 917 920 923 926 929 932 935 938 941 944 947 950 953 956 959 962 965 968 971 974 976 978 981 984 987 990 993 995 998 1001 1004 1007 1010 1013 1016 1018 1021 1023 1026 1029 1032 1034 1037 1040 1043 1045 1048 1050 1053 1056 1059 1062 1065 1068 1071 1073 1076 1079 1082 1085 1088 1091 1094 1096 1099 1102 1105 1107 1110 1113 1116 1119 1122 1125 1128 1131 1134 1137 1140 1143 1146 1149 1152 1155 1158 1161 1164 1167 1170 1173 1176 1179 1182 1185 1188 1191 1194 1197 1200 1203 1205 1208 1211 1214 1217 1220 1223 1226 1229 1232 1235 1238 1241 1244 1247 1250 1253 1256 1259 1262 1265 1268 1271 1274 1277 1280 1283 1286 1289 1292 1295 1298 1301 1303 1306 1309 1312 1315 1318 1321 1324 1327 1330 1333 1336 1339 1342 1345 1348 1351 1354 1357 1360 1363 1365 1368 1371 1374 1377 1380 1383 1386 1388 1391 1394 1397 1400 1403 1405 1408 1411 1413 1416 1418 1421 1424 1427 1430 1432 1435 1438 1440 1443 1446 1449 1452 1455 1458 1460 1463 1466 1469 1472 1475 1478 1481 1484 1487 1490 1493 1496 1499 1502 1505 1508 1511 1514 1517 1519 1522 1525 1528 1531 1534 1537 1540 1543 1546 1549 1552 1554 1556 1559 1562 1565 1568 1571 1574 1577 1580 1583 1586 1589 1592 1595 1598 1601 1604 1607 1610 1613 1616 1619 1621 1624 1626 1628 1631 1634 1636 1639 1642 1645 1648 1651 1654 1657 1660 1663 1666 1669 1672 1675 1677 1680 1683 1686 1689 1692 1695 1698 1700 1702 1705 1708 1711 1714 1717 1720 1723 1726 1728 1730 1733 1736 1739 1741 1744 1747 1750 1753 1756 1759 1762 1765 1768 1771 1774 1777 1780 1783 1786 1789 1792 1795 1798 1801 1804 1807 1810 1813 1816 1819 1822 1825 1828 1831 1834 1837 1840 1843 1846 1848 1851 1854 1856 1859 1862 1865 1868 1870 1873 1876 1879 1881 1884 1887 1890 1892 1895 1898 1900 1903 1906 1909 1912 1915 1918 1921 1924 1927 1930 1933 1936 1939 1942 1945 1948 1951 1954 1957 1960 1963 1965 1968 1971 1974 1976 1979 1982 1985 1988 1991 1993 1996 1999 2002 2005 2008 2011 2013 2016 2019 2022 2025 2028 2031 2034 2037 2040 2043 2046 2049 2052 2055 2058 2061 2064 2067 2069 2072 2075 2078 2081 2084 2087 2090 2093 2096 2099 2102 2105 2108 2111 2114 2117 2120 2123 2126 2129 2132 2134 2137 2140 2143 2146 2149 2152 2155 2158 2161 2164 2167 2170 2173 2176 2179 2181 2184 2187 2190 2193 2196 2199 2202 2205 2208 2211 2214 2217 2220 2223 2226 2229 2232 2235 2237 2240 2243 2246 2249 2252 2255 2258 2260 2263 2266 2269 2272 2275 2278 2281 2284 2287 2290 2293 2296 2299 2302 2305 2308 2311 2314 2317 2320 2323 2325 2328 2331 2334 2337 2340 2343 2346 2349 2352 2354 2357 2360 2363 2366 2369 2372 2375 2378 2380 2383 2386 2389 2392 2395 2398 2401 2404 2407 2410 2413 2416 2419 2422 2425 2428 2431 2434 2437 2439 2442 2445 2448 2451 2454 2456 2459 2462 2465 2467 2470 2473 2476 2479 2482 2485 2487 2490 2493 2496 2499 2502 2505 2508 2511 2514 2517 2519 2522 2525 2528 2531 2534 2537 2540 2543 2546 2549 2552 2555 2557 2560 2562 2565 2568 2571 2574 2577 2580 2583 2585 2588 2590 2593 2596 2599 2602 2605 2608 2611 2614 2617 2620 2623 2626 2629 2632 2635 2638 2641 2644 2647 2650 2653 2656 2659 2662 2665 2668 2671 2674 2677 2680 2683 2686 2689 2692 2695 2698 2701 2704 2707 2710 2713 2716 2719 2722 2725 2727 2729 2732 2735 2737 2740 2743 2746 2749 2752 2755 2758 2761 2764 2767 2770 2773 2776 2779 2782 2785 2787 2790 2793 2796 2799 2801 2804 2807 2809 2812 2815 2818 2821 2824 2827 2829 2832 2834 2837 2840 2842 2845 2848 2851 2854 2857 2860 2863 2866 2869 2872 2874 2877 2880 2883 2886 2889 2891 2893 2896 2899 2902 2905 2907 2910 2913 2915 2918 2920 2923 2926 2929 2932 2935 2937 2940 2943 2945 2948 2951 2954 2957 2960 2963 2966 2969 2972 2975 2978 2981 2983 2986 2989 2992 2995 2998 3001 3004 3007 3010 3013 3016 3019 3022 3025 3028 3030 3033 3035 3038 3040 3042 3045 3047 3050 3053 3055 3058 3061 3064 3067 3070 3073 3075 3078 3080 3083 3086 3088 3091 3094 3097 3099 3102 3105 3107 3110 3113 3116 3119 3122 3124 3127 3130 3132 3135 3138 3141 3144 3147 3149 3152 3154 3157 3160 3162 3165 3168 3170 3173 3176 3179 3182 3185 3188 3191 3194 3196 3199 3202 3205 3208 3211 3214 3217 3220 3223 3226 3228 3231 3234 3237 3240 3242 3245 3248 3250 3253 3256 3259 3262 3265 3267 3270 3273 3276 3279 3282 3284 3287 3289 3292 3295 3298 3301 3304 3307 3309 3312 3315 3318 3321 3324 3327 3330 3333 3335 3337 3339 3342 3345 3348 3351 3353 3356 3358 3361 3364 3367 3369 3371 3374 3377 3380 3382 3385 3388 3391 3393 3396 3398 3401 3403 3405 3408 3410 3413 3416 3419 3422 3424 3427 3430 3433 3435 3438 3440 3443 3445 3448 3451 3454 3457 3460 3463 3466 3468 3471 3474 3477 3480 3482 3485 3488 3491 3494 3497 3500 3503 3506 3508 3511 3513 3515 3518 3521 3524 3526 3529 3532 3535 3538 3540 3542 3545 3548 3550 3552 3555 3558 3561 3564 3567 3569 3572 3575 3578 3581 3584 3587 3590 3593 3595 3598 3600 3603 3606 3609 3612 3615 3618 3621 3624 3627 3630 3633 3636 3639 3642 3645 3648 3651 3653 3656 3659 3662 3665 3668 3671 3674 3677 3680 3683 3686 3689 3692 3695 3698 3701 3704 3707 3710 3713 3716 3719 3722 3725 3728 3730 3733 3735 3738 3741 3744 3747 3750 3752 3754 3757 3760 3763 3766 3768 3770 3773 3775 3778 3781 3783 3786 3789 3791 3794 3797 3800 3803 3805 3807 3810 3813 3816 3819 3822 3825 3828 3831 3833 3836 3839 3841 3844 3847 3850 3852 3855 3858 3860 3863 3866 3869 3872 3875 3878 3880 3883 3886 3889 3892 3895 3898 3900 3903 3906 3909 3912 3915 3917 3920 3923 3925 3927 3930 3933 3935 3938 3941 3943 3946 3949 3952 3955 3958 3961 3964 3967 3970 3973 3976 3979 3981 3984 3986 3989 3992 3994 3997 4000 4003 4006 4009 4012 4014 4017 4020 4023 4025 4027 4029 4032 4035 4038 4040 4042 4045 4047 4049 4052 4055 4057 4060 4063 4065 4068 4070 4073 4075 4078 4081 4084 4086 4088 4091 4094 4096 4098 4100 4102 4105 4108 4111 4113 4115 4118 4121 4123 4125 4127 4130 4132 4134 4137 4140 4142 4145 4147 4149 4152 4154 4157 4160 4162 4165 4167 4169 4172 4175 4178 4181 4183 4185 4188 4191 4193 4196 4199 4202 4204 4207 4210 4213 4216 4219 4222 4225 4228 4231 4234 4237 4240 4243 4246 4249 4252 4255 4258 4261 4264 4267 4270 4273 4276 4279 4282 4285 4288 4291 4294 4297 4300 4303 4306 4309 4312 4315 4318 4321 4324 4327 4330 4333 4336 4339 4342 4345 4348 4351 4354 4357 4360 4363 4366 4369 4372 4375 4378 4380 4383 4385 4388 4391 4394 4397 4400 4403 4406 4409 4412 4415 4418 4421 4424 4427 4429 4432 4435 4438 4441 4444 4447 4450 4453 4456 4459 4461 4464 4467 4470 4473 4476 4479 4482 4485 4488 4491 4494 4497 4500 4503 4506 4509 4512 4515 4518 4521 4524 4527 4530 4533 4536 4539 4542 4545 4548 4551 4554 4557 4560 4563 4566 4569 4572 4575 4578 4581 4584 4587 4590 4593 4596 4599 4601 4604 4607 4610 4612 4615 4617 4620 4623 4626 4629 4632 4634 4637 4639 4642 4645 4648 4651 4654 4657 4660 4663 4666 4669 4672 4675 4678 4681 4684 4687 4690 4693 4696 4699 4702 4705 4708 4711 4714 4716 4719 4722 4725 4728 4731 4734 4736 4739 4741 4744 4747 4750 4752 4755 4758 4760 4763 4766 4769 4772 4775 4778 4781 4784 4787 4790 4793 4796 4799 4802 4805 4808 4811 4814 4817 4820 4823 4826 4829 4832 4835 4838 4841 4844 4847 4850 4853 4856 4859 4862 4865 4868 4871 4873 4876 4878 4881 4884 4887 4890 4893 4896 4899 4902 4905 4908 4910 4913 4916 4919 4922 4925 4928 4931 4934 4937 4940 4943 4946 4949 4952 4955 4958 4961 4963 4966 4969 4972 4974 4976 4979 4981 4984 4987 4990 4993 4996 4999 5002 5005 5007 5010 5013 5016 5019 5021 5024 5027 5030 5033 5036 5039 5042 5044 5047 5050 5052 5055 5057 5060 5063 5065 5068 5071 5073 5075 5078 5081 5084 5087 5090 5093 5096 5099 5102 5105 5108 5111 5114 5117 5120 5122 5125 5127 5130 5133 5136 5138 5141 5143 5146 5149 5152 5155 5158 5161 5164 5167 5170 5173 5176 5179 5181 5184 5186 5189 5192 5195 5198 5201 5204 5207 5210 5212 5215 5218 5220 5223 5226 5229 5231 5233 5236 5239 5242 5245 5248 5251 5254 5257 5260 5263 5266 5269 5272 5275 5278 5281 5284 5287 5290 5293 5296 5298 5301 5304 5307 5310 5313 5315 5318 5320 5323 5326 5329 5332 5334 5337 5340 5342 5345 5348 5351 5354 5357 5359 5362 5365 5368 5371 5373 5376 5379 5382 5385 5388 5391 5394 5396 5399 5402 5405 5407 5410 5413 5416 5419 5422 5425 5428 5431 5434 5437 5440 5442 5445 5448 5451 5454 5457 5460 5463 5466 5468 5471 5474 5477 5480 5483 5486 5488 5491 5494 5497 5500 5503 5506 5508 5511 5514 5517 5520 5523 5526 5529 5532 5535 5538 5541 5543 5546 5549 5552 5554 5557 5560 5563 5565 5568 5570 5573 5576 5579 5582 5585 5588 5590 5593 5596 5599 5602 5605 5608 5611 5614 5617 5620 5623 5626 5629 5632 5635 5637 5640 5643 5646 5649 5652 5654 5657 5660 5663 5666 5669 5672 5675 5678 5680 5683 5686 5689 5692 5695 5698 5701 5704 5707 5710 5713 5716 5719 5722 5725 5728 5730 5733 5736 5739 5742 5744 5747 5750 5753 5756 5759 5762 5765 5768 5771 5774 5777 5780 5783 5786 5789 5792 5795 5798 5801 5804 5807 5810 5813 5816 5819 5822 5824 5827 5830 5833 5835 5838 5840 5843 5846 5849 5852 5854 5857 5859 5862 5865 5868 5871 5874 5876 5879 5882 5885 5888 5891 5894 5897 5900 5903 5905 5908 5911 5914 5917 5920 5923 5926 5929 5932 5935 5938 5941 5944 5947 5950 5953 5956 5959 5962 5965 5968 5971 5974 5977 5979 5981 5984 5987 5990 5993 5996 5998 6001 6004 6007 6009 6012 6015 6018 6020 6023 6026 6028 6031 6033 6036 6039 6042 6045 6047 6050 6053 6056 6059 6061 6063 6066 6069 6072 6075 6078 6081 6084 6087 6090 6093 6096 6099 6101 6104 6107 6110 6113 6115 6118 6121 6124 6127 6130 6132 6135 6138 6140 6143 6146 6149 6152 6155 6158 6161 6164 6167 6170 6173 6176 6179 6182 6185 6188 6190 6193 6196 6198 6201 6204 6207 6209 6212 6215 6218 6221 6224 6227 6230 6233 6236 6239 6242 6244 6247 6250 6253 6256 6259 6262 6265 6268 6271 6274 6277 6280 6283 6286 6289 6292 6294 6297 6300 6302 6305 6307 6310 6313 6315 6318 6320 6323 6325 6328 6331 6334 6337 6340 6343 6346 6349 6352 6355 6358 6361 6364 6366 6369 6371 6373 6376 6379 6381 6383 6386 6389 6391 6393 6396 6399 6402 6404 6407 6409 6412 6415 6417 6420 6423 6426 6429 6431 6433 6436 6438 6441 6444 6446 6448 6451 6454 6456 6459 6462 6465 6467 6470 6473 6476 6478 6480 6482 6485 6488 6490 6493 6495 6497 6500 6503 6506 6509 6512 6515 6518 6521 6524 6527 6530 6532 6534 6537 6539 6542 6544 6547 6549 6552 6555 6558 6560 6563 6566 6569 6572 6575 6577 6580 6583 6586 6589 6592 6595 6598 6601 6604 6607 6610 6613 6616 6619 6622 6625 6628 6631 6634 6637 6640 6643 6646 6649 6651 6654 6657 6660 6663 6666 6669 6672 6675 6678 6681 6684 6687 6690 6693 6696 6699 6702 6705 6707 6710 6713 6716 6719 6722 6725 6728 6731 6734 6737 6740 6742 6745 6748 6751 6754 6757 6759 6762 6765 6768 6771 6774 6777 6780 6783 6786 6789 6792 6795 6798 6801 6803 6806 6809 6812 6815 6818 6821 6824 6827 6830 6833 6836 6839 6842 6845 6847 6850 6852 6855 6858 6861 6864 6866 6869 6872 6875 6878 6881 6884 6887 6890 6893 6896 6899 6902 6904 6907 6909 6912 6915 6918 6921 6923 6926 6929 6932 6935 6938 6941 6944 6946 6949 6952 6955 6958 6961 6964 6967 6969 6972 6975 6978 6980 6983 6985 6988 6991 6994 6997 7000 7003 7006 7009 7012 7014 7017 7020 7023 7026 7029 7032 7035 7038 7041 7044 7047 7050 7053 7056 7059 7062 7065 7068 7071 7074 7077 7080 7083 7086 7089 7092 7095 7098 7101 7104 7107 7110 7113 7116 7119 7122 7125 7128 7131 7134 7137 7140 7143 7145 7148 7151 7153 7156 7159 7162 7165 7168 7171 7174 7177 7180 7183 7185 7188 7191 7194 7197 7200 7202 7205 7208 7210 7213 7216 7219 7222 7225 7228 7230 7233 7236 7239 7242 7244 7247 7250 7252 7255 7257 7260 7263 7266 7269 7272 7275 7278 7281 7284 7287 7290 7292 7295 7297 7300 7303 7306 7309 7311 7314 7317 7320 7323 7326 7329 7332 7335 7338 7341 7344 7347 7350 7353 7356 7359 7362 7365 7368 7371 7374 7376 7379 7382 7385 7388 7390 7393 7396 7399 7402 7405 7408 7411 7413 7416 7419 7422 7425 7428 7430 7433 7436 7439 7441 7444 7447 7450 7452 7455 7458 7460 7463 7466 7469 7471 7474 7477 7479 7482 7485 7488 7491 7494 7497 7500 7503 7506 7509 7512 7515 7518 7521 7524 7527 7530 7533 7536 7539 7542 7545 7548 7551 7554 7557 7560 7563 7566 7569 7572 7574 7577 7580 7583 7586 7589 7592 7595 7598 7601 7604 7607 7609 7612 7615 7618 7621 7624 7627 7630 7633 7636 7639 7642 7645 7648 7651 7654 7656 7658 7661 7664 7667 7669 7672 7675 7678 7681 7683 7686 7689 7691 7694 7697 7700 7703 7706 7709 7712 7715 7718 7721 7724 7727 7730 7732 7734 7737 7740 7743 7746 7749 7752 7755 7758 7761 7764 7767 7769 7772 7775 7777 7780 7783 7786 7789 7792 7795 7798 7801 7804 7807 7810 7813 7816 7819 7822 7825 7828 7831 7834 7836 7839 7842 7845 7847 7850 7853 7856 7859 7862 7864 7867 7870 7873 7876 7879 7882 7885 7888 7891 7894 7897 7900 7903 7906 7909 7912 7915 7918 7921 7924 7926 7929 7932 7934 7937 7940 7943 7946 7949 7952 7955 7958 7961 7964 7967 7970 7973 7976 7979 7982 7985 7988 7991 7993 7996 7999 8002 8005 8008 8011 8014 8017 8020 8023 8026 8029 8032 8035 8038 8041 8044 8047 8050 8053 8056 8059 8062 8065 8068 8071 8074 8077 8080 8083 8086 8089 8091 8094 8097 8100 8103 8106 8109 8111 8114 8117 8120 8123 8126 8128 8131 8134 8137 8140 8142 8145 8148 8151 8154 8157 8160 8163 8166 8169 8172 8175 8178 8181 8184 8187 8190 8193 8196 8199 8202 8205 8208 8210 8213 8216 8219 8222 8225 8228 8231 8233 8236 8239 8241 8244 8247 8249 8252 8255 8258 8261 8264 8267 8269 8272 8275 8278 8281 8284 8287 8290 8293 8296 8299 8301 8304 8306 8309 8312 8315 8318 8321 8324 8327 8330 8332 8335 8338 8340 8343 8346 8349 8351 8354 8357 8360 8362 8365 8368 8371 8373 8375 8378 8381 8383 8386 8389 8391 8394 8397 8399 8402 8405 8408 8411 8414 8417 8420 8423 8426 8428 8431 8434 8437 8439 8442 8445 8448 8450 8453 8456 8459 8461 8464 8466 8469 8472 8474 8477 8480 8483 8486 8489 8492 8495 8498 8500 8503 8506 8508 8511 8514 8517 8520 8523 8526 8529 8532 8535 8538 8541 8544 8547 8549 8552 8554 8557 8560 8563 8565 8567 8570 8572 8575 8578 8581 8584 8586 8589 8591 8594 8597 8600 8603 8606 8609 8612 8615 8618 8620 8623 8626 8629 8632 8635 8638 8641 8644 8647 8650 8653 8656 8659 8662 8665 8668 8671 8674 8677 8680 8683 8686 8689 8692 8695 8698 8701 8704 8706 8709 8712 8715 8718 8721 8724 8726 8729 8732 8735 8738 8741 8744 8746 8749 8752 8755 8758 8761 8764 8766 8769 8772 8775 8777 8780 8783 8786 8788 8791 8794 8796 8799 8802 8805 8808 8811 8814 8816 8819 8822 8825 8827 8829 8832 8835 8838 8841 8844 8847 8850 8853 8856 8859 8862 8865 8868 8871 8874 8877 8880 8882 8885 8888 8891 8894 8897 8900 8903 8905 8908 8911 8914 8917 8920 8922 8925 8928 8931 8934 8937 8939 8942 8945 8947 8950 8953 8956 8959 8961 8964 8967 8970 8973 8976 8979 8981 8984 8986 8989 8991 8993 8996 8998 9001 9004 9007 9009 9012 9015 9018 9021 9024 9026 9029 9032 9035 9037 9040 9043 9046 9049 9051 9053 9055 9058 9061 9064 9067 9069 9071 9074 9076 9079 9082 9085 9088 9091 9094 9096 9099 9101 9104 9107 9109 9112 9115 9118 9120 9123 9126 9128 9131 9134 9137 9140 9143 9146 9149 9152 9155 9158 9161 9164 9166 9169 9172 9175 9178 9180 9183 9186 9189 9192 9194 9197 9200 9203 9206 9209 9212 9215 9218 9221 9223 9225 9227 9230 9233 9236 9238 9240 9243 9246 9248 9251 9253 9256 9259 9262 9265 9268 9271 9274 9276 9279 9282 9285 9288 9291 9294 9297 9300 9303 9306 9309 9312 9315 9318 9321 9324 9326 9329 9332 9335 9338 9341 9344 9347 9350 9353 9355 9358 9361 9363 9366 9368 9371 9373 9376 9379 9381 9384 9387 9390 9392 9394 9397 9400 9402 9405 9408 9411 9413 9416 9419 9422 9425 9427 9430 9433 9436 9439 9442 9445 9448 9451 9454 9457 9460 9462 9464 9467 9470 9473 9476 9479 9482 9485 9488 9491 9494 9497 9500 9503 9506 9509 9512 9515 9518 9521 9524 9527 9530 9533 9536 9539 9542 9545 9548 9551 9554 9557 9560 9562 9565 9568 9571 9574 9577 9580 9583 9586 9589 9592 9595 9598 9601 9604 9607 9610 9613 9616 9619 9621 9624 9627 9630 9633 9636 9639 9641 9643 9646 9649 9651 9653 9656 9659 9662 9664 9667 9670 9673 9676 9679 9682 9685 9688 9691 9694 9697 9700 9703 9706 9709 9712 9715 9718 9721 9724 9727 9730 9733 9735 9738 9740 9743 9745 9748 9751 9754 9757 9760 9763 9765 9768 9770 9772 9775 9778 9780 9783 9786 9789 9792 9795 9798 9800 9802 9805 9808 9810 9812 9815 9818 9820 9822 9825 9828 9831 9834 9837 9840 9843 9846 9848 9851 9854 9857 9860 9863 9865 9868 9871 9873 9876 9879 9882 9884 9887 9890 9893 9896 9899 9902 9905 9908 9911 9914 9917 9920 9923 9926 9929 9932 9935 9938 9941 9944 9947 9950 9953 9956 9959 9962 9965 9968 9971 9974 9977 9980 9983 9986 9988 9991 9994 9996 9999 10001 10003 10006 10009 10012 10015 10018 10021 10024 10027 10030 10032 10035 10038 10041 10044 10047 10049 10052 10055 10058 10061 10064 10067 10070 10072 10075 10078 10081 10084 10087 10090 10093 10096 10098 10101 10104 10107 10110 10113 10115 10118 10121 10124 10127 10130 10133 10136 10139 10142 10145 10148 10151 10154 10157 10160 10163 10166 10169 10172 10175 10178 10181 10184 10187 10190 10193 10196 10199 10202 10205 10207 10209 10212 10215 10218 10221 10224 10227 10230 10232 10235 10238 10241 10243 10246 10248 10251 10254 10257 10260 10263 10266 10269 10272 10275 10278 10281 10284 10287 10290 10293 10296 10299 10302 10305 10308 10311 10313 10316 10319 10322 10325 10328 10331 10333 10336 10339 10342 10345 10348 10351 10354 10356 10359 10362 10364 10367 10370 10373 10376 10379 10382 10384 10387 10390 10393 10395 10398 10401 10403 10405 10408 10411 10414 10417 10420 10423 10426 10429 10432 10435 10438 10441 10444 10447 10450 10453 10456 10459 10462 10465 10468 10471 10474 10477 10480 10483 10486 10489 10491 10494 10497 10500 10503 10506 10509 10512 10515 10518 10521 10524 10527 10530 10533 10536 10539 10542 10545 10548 10550 10553 10556 10559 10561 10563 10566 10569 10572 10575 10578 10580 10583 10586 10589 10591 10594 10597 10600 10603 10606 10608 10611 10614 10617 10620 10623 10626 10629 10632 10635 10638 10641 10644 10647 10650 10653 10656 10659 10662 10665 10668 10671 10673 10676 10679 10682 10685 10688 10691 10693 10696 10699 10702 10705 10708 10711 10714 10717 10720 10723 10726 10729 10731 10734 10737 10740 10743 10745 10748 10750 10753 10756 10759 10762 10765 10768 10771 10774 10777 10780 10783 10786 10789 10791 10794 10797 10800 10803 10806 10808 10811 10814 10817 10820 10823 10826 10828 10831 10834 10837 10840 10843 10846 10849 10852 10855 10858 10861 10864 10866 10869 10872 10874 10877 10880 10882 10885 10888 10890 10893 10896 10899 10902 10905 10908 10911 10914 10917 10920 10922 10925 10928 10931 10934 10937 10940 10943 10946 10948 10951 10954 10957 10959 10962 10965 10968 10970 10973 10976 10978 10981 10984 10987 10989 10992 10995 10998 11001 11004 11006 11009 11011 11014 11017 11020 11023 11025 11027 11030 11033 11036 11038 11041 11044 11047 11050 11052 11055 11058 11061 11064 11067 11070 11073 11076 11079 11082 11085 11088 11091 11094 11097 11099 11102 11105 11107 11109 11112 11115 11118 11121 11123 11126 11129 11132 11135 11138 11141 11143 11146 11149 11152 11155 11158 11161 11163 11166 11169 11172 11175 11178 11181 11184 11187 11189 11192 11195 11198 11201 11204 11207 11210 11213 11216 11219 11221 11224 11227 11229 11232 11235 11237 11240 11243 11246 11249 11252 11254 11256 11259 11262 11264 11266 11269 11271 11274 11276 11279 11281 11283 11286 11289 11291 11294 11296 11299 11301 11304 11306 11309 11311 11314 11317 11319 11322 11324 11327 11329 11332 11335 11338 11341 11344 11347 11349 11352 11355 11358 11360 11363 11366 11369 11372 11375 11378 11381 11384 11387 11389 11392 11395 11397 11400 11402 11405 11407 11410 11413 11416 11418 11420 11423 11426 11429 11432 11435 11438 11441 11444 11447 11450 11453 11455 11458 11461 11464 11467 11470 11472 11475 11478 11481 11484 11487 11490 11493 11496 11499 11502 11505 11508 11511 11514 11517 11520 11523 11525 11528 11531 11534 11537 11540 11543 11545 11548 11551 11554 11556 11559 11562 11564 11567 11570 11573 11575 11578 11580 11582 11585 11588 11591 11594 11597 11600 11603 11606 11609 11611 11614 11617 11620 11623 11626 11629 11632 11634 11637 11639 11642 11644 11647 11650 11653 11656 11659 11662 11665 11668 11671 11674 11677 11680 11683 11686 11689 11692 11695 11698 11701 11704 11707 11710 11713 11716 11719 11722 11725 11728 11731 11734 11737 11740 11743 11746 11749 11752 11755 11757 11760 11763 11765 11767 11770 11773 11776 11779 11781 11784 11787 11790 11793 11796 11798 11801 11804 11806 11808 11811 11814 11817 11820 11823 11826 11828 11831 11833 11836 11839 11841 11843 11846 11848 11851 11854 11857 11859 11862 11865 11868 11871 11873 11876 11879 11882 11884 11887 11890 11892 11894 11897 11900 11903 11905 11908 11911 11914 11917 11919 11922 11925 11927 11930 11933 11936 11938 11941 11944 11946 11949 11952 11955 11957 11960 11962 11965 11968 11970 11973 11976 11978 11980 11983 11986 11988 11991 11993 11995 11998 12001 12004 12007 12009 12012 12015 12018 12021 12023 12026 12029 12032 12035 12038 12041 12044 12047 12050 12053 12056 12059 12061 12064 12067 12070 12073 12075 12078 12080 12083 12086 12089 12092 12095 12097 12099 12101 12104 12107 12110 12113 12116 12119 12122 12125 12127 12130 12133 12136 12139 12142 12145 12147 12150 12153 12156 12159 12161 12164 12167 12170 12173 12176 12179 12182 12185 12188 12191 12194 12197 12200 12203 12206 12209 12212 12215 12217 12220 12222 12225 12228 12230 12232 12235 12237 12240 12243 12245 12248 12250 12253 12255 12258 12260 12263 12266 12269 12272 12274 12277 12280 12283 12285 12288 12291 12294 12297 12300 12303 12306 12309 12312 12315 12318 12321 12324 12327 12330 12333 12336 12339 12342 12345 12348 12351 12354 12357 12360 12362 12365 12368 12371 12374 12377 12379 12382 12385 12388 12391 12394 12397 12400 12403 12406 12409 12412 12414 12417 12420 12423 12426 12429 12431 12434 12437 12439 12441 12444 12447 12450 12452 12455 12458 12460 12462 12465 12467 12470 12473 12476 12479 12482 12485 12488 12491 12494 12497 12500 12503 12506 12509 12512 12515 12517 12520 12523 12526 12529 12531 12534 12537 12540 12543 12546 12549 12552 12555 12557 12559 12562 12565 12567 12570 12573 12576 12579 12582 12585 12588 12591 12594 12596 12598 12601 12604 12606 12609 12612 12615 12617 12620 12623 12626 12629 12632 12635 12638 12641 12644 12647 12650 12653 12656 12659 12662 12665 12668 12671 12674 12677 12680 12683 12686 12689 12692 12695 12697 12700 12703 12706 12709 12712 12715 12718 12721 12724 12727 12730 12733 12736 12739 12742 12745 12748 12751 12754 12757 12759 12762 12765 12768 12770 12772 12775 12778 12781 12783 12786 12789 12791 12794 12797 12800 12803 12806 12808 12811 12813 12816 12819 12822 12825 12828 12831 12834 12837 12839 12842 12845 12848 12850 12853 12856 12858 12861 12863 12866 12869 12872 12874 12877 12880 12883 12885 12888 12891 12894 12897 12900 12903 12906 12909 12912 12915 12918 12921 12924 12927 12930 12933 12936 12938 12941 12944 12947 12950 12953 12956 12959 12962 12965 12967 12970 12973 12976 12979 12982 12985 12988 12991 12993 12996 12999 13002 13005 13008 13011 13014 13017 13020 13023 13026 13029 13032 13034 13037 13040 13043 13045 13048 13051 13054 13057 13060 13063 13066 13069 13072 13075 13078 13081 13084 13087 13090 13093 13096 13099 13102 13104 13107 13110 13113 13115 13118 13120 13123 13126 13129 13131 13134 13137 13140 13142 13144 13147 13150 13153 13156 13159 13162 13165 13168 13171 13174 13177 13180 13183 13186 13189 13192 13195 13198 13201 13204 13207 13210 13212 13215 13218 13221 13224 13226 13229 13232 13235 13238 13240 13243 13246 13249 13252 13255 13258 13261 13263 13266 13269 13272 13275 13277 13280 13283 13286 13289 13292 13295 13297 13300 13303 13306 13309 13312 13315 13317 13320 13323 13326 13328 13331 13334 13337 13340 13343 13346 13349 13352 13355 13357 13360 13363 13366 13369 13372 13375 13377 13380 13383 13386 13389 13392 13395 13398 13401 13404 13407 13410 13412 13415 13418 13420 13423 13426 13429 13432 13435 13437 13440 13443 13445 13448 13451 13454 13457 13460 13463 13466 13468 13470 13473 13476 13479 13482 13484 13487 13490 13493 13496 13499 13502 13504 13507 13510 13513 13516 13519 13522 13525 13528 13531 13534 13536 13539 13542 13545 13548 13551 13554 13557 13560 13563 13566 13569 13572 13574 13577 13579 13582 13585 13588 13590 13593 13596 13598 13601 13604 13607 13610 13612 13615 13618 13621 13624 13627 13629 13632 13635 13638 13641 13644 13647 13650 13653 13655 13658 13661 13664 13667 13669 13672 13675 13678 13681 13684 13687 13690 13692 13695 13698 13701 13704 13707 13710 13713 13716 13719 13722 13724 13727 13730 13733 13735 13738 13740 13743 13746 13749 13752 13755 13758 13760 13763 13765 13768 13770 13773 13776 13779 13782 13784 13787 13790 13793 13796 13799 13802 13805 13808 13811 13814 13817 13820 13823 13826 13828 13831 13833 13836 13839 13842 13845 13848 13851 13854 13856 13859 13862 13865 13868 13871 13874 13877 13880 13883 13886 13889 13892 13895 13897 13900 13903 13906 13909 13911 13914 13917 13920 13923 13926 13929 13932 13935 13938 13941 13944 13947 13950 13953 13956 13959 13962 13965 13968 13971 13974 13977 13980 13983 13985 13988 13991 13994 13997 13999 14002 14005 14008 14010 14013 14016 14018 14021 14024 14026 14029 14032 14035 14038 14041 14044 14047 14050 14053 14056 14059 14062 14065 14068 14071 14073 14076 14079 14081 14084 14087 14090 14093 14096 14099 14102 14104 14107 14110 14113 14116 14119 14121 14124 14127 14130 14132 14135 14138 14141 14143 14146 14149 14152 14155 14158 14161 14164 14166 14169 14172 14175 14177 14180 14182 14184 14187 14190 14193 14196 14199 14201 14204 14207 14210 14213 14216 14219 14222 14225 14228 14231 14233 14236 14239 14242 14245 14248 14251 14254 14257 14260 14263 14266 14269 14272 14275 14278 14281 14284 14287 14290 14293 14296 14299 14302 14305 14308 14311 14314 14317 14320 14323 14326 14329 14332 14335 14338 14341 14344 14346 14349 14352 14355 14358 14361 14364 14367 14370 14373 14376 14379 14382 14385 14388 14391 14394 14396 14399 14402 14405 14408 14411 14414 14417 14420 14423 14425 14428 14431 14434 14437 14440 14443 14446 14448 14451 14454 14457 14460 14463 14466 14469 14472 14475 14478 14481 14484 14487 14490 14493 14496 14499 14502 14505 14508 14511 14513 14516 14519 14522 14525 14528 14531 14534 14537 14540 14543 14546 14549 14552 14555 14558 14561 14564 14566 14569 14572 14575 14578 14581 14584 14587 14590 14593 14596 14599 14602 14605 14608 14611 14614 14617 14620 14623 14626 14629 14632 14635 14638 14641 14644 14647 14650 14653 14656 14659 14662 14665 14668 14671 14674 14677 14680 14683 14686 14689 14692 14695 14698 14701 14704 14706 14709 14712 14715 14718 14721 14724 14727 14730 14733 14736 14739 14742 14745 14747 14750 14752 14755 14758 14761 14764 14767 14769 14772 14775 14778 14781 14784 14786 14788 14791 14794 14797 14800 14803 14806 14809 14812 14815 14818 14821 14824 14827 14830 14833 14836 14839 14841 14843 14846 14849 14852 14855 14858 14861 14863 14866 14868 14871 14874 14877 14880 14883 14886 14889 14892 14895 14897 14900 14903 14906 14909 14912 14915 14918 14921 14924 14927 14930 14933 14936 14939 14942 14945 14948 14951 14954 14956 14959 14962 14965 14968 14971 14973 14976 14978 14981 14984 14987 14990 14993 14996 14999 15001 15004 15007 15010 15012 15015 15018 15021 15023 15026 15029 15031 15034 15037 15040 15042 15045 15048 15050 15053 15055 15058 15060 15063 15066 15068 15071 15074 15077 15080 15083 15086 15089 15092 15095 15098 15101 15104 15107 15110 15113 15116 15119 15122 15125 15128 15131 15133 15136 15138 15141 15144 15147 15150 15153 15156 15159 15161 15164 15167 15170 15173 15176 15179 15182 15185 15188 15191 15194 15197 15200 15203 15206 15209 15212 15215 15218 15220 15223 15226 15229 15231 15234 15237 15240 15243 15246 15249 15252 15255 15258 15261 15263 15266 15269 15272 15275 15277 15280 15283 15285 15288 15291 15294 15297 15300 15302 15305 15308 15311 15314 15316 15319 15321 15324 15327 15329 15332 15335 15338 15341 15344 15347 15350 15352 15355 15358 15360 15363 15365 15368 15371 15374 15377 15380 15383 15386 15389 15392 15395 15398 15401 15404 15407 15410 15413 15416 15419 15421 15424 15427 15430 15433 15436 15439 15442 15444 15447 15450 15453 15456 15458 15461 15464 15467 15470 15473 15476 15479 15482 15485 15487 15490 15493 15496 15499 15501 15504 15507 15510 15513 15516 15519 15522 15525 15528 15531 15534 15537 15539 15542 15545 15548 15551 15554 15557 15560 15563 15566 15568 15571 15574 15577 15580 15583 15586 15589 15592 15595 15598 15601 15604 15606 15609 15612 15614 15617 15620 15623 15626 15629 15632 15635 15638 15641 15643 15645 15647 15650 15653 15656 15658 15661 15664 15667 15670 15673 15676 15678 15681 15684 15687 15689 15691 15694 15697 15700 15703 15706 15709 15712 15715 15718 15721 15724 15727 15729 15732 15735 15738 15740 15742 15745 15748 15751 15754 15757 15759 15762 15765 15768 15771 15773 15776 15779 15782 15785 15787 15790 15793 15796 15799 15802 15804 15806 15808 15811 15814 15817 15819 15821 15824 15827 15830 15833 15836 15839 15842 15845 15848 15850 15852 15855 15858 15861 15863 15865 15868 15871 15874 15877 15880 15883 15886 15889 15892 15895 15898 15901 15904 15907 15910 15913 15916 15918 15921 15923 15926 15929 15932 15935 15937 15940 15943 15946 15949 15952 15955 15958 15960 15963 15966 15969 15972 15975 15978 15981 15983 15986 15989 15991 15994 15996 15998 16001 16004 16007 16009 16011 16014 16017 16020 16022 16024 16027 16030 16033 16036 16039 16042 16045 16048 16051 16054 16056 16059 16062 16065 16068 16071 16074 16077 16079 16082 16085 16088 16091 16093 16096 16099 16102 16105 16108 16111 16113 16116 16119 16122 16125 16127 16130 16132 16135 16138 16141 16144 16147 16150 16153 16156 16159 16162 16165 16168 16171 16174 16176 16179 16182 16185 16188 16191 16194 16197 16199 16202 16205 16208 16211 16213 16216 16219 16222 16224 16227 16230 16233 16236 16239 16242 16245 16248 16251 16254 16257 16260 16263 16266 16269 16272 16275 16278 16281 16284 16287 16290 16292 16295 16297 16300 16303 16305 16308 16311 16314 16316 16319 16322 16324 16327 16330 16333 16336 16339 16342 16345 16348 16351 16354 16357 16360 16363 16366 16369 16372 16375 16378 16381 16384 16386 16388 16390 16393 16396 16399 16402 16405 16408 16411 16414 16417 16420 16423 16426 16429 16431 16434 16437 16440 16442 16445 16448 16450 16453 16456 16459 16462 16464 16467 16470 16472 16474 16477 16480 16483 16486 16488 16491 16494 16496 16499 16501 16504 16507 16510 16513 16516 16519 16522 16525 16528 16531 16534 16537 16539 16542 16545 16548 16551 16554 16557 16560 16562 16565 16567 16570 16573 16576 16579 16581 16584 16587 16590 16593 16596 16599 16602 16605 16608 16611 16614 16617 16620 16623 16626 16629 16632 16635 16638 16641 16644 16647 16650 16652 16655 16658 16661 16663 16666 16668 16671 16674 16677 16679 16682 16685 16688 16691 16694 16696 16699 16702 16704 16707 16710 16713 16716 16719 16722 16725 16728 16730 16733 16736 16739 16742 16745 16747 16750 16753 16756 16759 16762 16765 16768 16771 16774 16777 16780 16783 16786 16789 16791 16794 16797 16800 16803 16805 16808 16811 16814 16817 16820 16823 16826 16829 16832 16835 16838 16841 16843 16846 16849 16852 16855 16857 16860 16863 16866 16869 16872 16875 16878 16881 16884 16887 16890 16893 16896 16898 16901 16904 16906 16909 16912 16915 16917 16920 16923 16926 16929 16932 16935 16938 16941 16944 16947 16950 16953 16956 16958 16960 16963 16965 16967 16970 16973 16976 16978 16980 16983 16985 16988 16990 16993 16995 16998 17001 17004 17006 17009 17011 17014 17017 17020 17023 17025 17028 17031 17034 17037 17040 17043 17045 17048 17051 17054 17057 17060 17062 17065 17068 17070 17073 17076 17078 17081 17084 17086 17089 17092 17095 17098 17101 17103 17106 17108 17111 17114 17117 17120 17123 17126 17129 17132 17135 17138 17141 17144 17147 17149 17152 17155 17157 17160 17163 17166 17169 17172 17175 17178 17181 17184 17186 17189 17192 17195 17198 17201 17204 17207 17210 17213 17215 17218 17221 17223 17226 17228 17231 17234 17237 17240 17243 17246 17249 17251 17254 17257 17260 17263 17266 17269 17272 17274 17277 17279 17282 17285 17287 17290 17293 17296 17298 17301 17304 17307 17310 17312 17315 17318 17321 17324 17327 17329 17332 17335 17338 17341 17344 17347 17350 17353 17356 17359 17362 17365 17368 17371 17374 17377 17380 17383 17386 17389 17392 17394 17397 17400 17402 17405 17408 17411 17413 17416 17419 17422 17425 17427 17430 17433 17436 17439 17442 17445 17448 17451 17454 17457 17460 17463 17466 17469 17472 17475 17478 17481 17484 17487 17490 17493 17496 17498 17501 17504 17507 17510 17513 17516 17518 17521 17524 17527 17530 17533 17536 17539 17542 17545 17548 17551 17554 17557 17559 17562 17564 17567 17570 17572 17575 17578 17581 17584 17586 17588 17591 17593 17596 17598 17601 17604 17607 17610 17613 17615 17618 17621 17623 17625 17628 17631 17634 17637 17640 17642 17645 17648 17650 17653 17656 17659 17662 17665 17668 17671 17674 17676 17678 17681 17684 17687 17689 17692 17694 17697 17700 17703 17706 17709 17711 17714 17716 17719 17722 17725 17728 17731 17733 17735 17738 17741 17744 17747 17749 17752 17755 17758 17761 17763 17766 17769 17772 17775 17778 17781 17784 17787 17790 17793 17796 17799 17802 17805 17808 17811 17814 17816 17819 17822 17824 17827 17830 17833 17835 17838 17841 17844 17847 17850 17853 17856 17859 17862 17865 17868 17871 17874 17877 17880 17883 17886 17889 17892 17894 17897 17900 17903 17906 17909 17912 17915 17918 17921 17924 17927 17930 17933 17936 17938 17940 17943 17946 17949 17951 17954 17957 17960 17963 17966 17968 17971 17974 17977 17980 17983 17986 17989 17992 17995 17998 18001 18003 18006 18009 18011 18014 18017 18020 18023 18026 18029 18032 18035 18038 18041 18043 18046 18049 18052 18054 18057 18059 18062 18064 18067 18070 18073 18075 18077 18080 18082 18085 18088 18090 18093 18096 18098 18100 18103 18106 18109 18111 18114 18117 18119 18122 18124 18127 18130 18133 18135 18138 18141 18143 18145 18148 18150 18153 18156 18158 18161 18163 18166 18169 18172 18175 18178 18181 18184 18187 18190 18192 18195 18198 18201 18204 18207 18209 18212 18215 18218 18221 18224 18227 18230 18233 18236 18239 18241 18244 18247 18250 18253 18255 18257 18260 18263 18265 18268 18270 18273 18276 18279 18282 18285 18287 18290 18293 18295 18298 18300 18303 18306 18309 18312 18315 18318 18321 18323 18326 18329 18332 18335 18338 18341 18344 18347 18350 18352 18355 18357 18360 18362 18365 18367 18370 18373 18376 18379 18381 18384 18387 18390 18393 18396 18398 18400 18403 18406 18409 18412 18415 18418 18420 18423 18426 18429 18432 18435 18437 18440 18443 18446 18449 18451 18454 18457 18459 18462 18464 18467 18470 18473 18475 18478 18480 18483 18486 18488 18490 18492 18495 18498 18501 18504 18507 18510 18512 18514 18516 18519 18522 18525 18528 18530 18533 18535 18538 18540 18543 18546 18549 18552 18555 18558 18560 18563 18566 18569 18572 18575 18578 18581 18584 18587 18590 18593 18596 18599 18602 18605 18608 18611 18614 18617 18620 18623 18626 18629 18632 18635 18638 18641 18644 18647 18650 18653 18656 18659 18662 18665 18668 18671 18674 18677 18680 18683 18686 18689 18692 18695 18698 18701 18704 18707 18709 18712 18715 18718 18720 18722 18725 18728 18731 18734 18737 18740 18743 18746 18749 18752 18755 18758 18761 18764 18767 18770 18773 18776 18779 18781 18784 18787 18790 18793 18796 18799 18802 18804 18807 18810 18812 18815 18818 18820 18823 18826 18828 18831 18833 18836 18839 18841 18844 18847 18850 18852 18855 18857 18860 18862 18864 18867 18870 18873 18875 18877 18880 18883 18885 18888 18891 18893 18896 18899 18902 18905 18908 18911 18914 18917 18920 18923 18926 18929 18931 18934 18937 18940 18943 18945 18948 18951 18954 18957 18959 18962 18965 18968 18971 18974 18977 18980 18983 18986 18988 18991 18993 18996 18999 19002 19005 19007 19010 19013 19016 19018 19021 19024 19027 19030 19033 19036 19038 19041 19044 19046 19049 19052 19055 19057 19060 19063 19066 19069 19072 19075 19078 19080 19083 19086 19089 19092 19095 19097 19100 19103 19106 19109 19112 19115 19118 19121 19124 19127 19130 19133 19136 19139 19142 19144 19147 19150 19153 19156 19159 19161 19164 19167 19169 19172 19174 19177 19180 19183 19186 19188 19190 19193 19196 19198 19201 19204 19207 19210 19213 19216 19219 19222 19225 19228 19231 19233 19236 19238 19241 19244 19247 19250 19253 19255 19258 19261 19264 19266 19269 19272 19275 19277 19280 19283 19286 19289 19292 19295 19298 19301 19304 19307 19310 19313 19316 19318 19321 19324 19327 19330 19333 19336 19339 19341 19344 19346 19349 19352 19355 19358 19361 19364 19367 19369 19371 19374 19377 19380 19383 19386 19389 19392 19395 19398 19400 19403 19406 19409 19412 19415 19418 19420 19422 19424 19427 19429 19432 19435 19438 19441 19444 19447 19449 19452 19454 19457 19459 19462 19464 19467 19470 19473 19476 19479 19482 19484 19487 19490 19492 19495 19498 19501 19504 19506 19509 19512 19515 19518 19521 19524 19527 19530 19533 19536 19539 19542 19545 19548 19551 19554 19557 19560 19563 19566 19569 19571 19574 19576 19579 19582 19585 19588 19591 19594 19597 19600 19603 19606 19609 19612 19615 19618 19621 19624 19627 19630 19633 19636 19639 19642 19645 19648 19651 19654 19657 19660 19663 19666 19669 19672 19675 19678 19681 19684 19687 19690 19693 19696 19699 19702 19705 19708 19711 19714 19717 19720 19723 19726 19729 19732 19735 19738 19741 19744 19747 19750 19752 19755 19758 19761 19764 19767 19770 19773 19776 19779 19782 19785 19788 19791 19794 19797 19800 19803 19806 19809 19812 19815 19818 19821 19823 19826 19829 19832 19834 19837 19839 19842 19845 19848 19851 19854 19857 19860 19863 19866 19869 19872 19875 19878 19881 19884 19887 19890 19893 19896 19899 19902 19905 19908 19911 19914 19917 19920 19923 19926 19929 19932 19935 19938 19941 19944 19947 19950 19953 19956 19958 19961 19963 19966 19969 19972 19975 19978 19981 19984 19987 19990 19993 19996 19999 20002 20005 20008 20011 20014 20017 20020 20023 20026 20029 20032 20035 20038 20040 20043 20046 20049 20052 20055 20058 20061 20064 20067 20070 20073 20076 20079 20082 20085 20088 20091 20094 20097 20100 20103 20106 20109 20112 20115 20118 20121 20124 20127 20130 20133 20136 20139 20142 20145 20148 20151 20154 20157 20160 20163 20166 20169 20172 20175 20178 20181 20184 20187 20190 20193 20196 20199 20202 20205 20208 20211 20214 20217 20220 20223 20226 20229 20232 20235 20238 20241 20244 20247 20249 20252 20255 20258 20261 20264 20267 20270 20272 20275 20278 20280 20283 20286 20289 20292 20295 20298 20301 20304 20307 20310 20313 20316 20319 20322 20325 20328 20331 20334 20337 20340 20342 20345 20348 20351 20354 20357 20360 20363 20366 20369 20372 20375 20378 20381 20384 20387 20390 20393 20396 20399 20402 20405 20408 20411 20414 20417 20420 20423 20426 20429 20432 20435 20438 20440 20443 20446 20449 20452 20454 20457 20459 20462 20465 20468 20471 20474 20477 20479 20482 20485 20487 20490 20493 20495 20497 20500 20502 20505 20508 20511 20513 20516 20519 20522 20525 20528 20531 20534 20537 20540 20543 20546 20549 20552 20555 20558 20560 20563 20566 20569 20572 20575 20578 20581 20584 20586 20589 20592 20595 20598 20601 20604 20607 20610 20613 20616 20619 20622 20625 20628 20631 20634 20637 20640 20643 20646 20649 20652 20655 20658 20661 20664 20667 20670 20673 20676 20679 20682 20685 20688 20691 20694 20696 20699 20702 20705 20708 20711 20714 20717 20719 20722 20725 20727 20730 20732 20735 20738 20741 20744 20747 20750 20753 20756 20759 20762 20765 20767 20769 20772 20775 20777 20780 20783 20785 20787 20790 20793 20796 20799 20801 20804 20806 20809 20812 20814 20817 20819 20821 20824 20826 20829 20831 20834 20837 20840 20843 20846 20849 20852 20854 20857 20859 20862 20865 20868 20871 20874 20876 20879 20882 20885 20887 20890 20893 20895 20898 20900 20903 20905 20907 20910 20913 20915 20918 20921 20924 20927 20930 20933 20935 20938 20941 20944 20947 20950 20953 20956 20959 20961 20963 20966 20969 20972 20974 20977 20980 20983 20986 20988 20990 20993 20995 20998 21001 21004 21006 21009 21012 21015 21018 21021 21024 21027 21030 21033 21036 21039 21042 21045 21048 21051 21054 21056 21059 21062 21065 21068 21071 21074 21076 21079 21081 21084 21087 21090 21092 21094 21097 21100 21102 21105 21107 21110 21113 21116 21119 21122 21125 21128 21131 21134 21137 21140 21143 21145 21147 21150 21153 21156 21159 21162 21164 21167 21170 21173 21176 21179 21182 21185 21187 21190 21193 21196 21198 21201 21203 21206 21209 21211 21214 21217 21220 21223 21226 21229 21232 21235 21238 21240 21243 21246 21248 21251 21254 21257 21260 21263 21266 21269 21272 21275 21278 21281 21283 21286 21289 21292 21295 21298 21301 21304 21307 21310 21313 21316 21319 21322 21325 21328 21331 21334 21337 21340 21343 21346 21349 21351 21354 21357 21360 21363 21366 21369 21372 21375 21378 21381 21384 21386 21389 21392 21395 21398 21400 21403 21406 21409 21412 21415 21418 21421 21424 21427 21430 21433 21435 21438 21441 21444 21447 21450 21452 21455 21457 21460 21463 21466 21469 21472 21475 21478 21481 21484 21486 21489 21492 21494 21497 21500 21502 21505 21508 21511 21514 21516 21519 21522 21525 21528 21531 21534 21537 21540 21543 21546 21549 21552 21555 21558 21561 21564 21567 21570 21573 21576 21579 21581 21584 21587 21589 21592 21594 21597 21600 21603 21606 21609 21612 21615 21618 21621 21623 21626 21629 21631 21633 21635 21638 21641 21644 21646 21649 21652 21655 21658 21661 21664 21666 21668 21671 21673 21676 21679 21681 21684 21687 21689 21692 21695 21698 21701 21703 21706 21709 21712 21715 21717 21720 21723 21726 21729 21732 21735 21738 21741 21744 21747 21750 21752 21755 21758 21760 21763 21765 21767 21770 21773 21775 21777 21779 21782 21785 21788 21791 21794 21797 21800 21803 21806 21809 21811 21814 21817 21820 21823 21826 21829 21832 21835 21838 21840 21843 21846 21849 21852 21855 21857 21860 21863 21866 21869 21872 21875 21878 21881 21884 21887 21889 21892 21895 21898 21901 21904 21907 21910 21913 21916 21919 21922 21925 21928 21931 21934 21937 21940 21943 21946 21949 21952 21955 21958 21961 21963 21965 21968 21971 21974 21977 21980 21983 21986 21989 21991 21994 21997 22000 22003 22006 22009 22012 22015 22018 22021 22024 22027 22030 22033 22036 22039 22041 22044 22047 22050 22053 22055 22058 22061 22064 22066 22068 22071 22074 22077 22080 22083 22086 22088 22091 22093 22096 22099 22102 22104 22107 22110 22113 22116 22119 22122 22125 22128 22130 22133 22135 22137 22140 22143 22146 22149 22152 22155 22158 22161 22164 22167 22170 22173 22175 22178 22181 22183 22186 22188 22191 22194 22197 22200 22203 22206 22209 22212 22215 22218 22221 22224 22227 22230 22233 22236 22239 22242 22245 22248 22251 22254 22257 22259 22262 22265 22268 22271 22274 22276 22279 22282 22285 22288 22291 22294 22297 22300 22303 22306 22308 22311 22314 22317 22319 22322 22325 22328 22331 22334 22337 22340 22343 22346 22349 22352 22354 22356 22359 22362 22365 22368 22371 22373 22376 22379 22382 22384 22387 22390 22393 22396 22399 22402 22405 22408 22411 22414 22416 22419 22422 22425 22428 22431 22434 22437 22439 22441 22444 22446 22449 22452 22455 22458 22460 22463 22466 22469 22472 22475 22477 22480 22483 22486 22489 22492 22495 22498 22501 22504 22507 22509 22512 22515 22518 22521 22524 22527 22530 22533 22536 22539 22541 22544 22547 22550 22553 22556 22559 22562 22564 22567 22570 22573 22576 22579 22582 22585 22588 22591 22594 22597 22600 22603 22606 22609 22612 22615 22618 22621 22624 22626 22629 22632 22635 22637 22640 22643 22646 22649 22652 22655 22658 22661 22664 22667 22670 22673 22676 22678 22681 22683 22685 22688 22690 22692 22695 22698 22701 22704 22707 22709 22712 22715 22718 22721 22724 22727 22730 22732 22735 22738 22740 22743 22746 22748 22751 22754 22756 22759 22762 22764 22766 22768 22770 22773 22776 22778 22780 22783 22786 22788 22791 22794 22796 22799 22802 22805 22808 22810 22812 22814 22816 22819 22822 22825 22827 22830 22832 22835 22837 22840 22842 22844 22847 22850 22853 22856 22859 22862 22865 22867 22870 22873 22875 22878 22880 22883 22886 22888 22890 22893 22896 22899 22902 22905 22908 22911 22914 22917 22920 22923 22926 22929 22932 22935 22938 22941 22943 22946 22949 22952 22955 22958 22961 22964 22967 22970 22973 22976 22979 22982 22985 22988 22991 22994 22996 22999 23002 23005 23008 23011 23014 23017 23020 23023 23026 23029 23032 23035 23038 23040 23042 23045 23048 23051 23054 23056 23059 23061 23064 23067 23070 23072 23074 23077 23079 23082 23085 23088 23091 23094 23097 23100 23103 23106 23109 23112 23115 23118 23121 23124 23127 23130 23133 23136 23138 23141 23143 23146 23149 23152 23155 23157 23160 23163 23166 23169 23172 23175 23178 23181 23184 23187 23190 23193 23196 23199 23202 23205 23208 23211 23214 23217 23219 23222 23225 23228 23231 23234 23237 23240 23243 23246 23249 23252 23255 23258 23261 23263 23266 23269 23272 23275 23278 23281 23284 23287 23290 23293 23296 23299 23302 23305 23308 23311 23314 23317 23320 23323 23326 23329 23332 23335 23338 23341 23344 23347 23350 23353 23356 23359 23362 23365 23368 23371 23374 23377 23380 23383 23386 23389 23392 23395 23398 23401 23404 23407 23410 23413 23416 23419 23422 23425 23428 23431 23434 23437 23440 23443 23446 23449 23451 23454 23457 23460 23462 23465 23468 23470 23473 23476 23479 23482 23485 23488 23491 23494 23497 23500 23503 23505 23508 23511 23514 23517 23519 23522 23525 23528 23531 23534 23537 23540 23543 23546 23549 23552 23555 23558 23561 23564 23567 23570 23573 23576 23579 23582 23585 23588 23591 23594 23597 23600 23603 23606 23608 23611 23614 23617 23620 23622 23625 23628 23631 23634 23637 23640 23643 23646 23649 23652 23654 23657 23660 23662 23665 23668 23671 23674 23677 23680 23683 23686 23689 23692 23695 23698 23700 23703 23706 23709 23712 23715 23718 23721 23724 23726 23729 23732 23735 23738 23741 23744 23747 23750 23753 23756 23758 23761 23763 23766 23769 23772 23774 23777 23780 23783 23785 23788 23790 23793 23795 23797 23800 23803 23806 23809 23812 23814 23817 23820 23823 23826 23829 23832 23835 23838 23841 23844 23847 23850 23853 23856 23859 23862 23865 23868 23871 23874 23877 23880 23883 23885 23888 23891 23893 23896 23899 23902 23904 23907 23909 23912 23915 23918 23921 23924 23927 23930 23933 23936 23939 23942 23945 23947 23950 23953 23956 23959 23962 23965 23968 23971 23974 23977 23980 23983 23986 23989 23992 23995 23998 24001 24004 24006 24009 24012 24015 24018 24021 24024 24027 24030 24033 24036 24039 24042 24045 24048 24051 24054 24057 24060 24063 24066 24069 24072 24075 24078 24081 24084 24087 24089 24092 24095 24098 24101 24104 24107 24110 24113 24116 24119 24122 24125 24128 24131 24134 24137 24140 24143 24145 24148 24151 24154 24156 24159 24162 24165 24167 24169 24172 24175 24178 24181 24184 24186 24189 24192 24195 24198 24201 24204 24207 24209 24211 24214 24217 24220 24222 24225 24227 24230 24233 24236 24239 24242 24245 24247 24249 24252 24255 24257 24259 24262 24265 24268 24271 24274 24277 24280 24283 24286 24289 24291 24294 24297 24300 24303 24306 24309 24311 24314 24317 24320 24323 24326 24329 24332 24335 24338 24341 24344 24347 24350 24353 24356 24359 24362 24364 24367 24370 24373 24376 24378 24381 24384 24386 24389 24392 24395 24398 24401 24404 24407 24410 24413 24416 24419 24421 24424 24426 24429 24431 24434 24437 24440 24443 24446 24449 24452 24455 24458 24461 24464 24467 24470 24473 24476 24479 24482 24485 24488 24490 24493 24496 24498 24501 24504 24507 24509 24512 24515 24517 24520 24523 24526 24529 24531 24534 24537 24540 24543 24546 24549 24552 24554 24557 24560 24563 24566 24569 24572 24575 24578 24581 24584 24587 24590 24593 24596 24599 24602 24605 24608 24611 24614 24617 24620 24623 24626 24629 24632 24635 24638 24641 24643 24646 24649 24652 24655 24658 24661 24664 24667 24670 24673 24676 24679 24682 24685 24688 24691 24694 24697 24700 24703 24706 24709 24712 24715 24718 24721 24724 24727 24730 24733 24736 24739 24742 24745 24748 24751 24754 24756 24758 24760 24763 24766 24768 24771 24774 24777 24779 24782 24784 24787 24790 24793 24796 24799 24801 24804 24807 24810 24813 24816 24819 24822 24824 24827 24830 24833 24836 24839 24842 24845 24848 24851 24854 24857 24860 24863 24866 24868 24871 24874 24877 24879 24882 24884 24887 24890 24893 24896 24899 24902 24905 24908 24910 24913 24916 24919 24922 24925 24928 24931 24933 24936 24938 24941 24943 24946 24949 24952 24955 24958 24961 24964 24967 24969 24972 24975 24977 24979 24981 24984 24986 24989 24991 24994 24997 25000 25003 25006 25009 25012 25015 25018 25021 25024 25027 25030 25033 25036 25039 25042 25045 25048 25051 25054 25056 25059 25062 25064 25066 25069 25072 25075 25077 25080 25083 25086 25089 25092 25095 25098 25100 25103 25105 25108 25111 25114 25117 25119 25122 25125 25127 25130 25133 25136 25139 25142 25145 25148 25150 25153 25156 25158 25161 25164 25167 25169 25172 25175 25178 25181 25184 25187 25190 25193 25196 25198 25201 25204 25207 25210 25213 25216 25218 25221 25224 25226 25229 25232 25235 25238 25240 25243 25246 25249 25252 25255 25258 25260 25262 25264 25267 25270 25273 25275 25278 25280 25283 25285 25288 25291 25294 25297 25300 25303 25305 25308 25311 25314 25316 25319 25322 25325 25327 25330 25333 25336 25339 25342 25345 25348 25351 25354 25357 25360 25363 25365 25368 25371 25374 25376 25379 25382 25385 25388 25391 25393 25395 25398 25401 25403 25406 25408 25410 25412 25415 25418 25421 25423 25426 25429 25432 25435 25438 25440 25443 25446 25449 25452 25455 25458 25461 25464 25467 25470 25473 25476 25478 25481 25484 25487 25490 25493 25496 25498 25501 25504 25506 25509 25512 25514 25517 25520 25523 25526 25529 25531 25534 25537 25539 25542 25544 25547 25549 25552 25555 25558 25561 25564 25567 25569 25572 25575 25578 25581 25583 25586 25589 25592 25595 25598 25601 25604 25607 25610 25613 25615 25618 25621 25624 25627 25630 25632 25635 25638 25641 25644 25647 25650 25653 25656 25659 25662 25665 25668 25671 25674 25677 25679 25682 25685 25688 25691 25694 25696 25699 25701 25704 25707 25710 25713 25716 25718 25721 25724 25727 25730 25733 25735 25738 25741 25744 25747 25750 25752 25755 25758 25761 25764 25767 25770 25773 25776 25779 25782 25784 25787 25789 25792 25794 25797 25800 25802 25805 25808 25811 25814 25817 25820 25823 25826 25828 25831 25833 25836 25839 25842 25845 25848 25851 25854 25857 25860 25863 25865 25868 25871 25874 25877 25880 25883 25886 25889 25892 25895 25897 25900 25903 25906 25908 25911 25913 25915 25918 25921 25924 25926 25929 25932 25935 25937 25939 25942 25945 25948 25951 25954 25957 25960 25963 25966 25969 25971 25973 25976 25979 25982 25985 25988 25990 25993 25996 25999 26002 26005 26008 26011 26014 26017 26020 26022 26025 26027 26029 26031 26034 26037 26040 26043 26046 26049 26052 26055 26057 26060 26063 26066 26069 26072 26075 26078 26081 26084 26087 26090 26093 26096 26099 26102 26105 26108 26111 26114 26117 26120 26123 26126 26129 26132 26135 26138 26141 26144 26146 26149 26152 26155 26158 26160 26163 26166 26169 26172 26175 26178 26181 26184 26186 26189 26192 26195 26198 26201 26204 26207 26210 26212 26215 26218 26221 26224 26227 26230 26233 26236 26239 26242 26245 26248 26251 26254 26257 26260 26263 26266 26269 26272 26275 26278 26281 26284 26287 26290 26292 26295 26298 26301 26304 26307 26310 26312 26315 26317 26320 26323 26325 26328 26331 26334 26336 26339 26341 26344 26347 26350 26352 26355 26358 26361 26363 26366 26369 26372 26375 26378 26381 26383 26386 26389 26392 26395 26398 26401 26404 26407 26410 26413 26416 26419 26422 26425 26428 26431 26434 26437 26440 26443 26446 26449 26452 26455 26458 26461 26464 26466 26469 26471 26474 26477 26480 26483 26485 26488 26491 26494 26497 26500 26503 26506 26509 26512 26515 26518 26521 26524 26526 26529 26532 26534 26537 26540 26542 26545 26548 26551 26554 26557 26559 26562 26565 26568 26571 26574 26577 26580 26583 26585 26588 26590 26593 26596 26599 26602 26605 26607 26609 26612 26615 26617 26620 26623 26626 26628 26631 26634 26637 26640 26643 26646 26649 26651 26654 26657 26660 26663 26666 26669 26672 26675 26678 26681 26684 26687 26690 26693 26696 26699 26701 26704 26707 26710 26713 26716 26718 26721 26723 26726 26729 26732 26735 26738 26741 26744 26747 26750 26753 26756 26759 26761 26764 26766 26769 26772 26775 26778 26781 26784 26786 26788 26791 26794 26797 26800 26803 26806 26809 26812 26815 26818 26821 26824 26827 26830 26833 26836 26839 26842 26845 26848 26851 26853 26856 26859 26861 26864 26867 26870 26873 26876 26878 26881 26884 26887 26890 26893 26896 26898 26901 26904 26907 26910 26913 26916 26919 26922 26925 26928 26931 26934 26937 26940 26943 26946 26948 26951 26954 26956 26959 26962 26965 26968 26970 26973 26976 26979 26982 26985 26988 26991 26994 26997 27000 27003 27005 27008 27011 27014 27017 27020 27023 27026 27029 27032 27035 27038 27041 27044 27047 27050 27053 27056 27059 27062 27064 27067 27070 27073 27076 27079 27082 27085 27088 27091 27094 27097 27100 27102 27105 27108 27111 27114 27117 27120 27123 27126 27129 27132 27135 27138 27141 27143 27145 27148 27151 27154 27157 27160 27163 27165 27168 27171 27174 27177 27180 27183 27186 27189 27192 27195 27198 27201 27204 27207 27210 27213 27216 27219 27222 27225 27228 27231 27234 27237 27240 27243 27246 27249 27252 27255 27258 27261 27264 27267 27270 27272 27275 27278 27281 27284 27287 27290 27293 27296 27298 27301 27304 27307 27310 27313 27316 27319 27322 27325 27328 27331 27334 27336 27339 27342 27345 27348 27350 27353 27355 27358 27361 27364 27367 27370 27373 27376 27379 27381 27384 27387 27390 27393 27396 27399 27402 27405 27408 27411 27413 27416 27419 27422 27424 27427 27430 27432 27435 27438 27441 27444 27446 27449 27452 27454 27457 27460 27463 27466 27469 27472 27475 27478 27480 27483 27486 27489 27491 27494 27497 27500 27503 27506 27509 27512 27514 27517 27519 27522 27524 27527 27529 27531 27534 27537 27540 27542 27544 27546 27549 27552 27554 27557 27560 27563 27565 27568 27571 27574 27577 27579 27582 27585 27588 27591 27594 27597 27600 27603 27606 27609 27612 27615 27618 27621 27624 27627 27630 27633 27636 27639 27642 27645 27648 27651 27654 27657 27660 27663 27666 27669 27672 27675 27678 27681 27684 27687 27690 27693 27695 27698 27701 27704 27707 27710 27713 27716 27719 27721 27724 27727 27730 27733 27735 27738 27741 27743 27746 27749 27751 27754 27757 27760 27763 27765 27768 27771 27774 27777 27780 27782 27785 27788 27791 27794 27797 27800 27803 27806 27809 27812 27815 27818 27821 27823 27825 27828 27831 27834 27836 27839 27842 27845 27848 27851 27854 27857 27860 27863 27866 27869 27872 27875 27878 27880 27883 27886 27889 27892 27895 27898 27900 27903 27906 27908 27911 27914 27917 27920 27923 27926 27929 27932 27935 27938 27940 27943 27946 27949 27952 27955 27957 27960 27963 27966 27969 27972 27975 27978 27981 27984 27987 27989 27992 27995 27998 28001 28004 28007 28010 28013 28016 28019 28022 28025 28028 28031 28034 28036 28039 28042 28045 28048 28051 28054 28057 28060 28063 28066 28069 28072 28075 28078 28081 28084 28087 28090 28093 28096 28099 28102 28105 28107 28110 28112 28115 28118 28121 28123 28126 28129 28132 28135 28138 28141 28144 28147 28150 28152 28155 28158 28161 28163 28166 28169 28172 28175 28178 28181 28184 28187 28190 28193 28196 28199 28202 28205 28208 28211 28213 28216 28219 28222 28225 28228 28230 28233 28236 28239 28241 28244 28246 28249 28252 28255 28258 28261 28264 28266 28269 28272 28275 28278 28281 28284 28287 28290 28293 28296 28299 28302 28305 28308 28311 28314 28317 28320 28323 28326 28329 28332 28335 28338 28341 28344 28347 28349 28352 28355 28357 28360 28363 28366 28369 28372 28375 28378 28380 28383 28386 28389 28392 28394 28397 28400 28402 28405 28408 28411 28414 28417 28420 28422 28425 28428 28431 28433 28436 28439 28442 28444 28447 28450 28453 28456 28459 28461 28464 28467 28470 28473 28476 28478 28481 28484 28487 28490 28493 28496 28499 28502 28504 28507 28510 28512 28515 28518 28521 28524 28526 28529 28532 28535 28538 28540 28543 28546 28549 28552 28554 28557 28560 28563 28565 28568 28570 28573 28576 28579 28582 28585 28588 28591 28594 28597 28600 28602 28605 28608 28611 28614 28617 28620 28623 28625 28627 28630 28633 28636 28639 28642 28644 28647 28650 28653 28656 28659 28661 28664 28667 28670 28672 28675 28678 28680 28683 28686 28688 28691 28694 28697 28699 28702 28705 28708 28711 28714 28717 28719 28722 28725 28728 28731 28734 28736 28739 28742 28745 28748 28751 28753 28756 28759 28762 28765 28768 28771 28773 28776 28779 28782 28785 28787 28790 28793 28796 28799 28802 28804 28807 28810 28813 28816 28819 28822 28825 28828 28831 28834 28836 28839 28842 28845 28848 28851 28854 28857 28859 28862 28865 28868 28871 28873 28875 28878 28881 28883 28886 28889 28892 28895 28898 28901 28904 28906 28909 28912 28915 28918 28921 28924 28927 28929 28932 28934 28937 28940 28942 28945 28948 28951 28954 28956 28959 28961 28964 28967 28970 28973 28976 28979 28982 28985 28988 28991 28993 28996 28999 29002 29005 29008 29010 29013 29016 29019 29021 29024 29027 29030 29033 29035 29038 29041 29043 29046 29049 29052 29055 29058 29060 29063 29065 29068 29070 29072 29075 29078 29081 29084 29086 29088 29091 29094 29097 29100 29103 29106 29109 29112 29115 29118 29121 29124 29127 29129 29132 29135 29138 29141 29144 29147 29149 29151 29154 29157 29160 29163 29166 29169 29172 29175 29178 29181 29184 29187 29190 29192 29195 29198 29201 29204 29207 29210 29213 29216 29219 29222 29225 29228 29231 29234 29237 29240 29243 29246 29249 29252 29255 29258 29261 29264 29267 29270 29273 29276 29279 29282 29285 29288 29291 29293 29296 29299 29301 29304 29307 29310 29313 29316 29319 29322 29324 29327 29330 29333 29335 29338 29341 29343 29346 29349 29352 29354 29356 29359 29362 29365 29368 29370 29372 29375 29378 29381 29384 29387 29390 29393 29396 29399 29402 29405 29408 29411 29414 29416 29419 29422 29424 29427 29430 29433 29435 29438 29441 29444 29447 29449 29452 29455 29457 29460 29463 29466 29469 29472 29475 29478 29481 29484 29487 29490 29492 29495 29498 29501 29504 29507 29510 29513 29515 29518 29521 29524 29527 29530 29533 29536 29539 29542 29545 29548 29551 29554 29557 29560 29563 29566 29569 29571 29574 29577 29580 29583 29586 29589 29591 29594 29596 29599 29602 29605 29608 29611 29613 29616 29619 29621 29624 29627 29630 29632 29635 29638 29641 29643 29646 29649 29652 29655 29658 29661 29664 29667 29670 29673 29676 29679 29682 29685 29687 29690 29693 29696 29699 29701 29703 29706 29709 29712 29715 29718 29721 29724 29727 29730 29733 29736 29739 29742 29745 29748 29751 29754 29757 29760 29762 29765 29768 29771 29774 29777 29780 29783 29786 29788 29791 29793 29796 29799 29802 29805 29808 29811 29814 29816 29819 29821 29824 29827 29830 29833 29836 29838 29841 29844 29847 29850 29853 29856 29858 29861 29864 29867 29870 29873 29875 29877 29880 29883 29886 29888 29890 29892 29895 29898 29901 29904 29907 29909 29912 29915 29918 29921 29924 29926 29929 29932 29935 29938 29940 29943 29945 29947 29950 29952 29954 29957 29960 29963 29965 29968 29971 29974 29976 29979 29982 29985 29987 29990 29993 29996 29998 30001 30004 30007 30010 30013 30016 30019 30022 30024 30027 30030 30033 30035 30038 30041 30044 30047 30050 30053 30055 30058 30061 30064 30067 30070 30073 30075 30078 30081 30084 30087 30090 30093 30096 30099 30102 30105 30108 30111 30114 30117 30119 30122 30124 30127 30130 30133 30135 30138 30141 30143 30146 30148 30151 30153 30156 30159 30161 30164 30167 30170 30173 30176 30179 30181 30184 30187 30190 30193 30195 30198 30201 30204 30207 30210 30213 30215 30218 30221 30224 30227 30230 30233 30236 30239 30242 30245 30247 30250 30253 30256 30259 30262 30265 30268 30271 30274 30277 30280 30283 30286 30289 30292 30295 30298 30301 30304 30306 30308 30311 30314 30317 30319 30322 30325 30327 30330 30333 30335 30338 30341 30343 30346 30349 30351 30353 30356 30359 30362 30365 30367 30370 30373 30376 30379 30382 30385 30388 30391 30394 30397 30400 30402 30404 30407 30410 30413 30415 30418 30420 30423 30425 30428 30431 30434 30437 30440 30442 30445 30448 30450 30453 30455 30458 30461 30463 30465 30467 30470 30473 30476 30479 30481 30484 30487 30489 30492 30494 30497 30500 30502 30505 30508 30511 30514 30517 30520 30523 30526 30528 30531 30533 30535 30538 30541 30544 30547 30550 30552 30554 30557 30560 30563 30565 30567 30570 30573 30576 30579 30582 30585 30588 30591 30593 30596 30598 30601 30604 30607 30610 30613 30616 30619 30622 30625 30628 30631 30634 30637 30640 30643 30646 30649 30652 30655 30658 30661 30664 30667 30670 30673 30676 30679 30682 30685 30687 30690 30693 30696 30699 30702 30705 30708 30711 30714 30717 30720 30723 30726 30729 30732 30734 30737 30740 30742 30745 30748 30751 30754 30757 30759 30762 30765 30768 30771 30774 30777 30780 30783 30786 30789 30792 30795 30798 30800 30803 30806 30809 30812 30815 30818 30821 30824 30827 30829 30832 30835 30837 30840 30843 30846 30849 30851 30853 30855 30858 30861 30864 30867 30870 30872 30875 30878 30881 
</DataArray>
<DataArray type="UInt32" Name="types" format="ascii">
5 5 3 5 5 5 5 3 5 5 5 5 5 5 5 5 5 5 5 5 3 5 5 5 5 3 5 5 5 5 5 5 5 3 5 5 5 5 5 5 5 5 3 5 5 5 5 5 5 5 5 5 5 5 3 3 5 5 5 5 5 5 5 5 3 5 5 5 5 5 5 5 5 5 5 5 5 5 5 5 5 5 5 5 5 5 5 3 5 5 5 5 5 5 5 5 5 5 5 3 5 5 5 3 5 5 5 5 5 5 5 5 5 5 5 5 5 5 5 5 5 5 5 5 5 5 5 5 5 5 5 5 5 5 5 5 5 5 5 5 5 5 5 5 5 5 5 5 5 3 5 3 5 5 5 5 5 5 5 5 5 5 5 5 5 5 5 5 5 5 5 5 5 5 5 5 5 5 3 5 5 3 5 3 5 5 5 5 5 5 5 5 5 5 5 5 5 5 3 5 3 5 5 5 5 5 5 5 3 5 3 5 5 5 5 5 5 3 5 5 3 5 5 5 5 5 5 3 3 5 5 3 5 3 5 3 3 5 5 5 3 5 5 5 5 5 5 5 5 5 5 5 5 5 3 5 5 5 5 5 5 5 3 5 5 5 5 5 5 5 3 5 5 5 5 3 5 5 5 5 5 5 3 5 5 5 3 5 5 5 5 5 5 5 3 5 5 5 5 5 5 3 5 5 5 5 5 5 3 5 5 5 5 5 5 5 3 5 5 5 5 5 5 5 5 5 5 5 5 5 5 5 5 5 5 5 5 5 3 3 5 5 5 5 5 3 5 5 5 5 5 5 5 3 5 3 5 5 5 3 5 5 5 3 5 3 5 5 5 5 5 5 5 3 5 5 5 5 5 5 5 3 5 5 5 3 5 5 5 5 5 5 5 5 5 5 5 5 5 5 5 5 5 5 5 5 5 5 5 5 5 5 5 5 5 5 5 5 3 5 5 5 5 5 5 5 5 5 5 5 5 5 5 5 5 5 5 5 5 5 5 5 5 5 5 5 5 5 5 5 5 3 5 5 5 5 5 5 5 5 5 5 5 5 5 5 5 5 5 5 5 5 3 5 5 5 5 5 5 5 3 5 5 5 5 5 3 5 5 3 5 3 5 5 5 5 3 5 5 3 5 5 5 5 5 5 3 5 5 5 5 5 5 5 5 5 5 5 5 5 5 5 5 5 5 5 3 5 5 5 5 5 5 5 5 5 5 5 3 3 5 5 5 5 5 5 5 5 5 5 5 5 5 5 5 5 5 5 5 5 5 3 5 3 3 5 5 3 5 5 5 5 5 5 5 5 5 5 5 5 5 3 5 5 5 5 5 5 5 3 3 5 5 5 5 5 5 5 5 3 3 5 5 5 3 5 5 5 5 5 5 5 5 5 5 5 5 5 5 5 5 5 5 5 5 5 5 5 5 5 5 5 5 5 5 5 5 5 5 5 3 5 5 3 5 5 5 5 3 5 5 5 3 5 5 5 3 5 5 3 5 5 5 5 5 5 5 5 5 5 5 5 5 5 5 5 5 5 5 5 5 3 5 5 5 3 5 5 5 5 5 3 5 5 5 5 5 5 3 5 5 5 5 5 5 5 5 5 5 5 5 5 5 5 5 5 5 3 5 5 5 5 5 5 5 5 5 5 5 5 5 5 5 5 5 5 5 5 5 3 5 5 5 5 5 5 5 5 5 5 5 5 5 5 5 3 5 5 5 5 5 5 5 5 5 5 5 5 5 5 5 5 5 5 3 5 5 5 5 5 5 5 3 5 5 5 5 5 5 5 5 5 5 5 5 5 5 5 5 5 5 5 5 5 3 5 5 5 5 5 5 5 5 5 3 5 5 5 5 5 5 5 5 3 5 5 5 5 5 5 5 5 5 5 5 5 5 5 5 5 5 5 5 3 5 5 5 5 5 3 5 5 5 3 5 5 5 5 5 5 3 5 5 5 5 5 5 5 5 5 5 3 5 5 5 5 5 5 5 5 5 5 5 5 3 5 3 5 5 5 5 5 5 5 3 5 3 5 5 5 5 5 5 5 5 5 5 5 5 5 5 5 5 5 5 5 5 5 5 5 5 5 5 5 5 5 5 5 5 5 5 5 5 5 5 5 5 5 5 5 5 5 3 3 5 5 3 5 5 5 5 5 5 5 5 5 5 5 5 5 5 5 5 3 5 5 5 5 3 5 5 3 5 5 5 5 5 5 3 5 3 5 5 3 5 5 5 5 5 5 5 5 5 5 3 5 5 5 5 5 3 3 5 5 5 5 3 5 5 3 5 3 5 5 5 5 5 3 5 5 3 5 5 5 5 5 5 5 5 5 5 5 5 3 5 5 5 5 5 5 5 5 5 5 5 5 5 5 5 3 5 3 5 3 3 5 3 5 5 3 5 5 5 5 5 5 3 5 3 5 5 3 5 5 5 3 5 5 3 5 5 5 5 5 3 5 5 3 5 5 5 5 5 3 5 3 5 5 3 5 5 3 5 5 5 5 5 5 5 5 3 5 5 5 5 5 5 5 5 5 5 3 5 5 5 5 3 5 5 3 5 5 5 5 5 3 5 5 5 5 5 3 5 3 5 5 5 5 5 5 3 5 5 5 5 5 5 5 5 3 3 3 5 5 5 5 3 5 3 5 5 5 3 3 5 5 5 3 5 5 5 3 5 3 5 3 3 5 3 5 5 5 5 3 5 5 5 3 5 3 5 3 5 5 5 5 5 5 5 3 5 5 5 5 3 5 5 5 5 5 5 5 5 3 5 3 3 5 5 5 3 5 5 5 5 3 3 5 5 3 3 5 5 5 5 5 3 5 5 5 5 5 5 5 5 3 5 3 5 5 5 5 5 5 5 5 5 5 5 5 5 5 5 5 5 3 5 5 5 5 5 5 5 5 5 5 5 5 5 5 5 5 5 5 5 5 5 5 5 5 5 3 5 3 5 5 5 5 5 3 3 5 5 5 5 3 3 5 3 5 5 3 5 5 3 5 5 5 5 3 3 5 5 5 5 5 5 5 5 3 5 5 3 5 5 5 3 5 5 3 5 5 5 5 5 5 3 5 5 5 5 5 5 3 5 5 5 5 5 3 5 5 3 3 5 5 3 5 5 3 5 5 5 5 5 5 5 5 5 5 5 5 3 5 3 5 5 3 5 5 5 5 5 5 3 5 5 5 3 3 3 5 5 5 3 3 5 3 3 5 5 3 5 5 3 5 3 5 3 5 5 5 3 3 5 5 3 3 3 3 5 5 5 3 3 5 5 3 3 3 5 3 3 5 5 3 5 3 3 5 3 5 5 3 5 3 3 5 5 5 5 3 3 5 5 3 5 5 5 3 5 5 5 5 5 5 5 5 5 5 5 5 5 5 5 5 5 5 5 5 5 5 5 5 5 5 5 5 5 5 5 5 5 5 5 5 5 5 5 5 5 5 5 5 5 5 5 5 5 5 5 5 5 5 5 5 5 5 3 5 3 5 5 5 5 5 5 5 5 5 5 5 5 5 5 3 5 5 5 5 5 5 5 5 5 5 3 5 5 5 5 5 5 5 5 5 5 5 5 5 5 5 5 5 5 5 5 5 5 5 5 5 5 5 5 5 5 5 5 5 5 5 5 5 5 5 5 5 5 5 5 5 5 3 5 5 5 3 5 3 5 5 5 5 5 3 5 3 5 5 5 5 5 5 5 5 5 5 5 5 5 5 5 5 5 5 5 5 5 5 5 5 5 3 5 5 5 5 5 5 3 5 3 5 5 5 3 5 5 3 5 5 5 5 5 5 5 5 5 5 5 5 5 5 5 5 5 5 5 5 5 5 5 5 5 5 5 5 5 5 5 5 5 5 5 5 5 3 5 3 5 5 5 5 5 5 5 5 5 5 3 5 5 5 5 5 5 5 5 5 5 5 5 5 5 5 5 5 3 5 5 5 3 3 5 3 5 5 5 5 5 5 5 5 3 5 5 5 5 3 5 5 5 5 5 5 5 3 5 5 3 5 3 5 5 3 5 5 3 3 5 5 5 5 5 5 5 5 5 5 5 5 5 5 5 3 5 3 5 5 5 3 5 3 5 5 5 5 5 5 5 5 5 5 5 5 3 5 3 5 5 5 5 5 5 5 5 3 5 5 3 5 5 5 3 3 5 5 5 5 5 5 5 5 5 5 5 5 5 5 5 5 5 5 5 5 5 3 5 5 5 5 5 3 5 3 5 5 5 5 3 5 5 3 5 5 5 5 5 3 5 5 5 5 3 5 5 5 5 5 5 5 3 5 5 5 3 5 5 5 5 5 5 5 5 5 5 5 3 5 5 5 5 5 5 5 5 3 5 5 5 5 5 5 3 5 5 5 5 5 5 3 5 5 5 5 5 5 5 5 5 5 5 3 5 5 5 3 5 5 5 3 5 3 5 5 5 5 5 5 3 5 5 5 5 5 5 5 5 5 5 5 5 5 5 5 3 5 5 5 5 5 3 5 5 5 5 5 5 5 5 3 5 5 5 5 5 5 5 5 5 5 5 5 5 5 5 5 3 5 5 5 5 3 5 5 5 5 5 5 5 5 5 5 5 5 5 5 5 5 5 5 5 5 5 5 5 5 5 5 3 5 5 5 3 5 3 5 5 5 5 3 5 3 5 5 5 5 5 3 5 5 5 5 5 5 5 5 5 3 5 5 5 5 5 5 5 5 5 5 5 5 5 5 5 5 5 5 5 5 5 5 5 5 3 3 5 5 5 5 5 3 5 5 5 3 5 5 5 3 5 5 3 5 3 5 5 5 5 3 5 5 5 5 3 3 5 5 5 5 5 5 5 5 5 5 5 5 3 5 5 5 5 3 5 5 5 5 5 3 5 5 3 5 5 5 5 5 5 5 5 5 5 5 5 5 5 5 5 3 5 5 3 5 5 5 3 5 5 5 5 5 5 5 5 5 5 5 3 5 5 5 5 5 5 5 5 5 5 5 5 5 5 5 5 3 5 5 3 5 3 5 5 3 5 3 5 3 5 5 5 5 5 5 5 5 5 5 5 5 5 3 5 3 3 5 5 3 3 5 5 3 3 5 5 5 3 5 3 5 5 3 5 5 5 5 3 3 5 3 5 5 3 3 5 5 3 5 5 5 3 5 5 5 3 3 3 5 5 3 5 3 3 5 5 5 5 5 5 5 5 5 5 5 3 3 5 3 5 3 5 3 5 5 5 3 5 5 5 5 5 3 5 5 5 5 5 5 5 5 5 5 5 5 5 5 5 5 5 5 5 5 5 5 5 5 3 5 5 5 5 5 5 5 5 5 5 5 5 5 5 5 5 5 5 3 5 5 5 5 5 5 5 5 5 5 5 3 5 5 5 5 5 3 5 5 5 5 5 5 5 5 5 5 5 5 5 5 3 5 5 5 5 5 5 5 5 5 5 5 5 5 5 3 5 3 5 5 5 5 3 5 5 5 5 5 5 5 5 5 5 5 5 3 5 3 5 5 5 5 3 5 5 5 5 5 5 5 3 5 5 5 5 5 5 5 3 5 5 5 3 5 3 5 5 5 5 5 5 5 5 5 3 5 5 5 5 5 5 5 5 5 5 5 5 5 5 5 5 5 5 5 5 5 5 5 5 5 5 5 5 5 5 5 5 5 5 5 5 5 5 5 5 5 5 5 3 5 5 3 5 5 5 5 5 5 5 5 5 5 3 5 5 5 5 5 3 5 5 3 5 5 5 5 5 5 3 5 5 5 5 3 5 5 3 5 3 5 5 5 5 5 5 5 5 5 5 5 3 5 3 5 5 5 5 3 5 5 5 5 5 5 5 5 5 5 5 5 5 5 5 5 5 5 5 5 5 3 5 5 5 5 3 5 5 5 5 5 5 5 3 5 5 5 5 5 3 5 5 5 3 5 5 5 3 5 5 3 5 5 5 3 5 5 3 5 5 5 5 5 5 5 5 5 5 5 5 5 5 5 5 5 5 5 5 5 5 5 5 5 5 5 5 5 5 5 3 5 5 5 5 5 5 5 5 5 5 5 3 5 5 5 5 5 5 5 5 5 5 5 5 5 5 5 3 3 5 5 5 3 5 5 5 5 3 5 5 3 5 5 5 5 5 5 5 5 5 5 5 5 5 3 3 5 5 5 5 5 5 5 5 5 5 5 3 5 5 3 5 5 5 5 5 5 5 5 5 5 5 5 5 5 5 5 5 5 5 3 5 5 5 3 5 5 5 5 5 3 5 5 5 5 5 5 5 5 5 5 5 5 5 5 5 5 5 5 5 5 3 5 5 3 5 5 5 5 5 5 5 5 5 5 5 5 5 5 5 5 5 5 5 3 5 5 5 5 5 5 5 5 5 5 5 5 5 5 5 5 5 5 5 5 5 5 5 5 5 5 5 5 5 5 5 5 3 5 5 5 5 5 5 3 5 5 5 5 5 3 5 5 5 5 3 5 5 5 5 5 5 5 5 5 5 5 5 5 5 5 5 5 5 5 5 5 5 3 5 5 5 5 5 5 5 3 5 5 3 5 5 3 5 5 5 5 5 5 3 5 5 5 5 5 5 5 5 5 5 3 5 3 5 5 5 5 5 5 5 5 3 5 5 3 5 5 5 3 5 5 5 3 5 5 5 3 3 5 5 3 5 5 3 5 5 3 5 5 5 5 5 5 5 5 5 3 5 5 5 3 5 5 5 3 5 5 5 3 5 3 5 5 3 5 5 5 5 5 5 5 5 3 5 5 3 5 5 5 5 5 5 5 5 5 5 5 5 5 3 5 3 5 5 5 3 3 5 3 5 5 5 5 3 5 3 5 5 5 5 5 5 5 5 5 3 5 5 5 5 5 5 5 5 5 5 5 5 5 5 5 5 5 5 5 5 5 5 5 5 5 5 5 5 3 5 5 5 5 5 5 3 5 5 5 5 5 5 3 5 5 5 5 5 5 3 5 5 5 3 5 5 5 3 5 5 3 5 5 5 5 5 5 3 5 5 5 3 3 5 5 5 5 5 5 5 5 5 5 5 5 5 5 5 5 5 3 5 5 5 5 5 5 5 3 5 5 5 5 5 3 5 5 5 5 5 3 5 5 3 5 5 5 5 3 5 5 5 5 5 5 3 5 3 5 3 3 5 3 5 5 5 3 5 5 5 5 5 3 5 5 5 3 5 5 5 5 3 3 3 5 5 5 5 3 3 5 3 5 5 5 5 5 5 3 5 3 5 5 3 5 5 5 3 5 5 3 5 5 5 5 5 5 5 5 5 5 5 5 3 5 5 5 5 3 5 5 5 5 3 5 5 5 5 5 5 5 5 5 3 3 3 5 5 5 3 3 5 5 3 5 3 5 5 5 5 5 5 5 3 5 5 5 5 5 5 5 5 5 5 5 5 5 5 5 5 3 5 5 5 5 5 5 5 5 5 3 5 5 3 5 3 5 3 5 5 3 5 5 5 3 3 5 5 3 5 5 5 3 5 5 5 5 3 5 5 5 5 5 5 5 5 5 5 5 3 3 5 5 5 5 5 5 5 5 5 5 5 5 5 5 5 5 5 5 5 5 5 5 5 5 5 5 5 5 5 5 5 5 3 5 5 5 5 5 5 5 5 5 5 5 5 5 5 5 5 5 5 5 3 5 5 5 5 5 5 3 3 5 5 3 3 5 5 5 3 5 5 5 5 5 5 5 5 5 5 5 5 5 5 5 5 5 5 5 5 5 5 5 3 5 3 5 3 5 5 5 5 5 5 3 5 3 3 5 5 3 5 5 5 5 5 5 3 3 5 5 3 3 5 5 3 3 5 5 5 5 5 5 5 5 3 5 5 5 5 5 3 5 5 3 5 5 5 3 5 5 5 5 5 5 5 5 5 5 5 5 5 5 5 5 5 5 5 5 5 5 5 5 5 5 5 5 5 5 5 5 5 5 3 5 5 3 5 3 3 5 5 5 5 5 5 5 5 5 3 5 5 5 5 5 3 5 5 5 5 5 5 5 3 5 5 5 5 5 5 5 5 3 5 5 5 5 5 3 5 5 5 5 5 5 5 5 5 5 5 5 5 5 5 5 5 5 5 5 5 5 5 5 5 5 5 5 5 5 3 3 5 5 5 5 5 5 5 3 5 5 5 3 5 3 5 5 5 5 5 5 5 5 5 5 5 5 5 5 5 5 5 5 5 5 5 3 5 5 5 5 5 5 3 5 5 5 5 5 5 5 3 5 5 3 5 5 5 5 5 5 3 5 5 5 3 5 5 3 3 5 5 5 5 5 5 5 5 5 5 5 5 5 5 5 5 5 5 5 5 5 5 5 5 5 5 5 5 3 5 5 5 5 5 5 5 5 5 5 5 5 5 5 5 5 5 5 5 3 5 5 5 3 3 5 5 5 5 5 3 5 5 5 3 5 5 5 5 5 3 5 5 5 5 5 5 5 5 5 5 5 5 5 5 5 5 5 5 5 5 5 3 5 5 5 5 5 5 3 5 5 5 5 5 5 5 5 5 5 5 5 3 5 5 5 5 3 5 3 5 5 5 5 5 5 5 5 5 5 5 5 5 3 5 5 5 5 5 3 5 5 5 5 5 5 3 5 5 5 5 5 5 5 5 5 5 5 5 3 5 5 3 5 5 3 5 5 3 5 5 5 5 5 5 5 5 5 5 3 5 5 5 5 5 5 5 5 3 5 5 5 3 5 5 5 3 5 5 3 5 5 5 3 5 5 5 5 5 3 5 3 5 5 5 5 3 3 5 5 5 3 5 5 5 5 3 5 5 5 5 5 5 5 5 5 5 5 5 5 5 5 3 5 5 3 3 5 5 5 5 3 5 5 5 5 5 5 3 5 5 5 5 5 5 3 5 5 5 5 5 5 5 5 3 5 5 5 5 5 5 5 5 5 5 3 5 5 3 5 5 3 5 5 5 5 5 3 3 5 5 3 3 5 3 5 3 5 3 3 5 5 3 5 3 5 3 5 3 5 3 5 5 3 5 3 5 3 5 5 5 5 5 5 3 5 5 5 3 5 5 5 5 5 5 5 5 5 3 5 5 3 5 3 5 3 5 5 5 3 3 5 5 5 5 5 5 5 5 5 5 5 3 5 5 5 5 5 3 5 5 5 5 5 5 5 5 5 5 5 5 5 5 5 5 5 3 5 5 5 5 5 5 3 5 5 5 3 5 5 3 5 5 5 3 5 3 3 5 5 5 5 5 5 5 5 5 3 5 5 5 5 5 5 5 3 5 3 5 3 5 5 5 5 5 5 5 5 5 5 5 5 5 5 5 5 5 5 5 5 5 5 5 5 5 5 5 5 5 5 5 5 5 5 5 5 5 3 5 5 3 3 5 5 5 5 3 5 5 5 5 5 3 5 5 3 3 5 5 5 5 5 5 3 5 3 5 5 3 3 5 3 5 5 5 3 5 5 5 5 3 5 5 5 3 5 5 3 3 5 5 5 3 5 5 5 5 3 5 5 3 5 5 5 3 5 5 3 5 5 5 3 5 3 5 5 3 5 5 3 3 5 5 3 5 3 3 5 5 5 5 3 5 5 5 5 3 5 5 5 5 5 5 5 5 5 5 5 5 3 5 5 5 5 3 5 3 5 5 5 5 5 3 3 3 5 5 5 5 5 5 5 5 3 5 5 5 5 5 5 3 5 5 5 5 3 5 5 5 5 5 5 5 5 5 5 5 5 5 5 5 5 5 5 3 5 3 5 5 3 3 5 3 5 5 3 5 3 5 3 5 3 5 5 5 5 3 5 5 5 3 5 5 5 5 5 5 5 5 5 5 5 5 5 5 5 5 5 5 5 5 5 5 5 5 5 3 5 5 5 5 5 3 5 5 5 5 5 5 5 5 5 5 5 3 5 5 5 5 5 3 5 5 3 3 5 5 5 3 5 5 3 3 5 3 5 5 5 5 5 5 5 5 5 5 5 5 5 5 5 5 3 5 5 5 5 3 5 5 5 5 5 5 5 5 3 3 5 5 3 5 5 5 5 5 5 5 5 5 3 3 5 5 3 5 5 5 3 5 5 5 5 5 5 5 5 5 5 5 5 5 5 5 5 5 5 5 5 5 5 5 5 5 5 3 5 5 5 5 5 5 5 5 5 5 5 5 5 5 5 5 5 5 5 5 3 5 5 5 3 3 5 5 5 3 5 5 3 5 5 5 5 5 3 5 3 5 5 5 5 5 5 5 5 3 5 5 5 3 5 5 3 5 3 5 5 5 3 5 5 5 3 5 5 5 5 5 5 5 5 5 5 5 5 5 5 5 5 5 3 5 5 5 5 5 5 5 5 5 3 5 5 5 5 5 5 5 5 3 5 5 5 5 5 5 5 5 5 5 5 5 5 3 5 5 5 3 5 5 5 5 5 5 5 5 5 5 5 5 5 5 5 5 5 5 5 3 5 5 5 3 5 3 5 5 5 3 5 5 5 3 3 5 5 5 5 5 5 5 5 5 5 5 5 5 5 5 5 5 5 5 5 5 5 3 5 5 5 5 3 5 5 5 5 3 5 5 5 5 5 5 5 3 5 5 5 5 3 5 5 5 5 5 5 3 5 5 5 5 5 5 3 5 5 5 3 5 5 5 5 5 5 5 5 5 3 5 5 5 5 5 5 3 5 5 5 5 5 5 5 5 5 5 5 3 5 5 3 5 5 5 5 5 3 5 5 3 5 5 5 5 5 5 5 3 3 5 5 5 5 3 5 5 5 5 5 5 3 5 5 5 5 5 5 5 5 5 5 3 5 5 5 5 5 5 5 5 5 5 5 5 3 5 3 5 5 5 3 5 5 3 5 5 5 5 3 5 5 5 5 5 3 5 5 5 5 5 5 5 5 3 5 5 5 5 3 5 5 5 5 5 5 5 3 5 5 5 5 5 5 5 5 5 5 3 5 5 5 3 5 3 5 5 5 5 5 5 3 5 3 5 3 5 5 5 5 3 5 5 5 5 5 5 5 5 5 5 5 5 5 5 3 5 3 5 5 5 5 5 5 5 3 5 5 5 5 5 5 5 5 5 5 5 5 5 3 5 5 5 5 3 5 5 5 5 5 5 5 5 5 5 5 5 5 5 5 5 5 5 5 5 5 5 5 5 3 5 5 5 5 3 5 5 5 3 5 5 3 5 5 3 5 5 5 5 5 5 5 5 5 5 5 5 5 5 5 3 5 5 3 5 5 5 5 5 5 5 3 5 5 5 5 5 3 5 5 5 3 5 5 5 3 5 5 5 5 5 5 5 3 5 5 5 3 5 3 3 5 5 5 5 5 3 5 5 5 5 5 5 5 5 5 5 3 5 5 5 5 5 5 5 5 5 5 5 5 5 5 5 5 5 5 5 5 5 5 5 5 5 5 5 5 5 5 5 5 5 5 5 5 5 3 5 5 5 5 5 5 5 5 5 5 5 5 5 5 5 5 3 5 5 5 5 5 5 5 5 5 3 5 5 5 5 5 5 5 3 5 5 5 5 5 5 5 5 5 5 5 5 5 5 5 5 5 5 5 5 5 3 5 5 5 5 5 5 5 5 5 5 5 5 5 5 5 5 5 3 5 5 5 5 5 5 5 5 5 5 5 5 5 5 5 5 5 5 5 5 5 5 5 5 5 5 5 5 5 5 5 5 5 5 5 5 5 5 5 5 5 5 5 5 5 5 3 5 5 5 5 5 5 5 5 5 5 5 5 5 3 5 3 5 5 5 5 5 3 5 5 5 5 5 3 3 5 5 5 5 5 5 5 5 5 5 5 5 5 5 5 5 5 3 3 5 5 5 5 5 5 3 5 3 5 5 5 5 5 5 5 5 5 3 5 5 5 5 5 5 5 5 5 5 5 5 5 5 5 5 5 5 5 3 5 5 5 5 5 3 5 3 5 5 5 5 5 5 5 3 5 5 5 3 5 5 5 3 5 5 3 5 5 5 3 5 5 3 5 3 5 3 5 5 3 5 5 5 5 5 5 5 5 5 5 5 5 5 5 5 5 5 5 5 5 5 3 5 3 5 5 5 5 5 5 5 3 5 5 5 5 5 5 5 5 5 5 5 5 5 5 5 5 5 5 5 3 5 5 5 3 5 5 5 5 5 5 5 5 5 5 3 5 5 5 5 3 5 5 3 5 5 5 5 5 3 5 5 5 5 3 5 3 5 5 3 5 5 5 5 5 5 5 3 5 5 3 5 3 5 5 5 5 5 5 5 5 5 5 5 5 5 5 5 5 5 5 3 5 5 5 5 5 5 5 3 5 5 5 5 3 5 5 5 5 5 5 5 5 5 3 5 5 5 5 3 5 5 5 5 5 5 5 5 5 5 5 5 3 5 5 5 5 5 5 5 5 5 3 5 5 5 5 5 5 5 5 5 5 5 5 3 5 5 3 5 5 5 5 5 5 5 5 5 3 3 3 5 5 5 3 5 5 5 5 5 5 3 5 5 5 3 3 5 5 5 5 5 5 5 5 5 5 5 5 3 5 5 5 3 3 5 5 5 5 5 3 5 5 5 5 3 5 5 5 5 3 5 5 5 5 5 3 3 3 5 5 5 3 3 5 5 5 5 5 5 5 5 5 3 3 5 5 5 3 3 5 5 5 5 5 5 5 5 5 5 5 5 5 5 5 5 5 3 5 3 5 5 5 5 3 5 5 5 5 5 5 5 3 5 5 5 5 5 5 5 3 5 5 3 5 3 3 5 5 5 3 3 5 5 5 3 3 5 5 5 5 5 5 5 5 5 5 3 5 5 5 5 5 5 5 3 5 5 5 5 3 5 5 5 5 5 5 3 5 5 5 5 3 5 3 5 5 5 5 5 5 5 5 5 5 5 5 5 5 3 5 5 5 5 5 5 5 3 5 5 5 5 3 5 5 5 3 5 5 5 5 5 5 5 5 5 5 5 5 5 5 5 5 5 5 5 5 5 5 3 5 3 5 5 3 5 5 5 3 5 5 3 5 5 5 5 5 5 5 5 5 5 5 5 5 5 5 5 5 5 5 5 3 3 3 5 5 5 5 5 5 5 5 5 5 5 5 5 3 5 5 5 3 5 5 3 5 5 5 5 3 5 5 3 3 5 5 5 5 3 5 5 3 5 3 5 5 5 5 5 5 5 5 5 5 5 5 3 5 5 5 5 5 5 5 3 5 3 5 5 5 5 3 5 5 5 5 5 5 5 5 5 5 5 5 5 5 5 5 5 5 5 5 5 5 5 3 5 5 5 3 5 3 5 5 5 3 5 5 5 5 5 3 5 5 3 5 5 5 5 5 5 5 5 3 5 5 5 5 5 3 5 5 5 5 5 5 5 5 5 5 5 5 5 5 3 5 5 5 5 3 5 5 5 5 5 5 5 5 5 5 5 5 3 5 5 5 5 3 5 5 5 5 5 5 5 5 5 5 5 5 5 3 5 5 3 5 5 5 3 5 5 5 5 5 5 5 5 5 5 5 5 5 3 3 5 3 3 5 5 5 3 3 5 3 5 3 5 3 5 5 5 3 5 3 5 5 5 5 3 5 5 5 5 5 5 3 5 5 5 5 5 3 5 5 3 5 5 3 5 5 3 5 5 5 5 5 3 5 3 5 5 5 5 5 5 5 5 5 5 5 5 5 3 5 5 3 5 5 5 5 5 5 5 5 5 3 5 5 5 5 5 5 5 5 5 3 5 5 3 5 3 5 5 5 5 5 5 5 3 5 5 5 5 5 5 5 3 5 3 5 5 3 5 5 5 3 5 5 5 5 3 5 5 5 5 5 3 5 5 5 5 5 5 5 5 5 5 5 5 5 5 5 5 5 5 5 5 5 3 5 5 3 5 5 5 3 5 5 5 5 3 5 5 5 5 5 5 5 5 5 5 5 5 5 5 5 5 5 5 5 5 5 5 5 3 5 5 5 5 5 5 3 5 5 5 5 5 5 5 5 5 5 5 5 5 3 5 3 5 5 3 5 5 5 5 3 3 5 3 5 3 5 5 5 5 5 3 5 5 3 3 5 5 5 5 5 3 5 5 3 5 5 5 5 5 5 5 5 3 3 5 5 5 3 5 3 5 5 5 5 5 3 5 3 5 5 5 5 5 3 3 5 5 5 5 3 5 5 5 5 3 5 5 5 5 5 5 5 5 5 5 5 5 5 5 5 5 5 3 5 5 3 5 5 5 3 5 5 5 5 5 5 5 5 5 5 5 5 5 5 5 5 5 5 5 3 5 5 5 5 5 5 5 5 5 5 5 5 5 5 3 3 5 5 5 3 5 5 5 5 5 3 5 5 5 5 5 5 5 5 5 5 5 3 5 5 3 5 5 5 5 5 5 5 5 5 5 3 5 5 5 3 5 3 5 3 5 5 5 3 3 5 3 5 5 3 5 5 3 3 5 5 5 3 5 5 3 5 3 5 5 5 3 5 5 3 3 5 3 5 5 3 5 3 5 5 5 5 5 5 5 5 5 3 5 5 5 5 5 3 5 5 5 5 5 5 5 5 5 5 3 5 5 5 5 3 3 5 5 3 5 3 5 5 5 5 5 3 5 5 3 5 3 5 5 5 5 5 5 5 3 5 5 5 5 5 5 5 5 5 3 5 3 5 3 5 3 5 5 5 5 3 5 5 5 5 5 3 3 5 5 5 5 5 5 3 5 5 5 5 5 3 5 5 5 5 3 5 5 3 5 3 5 5 5 3 5 3 5 5 3 3 3 5 5 5 5 5 5 3 3 3 5 5 5 5 3 5 3 5 3 5 5 5 5 5 5 3 5 5 5 5 5 5 5 5 5 5 5 5 5 5 5 5 5 5 5 5 5 5 5 5 5 5 5 5 5 5 5 5 5 5 5 5 5 5 5 5 5 5 5 5 5 5 5 5 5 3 5 5 5 3 3 5 5 5 5 5 5 5 5 5 5 5 5 5 5 5 5 5 5 5 3 5 5 5 5 5 5 5 3 5 5 3 5 5 3 5 5 3 5 3 5 5 3 5 5 5 3 5 3 5 3 3 5 5 5 3 3 5 5 3 5 5 3 5 5 5 5 5 5 5 5 5 5 5 5 3 5 5 5 5 3 5 5 5 5 3 5 5 5 5 5 5 5 5 5 3 5 3 5 5 5 5 3 5 5 5 3 5 5 5 5 5 5 3 5 5 3 5 5 5 3 5 5 5 5 5 5 5 3 5 5 5 5 5 3 5 5 5 5 5 5 5 5 5 5 5 5 5 5 5 3 5 5 5 5 5 3 5 5 3 5 3 5 5 5 5 3 3 5 5 3 5 5 5 5 5 5 5 5 5 5 5 3 5 3 5 5 5 5 5 3 5 5 5 3 5 5 5 3 5 5 5 5 5 5 5 5 5 5 5 5 5 3 5 5 5 5 5 5 5 3 5 3 5 5 5 5 5 5 5 3 3 5 5 5 5 5 5 5 5 5 3 5 5 5 5 5 5 3 3 3 5 3 5 5 5 5 5 5 3 5 3 5 3 5 3 5 5 5 5 5 5 3 5 5 3 5 5 5 5 3 5 5 5 5 5 5 5 5 5 5 5 5 5 5 5 5 5 5 5 5 5 3 5 3 5 5 5 5 5 5 5 5 5 5 5 5 5 5 5 5 5 5 5 5 5 5 5 5 5 5 5 5 5 5 5 5 5 5 5 5 5 5 5 5 5 5 5 5 5 5 5 5 5 5 5 5 5 5 5 5 5 5 3 5 5 5 5 5 5 5 5 5 5 5 5 5 5 5 5 5 5 5 5 5 5 5 3 5 5 5 3 5 3 5 5 5 5 5 5 5 5 5 5 5 5 5 5 5 5 5 5 5 5 5 5 5 5 5 5 5 5 5 5 5 5 5 5 5 5 5 5 5 3 5 3 5 5 5 5 5 5 5 5 5 5 5 5 5 5 5 5 5 5 5 5 5 5 5 5 5 3 5 5 5 5 5 5 5 5 5 5 5 5 5 5 5 5 5 5 5 5 5 5 5 5 5 5 5 5 5 5 5 5 5 5 5 5 5 5 5 5 5 5 5 5 5 5 5 5 5 5 5 5 5 5 5 5 5 5 5 5 5 5 5 5 5 5 5 5 5 3 5 5 5 5 5 5 5 3 5 5 3 5 5 5 5 5 5 5 5 5 5 5 5 5 5 5 5 5 5 5 5 3 5 5 5 5 5 5 5 5 5 5 5 5 5 5 5 5 5 5 5 5 5 5 5 5 5 5 5 5 5 5 5 5 3 5 5 5 5 3 5 3 5 5 5 5 5 5 3 5 5 3 5 5 3 3 5 3 5 5 5 3 5 5 5 5 5 5 5 5 5 5 5 5 5 5 5 3 5 5 5 5 5 5 5 5 3 5 5 5 5 5 5 5 5 5 5 5 5 5 5 5 5 5 5 5 5 5 5 5 5 5 5 5 5 5 5 5 5 5 5 5 5 3 5 5 5 5 5 5 5 3 5 5 3 5 3 5 5 5 5 5 5 5 5 5 5 5 3 3 5 5 3 5 5 3 3 5 5 5 5 3 5 3 5 5 3 5 3 3 5 3 5 3 5 5 5 5 5 5 5 3 5 3 5 5 5 5 5 3 5 5 5 3 5 5 3 5 3 5 3 3 5 5 3 5 5 5 5 5 5 3 5 5 5 5 5 5 5 5 3 3 5 5 5 3 5 5 5 5 3 3 5 3 5 5 5 3 5 5 5 5 5 5 5 5 5 5 5 5 5 5 5 5 3 5 5 5 5 5 5 3 5 3 5 5 5 3 3 5 5 3 5 3 5 5 5 5 5 5 5 5 5 5 5 5 3 3 5 5 5 5 5 3 5 5 5 5 5 5 5 3 5 5 5 3 5 3 5 5 3 5 5 5 5 5 5 5 5 5 3 5 5 3 5 5 5 5 5 5 5 5 5 5 5 3 5 5 5 5 5 5 5 5 5 5 5 5 5 5 5 5 5 5 5 5 5 5 3 5 5 5 5 5 5 5 5 5 5 5 3 5 5 5 5 3 5 5 5 5 5 5 5 5 5 5 5 3 5 5 5 5 5 3 5 3 5 5 5 5 5 5 5 5 5 3 5 5 3 5 5 3 5 5 5 5 3 5 5 5 5 5 5 5 5 5 5 5 5 5 5 5 5 5 5 5 5 5 3 5 5 3 5 3 5 5 5 5 5 5 5 5 5 3 5 5 3 3 3 5 5 5 3 5 5 5 5 5 5 3 3 5 3 5 5 3 5 5 3 5 5 5 5 3 5 5 5 5 3 5 5 5 5 5 5 5 5 5 5 5 3 5 5 3 5 3 3 5 5 3 3 3 5 5 5 5 5 5 5 5 5 5 3 5 5 5 5 5 5 5 5 5 3 5 5 5 5 5 3 5 5 5 5 5 5 5 5 5 5 3 5 5 5 5 5 5 5 5 5 5 5 5 5 5 5 5 5 5 5 5 5 5 5 5 3 3 5 5 5 5 5 5 5 5 3 5 5 5 5 5 5 5 5 5 5 5 5 5 5 5 5 3 5 5 5 5 3 5 5 5 3 3 5 5 5 5 5 5 3 5 3 5 5 5 3 5 5 5 5 5 5 5 5 3 5 3 3 5 5 5 5 5 5 5 5 5 5 5 5 3 5 5 3 5 3 5 5 5 5 5 5 5 5 5 5 5 5 5 5 5 5 5 5 5 5 5 5 5 3 5 5 5 5 5 3 5 5 5 5 5 5 5 5 5 5 3 5 5 5 3 5 5 5 5 5 5 5 5 5 5 5 3 3 5 5 5 5 5 3 5 5 5 3 5 5 5 5 5 5 5 5 5 5 3 5 5 5 5 5 5 5 3 3 5 3 5 5 5 5 3 5 5 5 5 5 3 5 5 5 5 5 5 5 5 5 5 3 5 5 5 5 5 5 5 5 5 5 3 5 5 5 5 5 5 5 3 5 5 5 5 5 5 5 5 5 5 5 5 5 5 5 5 5 5 5 5 3 5 5 5 3 5 5 5 5 5 5 5 5 5 5 5 5 5 3 5 3 3 5 3 3 5 5 5 5 5 3 5 5 5 5 5 5 5 3 5 5 3 5 5 3 5 5 3 5 5 3 3 3 3 5 5 3 3 5 5 3 5 5 3 5 5 5 5 3 3 3 3 5 5 5 3 5 3 5 3 5 3 3 5 5 5 5 5 5 5 3 5 5 3 5 3 5 5 3 3 5 5 5 5 5 5 5 5 5 5 5 5 5 5 5 5 5 3 5 5 5 5 5 5 5 5 5 5 5 5 5 5 5 5 5 3 5 5 5 5 5 5 5 5 5 5 5 5 5 5 3 3 5 5 5 5 3 5 3 5 5 5 3 3 5 3 5 5 5 5 5 5 5 5 5 5 5 5 5 5 5 5 5 5 5 3 5 3 5 5 5 5 3 5 5 5 5 5 5 5 5 5 5 5 5 5 5 5 5 5 5 5 5 3 5 5 5 5 5 5 5 5 5 5 5 5 5 5 3 5 5 5 5 5 5 5 5 5 5 5 5 5 5 5 5 5 5 5 5 5 5 5 5 5 5 5 5 5 5 5 5 5 5 5 5 5 5 5 5 5 5 5 5 5 5 5 5 5 5 5 5 5 5 5 5 5 5 5 5 5 5 3 5 5 5 3 5 5 3 5 5 5 5 5 5 5 5 5 5 5 3 5 5 5 5 3 5 5 5 5 5 5 5 5 5 5 5 5 5 5 5 5 5 5 5 5 5 5 5 5 5 5 5 5 5 3 5 5 5 5 3 5 5 5 5 5 5 5 5 5 5 3 5 5 3 5 5 5 5 5 5 5 5 5 5 5 5 3 5 5 5 5 5 5 5 5 3 5 5 5 5 5 5 5 5 5 5 3 5 3 5 5 5 3 5 5 5 3 5 3 5 3 3 5 5 5 5 5 3 5 5 5 5 5 5 5 5 5 5 5 5 5 5 5 5 5 5 5 5 5 5 5 3 5 5 3 5 5 5 3 5 3 5 5 5 5 5 5 5 5 5 5 5 5 3 5 5 5 5 5 5 5 5 5 5 5 5 5 5 5 5 5 5 5 3 5 5 5 5 5 5 5 5 5 5 5 5 5 5 5 5 5 5 5 5 5 5 5 5 5 5 5 3 5 5 5 5 5 5 5 5 5 5 5 5 5 5 5 5 5 5 3 5 5 5 3 5 5 5 3 3 5 5 5 5 5 3 5 5 5 5 5 5 5 3 3 5 5 5 3 5 3 5 5 5 5 5 5 3 3 5 5 3 3 5 5 5 5 5 5 5 5 5 5 3 5 5 5 5 5 5 3 5 5 5 5 5 5 5 5 5 5 5 5 5 5 5 5 5 3 5 5 5 5 3 5 5 3 5 5 5 5 5 5 5 5 5 5 5 3 5 3 5 3 5 5 5 5 5 5 5 5 5 5 5 5 5 5 5 5 5 5 5 3 5 5 3 5 5 5 3 5 5 3 5 5 5 5 3 5 5 5 5 5 5 5 3 5 5 5 5 5 5 5 5 5 5 5 5 5 5 5 5 5 5 5 5 5 5 5 5 5 5 5 5 5 3 5 5 5 5 5 5 5 5 5 5 5 5 5 5 5 5 5 5 5 5 5 5 5 5 5 5 5 5 5 5 5 5 5 5 5 5 5 3 3 3 5 5 3 5 5 5 3 5 3 5 5 5 5 5 3 5 5 5 5 5 5 5 3 5 5 5 5 5 5 5 5 5 5 5 5 5 5 3 5 5 5 3 5 3 5 5 5 5 5 5 5 5 3 5 5 5 5 5 5 5 3 5 3 5 3 5 5 5 5 5 5 5 5 3 5 5 3 3 3 5 3 5 3 5 5 5 5 5 5 5 5 5 5 5 5 5 5 5 5 5 5 5 5 5 3 5 5 3 3 5 5 5 3 5 5 5 5 5 5 5 3 5 3 5 5 5 5 3 5 5 3 5 5 5 5 5 5 5 3 5 5 3 5 5 5 3 5 5 5 5 5 5 5 5 5 3 5 5 5 5 5 5 3 5 5 3 5 5 5 5 3 5 5 5 5 5 5 3 3 3 5 5 5 3 5 3 5 3 5 5 5 5 5 5 3 5 5 5 3 5 5 5 3 5 5 5 5 5 5 5 5 5 5 5 5 3 5 5 5 3 5 5 5 5 5 3 3 5 5 3 5 3 3 3 5 5 5 3 5 5 5 5 5 3 5 5 5 5 5 5 5 5 5 5 5 5 3 5 5 5 5 5 5 3 5 5 3 5 5 3 5 5 5 5 5 3 5 5 3 5 3 5 3 5 5 5 5 5 5 3 5 5 5 5 3 5 5 5 5 5 5 5 5 5 5 3 5 5 5 5 5 3 5 5 5 5 5 5 5 5 5 5 5 5 5 5 5 3 5 5 5 5 5 3 5 3 5 5 5 5 5 3 5 5 5 5 5 3 5 5 5 5 5 3 5 5 5 5 5 5 5 5 5 5 3 5 3 5 3 5 5 3 5 5 5 5 5 5 5 5 3 5 3 5 5 5 5 5 5 5 5 5 5 3 5 5 5 5 5 5 5 5 5 5 3 5 5 5 3 5 3 3 5 5 5 3 5 5 5 3 3 5 5 5 5 5 5 5 5 5 5 3 3 5 5 5 5 5 3 5 5 5 5 5 5 5 5 5 5 3 5 3 3 3 5 5 5 5 5 5 5 5 3 5 5 5 5 5 5 5 5 5 5 5 5 5 5 5 5 5 5 5 5 5 5 5 5 5 5 5 5 5 3 5 5 5 5 3 5 5 5 5 5 5 5 5 3 5 5 5 5 5 5 5 5 3 5 5 5 5 5 5 5 5 5 5 5 5 5 5 5 5 5 5 5 5 5 5 5 5 5 5 3 5 5 5 5 5 5 3 5 3 5 5 3 5 5 5 3 5 3 5 5 5 3 5 5 5 3 5 5 5 5 5 5 3 5 5 5 5 5 5 5 5 5 5 5 5 5 5 5 5 5 5 5 5 5 5 5 5 5 5 5 3 5 3 5 5 5 5 3 5 5 5 5 5 5 5 5 5 5 5 5 5 3 5 5 3 5 5 3 5 5 5 5 5 3 5 5 5 5 5 5 5 5 3 5 3 5 5 5 5 5 3 3 5 5 3 5 5 5 3 5 5 5 5 5 5 5 3 5 5 5 5 5 5 5 5 5 5 5 5 5 5 5 5 3 5 5 5 5 5 3 5 3 5 5 5 5 5 5 5 5 5 5 5 5 3 5 3 5 5 5 5 5 5 3 3 5 5 5 5 5 5 5 5 5 5 5 5 5 5 5 5 5 5 5 5 5 3 5 5 3 5 5 5 5 5 3 5 5 5 5 5 5 3 5 5 5 5 5 5 5 5 5 5 5 5 5 5 5 5 3 5 5 3 5 5 5 5 3 5 5 5 5 5 5 5 5 5 5 5 3 5 5 5 5 5 5 5 5 5 5 5 5 5 5 5 5 5 5 5 3 5 5 5 5 5 5 5 5 5 5 5 5 3 5 5 5 5 5 5 5 5 5 5 5 5 5 3 3 5 5 5 5 5 5 3 5 5 5 5 5 5 5 5 5 5 5 5 5 5 5 5 5 5 5 5 5 5 5 5 5 5 5 5 5 5 5 5 5 5 5 3 5 5 5 5 5 5 5 5 3 5 5 5 5 5 5 5 5 5 5 5 5 3 5 5 5 5 3 5 3 5 5 5 5 5 5 5 5 3 5 5 5 5 5 5 5 5 5 5 3 5 5 5 3 5 5 3 5 5 5 5 3 5 5 3 5 5 5 5 5 5 5 5 3 5 5 5 3 5 5 5 5 5 5 5 3 5 3 5 3 5 3 3 5 5 5 3 3 3 5 5 3 5 5 5 3 5 5 5 5 3 5 5 5 5 5 5 5 5 5 5 5 5 5 5 5 5 5 5 5 5 5 5 5 5 5 5 5 5 5 5 5 5 5 5 5 5 5 5 3 5 5 5 5 5 5 5 5 3 5 5 5 5 3 5 5 3 5 5 3 5 5 5 5 3 5 5 5 5 5 3 5 5 5 5 5 5 5 5 5 5 5 5 5 3 3 5 5 5 3 5 5 5 5 5 5 5 5 5 5 5 5 5 5 3 5 5 5 5 5 5 3 5 5 3 5 5 5 5 5 5 5 5 5 5 3 5 5 5 5 5 3 5 5 5 5 5 5 5 5 5 5 3 5 5 5 5 5 5 5 5 5 5 5 5 5 5 5 3 5 5 5 5 5 5 5 5 5 5 5 5 5 5 5 5 5 5 5 5 5 5 5 3 5 3 5 5 5 3 5 5 5 5 5 5 5 5 5 3 5 5 5 3 5 5 5 5 5 5 5 5 5 5 5 5 5 5 5 5 3 5 5 5 5 5 3 5 5 5 3 5 3 5 5 5 5 5 5 3 5 5 5 5 5 5 5 5 5 5 5 5 5 5 5 5 5 5 5 5 5 5 5 5 5 5 5 3 5 5 3 5 5 5 5 5 5 5 3 5 5 5 5 3 5 5 3 5 5 5 5 5 5 3 5 5 5 3 5 5 5 3 5 5 5 5 5 3 5 5 5 5 5 3 5 5 5 5 5 5 5 5 3 5 5 3 5 5 5 5 3 5 5 5 5 3 5 5 5 5 3 5 5 5 3 5 3 5 5 5 5 5 5 5 5 5 5 3 5 5 5 5 5 5 5 3 3 5 5 5 5 5 3 5 5 5 5 5 3 5 5 5 3 5 5 3 5 5 3 5 5 5 3 5 5 5 5 5 5 3 5 5 5 5 5 3 5 5 5 5 5 3 5 5 5 5 5 5 3 5 5 5 5 3 5 5 5 5 5 3 5 5 5 5 5 5 5 5 5 5 3 5 5 5 5 5 5 5 3 5 5 5 5 3 3 5 5 3 5 5 5 5 5 5 5 3 5 5 5 5 5 5 5 3 5 3 5 5 3 5 5 5 5 3 5 3 5 5 5 5 5 5 5 5 5 5 3 5 5 5 5 5 3 5 5 5 3 5 5 5 5 3 5 5 3 5 5 5 5 5 3 5 3 5 3 3 5 5 5 5 3 3 5 5 5 5 5 5 5 5 5 5 5 5 5 3 5 5 5 5 5 5 3 3 5 5 5 5 5 5 5 5 5 5 5 5 5 3 5 5 5 5 5 5 5 5 5 5 5 5 5 5 5 5 5 5 5 5 5 5 5 5 5 5 5 5 5 5 5 5 5 3 5 5 3 5 5 5 5 5 5 5 3 5 5 5 3 5 5 3 5 5 5 3 3 5 5 5 5 3 3 5 5 5 5 5 5 5 5 5 5 5 5 5 5 3 5 5 3 5 5 5 3 5 5 5 5 3 5 5 3 5 5 5 5 5 5 5 5 5 5 5 3 5 5 5 5 5 5 5 3 5 5 5 5 5 5 5 5 5 5 5 5 5 5 5 5 5 5 3 5 5 5 5 5 5 3 5 3 5 5 5 5 5 3 5 5 3 5 5 5 3 5 5 5 3 5 5 5 5 5 5 5 5 5 5 5 5 5 5 3 5 5 5 5 3 3 5 5 5 5 5 5 5 5 5 5 5 5 5 5 5 5 5 5 5 3 5 5 5 5 5 5 5 5 3 5 3 5 5 5 5 5 5 5 3 5 3 5 5 5 5 5 3 5 5 5 5 5 5 3 5 5 5 5 5 3 3 5 5 5 3 3 3 5 5 5 5 5 3 5 5 5 5 5 3 5 5 5 5 3 5 3 3 5 3 3 5 5 5 3 5 5 5 3 5 5 5 3 5 5 5 3 5 5 5 5 5 5 5 5 3 5 5 5 3 5 5 5 5 5 5 3 5 5 5 5 5 5 3 5 5 5 5 5 5 5 5 5 5 5 5 5 5 3 5 3 5 5 5 3 5 5 3 5 3 5 3 5 5 3 5 5 5 5 5 5 3 5 5 5 5 3 5 5 5 5 5 5 3 5 5 5 5 5 5 5 5 5 5 3 5 5 5 5 5 5 5 5 5 5 5 5 5 5 5 5 5 5 5 3 3 5 5 5 3 5 5 3 5 5 3 5 5 3 5 5 3 3 5 5 5 5 3 5 5 5 5 5 5 5 5 5 5 5 3 3 5 5 5 3 5 3 5 3 5 5 5 5 5 3 5 5 3 5 3 5 5 3 3 3 5 5 5 5 3 5 5 3 5 3 5 5 3 5 5 5 5 5 5 5 5 3 5 3 3 5 5 5 5 5 3 3 5 5 5 3 3 5 5 5 5 5 5 5 5 3 5 3 5 5 5 5 5 5 5 5 5 5 5 5 5 5 5 5 5 5 5 5 5 5 5 5 5 5 5 5 5 3 5 5 5 5 5 5 5 5 5 5 5 5 5 5 5 3 5 5 3 5 5 5 5 5 3 5 5 5 5 5 5 5 5 5 5 5 5 5 3 5 5 5 5 5 5 5 5 5 3 5 5 3 5 5 5 5 3 3 3 5 5 5 5 5 3 5 5 5 
</DataArray>
</Cells>
<PointData Scalars="" Vectors="displacement," Tensors="">
<DataArray type="Float64" Name="displacement" NumberOfComponents="3" format="ascii">
0.014999910077389968 -4.1417621034896602e-08 0 0.014999703024529337 8.3672130969244242e-08 0 0.014550972790124671 -1.4061536281705159e-08 0 0.014999703024529337 8.3672130969244242e-08 0 0.014550972790124671 -1.4061536281705159e-08 0 0.013878251893532857 -1.2566878917661329e-07 0 0.01499867294079309 2.1665282615407789e-07 0 0.014447697405529774 2.0077867462174982e-05 0 0.014999145760087646 2.622310216985182e-07 0 0.014630364768367248 0.00010774070386799492 0 0.01440994046903721 0.000127483145099997 0 0.014999145760087646 2.622310216985182e-07 0 0.014630364768367248 0.00010774070386799492 0 0.014999778192095687 1.9139896408146172e-08 0 0.014630364768367248 0.00010774070386799492 0 0.01424914419640181 9.0810500897555129e-05 0 0.014371723407580961 0.00012406867948200131 0 0.014630364768367248 0.00010774070386799492 0 0.01440994046903721 0.000127483145099997 0 0.01424914419640181 9.0810500897555129e-05 0 0.014447697405529774 2.0077867462174982e-05 0 0.013878935635387 -1.4290942511071065e-07 0 0.01440994046903721 0.000127483145099997 0 0.013877370440753968 4.7924480535414618e-07 0 0.01424914419640181 9.0810500897555129e-05 0 0.013877370440753968 4.7924480535414618e-07 0 0.01424914419640181 9.0810500897555129e-05 0 0.013881129088809882 8.0710994333045336e-05 0 0.01424914419640181 9.0810500897555129e-05 0 0.013881129088809882 8.0710994333045336e-05 0 0.014371723407580961 0.00012406867948200131 0 0.01402493501072675 6.8395244630402413e-05 0 0.013881129088809882 8.0710994333045336e-05 0 0.014371723407580961 0.00012406867948200131 0 0.01402493501072675 6.8395244630402413e-05 0 0.013881129088809882 8.0710994333045336e-05 0 0.013599207535584024 2.7817188476111889e-05 0 0.013881129088809882 8.0710994333045336e-05 0 0.012983267937272886 1.0068956635750164e-07 0 0.013599207535584024 2.7817188476111889e-05 0 0.013877370440753968 4.7924480535414618e-07 0 0.013881129088809882 8.0710994333045336e-05 0 0.012983267937272886 1.0068956635750164e-07 0 0.014269415163208342 6.009324093172714e-05 0 0.014476123511483112 -9.8491033934720796e-06 0 0.014254497145545072 -5.7030143968640782e-05 0 0.01402493501072675 6.8395244630402413e-05 0 0.014269415163208342 6.009324093172714e-05 0 0.014371723407580961 0.00012406867948200131 0 0.01402493501072675 6.8395244630402413e-05 0 0.014269415163208342 6.009324093172714e-05 0 0.013998476418350033 -4.3993595818479017e-05 0 0.014269415163208342 6.009324093172714e-05 0 0.014371723407580961 0.00012406867948200131 0 0.014562226835759435 0.0001459115683521311 0 0.014269415163208342 6.009324093172714e-05 0 0.014562226835759435 0.0001459115683521311 0 0.014476123511483112 -9.8491033934720796e-06 0 0.014824301567989563 5.5639793784895704e-05 0 0.014752875591897719 1.5686658446152577e-05 0 0.014371723407580961 0.00012406867948200131 0 0.014562226835759435 0.0001459115683521311 0 0.014719589892785935 9.0655074248116273e-05 0 0.014630364768367248 0.00010774070386799492 0 0.014371723407580961 0.00012406867948200131 0 0.014719589892785935 9.0655074248116273e-05 0 0.014630364768367248 0.00010774070386799492 0 0.014719589892785935 9.0655074248116273e-05 0 0.014999778192095687 1.9139896408146172e-08 0 0.014719589892785935 9.0655074248116273e-05 0 0.014999778192095687 1.9139896408146172e-08 0 0.014999366189636494 1.2516362434220291e-07 0 0.014824301567989563 5.5639793784895704e-05 0 0.014999675078717696 1.0265558207772051e-07 0 0.014829707254598878 3.5844546440664172e-05 0 0.014999892709136889 1.5294130182456991e-08 0 0.014928925135333579 1.9443927777823436e-05 0 0.014562226835759435 0.0001459115683521311 0 0.014719589892785935 9.0655074248116273e-05 0 0.014999366189636494 1.2516362434220291e-07 0 0.014999892709136889 1.5294130182456991e-08 0 0.014928925135333579 1.9443927777823436e-05 0 0.014999863458072003 3.7721215497102464e-08 0 0.014928925135333579 1.9443927777823436e-05 0 0.014999863458072003 3.7721215497102464e-08 0 0.01488559351063537 3.3075504755370128e-05 0 0.014999863458072003 3.7721215497102464e-08 0 0.01488559351063537 3.3075504755370128e-05 0 0.014963522835417629 2.2256812748734231e-05 0 0.014829707254598878 3.5844546440664172e-05 0 0.014928925135333579 1.9443927777823436e-05 0 0.01488559351063537 3.3075504755370128e-05 0 0.01499987084702563 2.9797906324824175e-08 0 0.014964944883412061 2.5410388456509552e-05 0 0.014941776326072307 1.9644861453522398e-05 0 0.014667733772734426 -7.9213303027962032e-05 0 0.01472923160698587 -3.9985176872503552e-05 0 0.01499987084702563 2.9797906324824175e-08 0 0.014963522835417629 2.2256812748734231e-05 0 0.014964944883412061 2.5410388456509552e-05 0 0.014999863458072003 3.7721215497102464e-08 0 0.01499987084702563 2.9797906324824175e-08 0 0.014963522835417629 2.2256812748734231e-05 0 0.01488559351063537 3.3075504755370128e-05 0 0.014963522835417629 2.2256812748734231e-05 0 0.014964944883412061 2.5410388456509552e-05 0 0.01488559351063537 3.3075504755370128e-05 0 0.014964944883412061 2.5410388456509552e-05 0 0.014849836970677925 -6.2238984792213627e-07 0 0.014443871269548811 -6.5178576555450333e-05 0 0.014779578353080424 -4.7262340940254377e-05 0 0.014631272721009565 -0.00016919239577802757 0 0.014443871269548811 -6.5178576555450333e-05 0 0.014941776326072307 1.9644861453522398e-05 0 0.014779578353080424 -4.7262340940254377e-05 0 0.0143921367817795 -0.00033745270787876127 0 0.014631272721009565 -0.00016919239577802757 0 0.01456909170013931 -0.0003217708745282168 0 0.014443871269548811 -6.5178576555450333e-05 0 0.0143921367817795 -0.00033745270787876127 0 0.014631272721009565 -0.00016919239577802757 0 0.014667733772734426 -7.9213303027962032e-05 0 0.014555884924192837 -0.00017215497357269557 0 0.014443871269548811 -6.5178576555450333e-05 0 0.0143921367817795 -0.00033745270787876127 0 0.0141557546621235 -0.00031172790701710512 0 0.014204135926244537 -0.0004590449375604527 0 0.014079496062939066 -0.00043807518398234451 0 0.014206769263473784 -0.00058659647423539704 0 0.0143921367817795 -0.00033745270787876127 0 0.014204135926244537 -0.0004590449375604527 0 0.014269230624167444 -0.00053478426669713102 0 0.0143921367817795 -0.00033745270787876127 0 0.014204135926244537 -0.0004590449375604527 0 0.0141557546621235 -0.00031172790701710512 0 0.0143921367817795 -0.00033745270787876127 0 0.014379894902909965 -0.00052775838773797435 0 0.014269230624167444 -0.00053478426669713102 0 0.0143921367817795 -0.00033745270787876127 0 0.014379894902909965 -0.00052775838773797435 0 0.01456909170013931 -0.0003217708745282168 0 0.014829707254598878 3.5844546440664172e-05 0 0.01471521786847242 2.3137429000973867e-05 0 0.014476123511483112 -9.8491033934720796e-06 0 0.014829707254598878 3.5844546440664172e-05 0 0.01488559351063537 3.3075504755370128e-05 0 0.01471521786847242 2.3137429000973867e-05 0 0.01471521786847242 2.3137429000973867e-05 0 0.014849836970677925 -6.2238984792213627e-07 0 0.014729375259437336 -3.6316536252688057e-05 0 0.01488559351063537 3.3075504755370128e-05 0 0.01471521786847242 2.3137429000973867e-05 0 0.014849836970677925 -6.2238984792213627e-07 0 0.014204135926244537 -0.0004590449375604527 0 0.0141557546621235 -0.00031172790701710512 0 0.014079496062939066 -0.00043807518398234451 0 0.014555884924192837 -0.00017215497357269557 0 0.014497991327356633 -0.00023388434645623305 0 0.014497991327356633 -0.00023388434645623305 0 0.014528047122370333 -0.00019488696574344427 0 0.01471521786847242 2.3137429000973867e-05 0 0.014528996982018844 -7.0185628554969242e-05 0 0.014476123511483112 -9.8491033934720796e-06 0 0.01471521786847242 2.3137429000973867e-05 0 0.014729375259437336 -3.6316536252688057e-05 0 0.014528996982018844 -7.0185628554969242e-05 0 0.014528996982018844 -7.0185628554969242e-05 0 0.014476123511483112 -9.8491033934720796e-06 0 0.014405507888628474 -9.3631759759539717e-05 0 0.014405507888628474 -9.3631759759539717e-05 0 0.014457678400780284 -0.00013532695635889714 0 0.014287648373543148 -0.00017255991174000099 0 0.014528996982018844 -7.0185628554969242e-05 0 0.014405507888628474 -9.3631759759539717e-05 0 0.014457678400780284 -0.00013532695635889714 0 0.014079496062939066 -0.00043807518398234451 0 0.01416910668898151 -0.00065344224919493894 0 0.014206769263473784 -0.00058659647423539704 0 0.014569550140808674 -2.3424931336588265e-05 0 0.014528996982018844 -7.0185628554969242e-05 0 0.014457678400780284 -0.00013532695635889714 0 0.014569550140808674 -2.3424931336588265e-05 0 0.014457678400780284 -0.00013532695635889714 0 0.014466311213055303 -0.0001973739110086937 0 0.014497991327356633 -0.00023388434645623305 0 0.014381814962971447 -0.00033698244778781935 0 0.014457678400780284 -0.00013532695635889714 0 0.014466311213055303 -0.0001973739110086937 0 0.014364922454908455 -0.00022367491890958442 0 0.014466311213055303 -0.0001973739110086937 0 0.014364922454908455 -0.00022367491890958442 0 0.014288770252685556 -0.00033364782208476009 0 0.014364922454908455 -0.00022367491890958442 0 0.014288770252685556 -0.00033364782208476009 0 0.014287648373543148 -0.00017255991174000099 0 0.014457678400780284 -0.00013532695635889714 0 0.014364922454908455 -0.00022367491890958442 0 0.014287648373543148 -0.00017255991174000099 0 0.014379894902909965 -0.00052775838773797435 0 0.014242393267063808 -0.0006157146089020624 0 0.014220388707481664 -0.0006885932967565199 0 0.014379894902909965 -0.00052775838773797435 0 0.014242393267063808 -0.0006157146089020624 0 0.014269230624167444 -0.00053478426669713102 0 0.014242393267063808 -0.0006157146089020624 0 0.014269230624167444 -0.00053478426669713102 0 0.014206769263473784 -0.00058659647423539704 0 0.014204135926244537 -0.0004590449375604527 0 0.014269230624167444 -0.00053478426669713102 0 0.014206769263473784 -0.00058659647423539704 0 0.01416910668898151 -0.00065344224919493894 0 0.014179132945799753 -0.00066822258633079598 0 0.014170341042873371 -0.00060111191106261173 0 0.014242393267063808 -0.0006157146089020624 0 0.014206769263473784 -0.00058659647423539704 0 0.014179132945799753 -0.00066822258633079598 0 0.01416910668898151 -0.00065344224919493894 0 0.014206769263473784 -0.00058659647423539704 0 0.014179132945799753 -0.00066822258633079598 0 0.014242393267063808 -0.0006157146089020624 0 0.014179132945799753 -0.00066822258633079598 0 0.014220388707481664 -0.0006885932967565199 0 0.014179132945799753 -0.00066822258633079598 0 0.014220388707481664 -0.0006885932967565199 0 0.014114060674288291 -0.00069054539302384154 0 0.014064852510838815 -0.00060705194403574622 0 0.014114060674288291 -0.00069054539302384154 0 0.013975461638818463 -0.00064478159410445094 0 0.014179132945799753 -0.00066822258633079598 0 0.014064852510838815 -0.00060705194403574622 0 0.014114060674288291 -0.00069054539302384154 0 0.014179132945799753 -0.00066822258633079598 0 0.014064852510838815 -0.00060705194403574622 0 0.014170341042873371 -0.00060111191106261173 0 0.014170341042873371 -0.00060111191106261173 0 0.014240135683429066 -0.00053932703145383501 0 0.014141579703319283 -0.0004136731178350729 0 0.014170341042873371 -0.00060111191106261173 0 0.013968921664165948 -0.00039424862436148741 0 0.014141579703319283 -0.0004136731178350729 0 0.014064852510838815 -0.00060705194403574622 0 0.014170341042873371 -0.00060111191106261173 0 0.013968921664165948 -0.00039424862436148741 0 0.014064852510838815 -0.00060705194403574622 0 0.013968921664165948 -0.00039424862436148741 0 0.013882979885523833 -0.00050405839548637015 0 0.014466311213055303 -0.0001973739110086937 0 0.014288770252685556 -0.00033364782208476009 0 0.014325352874963794 -0.00040703360681056778 0 0.01416910668898151 -0.00065344224919493894 0 0.014170341042873371 -0.00060111191106261173 0 0.014240135683429066 -0.00053932703145383501 0 0.014381814962971447 -0.00033698244778781935 0 0.014323249078382613 -0.00038099145409367359 0 0.014325352874963794 -0.00040703360681056778 0 0.014256205691993472 -0.00041945556515542208 0 0.014246757403383976 -0.0003855444174608288 0 0.014256205691993472 -0.00041945556515542208 0 0.014123633482722222 -0.00045065842874819395 0 0.014205152196986029 -0.00045133591124342851 0 0.014288770252685556 -0.00033364782208476009 0 0.014256205691993472 -0.00041945556515542208 0 0.014123633482722222 -0.00045065842874819395 0 0.014288770252685556 -0.00033364782208476009 0 0.014325352874963794 -0.00040703360681056778 0 0.014256205691993472 -0.00041945556515542208 0 0.014123633482722222 -0.00045065842874819395 0 0.014079679831751041 -0.00030410861377417789 0 0.013852660254433729 -0.00046129703637042279 0 0.014288770252685556 -0.00033364782208476009 0 0.014123633482722222 -0.00045065842874819395 0 0.014079679831751041 -0.00030410861377417789 0 0.014079679831751041 -0.00030410861377417789 0 0.013852660254433729 -0.00046129703637042279 0 0.013717812931538075 -0.00034035888131195443 0 0.014123633482722222 -0.00045065842874819395 0 0.013852660254433729 -0.00046129703637042279 0 0.013920960060930692 -0.0005572761286897251 0 0.013852660254433729 -0.00046129703637042279 0 0.013625490756515262 -0.00057632342937245491 0 0.013920960060930692 -0.0005572761286897251 0 0.013625490756515262 -0.00057632342937245491 0 0.013308045941902368 -0.00051317288748684953 0 0.013573522636750202 -0.0004601417259038177 0 0.013852660254433729 -0.00046129703637042279 0 0.013625490756515262 -0.00057632342937245491 0 0.013573522636750202 -0.0004601417259038177 0 0.011740649686686741 4.4417939826844236e-05 0 0.011234672368206572 -0.00023576519180629329 0 0.01177909421469768 -5.0295922041187203e-06 0 0.012087925250050452 -4.1959577472893024e-07 0 0.011192885279052321 9.576743146903678e-08 0 0.01177909421469768 -5.0295922041187203e-06 0 0.01123790272195848 -2.0615786023395052e-05 0 0.011192885279052321 9.576743146903678e-08 0 0.013625490756515262 -0.00057632342937245491 0 0.013308045941902368 -0.00051317288748684953 0 0.013405678667530207 -0.00069695595865765529 0 0.011740649686686741 4.4417939826844236e-05 0 0.011914032568580328 0.00019623126043738203 0 0.013308045941902368 -0.00051317288748684953 0 0.013573522636750202 -0.0004601417259038177 0 0.013386314686374799 -0.00034065478077883055 0 0.01177909421469768 -5.0295922041187203e-06 0 0.012087925250050452 -4.1959577472893024e-07 0 0.012836846580875227 -7.4052611210300337e-05 0 0.013308045941902368 -0.00051317288748684953 0 0.013386314686374799 -0.00034065478077883055 0 0.012836846580875227 -7.4052611210300337e-05 0 0.013852660254433729 -0.00046129703637042279 0 0.013573522636750202 -0.0004601417259038177 0 0.013717812931538075 -0.00034035888131195443 0 0.013573522636750202 -0.0004601417259038177 0 0.013386314686374799 -0.00034065478077883055 0 0.013717812931538075 -0.00034035888131195443 0 0.013717812931538075 -0.00034035888131195443 0 0.013603801752415328 -0.00011444520419688482 0 0.01392373128822871 -0.00018823459762822074 0 0.013386314686374799 -0.00034065478077883055 0 0.013603801752415328 -0.00011444520419688482 0 0.012836846580875227 -7.4052611210300337e-05 0 0.013386314686374799 -0.00034065478077883055 0 0.013717812931538075 -0.00034035888131195443 0 0.013603801752415328 -0.00011444520419688482 0 0.013603801752415328 -0.00011444520419688482 0 0.012836846580875227 -7.4052611210300337e-05 0 0.013234516200421402 -2.8483957046763252e-05 0 0.012087925250050452 -4.1959577472893024e-07 0 0.012836846580875227 -7.4052611210300337e-05 0 0.012983267937272886 1.0068956635750164e-07 0 0.012836846580875227 -7.4052611210300337e-05 0 0.013234516200421402 -2.8483957046763252e-05 0 0.012983267937272886 1.0068956635750164e-07 0 0.013234516200421402 -2.8483957046763252e-05 0 0.012983267937272886 1.0068956635750164e-07 0 0.013599207535584024 2.7817188476111889e-05 0 0.01402493501072675 6.8395244630402413e-05 0 0.013599207535584024 2.7817188476111889e-05 0 0.013998476418350033 -4.3993595818479017e-05 0 0.013603801752415328 -0.00011444520419688482 0 0.013599207535584024 2.7817188476111889e-05 0 0.013998476418350033 -4.3993595818479017e-05 0 0.013603801752415328 -0.00011444520419688482 0 0.013234516200421402 -2.8483957046763252e-05 0 0.013599207535584024 2.7817188476111889e-05 0 0.014269415163208342 6.009324093172714e-05 0 0.013998476418350033 -4.3993595818479017e-05 0 0.014254497145545072 -5.7030143968640782e-05 0 0.013998476418350033 -4.3993595818479017e-05 0 0.01412347384796017 -0.00015094033817165552 0 0.01392373128822871 -0.00018823459762822074 0 0.013998476418350033 -4.3993595818479017e-05 0 0.014254497145545072 -5.7030143968640782e-05 0 0.01412347384796017 -0.00015094033817165552 0 0.014476123511483112 -9.8491033934720796e-06 0 0.014405507888628474 -9.3631759759539717e-05 0 0.014254497145545072 -5.7030143968640782e-05 0 0.014405507888628474 -9.3631759759539717e-05 0 0.014254497145545072 -5.7030143968640782e-05 0 0.014287648373543148 -0.00017255991174000099 0 0.014254497145545072 -5.7030143968640782e-05 0 0.01412347384796017 -0.00015094033817165552 0 0.014287648373543148 -0.00017255991174000099 0 0.014288770252685556 -0.00033364782208476009 0 0.014079679831751041 -0.00030410861377417789 0 0.014287648373543148 -0.00017255991174000099 0 0.014079679831751041 -0.00030410861377417789 0 0.01412347384796017 -0.00015094033817165552 0 0.014287648373543148 -0.00017255991174000099 0 0.014079679831751041 -0.00030410861377417789 0 0.01412347384796017 -0.00015094033817165552 0 0.01392373128822871 -0.00018823459762822074 0 0.014079679831751041 -0.00030410861377417789 0 0.013717812931538075 -0.00034035888131195443 0 0.01392373128822871 -0.00018823459762822074 0 0.013603801752415328 -0.00011444520419688482 0 0.013998476418350033 -4.3993595818479017e-05 0 0.01392373128822871 -0.00018823459762822074 0 0.014952588666766107 1.367643541329958e-05 0 0.014955410205577932 2.9167102622222768e-06 0 0.014951597860575197 1.0212196619316211e-05 0 0.014952588666766107 1.367643541329958e-05 0 0.014963391765571927 -4.1655900066656679e-06 0 0.014955410205577932 2.9167102622222768e-06 0 0.014952588666766107 1.367643541329958e-05 0 0.014951597860575197 1.0212196619316211e-05 0 0.014941441639402525 2.4317965895077382e-05 0 0.014952588666766107 1.367643541329958e-05 0 0.014963391765571927 -4.1655900066656679e-06 0 0.014975331523426496 -4.7248952684972935e-06 0 0.014963391765571927 -4.1655900066656679e-06 0 0.014975331523426496 -4.7248952684972935e-06 0 0.014977131883113507 -2.5184264417734427e-05 0 0.014975331523426496 -4.7248952684972935e-06 0 0.014969499282919355 -9.3011636339038948e-06 0 0.014942928693025711 1.9319559419186558e-05 0 0.014952588666766107 1.367643541329958e-05 0 0.014975331523426496 -4.7248952684972935e-06 0 0.014942928693025711 1.9319559419186558e-05 0 0.014952588666766107 1.367643541329958e-05 0 0.014942928693025711 1.9319559419186558e-05 0 0.014941441639402525 2.4317965895077382e-05 0 0.014969499282919355 -9.3011636339038948e-06 0 0.014999999594703481 6.011162059509157e-09 0 0.014999851343323425 -8.8680614717551694e-08 0 0.014969499282919355 -9.3011636339038948e-06 0 0.014999999594703481 6.011162059509157e-09 0 0.014991937850253064 -1.1175253247275114e-05 0 0.014975331523426496 -4.7248952684972935e-06 0 0.014969499282919355 -9.3011636339038948e-06 0 0.014991937850253064 -1.1175253247275114e-05 0 0.014975331523426496 -4.7248952684972935e-06 0 0.014991937850253064 -1.1175253247275114e-05 0 0.014989414200711594 -2.5941115229023434e-05 0 0.014991937850253064 -1.1175253247275114e-05 0 0.014999987185710677 -1.6665888792943351e-08 0 0.014989414200711594 -2.5941115229023434e-05 0 0.014999999594703481 6.011162059509157e-09 0 0.014991937850253064 -1.1175253247275114e-05 0 0.014999987185710677 -1.6665888792943351e-08 0 0.014999987185710677 -1.6665888792943351e-08 0 0.014989414200711594 -2.5941115229023434e-05 0 0.01498782001423978 -3.606154078333635e-05 0 0.014989414200711594 -2.5941115229023434e-05 0 0.014977131883113507 -2.5184264417734427e-05 0 0.014971431003374542 -7.4485298216061697e-05 0 0.014975331523426496 -4.7248952684972935e-06 0 0.014989414200711594 -2.5941115229023434e-05 0 0.014977131883113507 -2.5184264417734427e-05 0 0.014963391765571927 -4.1655900066656679e-06 0 0.014977131883113507 -2.5184264417734427e-05 0 0.014971156156012643 -1.1995057047756045e-05 0 0.014977131883113507 -2.5184264417734427e-05 0 0.014971431003374542 -7.4485298216061697e-05 0 0.014977626500219559 -2.0510114489730056e-05 0 0.014544836578853358 -0.0004198743491625881 0 0.014415028785321164 -0.00050616717215401009 0 0.014971431003374542 -7.4485298216061697e-05 0 0.014935816349303851 -0.00011263968472967403 0 0.014952768269635182 -9.2345213554957895e-05 0 0.014564002615709233 -0.00023045086031587688 0 0.014454559285589643 -0.00030052225431286532 0 0.014971431003374542 -7.4485298216061697e-05 0 0.014935816349303851 -0.00011263968472967403 0 0.01498782001423978 -3.606154078333635e-05 0 0.014989414200711594 -2.5941115229023434e-05 0 0.014971431003374542 -7.4485298216061697e-05 0 0.01498782001423978 -3.606154078333635e-05 0 0.014999987185710677 -1.6665888792943351e-08 0 0.01498782001423978 -3.606154078333635e-05 0 0.015000009600995736 -1.9446451513701126e-08 0 0.01498782001423978 -3.606154078333635e-05 0 0.015000009600995736 -1.9446451513701126e-08 0 0.01496084759799908 -1.5329609098534737e-05 0 0.015000009600995736 -1.9446451513701126e-08 0 0.01499973406097271 3.6207565664260482e-08 0 0.01496084759799908 -1.5329609098534737e-05 0 0.014935816349303851 -0.00011263968472967403 0 0.01498782001423978 -3.606154078333635e-05 0 0.01496084759799908 -1.5329609098534737e-05 0 0.014935816349303851 -0.00011263968472967403 0 0.014851985674500068 -6.3552423592823297e-05 0 0.01496084759799908 -1.5329609098534737e-05 0 0.014851985674500068 -6.3552423592823297e-05 0 0.01496084759799908 -1.5329609098534737e-05 0 0.014912032058624222 -1.0333803931590228e-05 0 0.01499973406097271 3.6207565664260482e-08 0 0.01496084759799908 -1.5329609098534737e-05 0 0.014912032058624222 -1.0333803931590228e-05 0 0.01499973406097271 3.6207565664260482e-08 0 0.014941776326072307 1.9644861453522398e-05 0 0.014912032058624222 -1.0333803931590228e-05 0 0.01499987084702563 2.9797906324824175e-08 0 0.01499973406097271 3.6207565664260482e-08 0 0.014941776326072307 1.9644861453522398e-05 0 0.014941776326072307 1.9644861453522398e-05 0 0.014912032058624222 -1.0333803931590228e-05 0 0.014779578353080424 -4.7262340940254377e-05 0 0.014851985674500068 -6.3552423592823297e-05 0 0.014779578353080424 -4.7262340940254377e-05 0 0.014631272721009565 -0.00016919239577802757 0 0.014851985674500068 -6.3552423592823297e-05 0 0.014912032058624222 -1.0333803931590228e-05 0 0.014779578353080424 -4.7262340940254377e-05 0 0.014631272721009565 -0.00016919239577802757 0 0.014743807498580648 -0.00019623875038048632 0 0.01456909170013931 -0.0003217708745282168 0 0.014851985674500068 -6.3552423592823297e-05 0 0.014631272721009565 -0.00016919239577802757 0 0.014743807498580648 -0.00019623875038048632 0 0.014935816349303851 -0.00011263968472967403 0 0.014851985674500068 -6.3552423592823297e-05 0 0.014743807498580648 -0.00019623875038048632 0 0.014935816349303851 -0.00011263968472967403 0 0.014743807498580648 -0.00019623875038048632 0 0.014663917662216889 -0.00040992737766898819 0 0.014935816349303851 -0.00011263968472967403 0 0.014663917662216889 -0.00040992737766898819 0 0.014920279271760617 -0.00048546418325343918 0 0.014379894902909965 -0.00052775838773797435 0 0.014663917662216889 -0.00040992737766898819 0 0.01456909170013931 -0.0003217708745282168 0 0.014743807498580648 -0.00019623875038048632 0 0.014663917662216889 -0.00040992737766898819 0 0.01456909170013931 -0.0003217708745282168 0 0.014379894902909965 -0.00052775838773797435 0 0.014220388707481664 -0.0006885932967565199 0 0.014401472002326802 -0.00066678705170393504 0 0.014379894902909965 -0.00052775838773797435 0 0.014663917662216889 -0.00040992737766898819 0 0.014401472002326802 -0.00066678705170393504 0 0.014663917662216889 -0.00040992737766898819 0 0.014401472002326802 -0.00066678705170393504 0 0.014723560120425173 -0.00071516917906602881 0 0.014663917662216889 -0.00040992737766898819 0 0.014723560120425173 -0.00071516917906602881 0 0.014920279271760617 -0.00048546418325343918 0 0.014401472002326802 -0.00066678705170393504 0 0.014723560120425173 -0.00071516917906602881 0 0.014528897003944387 -0.00098513360318838185 0 0.014074531614609883 -0.00026491406893273224 0 0.01402330779629102 -0.00022908632050204253 0 0.014723560120425173 -0.00071516917906602881 0 0.014528897003944387 -0.00098513360318838185 0 0.014975596134205557 -0.0009285708145626493 0 0.014401472002326802 -0.00066678705170393504 0 0.014191016233125388 -0.00075972953901944811 0 0.014090450429845485 -0.00076046356458490613 0 0.014074531614609883 -0.00026491406893273224 0 0.014068827290385036 -0.0002773036426251083 0 0.014220388707481664 -0.0006885932967565199 0 0.014401472002326802 -0.00066678705170393504 0 0.014090450429845485 -0.00076046356458490613 0 0.014135194049414214 -0.0003994911786171588 0 0.014074531614609883 -0.00026491406893273224 0 0.014220388707481664 -0.0006885932967565199 0 0.014114060674288291 -0.00069054539302384154 0 0.014090450429845485 -0.00076046356458490613 0 0.014114060674288291 -0.00069054539302384154 0 0.014090450429845485 -0.00076046356458490613 0 0.013975461638818463 -0.00064478159410445094 0 0.01383186101920411 -0.00081711008948499376 0 0.013920583487315683 -0.00069122532680358892 0 0.013752619855476288 -0.00056524484433395595 0 0.014090450429845485 -0.00076046356458490613 0 0.013920583487315683 -0.00069122532680358892 0 0.013975461638818463 -0.00064478159410445094 0 0.01383186101920411 -0.00081711008948499376 0 0.014090450429845485 -0.00076046356458490613 0 0.013920583487315683 -0.00069122532680358892 0 0.013752619855476288 -0.00056524484433395595 0 0.013975461638818463 -0.00064478159410445094 0 0.013882979885523833 -0.00050405839548637015 0 0.013920583487315683 -0.00069122532680358892 0 0.013752619855476288 -0.00056524484433395595 0 0.013975461638818463 -0.00064478159410445094 0 0.014064852510838815 -0.00060705194403574622 0 0.013975461638818463 -0.00064478159410445094 0 0.013882979885523833 -0.00050405839548637015 0 0.013752619855476288 -0.00056524484433395595 0 0.013882979885523833 -0.00050405839548637015 0 0.013702187224808687 -0.00034750872716030572 0 0.013968921664165948 -0.00039424862436148741 0 0.013882979885523833 -0.00050405839548637015 0 0.013702187224808687 -0.00034750872716030572 0 0.013752619855476288 -0.00056524484433395595 0 0.013702187224808687 -0.00034750872716030572 0 0.013381262332402818 -0.00039830357541933373 0 0.01383186101920411 -0.00081711008948499376 0 0.013752619855476288 -0.00056524484433395595 0 0.013381262332402818 -0.00039830357541933373 0 0.013213675750989695 0.00074579887195447606 0 0.013250170570370519 0.00061357096357262514 0 0.013285027478484455 0.00068983864737817723 0 0.013213675750989695 0.00074579887195447606 0 0.013285027478484455 0.00068983864737817723 0 0.013329707188471445 0.00075626063125438397 0 0.014074531614609883 -0.00026491406893273224 0 0.013588066931737653 0.00014518839150908639 0 0.013285027478484455 0.00068983864737817723 0 0.013348779096632438 0.00063995403964538483 0 0.013329707188471445 0.00075626063125438397 0 0.013748800127310412 0.00010010388593831803 0 0.01402330779629102 -0.00022908632050204253 0 0.013250170570370519 0.00061357096357262514 0 0.013285027478484455 0.00068983864737817723 0 0.013348779096632438 0.00063995403964538483 0 0.013250170570370519 0.00061357096357262514 0 0.013348779096632438 0.00063995403964538483 0 0.013317741272112533 0.0005473026748775184 0 0.013629402316903504 -0.00021755598196277135 0 0.013617492090253135 -0.000209005426373689 0 0.013615416587299006 -0.00022531123689606452 0 0.013617492090253135 -0.000209005426373689 0 0.013615416587299006 -0.00022531123689606452 0 0.013609054829969698 -0.00021054986173876913 0 0.013629402316903504 -0.00021755598196277135 0 0.013615416587299006 -0.00022531123689606452 0 0.013633675467234792 -0.00023967333530994987 0 0.013615416587299006 -0.00022531123689606452 0 0.013633675467234792 -0.00023967333530994987 0 0.013612965914288552 -0.00024197255898778016 0 0.01495367979028292 -0.00011462412861321499 0 0.014965629139256195 -0.00010066916907281179 0 0.014972552124104754 -0.0001121462341899067 0 0.01402330779629102 -0.00022908632050204253 0 0.014155491819611916 -0.00042768837208737254 0 0.014723560120425173 -0.00071516917906602881 0 0.014975596134205557 -0.0009285708145626493 0 0.014920279271760617 -0.00048546418325343918 0 0.01402330779629102 -0.00022908632050204253 0 0.014454559285589643 -0.00030052225431286532 0 0.01495367979028292 -0.00011462412861321499 0 0.014952768269635182 -9.2345213554957895e-05 0 0.014965629139256195 -0.00010066916907281179 0 0.014965629139256195 -0.00010066916907281179 0 0.014978788170149184 -9.6398818546740203e-05 0 0.014972552124104754 -0.0001121462341899067 0 0.014971431003374542 -7.4485298216061697e-05 0 0.014952768269635182 -9.2345213554957895e-05 0 0.014965629139256195 -0.00010066916907281179 0 0.014971431003374542 -7.4485298216061697e-05 0 0.014965629139256195 -0.00010066916907281179 0 0.014978788170149184 -9.6398818546740203e-05 0 0.014977131883113507 -2.5184264417734427e-05 0 0.014977626500219559 -2.0510114489730056e-05 0 0.014971156156012643 -1.1995057047756045e-05 0 0.014977626500219559 -2.0510114489730056e-05 0 0.014971156156012643 -1.1995057047756045e-05 0 0.014966343943576139 -7.5761785859940598e-07 0 0.014415028785321164 -0.00050616717215401009 0 0.013909203332649568 -0.00077093859837034718 0 0.014963391765571927 -4.1655900066656679e-06 0 0.014971156156012643 -1.1995057047756045e-05 0 0.014966343943576139 -7.5761785859940598e-07 0 0.014978788170149184 -9.6398818546740203e-05 0 0.014986239657743244 -0.00011131959518852808 0 0.014972552124104754 -0.0001121462341899067 0 0.013909203332649568 -0.00077093859837034718 0 0.014155491819611916 -0.00042768837208737254 0 0.013592655555872746 -0.00024548627710426385 0 0.013612965914288552 -0.00024197255898778016 0 0.01359805126681273 -0.00022643364579439973 0 0.013615416587299006 -0.00022531123689606452 0 0.013612965914288552 -0.00024197255898778016 0 0.01359805126681273 -0.00022643364579439973 0 0.013615416587299006 -0.00022531123689606452 0 0.013609054829969698 -0.00021054986173876913 0 0.01359805126681273 -0.00022643364579439973 0 0.01359805126681273 -0.00022643364579439973 0 0.013575488925840295 -0.00022935352401775257 0 0.013587843127480636 -0.00020802106883954842 0 0.013609054829969698 -0.00021054986173876913 0 0.01359805126681273 -0.00022643364579439973 0 0.013587843127480636 -0.00020802106883954842 0 0.013592655555872746 -0.00024548627710426385 0 0.01359805126681273 -0.00022643364579439973 0 0.013575488925840295 -0.00022935352401775257 0 0.013909203332649568 -0.00077093859837034718 0 0.01299201737141811 -0.0015626890748820707 0 0.01299201737141811 -0.0015626890748820707 0 0.01272155577897888 -0.001714050805627577 0 0.011707373451451843 -0.0034077993762489413 0 0.01166729245519728 -0.0033685306057281818 0 0.011734796697074912 -0.0033674642747136938 0 0.011538268266391065 -0.0033619843150449859 0 0.01166729245519728 -0.0033685306057281818 0 0.011873430242679072 -0.0032799222002712325 0 0.01299201737141811 -0.0015626890748820707 0 0.012833100667523608 -0.002021883601267262 0 0.011538268266391065 -0.0033619843150449859 0 0.011873430242679072 -0.0032799222002712325 0 0.011812038313532966 -0.0025717593001538652 0 0.01299201737141811 -0.0015626890748820707 0 0.013424038736319642 -0.0011737901404351508 0 0.011873430242679072 -0.0032799222002712325 0 0.011812038313532966 -0.0025717593001538652 0 0.012548417583435782 -0.0024425838039831491 0 0.013424038736319642 -0.0011737901404351508 0 0.013214049482466459 -0.0012534062986995454 0 0.013909203332649568 -0.00077093859837034718 0 0.013424038736319642 -0.0011737901404351508 0 0.014966343943576139 -7.5761785859940598e-07 0 0.014953866606151356 2.827335559840911e-06 0 0.014955410205577932 2.9167102622222768e-06 0 0.01343884207495344 -0.0010718529062399775 0 0.013364462778239366 -0.00099168863326053267 0 0.013316798552952083 -0.0010821705197903502 0 0.014963391765571927 -4.1655900066656679e-06 0 0.014966343943576139 -7.5761785859940598e-07 0 0.014955410205577932 2.9167102622222768e-06 0 0.013424038736319642 -0.0011737901404351508 0 0.01375946913375312 -0.00082006044730654635 0 0.014953866606151356 2.827335559840911e-06 0 0.014955410205577932 2.9167102622222768e-06 0 0.014951597860575197 1.0212196619316211e-05 0 0.012002095329406577 -0.0024863668613178962 0 0.012726904204721001 -0.0014994944160801648 0 0.012548417583435782 -0.0024425838039831491 0 0.011513717359892248 -0.0030742315322765073 0 0.011531674045004041 -0.0031981016118217344 0 0.011397456489594372 -0.0030907565456764429 0 0.011513717359892248 -0.0030742315322765073 0 0.011653620729712846 -0.0030133458430587844 0 0.011495966980720774 -0.0029460747326620772 0 0.011513717359892248 -0.0030742315322765073 0 0.011653620729712846 -0.0030133458430587844 0 0.011666320350918793 -0.0031762281974283637 0 0.011653620729712846 -0.0030133458430587844 0 0.011666320350918793 -0.0031762281974283637 0 0.011800078850286264 -0.0030910551834240178 0 0.011666320350918793 -0.0031762281974283637 0 0.011531674045004041 -0.0031981016118217344 0 0.011648397111644582 -0.0033010460316704139 0 0.011513717359892248 -0.0030742315322765073 0 0.011666320350918793 -0.0031762281974283637 0 0.011531674045004041 -0.0031981016118217344 0 0.011531674045004041 -0.0031981016118217344 0 0.011648397111644582 -0.0033010460316704139 0 0.01154474523196467 -0.0032941723290015046 0 0.01166729245519728 -0.0033685306057281818 0 0.011648397111644582 -0.0033010460316704139 0 0.01154474523196467 -0.0032941723290015046 0 0.01166729245519728 -0.0033685306057281818 0 0.011648397111644582 -0.0033010460316704139 0 0.011734796697074912 -0.0033674642747136938 0 0.011648397111644582 -0.0033010460316704139 0 0.011824401736487545 -0.0032830222844898497 0 0.011734796697074912 -0.0033674642747136938 0 0.011666320350918793 -0.0031762281974283637 0 0.011648397111644582 -0.0033010460316704139 0 0.011824401736487545 -0.0032830222844898497 0 0.012579199652178196 -0.0016403040017915469 0 0.01272155577897888 -0.001714050805627577 0 0.013609054829969698 -0.00021054986173876913 0 0.013587843127480636 -0.00020802106883954842 0 0.013606618200834055 -0.00019891518295655288 0 0.013608552018821959 -0.00019099126681214142 0 0.013587843127480636 -0.00020802106883954842 0 0.013606618200834055 -0.00019891518295655288 0 0.013609054829969698 -0.00021054986173876913 0 0.013606618200834055 -0.00019891518295655288 0 0.013613043834180074 -0.00019995772803342953 0 0.013606618200834055 -0.00019891518295655288 0 0.013611035028134112 -0.00019089098350298539 0 0.013613043834180074 -0.00019995772803342953 0 0.013608552018821959 -0.00019099126681214142 0 0.013613814275642176 -0.00019151529945865062 0 0.013611035028134112 -0.00019089098350298539 0 0.013608552018821959 -0.00019099126681214142 0 0.013606618200834055 -0.00019891518295655288 0 0.013611035028134112 -0.00019089098350298539 0 0.013608552018821959 -0.00019099126681214142 0 0.013647694540045829 -0.000207771436172973 0 0.013613814275642176 -0.00019151529945865062 0 0.012579199652178196 -0.0016403040017915469 0 0.012366307031661692 -0.0014953676809198217 0 0.013647694540045829 -0.000207771436172973 0 0.013600352452188892 -0.00021052070805775168 0 0.013613814275642176 -0.00019151529945865062 0 0.011666320350918793 -0.0031762281974283637 0 0.011824401736487545 -0.0032830222844898497 0 0.011800078850286264 -0.0030910551834240178 0 0.011824401736487545 -0.0032830222844898497 0 0.011800078850286264 -0.0030910551834240178 0 0.01197605780055417 -0.0031250775672744691 0 0.011800078850286264 -0.0030910551834240178 0 0.011932080745808231 -0.0029930645437797618 0 0.011809215404108052 -0.0029200629684844222 0 0.011653620729712846 -0.0030133458430587844 0 0.011800078850286264 -0.0030910551834240178 0 0.011809215404108052 -0.0029200629684844222 0 0.01197605780055417 -0.0031250775672744691 0 0.012168413150881966 -0.0028952121544081697 0 0.011932080745808231 -0.0029930645437797618 0 0.011800078850286264 -0.0030910551834240178 0 0.01197605780055417 -0.0031250775672744691 0 0.011932080745808231 -0.0029930645437797618 0 0.012366307031661692 -0.0014953676809198217 0 0.011857677157970264 -0.0013369049631480553 0 0.013543251100640974 -0.00027830500015247933 0 0.01335348393756091 2.075817725260218e-05 0 0.013452464611973329 0.00022025225047138681 0 0.013647694540045829 -0.000207771436172973 0 0.013543251100640974 -0.00027830500015247933 0 0.013631952222208256 -0.00046165465269879815 0 0.013543251100640974 -0.00027830500015247933 0 0.013594377045361143 -0.00018580597191138575 0 0.013600352452188892 -0.00021052070805775168 0 0.013647694540045829 -0.000207771436172973 0 0.013543251100640974 -0.00027830500015247933 0 0.013600352452188892 -0.00021052070805775168 0 0.013595011856219719 -0.0001175658005301542 0 0.013598186114687584 -1.6297420899356319e-05 0 0.013543251100640974 -0.00027830500015247933 0 0.013286350693278595 -0.000282779544890144 0 0.01335348393756091 2.075817725260218e-05 0 0.01335348393756091 2.075817725260218e-05 0 0.013061382737105857 3.3823646824148636e-05 0 0.013105438672595145 -0.00020729743305643476 0 0.013286350693278595 -0.000282779544890144 0 0.01335348393756091 2.075817725260218e-05 0 0.013105438672595145 -0.00020729743305643476 0 0.013286350693278595 -0.000282779544890144 0 0.013105438672595145 -0.00020729743305643476 0 0.013079572840662232 -0.0004093562057436375 0 0.01335348393756091 2.075817725260218e-05 0 0.013452464611973329 0.00022025225047138681 0 0.013275355447434866 0.00042125876812221089 0 0.01335348393756091 2.075817725260218e-05 0 0.013090267262230356 0.00021640300428063625 0 0.013153510684014514 0.00019417154908996624 0 0.013397453679102632 0.00013497272455232867 0 0.013406263478514631 0.00021950337613070602 0 0.01335348393756091 2.075817725260218e-05 0 0.013153510684014514 0.00019417154908996624 0 0.013061382737105857 3.3823646824148636e-05 0 0.013594377045361143 -0.00018580597191138575 0 0.013600352452188892 -0.00021052070805775168 0 0.013613814275642176 -0.00019151529945865062 0 0.013594377045361143 -0.00018580597191138575 0 0.013613814275642176 -0.00019151529945865062 0 0.013611035028134112 -0.00019089098350298539 0 0.013598186114687584 -1.6297420899356319e-05 0 0.013635780431288654 9.7059863087639695e-05 0 0.013594377045361143 -0.00018580597191138575 0 0.013611035028134112 -0.00019089098350298539 0 0.013619279732395215 -0.00019568148408271606 0 0.013629402316903504 -0.00021755598196277135 0 0.013617492090253135 -0.000209005426373689 0 0.013619279732395215 -0.00019568148408271606 0 0.013611035028134112 -0.00019089098350298539 0 0.013613043834180074 -0.00019995772803342953 0 0.013619279732395215 -0.00019568148408271606 0 0.013617492090253135 -0.000209005426373689 0 0.013613043834180074 -0.00019995772803342953 0 0.013619279732395215 -0.00019568148408271606 0 0.013617492090253135 -0.000209005426373689 0 0.013609054829969698 -0.00021054986173876913 0 0.013613043834180074 -0.00019995772803342953 0 0.013348779096632438 0.00063995403964538483 0 0.013317741272112533 0.0005473026748775184 0 0.01338809173588856 0.00049426560202256182 0 0.013317741272112533 0.0005473026748775184 0 0.01338809173588856 0.00049426560202256182 0 0.013275355447434866 0.00042125876812221089 0 0.013748800127310412 0.00010010388593831803 0 0.013635780431288654 9.7059863087639695e-05 0 0.013250170570370519 0.00061357096357262514 0 0.013317741272112533 0.0005473026748775184 0 0.013275355447434866 0.00042125876812221089 0 0.013452464611973329 0.00022025225047138681 0 0.01338809173588856 0.00049426560202256182 0 0.013275355447434866 0.00042125876812221089 0 0.013090267262230356 0.00021640300428063625 0 0.013400249999361761 -5.3437528006203189e-05 0 0.013112891887487717 0.00041435696214122986 0 0.013090267262230356 0.00021640300428063625 0 0.013112891887487717 0.00041435696214122986 0 0.013153510684014514 0.00019417154908996624 0 0.013702187224808687 -0.00034750872716030572 0 0.013381262332402818 -0.00039830357541933373 0 0.013400249999361761 -5.3437528006203189e-05 0 0.013381262332402818 -0.00039830357541933373 0 0.013090267262230356 0.00021640300428063625 0 0.013400249999361761 -5.3437528006203189e-05 0 0.013588066931737653 0.00014518839150908639 0 0.013406263478514631 0.00021950337613070602 0 0.013968921664165948 -0.00039424862436148741 0 0.013702187224808687 -0.00034750872716030572 0 0.01375421993549104 -0.00012391969059671591 0 0.013702187224808687 -0.00034750872716030572 0 0.013400249999361761 -5.3437528006203189e-05 0 0.01375421993549104 -0.00012391969059671591 0 0.013400249999361761 -5.3437528006203189e-05 0 0.01375421993549104 -0.00012391969059671591 0 0.013112891887487717 0.00041435696214122986 0 0.01375421993549104 -0.00012391969059671591 0 0.013112891887487717 0.00041435696214122986 0 0.013930869154889071 0.00017191581681661917 0 0.013112891887487717 0.00041435696214122986 0 0.013061382737105857 3.3823646824148636e-05 0 0.012278169814244014 -0.00011506238944322557 0 0.013112891887487717 0.00041435696214122986 0 0.012278169814244014 -0.00011506238944322557 0 0.011661183565539629 0.00092757121901833155 0 0.012641936253660509 0.00035698181589170568 0 0.01242179993955842 0.00033064059241925861 0 0.013112891887487717 0.00041435696214122986 0 0.013153510684014514 0.00019417154908996624 0 0.013061382737105857 3.3823646824148636e-05 0 0.013061382737105857 3.3823646824148636e-05 0 0.01282289501321365 -0.0002472877052944034 0 0.012278169814244014 -0.00011506238944322557 0 0.013061382737105857 3.3823646824148636e-05 0 0.013105438672595145 -0.00020729743305643476 0 0.01282289501321365 -0.0002472877052944034 0 0.013105438672595145 -0.00020729743305643476 0 0.01282289501321365 -0.0002472877052944034 0 0.012897991256857033 -0.00041456601379877012 0 0.01282289501321365 -0.0002472877052944034 0 0.012278169814244014 -0.00011506238944322557 0 0.012696794139797683 -0.00045562447095460313 0 0.012278169814244014 -0.00011506238944322557 0 0.012583332696712465 -0.00069751989418958388 0 0.012696794139797683 -0.00045562447095460313 0 0.012278169814244014 -0.00011506238944322557 0 0.012440064031633854 -0.001474429963460449 0 0.011813477880609217 -0.00076136025799947854 0 0.011320222331137523 -0.00075386676198578519 0 0.011060791340225713 -0.0010790457778206803 0 0.012583332696712465 -0.00069751989418958388 0 0.012722076216462638 -0.00064019039471654797 0 0.012696794139797683 -0.00045562447095460313 0 0.012440064031633854 -0.001474429963460449 0 0.011986165919617606 -0.0015398842454876758 0 0.011813477880609217 -0.00076136025799947854 0 0.01282289501321365 -0.0002472877052944034 0 0.012696794139797683 -0.00045562447095460313 0 0.012897991256857033 -0.00041456601379877012 0 0.012696794139797683 -0.00045562447095460313 0 0.012897991256857033 -0.00041456601379877012 0 0.012823276044653246 -0.00056060850889554342 0 0.013105438672595145 -0.00020729743305643476 0 0.012897991256857033 -0.00041456601379877012 0 0.013079572840662232 -0.0004093562057436375 0 0.012897991256857033 -0.00041456601379877012 0 0.013079572840662232 -0.0004093562057436375 0 0.012999579861578917 -0.00058908970283243721 0 0.013079572840662232 -0.0004093562057436375 0 0.012999579861578917 -0.00058908970283243721 0 0.013186093538352081 -0.00050046519795929215 0 0.012897991256857033 -0.00041456601379877012 0 0.012999579861578917 -0.00058908970283243721 0 0.012823276044653246 -0.00056060850889554342 0 0.012722076216462638 -0.00064019039471654797 0 0.012696794139797683 -0.00045562447095460313 0 0.012823276044653246 -0.00056060850889554342 0 0.012999579861578917 -0.00058908970283243721 0 0.012823276044653246 -0.00056060850889554342 0 0.012870473264892122 -0.0006770205445160236 0 0.012722076216462638 -0.00064019039471654797 0 0.012823276044653246 -0.00056060850889554342 0 0.012870473264892122 -0.0006770205445160236 0 0.012722076216462638 -0.00064019039471654797 0 0.012870473264892122 -0.0006770205445160236 0 0.012789700326450215 -0.00083157061206917888 0 0.012789700326450215 -0.00083157061206917888 0 0.012920178818814411 -0.00097916814492324407 0 0.012714498516062791 -0.0012124581359268763 0 0.012870473264892122 -0.0006770205445160236 0 0.012789700326450215 -0.00083157061206917888 0 0.012953754719112354 -0.00076972963837277069 0 0.012953754719112354 -0.00076972963837277069 0 0.0130935244455882 -0.0009019436545913464 0 0.013157755825741852 -0.00067484020006450425 0 0.012999579861578917 -0.00058908970283243721 0 0.012870473264892122 -0.0006770205445160236 0 0.012953754719112354 -0.00076972963837277069 0 0.012999579861578917 -0.00058908970283243721 0 0.012953754719112354 -0.00076972963837277069 0 0.013157755825741852 -0.00067484020006450425 0 0.012953754719112354 -0.00076972963837277069 0 0.012920178818814411 -0.00097916814492324407 0 0.0130935244455882 -0.0009019436545913464 0 0.012920178818814411 -0.00097916814492324407 0 0.013021599688481465 -0.0011061357911525446 0 0.0130935244455882 -0.0009019436545913464 0 0.012789700326450215 -0.00083157061206917888 0 0.012953754719112354 -0.00076972963837277069 0 0.012920178818814411 -0.00097916814492324407 0 0.012400652688340803 -0.0017354493487984734 0 0.012723164866821431 -0.0027527476405387551 0 0.011584528416857429 -0.0021814197486527825 0 0.011060791340225713 -0.0010790457778206803 0 0.0097559082977984237 -0.00065617902379226179 0 0.010254252687470936 -0.00075777623821432754 0 0.0095070554378385123 -0.00086264081497242865 0 0.012400652688340803 -0.0017354493487984734 0 0.011986165919617606 -0.0015398842454876758 0 0.011515861826253746 -0.0022707525804996657 0 0.012583332696712465 -0.00069751989418958388 0 0.012789700326450215 -0.00083157061206917888 0 0.012714498516062791 -0.0012124581359268763 0 0.012440064031633854 -0.001474429963460449 0 0.012400652688340803 -0.0017354493487984734 0 0.012723164866821431 -0.0027527476405387551 0 0.012583332696712465 -0.00069751989418958388 0 0.012722076216462638 -0.00064019039471654797 0 0.012789700326450215 -0.00083157061206917888 0 0.012440064031633854 -0.001474429963460449 0 0.012400652688340803 -0.0017354493487984734 0 0.011986165919617606 -0.0015398842454876758 0 0.0097559082977984237 -0.00065617902379226179 0 0.0095070554378385123 -0.00086264081497242865 0 0.0071140675852024784 0.00020145125009488705 0 0.0070592661540631015 0.00023225191410485856 0 0.0070629232945623264 0.0001755898689416355 0 0.0071140675852024784 0.00020145125009488705 0 0.0070960401931640599 0.00017161265480785062 0 0.0070629232945623264 0.0001755898689416355 0 0.0071140675852024784 0.00020145125009488705 0 0.0070960401931640599 0.00017161265480785062 0 0.007117962538920589 0.00015738851749170368 0 0.0070960401931640599 0.00017161265480785062 0 0.0070869024811788146 0.00015342203747672207 0 0.007117962538920589 0.00015738851749170368 0 0.0070960401931640599 0.00017161265480785062 0 0.0070629232945623264 0.0001755898689416355 0 0.0070869024811788146 0.00015342203747672207 0 0.0074424881079442817 6.9313310257014584e-05 0 0.0074356351624699961 7.5870832264836479e-05 0 0.0074320588883060191 7.3090069725187477e-05 0 0.0074424881079442817 6.9313310257014584e-05 0 0.0074363146962424624 7.3424024312790693e-05 0 0.0074356351624699961 7.5870832264836479e-05 0 0.0097559082977984237 -0.00065617902379226179 0 0.008463098203472505 6.6976786803550715e-05 0 0.012714498516062791 -0.0012124581359268763 0 0.013021599688481465 -0.0011061357911525446 0 0.013159925103578033 -0.0014409769857661302 0 0.0097559082977984237 -0.00065617902379226179 0 0.0098726763296454034 -0.00032505725010877062 0 0.012920178818814411 -0.00097916814492324407 0 0.012714498516062791 -0.0012124581359268763 0 0.013021599688481465 -0.0011061357911525446 0 0.013021599688481465 -0.0011061357911525446 0 0.013191944060785587 -0.0010647930297553202 0 0.0130935244455882 -0.0009019436545913464 0 0.013021599688481465 -0.0011061357911525446 0 0.013191944060785587 -0.0010647930297553202 0 0.013159925103578033 -0.0014409769857661302 0 0.010603725066028153 -0.0013043592661142525 0 0.0098726763296454034 -0.00032505725010877062 0 0.0078546633212057074 -0.00051023300633463347 0 0.0080201758863595422 -0.0001870172713760206 0 0.0078207292042479538 -0.00028633798620478559 0 0.013191944060785587 -0.0010647930297553202 0 0.013394748834446628 -0.0010134706321962455 0 0.013159925103578033 -0.0014409769857661302 0 0.0080201758863595422 -0.0001870172713760206 0 0.0077528196194981266 -0.00017778278813541861 0 0.0078207292042479538 -0.00028633798620478559 0 0.0098726763296454034 -0.00032505725010877062 0 0.0085105184494766138 0.00011385455922551361 0 0.0074402980003352697 8.6243187183158128e-05 0 0.0074450948294758641 7.779030521352901e-05 0 0.0074615885783682161 8.3963286619007264e-05 0 0.0098726763296454034 -0.00032505725010877062 0 0.0097935213601482492 -0.00036024508670547177 0 0.0074450948294758641 7.779030521352901e-05 0 0.0074356351624699961 7.5870832264836479e-05 0 0.0074389394483494369 7.0560312354451917e-05 0 0.0074402980003352697 8.6243187183158128e-05 0 0.0074450948294758641 7.779030521352901e-05 0 0.0074356351624699961 7.5870832264836479e-05 0 0.0077393585031491352 -6.0288770558810426e-05 0 0.0076298836690689882 -0.00017002974451396489 0 0.0075085176043862088 3.4719934723578565e-05 0 0.0080201758863595422 -0.0001870172713760206 0 0.0077393585031491352 -6.0288770558810426e-05 0 0.0077528196194981266 -0.00017778278813541861 0 0.0077528196194981266 -0.00017778278813541861 0 0.0076298836690689882 -0.00017002974451396489 0 0.0078207292042479538 -0.00028633798620478559 0 0.0077393585031491352 -6.0288770558810426e-05 0 0.0077528196194981266 -0.00017778278813541861 0 0.0076298836690689882 -0.00017002974451396489 0 0.01234943558876414 -0.0026084695825582004 0 0.01219417705893169 -0.0023302063228257991 0 0.012195920587344807 -0.0025213160610821051 0 0.010603725066028153 -0.0013043592661142525 0 0.01021122798743565 -0.0010868929931238454 0 0.01219417705893169 -0.0023302063228257991 0 0.012195920587344807 -0.0025213160610821051 0 0.012122754141908651 -0.0024323789483665552 0 0.0078546633212057074 -0.00051023300633463347 0 0.0076298836690689882 -0.00017002974451396489 0 0.0078207292042479538 -0.00028633798620478559 0 0.01234943558876414 -0.0026084695825582004 0 0.012195920587344807 -0.0025213160610821051 0 0.012232034477472408 -0.0026127862941332405 0 0.012195920587344807 -0.0025213160610821051 0 0.012137166907142876 -0.0026311174404588908 0 0.012232034477472408 -0.0026127862941332405 0 0.012137166907142876 -0.0026311174404588908 0 0.012189155403155905 -0.0027039292775880431 0 0.012075108083242974 -0.0027710211931479059 0 0.01234943558876414 -0.0026084695825582004 0 0.012189155403155905 -0.0027039292775880431 0 0.012168413150881966 -0.0028952121544081697 0 0.013407850242056579 -0.0010142687304672202 0 0.013371119078928026 -0.00069158413411969622 0 0.013631952222208256 -0.00046165465269879815 0 0.010603725066028153 -0.0013043592661142525 0 0.011857677157970264 -0.0013369049631480553 0 0.012137166907142876 -0.0026311174404588908 0 0.012232034477472408 -0.0026127862941332405 0 0.012189155403155905 -0.0027039292775880431 0 0.012189155403155905 -0.0027039292775880431 0 0.012168413150881966 -0.0028952121544081697 0 0.012075108083242974 -0.0027710211931479059 0 0.01234943558876414 -0.0026084695825582004 0 0.012232034477472408 -0.0026127862941332405 0 0.012189155403155905 -0.0027039292775880431 0 0.010603725066028153 -0.0013043592661142525 0 0.010734445367819402 -0.0013711650983849475 0 0.013191944060785587 -0.0010647930297553202 0 0.013394748834446628 -0.0010134706321962455 0 0.013292784359007154 -0.00085163305725271415 0 0.013407850242056579 -0.0010142687304672202 0 0.013292784359007154 -0.00085163305725271415 0 0.013371119078928026 -0.00069158413411969622 0 0.013191944060785587 -0.0010647930297553202 0 0.013292784359007154 -0.00085163305725271415 0 0.0130935244455882 -0.0009019436545913464 0 0.013292784359007154 -0.00085163305725271415 0 0.0130935244455882 -0.0009019436545913464 0 0.013157755825741852 -0.00067484020006450425 0 0.013292784359007154 -0.00085163305725271415 0 0.013157755825741852 -0.00067484020006450425 0 0.013371119078928026 -0.00069158413411969622 0 0.013157755825741852 -0.00067484020006450425 0 0.013371119078928026 -0.00069158413411969622 0 0.013362499530306483 -0.00047479898908718587 0 0.012999579861578917 -0.00058908970283243721 0 0.013157755825741852 -0.00067484020006450425 0 0.013186093538352081 -0.00050046519795929215 0 0.013157755825741852 -0.00067484020006450425 0 0.013362499530306483 -0.00047479898908718587 0 0.013186093538352081 -0.00050046519795929215 0 0.013286350693278595 -0.000282779544890144 0 0.013079572840662232 -0.0004093562057436375 0 0.013186093538352081 -0.00050046519795929215 0 0.013543251100640974 -0.00027830500015247933 0 0.013286350693278595 -0.000282779544890144 0 0.013362499530306483 -0.00047479898908718587 0 0.013286350693278595 -0.000282779544890144 0 0.013362499530306483 -0.00047479898908718587 0 0.013186093538352081 -0.00050046519795929215 0 0.013543251100640974 -0.00027830500015247933 0 0.013362499530306483 -0.00047479898908718587 0 0.013631952222208256 -0.00046165465269879815 0 0.013371119078928026 -0.00069158413411969622 0 0.013362499530306483 -0.00047479898908718587 0 0.013631952222208256 -0.00046165465269879815 0 0.012168413150881966 -0.0028952121544081697 0 0.011970176604662482 -0.002863941860521618 0 0.011932080745808231 -0.0029930645437797618 0 0.012168413150881966 -0.0028952121544081697 0 0.011970176604662482 -0.002863941860521618 0 0.012075108083242974 -0.0027710211931479059 0 0.011970176604662482 -0.002863941860521618 0 0.011809215404108052 -0.0029200629684844222 0 0.011904061189533671 -0.002725554926516131 0 0.011970176604662482 -0.002863941860521618 0 0.011932080745808231 -0.0029930645437797618 0 0.011809215404108052 -0.0029200629684844222 0 0.011904061189533671 -0.002725554926516131 0 0.011754886415540521 -0.0026315192756246101 0 0.011651175075753237 -0.0028158242287190066 0 0.011809215404108052 -0.0029200629684844222 0 0.011904061189533671 -0.002725554926516131 0 0.011651175075753237 -0.0028158242287190066 0 0.011904061189533671 -0.002725554926516131 0 0.012025239420662815 -0.0026409968402112708 0 0.011919716060524459 -0.0025237266600812479 0 0.011904061189533671 -0.002725554926516131 0 0.012025239420662815 -0.0026409968402112708 0 0.012075108083242974 -0.0027710211931479059 0 0.011970176604662482 -0.002863941860521618 0 0.011904061189533671 -0.002725554926516131 0 0.012075108083242974 -0.0027710211931479059 0 0.012137166907142876 -0.0026311174404588908 0 0.012025239420662815 -0.0026409968402112708 0 0.012075108083242974 -0.0027710211931479059 0 0.012195920587344807 -0.0025213160610821051 0 0.012137166907142876 -0.0026311174404588908 0 0.012091074089585615 -0.0025343649963130445 0 0.012137166907142876 -0.0026311174404588908 0 0.012025239420662815 -0.0026409968402112708 0 0.012091074089585615 -0.0025343649963130445 0 0.012025239420662815 -0.0026409968402112708 0 0.012091074089585615 -0.0025343649963130445 0 0.011919716060524459 -0.0025237266600812479 0 0.012038514831154484 -0.0024358152239724543 0 0.011963239885142352 -0.002355385969974868 0 0.011919716060524459 -0.0025237266600812479 0 0.012091074089585615 -0.0025343649963130445 0 0.012038514831154484 -0.0024358152239724543 0 0.011919716060524459 -0.0025237266600812479 0 0.012195920587344807 -0.0025213160610821051 0 0.012091074089585615 -0.0025343649963130445 0 0.012122754141908651 -0.0024323789483665552 0 0.012091074089585615 -0.0025343649963130445 0 0.012038514831154484 -0.0024358152239724543 0 0.012122754141908651 -0.0024323789483665552 0 0.012038514831154484 -0.0024358152239724543 0 0.012122754141908651 -0.0024323789483665552 0 0.012069410182501702 -0.0023584691022683832 0 0.01219417705893169 -0.0023302063228257991 0 0.012022846703940096 -0.002236042648915095 0 0.012042550396071505 -0.0019973933862525196 0 0.01021122798743565 -0.0010868929931238454 0 0.010028064001017984 -0.00086062211820165193 0 0.01219417705893169 -0.0023302063228257991 0 0.012069410182501702 -0.0023584691022683832 0 0.012022846703940096 -0.002236042648915095 0 0.01219417705893169 -0.0023302063228257991 0 0.012122754141908651 -0.0024323789483665552 0 0.012069410182501702 -0.0023584691022683832 0 0.012069410182501702 -0.0023584691022683832 0 0.011963239885142352 -0.002355385969974868 0 0.012022846703940096 -0.002236042648915095 0 0.011963239885142352 -0.002355385969974868 0 0.012022846703940096 -0.002236042648915095 0 0.011893175851631533 -0.0022658368560377535 0 0.012038514831154484 -0.0024358152239724543 0 0.012069410182501702 -0.0023584691022683832 0 0.011963239885142352 -0.002355385969974868 0 0.011760198679936525 -0.0022586065586988327 0 0.011893175851631533 -0.0022658368560377535 0 0.011872959832772602 -0.0021124430038323046 0 0.012022846703940096 -0.002236042648915095 0 0.011893175851631533 -0.0022658368560377535 0 0.011872959832772602 -0.0021124430038323046 0 0.011963239885142352 -0.002355385969974868 0 0.011893175851631533 -0.0022658368560377535 0 0.0118448777436674 -0.002373685196282021 0 0.011760198679936525 -0.0022586065586988327 0 0.0118448777436674 -0.002373685196282021 0 0.011722909284776544 -0.0024654882424059131 0 0.011760198679936525 -0.0022586065586988327 0 0.011893175851631533 -0.0022658368560377535 0 0.0118448777436674 -0.002373685196282021 0 0.0118448777436674 -0.002373685196282021 0 0.011919716060524459 -0.0025237266600812479 0 0.011722909284776544 -0.0024654882424059131 0 0.011963239885142352 -0.002355385969974868 0 0.0118448777436674 -0.002373685196282021 0 0.011919716060524459 -0.0025237266600812479 0 0.011904061189533671 -0.002725554926516131 0 0.011919716060524459 -0.0025237266600812479 0 0.011754886415540521 -0.0026315192756246101 0 0.011919716060524459 -0.0025237266600812479 0 0.011754886415540521 -0.0026315192756246101 0 0.011722909284776544 -0.0024654882424059131 0 0.011545803165505219 -0.0026137795043345447 0 0.011722909284776544 -0.0024654882424059131 0 0.011584438401020618 -0.0023239068362952585 0 0.011754886415540521 -0.0026315192756246101 0 0.011545803165505219 -0.0026137795043345447 0 0.011722909284776544 -0.0024654882424059131 0 0.011760198679936525 -0.0022586065586988327 0 0.011722909284776544 -0.0024654882424059131 0 0.011584438401020618 -0.0023239068362952585 0 0.011760198679936525 -0.0022586065586988327 0 0.011584438401020618 -0.0023239068362952585 0 0.011643180754727374 -0.0020556825934222099 0 0.011362018438269334 -0.0024151507738085424 0 0.011289488106556712 -0.0020486186156184185 0 0.0110841174604957 -0.0023683829679256364 0 0.011584438401020618 -0.0023239068362952585 0 0.011362018438269334 -0.0024151507738085424 0 0.011289488106556712 -0.0020486186156184185 0 0.011545803165505219 -0.0026137795043345447 0 0.011362018438269334 -0.0024151507738085424 0 0.011275789686455529 -0.0026513732778240713 0 0.011545803165505219 -0.0026137795043345447 0 0.011584438401020618 -0.0023239068362952585 0 0.011362018438269334 -0.0024151507738085424 0 0.011545803165505219 -0.0026137795043345447 0 0.011417590761328365 -0.0028043213507411009 0 0.011275789686455529 -0.0026513732778240713 0 0.011754886415540521 -0.0026315192756246101 0 0.011545803165505219 -0.0026137795043345447 0 0.011651175075753237 -0.0028158242287190066 0 0.011545803165505219 -0.0026137795043345447 0 0.011417590761328365 -0.0028043213507411009 0 0.011651175075753237 -0.0028158242287190066 0 0.011653620729712846 -0.0030133458430587844 0 0.011651175075753237 -0.0028158242287190066 0 0.011495966980720774 -0.0029460747326620772 0 0.011653620729712846 -0.0030133458430587844 0 0.011809215404108052 -0.0029200629684844222 0 0.011651175075753237 -0.0028158242287190066 0 0.011417590761328365 -0.0028043213507411009 0 0.011651175075753237 -0.0028158242287190066 0 0.011495966980720774 -0.0029460747326620772 0 0.011417590761328365 -0.0028043213507411009 0 0.011495966980720774 -0.0029460747326620772 0 0.011341827708719136 -0.0029742348833114662 0 0.011513717359892248 -0.0030742315322765073 0 0.011495966980720774 -0.0029460747326620772 0 0.011341827708719136 -0.0029742348833114662 0 0.0087870760042173014 -9.8206211598002088e-05 0 0.0088244295062875136 1.1009771311306585e-05 0 0.0088464782675070647 2.8322621831146761e-06 0 0.0087870760042173014 -9.8206211598002088e-05 0 0.0088464782675070647 2.8322621831146761e-06 0 0.009089608212317352 -6.5397869489083947e-05 0 0.0092457424602931156 -0.00013634847200632942 0 0.010539748969432756 -1.1750932661964477e-05 0 0.0087870760042173014 -9.8206211598002088e-05 0 0.0088860144275825677 0.00011090079037260622 0 0.0088244295062875136 1.1009771311306585e-05 0 0.0087870760042173014 -9.8206211598002088e-05 0 0.0088860144275825677 0.00011090079037260622 0 0.009024347064196173 0.00038517460354726697 0 0.0088860144275825677 0.00011090079037260622 0 0.0088244295062875136 1.1009771311306585e-05 0 0.0088272083994673563 -1.1532511100680988e-05 0 0.0088860144275825677 0.00011090079037260622 0 0.0088272083994673563 -1.1532511100680988e-05 0 0.0089427415731022711 8.0976965098152357e-06 0 0.0088272083994673563 -1.1532511100680988e-05 0 0.0088502209195287177 -9.6823410275912437e-05 0 0.0089427415731022711 8.0976965098152357e-06 0 0.0088272083994673563 -1.1532511100680988e-05 0 0.0088502209195287177 -9.6823410275912437e-05 0 0.0087879689957185408 -4.1649718058400426e-05 0 0.0088464782675070647 2.8322621831146761e-06 0 0.0088509747020675388 1.9124487346745694e-05 0 0.0087879689957185408 -4.1649718058400426e-05 0 0.0088464782675070647 2.8322621831146761e-06 0 0.0088509747020675388 1.9124487346745694e-05 0 0.0090579483148577923 1.0848843820620742e-05 0 0.0088272083994673563 -1.1532511100680988e-05 0 0.0088464782675070647 2.8322621831146761e-06 0 0.0087879689957185408 -4.1649718058400426e-05 0 0.0088244295062875136 1.1009771311306585e-05 0 0.0088272083994673563 -1.1532511100680988e-05 0 0.0088464782675070647 2.8322621831146761e-06 0 0.0088509747020675388 1.9124487346745694e-05 0 0.0090579483148577923 1.0848843820620742e-05 0 0.0088965688376644349 6.0662329971028159e-05 0 0.0090579483148577923 1.0848843820620742e-05 0 0.0093416407253642461 7.3567547086476109e-06 0 0.0088965688376644349 6.0662329971028159e-05 0 0.0088464782675070647 2.8322621831146761e-06 0 0.0090579483148577923 1.0848843820620742e-05 0 0.009089608212317352 -6.5397869489083947e-05 0 0.0090579483148577923 1.0848843820620742e-05 0 0.0093416407253642461 7.3567547086476109e-06 0 0.00934291006503234 -6.2390234688984396e-05 0 0.0096013164407742213 6.8320867733208343e-08 0 0.0093416407253642461 7.3567547086476109e-06 0 0.0088965688376644349 6.0662329971028159e-05 0 0.0096013164407742213 6.8320867733208343e-08 0 0.0093416407253642461 7.3567547086476109e-06 0 0.0099063947396694427 -4.8441585791619374e-05 0 0.0096013164407742213 6.8320867733208343e-08 0 0.0099063947396694427 -4.8441585791619374e-05 0 0.010397101311319023 -2.8245094720901034e-07 0 0.0099063947396694427 -4.8441585791619374e-05 0 0.0095563093128469053 -0.0003279375794237556 0 0.0097305629113221964 -0.00068725738534451642 0 0.0093416407253642461 7.3567547086476109e-06 0 0.0099063947396694427 -4.8441585791619374e-05 0 0.00934291006503234 -6.2390234688984396e-05 0 0.0099063947396694427 -4.8441585791619374e-05 0 0.00934291006503234 -6.2390234688984396e-05 0 0.0095563093128469053 -0.0003279375794237556 0 0.0092457424602931156 -0.00013634847200632942 0 0.0093389483010546358 -0.00018370768715743273 0 0.0087870760042173014 -9.8206211598002088e-05 0 0.0095563093128469053 -0.0003279375794237556 0 0.009089608212317352 -6.5397869489083947e-05 0 0.00934291006503234 -6.2390234688984396e-05 0 0.0095563093128469053 -0.0003279375794237556 0 0.009089608212317352 -6.5397869489083947e-05 0 0.0090579483148577923 1.0848843820620742e-05 0 0.00934291006503234 -6.2390234688984396e-05 0 0.009089608212317352 -6.5397869489083947e-05 0 0.0095563093128469053 -0.0003279375794237556 0 0.0091169924180209781 -0.00057799717688519021 0 0.0094072007710846867 -0.00066227147286489739 0 0.0088483881818492548 -0.00040181463641705476 0 0.0095563093128469053 -0.0003279375794237556 0 0.0091169924180209781 -0.00057799717688519021 0 0.0094072007710846867 -0.00066227147286489739 0 0.0094945960137316574 -0.0008303805522026184 0 0.0091511118094612185 -0.00085301640471008408 0 0.0091169924180209781 -0.00057799717688519021 0 0.0094072007710846867 -0.00066227147286489739 0 0.0091511118094612185 -0.00085301640471008408 0 0.01083530448466585 -4.0580120235626008e-05 0 0.010937142313698085 -0.00013479090730668779 0 0.0099063947396694427 -4.8441585791619374e-05 0 0.010397101311319023 -2.8245094720901034e-07 0 0.010610833872290637 6.6281112311172631e-06 0 0.010397101311319023 -2.8245094720901034e-07 0 0.010610833872290637 6.6281112311172631e-06 0 0.011192155037115698 1.2046797124240809e-07 0 0.0095563093128469053 -0.0003279375794237556 0 0.0094072007710846867 -0.00066227147286489739 0 0.0097305629113221964 -0.00068725738534451642 0 0.0094072007710846867 -0.00066227147286489739 0 0.0097305629113221964 -0.00068725738534451642 0 0.0094945960137316574 -0.0008303805522026184 0 0.0097305629113221964 -0.00068725738534451642 0 0.0094945960137316574 -0.0008303805522026184 0 0.0096956780349669886 -0.0011126206501937688 0 0.010937142313698085 -0.00013479090730668779 0 0.011234672368206572 -0.00023576519180629329 0 0.0094945960137316574 -0.0008303805522026184 0 0.0096956780349669886 -0.0011126206501937688 0 0.0091511118094612185 -0.00085301640471008408 0 0.010610833872290637 6.6281112311172631e-06 0 0.01105140593430998 -6.8491417654968864e-06 0 0.011192155037115698 1.2046797124240809e-07 0 0.011234672368206572 -0.00023576519180629329 0 0.011192336199171635 -1.6340013517981353e-06 0 0.013625490756515262 -0.00057632342937245491 0 0.013405678667530207 -0.00069695595865765529 0 0.013735211647165754 -0.00072320197386100142 0 0.011234672368206572 -0.00023576519180629329 0 0.01136939031844437 -0.00044384772613316605 0 0.013625490756515262 -0.00057632342937245491 0 0.013735211647165754 -0.00072320197386100142 0 0.013920960060930692 -0.0005572761286897251 0 0.013920960060930692 -0.0005572761286897251 0 0.013955842116597547 -0.00060844664888850435 0 0.014098898686847293 -0.0005390250086374491 0 0.013735211647165754 -0.00072320197386100142 0 0.013920960060930692 -0.0005572761286897251 0 0.013955842116597547 -0.00060844664888850435 0 0.013735211647165754 -0.00072320197386100142 0 0.013955842116597547 -0.00060844664888850435 0 0.014048780614429044 -0.00061831843999010031 0 0.01136939031844437 -0.00044384772613316605 0 0.011174722978542606 -0.00036484744270077948 0 0.0091169924180209781 -0.00057799717688519021 0 0.0091511118094612185 -0.00085301640471008408 0 0.0086700175734579013 -0.00060755951303146662 0 0.0088483881818492548 -0.00040181463641705476 0 0.0091169924180209781 -0.00057799717688519021 0 0.0086700175734579013 -0.00060755951303146662 0 0.011174722978542606 -0.00036484744270077948 0 0.010539748969432756 -1.1750932661964477e-05 0 0.014048780614429044 -0.00061831843999010031 0 0.014098898686847293 -0.0005390250086374491 0 0.014211739321994755 -0.00045413046949262128 0 0.0088483881818492548 -0.00040181463641705476 0 0.0086700175734579013 -0.00060755951303146662 0 0.0082359787422967949 -0.00040996565490307511 0 0.014123633482722222 -0.00045065842874819395 0 0.014098898686847293 -0.0005390250086374491 0 0.014205152196986029 -0.00045133591124342851 0 0.014123633482722222 -0.00045065842874819395 0 0.013920960060930692 -0.0005572761286897251 0 0.014098898686847293 -0.0005390250086374491 0 0.013955842116597547 -0.00060844664888850435 0 0.014048780614429044 -0.00061831843999010031 0 0.014098898686847293 -0.0005390250086374491 0 0.014256205691993472 -0.00041945556515542208 0 0.014205152196986029 -0.00045133591124342851 0 0.014246757403383976 -0.0003855444174608288 0 0.014323249078382613 -0.00038099145409367359 0 0.014296919627152462 -0.00034531407981831103 0 0.014325352874963794 -0.00040703360681056778 0 0.014246757403383976 -0.0003855444174608288 0 0.014221022999936434 -0.00029963656060452758 0 0.014232136003947616 -0.0003354627756412097 0 0.014220607134872791 -0.00019022290716360669 0 0.014211739321994755 -0.00045413046949262128 0 0.014246757403383976 -0.0003855444174608288 0 0.014221022999936434 -0.00029963656060452758 0 0.014232136003947616 -0.0003354627756412097 0 0.014221022999936434 -0.00029963656060452758 0 0.014232136003947616 -0.0003354627756412097 0 0.014220607134872791 -0.00019022290716360669 0 0.014098898686847293 -0.0005390250086374491 0 0.014205152196986029 -0.00045133591124342851 0 0.014211739321994755 -0.00045413046949262128 0 0.014205152196986029 -0.00045133591124342851 0 0.014246757403383976 -0.0003855444174608288 0 0.014211739321994755 -0.00045413046949262128 0 0.014246757403383976 -0.0003855444174608288 0 0.014232136003947616 -0.0003354627756412097 0 0.014211739321994755 -0.00045413046949262128 0 0.013968921664165948 -0.00039424862436148741 0 0.014141579703319283 -0.0004136731178350729 0 0.014049276358479029 -0.00020246485220466346 0 0.013968921664165948 -0.00039424862436148741 0 0.01375421993549104 -0.00012391969059671591 0 0.014049276358479029 -0.00020246485220466346 0 0.014240135683429066 -0.00053932703145383501 0 0.014221022999936434 -0.00029963656060452758 0 0.014141579703319283 -0.0004136731178350729 0 0.014221022999936434 -0.00029963656060452758 0 0.014141579703319283 -0.0004136731178350729 0 0.014049276358479029 -0.00020246485220466346 0 0.014221022999936434 -0.00029963656060452758 0 0.014120646624646729 -0.00013895970114785697 0 0.014049276358479029 -0.00020246485220466346 0 0.014120646624646729 -0.00013895970114785697 0 0.013930869154889071 0.00017191581681661917 0 0.014220607134872791 -0.00019022290716360669 0 0.014221022999936434 -0.00029963656060452758 0 0.014120646624646729 -0.00013895970114785697 0 0.014220607134872791 -0.00019022290716360669 0 0.01375421993549104 -0.00012391969059671591 0 0.014049276358479029 -0.00020246485220466346 0 0.013930869154889071 0.00017191581681661917 0 0.014120646624646729 -0.00013895970114785697 0 0.014049276358479029 -0.00020246485220466346 0 0.013930869154889071 0.00017191581681661917 0 0.012278169814244014 -0.00011506238944322557 0 0.011661183565539629 0.00092757121901833155 0 0.011462587161712307 9.3132965491478243e-07 0 0.011661183565539629 0.00092757121901833155 0 0.010816866295278553 0.00042186975797413616 0 0.011462587161712307 9.3132965491478243e-07 0 0.011661183565539629 0.00092757121901833155 0 0.010816866295278553 0.00042186975797413616 0 0.010074285107799319 0.0010573862370615846 0 0.01242179993955842 0.00033064059241925861 0 0.011791691967768999 0.00021439317961797387 0 0.010816866295278553 0.00042186975797413616 0 0.010272647351434377 0.00013632089553420259 0 0.0098272436832122657 0.00044963373796379121 0 0.010816866295278553 0.00042186975797413616 0 0.010074285107799319 0.0010573862370615846 0 0.0098272436832122657 0.00044963373796379121 0 0.010272647351434377 0.00013632089553420259 0 0.0108026596308063 -0.00029780028485930691 0 0.010036495179730954 -0.00019233100911050972 0 0.0108026596308063 -0.00029780028485930691 0 0.010036495179730954 -0.00019233100911050972 0 0.01022134087385055 -0.0006886242745384641 0 0.010816866295278553 0.00042186975797413616 0 0.010272647351434377 0.00013632089553420259 0 0.0108026596308063 -0.00029780028485930691 0 0.010816866295278553 0.00042186975797413616 0 0.0108026596308063 -0.00029780028485930691 0 0.011462587161712307 9.3132965491478243e-07 0 0.0108026596308063 -0.00029780028485930691 0 0.011462587161712307 9.3132965491478243e-07 0 0.011813477880609217 -0.00076136025799947854 0 0.012278169814244014 -0.00011506238944322557 0 0.011462587161712307 9.3132965491478243e-07 0 0.011813477880609217 -0.00076136025799947854 0 0.009024347064196173 0.00038517460354726697 0 0.0091843402113621821 -3.7940034260544887e-05 0 0.0089427415731022711 8.0976965098152357e-06 0 0.0088860144275825677 0.00011090079037260622 0 0.009024347064196173 0.00038517460354726697 0 0.0089427415731022711 8.0976965098152357e-06 0 0.009024347064196173 0.00038517460354726697 0 0.0095535362370439102 0.00011399516343521494 0 0.0091843402113621821 -3.7940034260544887e-05 0 0.010539748969432756 -1.1750932661964477e-05 0 0.010023584240083708 0.00022916796350582006 0 0.011791691967768999 0.00021439317961797387 0 0.010539748969432756 -1.1750932661964477e-05 0 0.009024347064196173 0.00038517460354726697 0 0.0098272436832122657 0.00044963373796379121 0 0.0095535362370439102 0.00011399516343521494 0 0.010074285107799319 0.0010573862370615846 0 0.0084899828571374219 0.0010362208267495443 0 0.0098272436832122657 0.00044963373796379121 0 0.010272647351434377 0.00013632089553420259 0 0.0098272436832122657 0.00044963373796379121 0 0.0095535362370439102 0.00011399516343521494 0 0.0095535362370439102 0.00011399516343521494 0 0.0095566606451009516 -0.00026628120888925311 0 0.0091843402113621821 -3.7940034260544887e-05 0 0.010272647351434377 0.00013632089553420259 0 0.0095535362370439102 0.00011399516343521494 0 0.010036495179730954 -0.00019233100911050972 0 0.0095535362370439102 0.00011399516343521494 0 0.010036495179730954 -0.00019233100911050972 0 0.0095566606451009516 -0.00026628120888925311 0 0.010036495179730954 -0.00019233100911050972 0 0.0095566606451009516 -0.00026628120888925311 0 0.01022134087385055 -0.0006886242745384641 0 0.0095566606451009516 -0.00026628120888925311 0 0.0091843402113621821 -3.7940034260544887e-05 0 0.0092009705951604324 -0.00033179260942276391 0 0.0091843402113621821 -3.7940034260544887e-05 0 0.0089609068530958607 -0.00021965801895550011 0 0.0092009705951604324 -0.00033179260942276391 0 0.0091843402113621821 -3.7940034260544887e-05 0 0.0089427415731022711 8.0976965098152357e-06 0 0.0089609068530958607 -0.00021965801895550011 0 0.0088502209195287177 -9.6823410275912437e-05 0 0.0089427415731022711 8.0976965098152357e-06 0 0.0089609068530958607 -0.00021965801895550011 0 0.0089609068530958607 -0.00021965801895550011 0 0.0089040348451680032 -0.00024792904877704857 0 0.0088231995734255036 -0.00014325443741056853 0 0.0089609068530958607 -0.00021965801895550011 0 0.0089040348451680032 -0.00024792904877704857 0 0.0090413157527976292 -0.00045318135031347575 0 0.0089040348451680032 -0.00024792904877704857 0 0.0090413157527976292 -0.00045318135031347575 0 0.0088737670460841325 -0.00019879810759668758 0 0.0089609068530958607 -0.00021965801895550011 0 0.0090413157527976292 -0.00045318135031347575 0 0.0092009705951604324 -0.00033179260942276391 0 0.0095566606451009516 -0.00026628120888925311 0 0.0092009705951604324 -0.00033179260942276391 0 0.0094841610682181565 -0.00064872456933507652 0 0.0090413157527976292 -0.00045318135031347575 0 0.0092009705951604324 -0.00033179260942276391 0 0.0094841610682181565 -0.00064872456933507652 0 0.0095566606451009516 -0.00026628120888925311 0 0.0094841610682181565 -0.00064872456933507652 0 0.01022134087385055 -0.0006886242745384641 0 0.0094841610682181565 -0.00064872456933507652 0 0.01022134087385055 -0.0006886242745384641 0 0.01007232867330129 -0.0011338456232550332 0 0.0094841610682181565 -0.00064872456933507652 0 0.0094821806417864831 -0.0012435358112836644 0 0.01007232867330129 -0.0011338456232550332 0 0.0090413157527976292 -0.00045318135031347575 0 0.0088026195002822213 -0.00033462806288299857 0 0.0088737670460841325 -0.00019879810759668758 0 0.0090460799561325883 -0.00072462156873766162 0 0.009036913596817981 -0.00072826206465275952 0 0.0090413157527976292 -0.00045318135031347575 0 0.0094841610682181565 -0.00064872456933507652 0 0.0094703636097825707 -0.00086968532133963625 0 0.0090448424016309065 -0.00073241112502588882 0 0.009036913596817981 -0.00072826206465275952 0 0.009036913596817981 -0.00072826206465275952 0 0.0094609380834703386 -0.00091513246556958769 0 0.0088651329382004925 -0.00066078509233046825 0 0.0088655535695758275 -0.00069492772792171436 0 0.0088987593529450404 -0.00067703417411509091 0 0.0088026195002822213 -0.00033462806288299857 0 0.0087946407293980362 -0.00013790196793707338 0 0.0088737670460841325 -0.00019879810759668758 0 0.009036913596817981 -0.00072826206465275952 0 0.0087162251992221693 -0.00055145045547318845 0 0.0087946407293980362 -0.00013790196793707338 0 0.0088737670460841325 -0.00019879810759668758 0 0.0087677065978385635 -0.00012118902177742758 0 0.0088737670460841325 -0.00019879810759668758 0 0.0087677065978385635 -0.00012118902177742758 0 0.0087526998155409968 -0.00010791493219134935 0 0.0089040348451680032 -0.00024792904877704857 0 0.0088737670460841325 -0.00019879810759668758 0 0.0087526998155409968 -0.00010791493219134935 0 0.0108026596308063 -0.00029780028485930691 0 0.011813477880609217 -0.00076136025799947854 0 0.011033650967539636 -0.0010367114744486454 0 0.011986165919617606 -0.0015398842454876758 0 0.011571105624185472 -0.0014664168526046495 0 0.011813477880609217 -0.00076136025799947854 0 0.011571105624185472 -0.0014664168526046495 0 0.011033650967539636 -0.0010367114744486454 0 0.011131357527464974 -0.0016347131360503545 0 0.011571105624185472 -0.0014664168526046495 0 0.011813477880609217 -0.00076136025799947854 0 0.011033650967539636 -0.0010367114744486454 0 0.010572803000664164 -0.0012426962378973441 0 0.011033650967539636 -0.0010367114744486454 0 0.01022134087385055 -0.0006886242745384641 0 0.010572803000664164 -0.0012426962378973441 0 0.011033650967539636 -0.0010367114744486454 0 0.011131357527464974 -0.0016347131360503545 0 0.0108026596308063 -0.00029780028485930691 0 0.011033650967539636 -0.0010367114744486454 0 0.01022134087385055 -0.0006886242745384641 0 0.010572803000664164 -0.0012426962378973441 0 0.01007232867330129 -0.0011338456232550332 0 0.010562615076971215 -0.0018271983984226928 0 0.010572803000664164 -0.0012426962378973441 0 0.01022134087385055 -0.0006886242745384641 0 0.01007232867330129 -0.0011338456232550332 0 0.0094821806417864831 -0.0012435358112836644 0 0.01007232867330129 -0.0011338456232550332 0 0.010562615076971215 -0.0018271983984226928 0 0.0094609380834703386 -0.00091513246556958769 0 0.0095070554378385123 -0.00086264081497242865 0 0.0088987593529450404 -0.00067703417411509091 0 0.0089333000247463299 -0.00069346165515550453 0 0.0088991131139954591 -0.00071170692123949213 0 0.0088655535695758275 -0.00069492772792171436 0 0.0088987593529450404 -0.00067703417411509091 0 0.0088991131139954591 -0.00071170692123949213 0 0.010572803000664164 -0.0012426962378973441 0 0.010562615076971215 -0.0018271983984226928 0 0.011131357527464974 -0.0016347131360503545 0 0.010562615076971215 -0.0018271983984226928 0 0.011131357527464974 -0.0016347131360503545 0 0.011515861826253746 -0.0022707525804996657 0 0.011571105624185472 -0.0014664168526046495 0 0.011131357527464974 -0.0016347131360503545 0 0.011515861826253746 -0.0022707525804996657 0 0.011986165919617606 -0.0015398842454876758 0 0.011571105624185472 -0.0014664168526046495 0 0.011515861826253746 -0.0022707525804996657 0 0.0070592661540631015 0.00023225191410485856 0 0.0070145608767774956 0.00021282247287237688 0 0.0070629232945623264 0.0001755898689416355 0 0.0095070554378385123 -0.00086264081497242865 0 0.0086814514980018964 -0.00070786316893844026 0 0.0086814514980018964 -0.00070786316893844026 0 0.0083718094666514632 -0.00048627438703851671 0 0.0070145608767774956 0.00021282247287237688 0 0.0070036009697458535 0.00017330060016119232 0 0.0069611702975031367 0.00018978697147141224 0 0.0070036009697458535 0.00017330060016119232 0 0.0070629232945623264 0.0001755898689416355 0 0.0070196422916682637 0.00013544705143331414 0 0.0070145608767774956 0.00021282247287237688 0 0.0070036009697458535 0.00017330060016119232 0 0.0070629232945623264 0.0001755898689416355 0 0.0070036009697458535 0.00017330060016119232 0 0.0069542715811302695 0.0001221802493993688 0 0.0070196422916682637 0.00013544705143331414 0 0.0087677065978385635 -0.00012118902177742758 0 0.0086385841142875876 -0.00020977418256188878 0 0.0086585520902298461 -0.00010581968626316385 0 0.0087677065978385635 -0.00012118902177742758 0 0.0086585520902298461 -0.00010581968626316385 0 0.0087526998155409968 -0.00010791493219134935 0 0.0087946407293980362 -0.00013790196793707338 0 0.0087677065978385635 -0.00012118902177742758 0 0.0088118405230209074 -0.00015834888252846591 0 0.0088655535695758275 -0.00069492772792171436 0 0.0088991131139954591 -0.00071170692123949213 0 0.0088656584079461562 -0.00072952421342329689 0 0.0087162251992221693 -0.00055145045547318845 0 0.0083718094666514632 -0.00048627438703851671 0 0.0083718094666514632 -0.00048627438703851671 0 0.0079361358353883717 -0.00026542475791246749 0 0.0069680754395722508 -0.00091623879124880974 0 0.0074886595017841307 -0.00063192078844232825 0 0.0069555855636409779 -0.00049232466987852433 0 0.0070036009697458535 0.00017330060016119232 0 0.0069611702975031367 0.00018978697147141224 0 0.0069542715811302695 0.0001221802493993688 0 0.0087677065978385635 -0.00012118902177742758 0 0.0088118405230209074 -0.00015834888252846591 0 0.0086385841142875876 -0.00020977418256188878 0 0.0083718094666514632 -0.00048627438703851671 0 0.008147546994269797 -0.00047059661322514042 0 0.0086385841142875876 -0.00020977418256188878 0 0.0082088003050800658 -8.1886259538509169e-05 0 0.0084986289597067718 -4.4422964779159587e-05 0 0.0086385841142875876 -0.00020977418256188878 0 0.0084986289597067718 -4.4422964779159587e-05 0 0.0086585520902298461 -0.00010581968626316385 0 0.0086385841142875876 -0.00020977418256188878 0 0.0082088003050800658 -8.1886259538509169e-05 0 0.0080031450763954765 -0.00024655526418144384 0 0.0084986289597067718 -4.4422964779159587e-05 0 0.0086079816800572716 -1.709916110611228e-05 0 0.0083845985641309954 8.7589452583000002e-06 0 0.0082088003050800658 -8.1886259538509169e-05 0 0.0084986289597067718 -4.4422964779159587e-05 0 0.0083845985641309954 8.7589452583000002e-06 0 0.0084986289597067718 -4.4422964779159587e-05 0 0.0086585520902298461 -0.00010581968626316385 0 0.0087526998155409968 -0.00010791493219134935 0 0.0087526998155409968 -0.00010791493219134935 0 0.0087307311238721021 -5.8545495702177381e-05 0 0.0086079816800572716 -1.709916110611228e-05 0 0.0087526998155409968 -0.00010791493219134935 0 0.0087307311238721021 -5.8545495702177381e-05 0 0.0088231995734255036 -0.00014325443741056853 0 0.0084986289597067718 -4.4422964779159587e-05 0 0.0087526998155409968 -0.00010791493219134935 0 0.0086079816800572716 -1.709916110611228e-05 0 0.0089040348451680032 -0.00024792904877704857 0 0.0087526998155409968 -0.00010791493219134935 0 0.0088231995734255036 -0.00014325443741056853 0 0.0086079816800572716 -1.709916110611228e-05 0 0.0085978169469145965 3.3536247032938083e-05 0 0.0083845985641309954 8.7589452583000002e-06 0 0.0086079816800572716 -1.709916110611228e-05 0 0.0087242923975691892 1.0840916266161405e-05 0 0.0085978169469145965 3.3536247032938083e-05 0 0.0087307311238721021 -5.8545495702177381e-05 0 0.0086079816800572716 -1.709916110611228e-05 0 0.0087242923975691892 1.0840916266161405e-05 0 0.0087307311238721021 -5.8545495702177381e-05 0 0.0087242923975691892 1.0840916266161405e-05 0 0.0087879689957185408 -4.1649718058400426e-05 0 0.0088509747020675388 1.9124487346745694e-05 0 0.0087242923975691892 1.0840916266161405e-05 0 0.0087879689957185408 -4.1649718058400426e-05 0 0.0088502209195287177 -9.6823410275912437e-05 0 0.0087879689957185408 -4.1649718058400426e-05 0 0.0088231995734255036 -0.00014325443741056853 0 0.0088502209195287177 -9.6823410275912437e-05 0 0.0089609068530958607 -0.00021965801895550011 0 0.0088231995734255036 -0.00014325443741056853 0 0.0087307311238721021 -5.8545495702177381e-05 0 0.0087879689957185408 -4.1649718058400426e-05 0 0.0088231995734255036 -0.00014325443741056853 0 0.0096013164407742213 6.8320867733208343e-08 0 0.0088965688376644349 6.0662329971028159e-05 0 0.0088065193737464579 1.8595631610529425e-07 0 0.0087242923975691892 1.0840916266161405e-05 0 0.0088965688376644349 6.0662329971028159e-05 0 0.0085978169469145965 3.3536247032938083e-05 0 0.0088509747020675388 1.9124487346745694e-05 0 0.0087242923975691892 1.0840916266161405e-05 0 0.0088965688376644349 6.0662329971028159e-05 0 0.0088965688376644349 6.0662329971028159e-05 0 0.0085978169469145965 3.3536247032938083e-05 0 0.0083860173219724686 3.3073147718353913e-05 0 0.0088965688376644349 6.0662329971028159e-05 0 0.0088065193737464579 1.8595631610529425e-07 0 0.0083860173219724686 3.3073147718353913e-05 0 0.0080113177752616782 -1.9485014310247218e-08 0 0.0083860173219724686 3.3073147718353913e-05 0 0.0080579748323000161 -8.2015214156185556e-06 0 0.0088065193737464579 1.8595631610529425e-07 0 0.0080113177752616782 -1.9485014310247218e-08 0 0.0083860173219724686 3.3073147718353913e-05 0 0.0083860173219724686 3.3073147718353913e-05 0 0.0083845985641309954 8.7589452583000002e-06 0 0.0080579748323000161 -8.2015214156185556e-06 0 0.0085978169469145965 3.3536247032938083e-05 0 0.0083860173219724686 3.3073147718353913e-05 0 0.0083845985641309954 8.7589452583000002e-06 0 0.0082088003050800658 -8.1886259538509169e-05 0 0.0083845985641309954 8.7589452583000002e-06 0 0.0080579748323000161 -8.2015214156185556e-06 0 0.0082088003050800658 -8.1886259538509169e-05 0 0.0080579748323000161 -8.2015214156185556e-06 0 0.0077618870999824055 -0.00012329403467155304 0 0.0080113177752616782 -1.9485014310247218e-08 0 0.0080579748323000161 -8.2015214156185556e-06 0 0.0072157939248802131 1.5064230322421708e-07 0 0.0080579748323000161 -8.2015214156185556e-06 0 0.0072157939248802131 1.5064230322421708e-07 0 0.0077618870999824055 -0.00012329403467155304 0 0.0072157939248802131 1.5064230322421708e-07 0 0.0077618870999824055 -0.00012329403467155304 0 0.0072768260285059104 -1.6103779752561393e-05 0 0.0077618870999824055 -0.00012329403467155304 0 0.0072768260285059104 -1.6103779752561393e-05 0 0.0071643580060581219 -9.693562364445542e-05 0 0.0072157939248802131 1.5064230322421708e-07 0 0.0072768260285059104 -1.6103779752561393e-05 0 0.0064223569576539281 -6.7519332440765032e-07 0 0.0074886595017841307 -0.00063192078844232825 0 0.0076391048587681502 -0.00027434576402521219 0 0.0080031450763954765 -0.00024655526418144384 0 0.008147546994269797 -0.00047059661322514042 0 0.0081321137583501204 -0.00042169161839161415 0 0.0082088003050800658 -8.1886259538509169e-05 0 0.0077618870999824055 -0.00012329403467155304 0 0.0080031450763954765 -0.00024655526418144384 0 0.0077618870999824055 -0.00012329403467155304 0 0.0080031450763954765 -0.00024655526418144384 0 0.0079550164670450507 -0.00018092714896234788 0 0.0075166384011470895 -9.7979193322681937e-05 0 0.0074235314241604729 -6.3329979279876119e-05 0 0.0072768260285059104 -1.6103779752561393e-05 0 0.0071643580060581219 -9.693562364445542e-05 0 0.0071587806917451143 -4.1792277641872325e-05 0 0.0076391048587681502 -0.00027434576402521219 0 0.0080031450763954765 -0.00024655526418144384 0 0.0079550164670450507 -0.00018092714896234788 0 0.0076391048587681502 -0.00027434576402521219 0 0.0079550164670450507 -0.00018092714896234788 0 0.007384727209556372 -0.00010631288134795777 0 0.0071643580060581219 -9.693562364445542e-05 0 0.0071587806917451143 -4.1792277641872325e-05 0 0.0068568427022484106 5.675531908293423e-05 0 0.0074235314241604729 -6.3329979279876119e-05 0 0.0071860814170489878 6.867991845936478e-05 0 0.0071587806917451143 -4.1792277641872325e-05 0 0.007041773495189114 0.00011115222093604125 0 0.0068568427022484106 5.675531908293423e-05 0 0.0079550164670450507 -0.00018092714896234788 0 0.0073111165229259919 0.00024991701534702958 0 0.007384727209556372 -0.00010631288134795777 0 0.0071587806917451143 -4.1792277641872325e-05 0 0.007041773495189114 0.00011115222093604125 0 0.0072323946487928828 -0.00014124367213334669 0 0.0065870425399011112 8.1947093461590023e-05 0 0.0064919652993661904 4.1433293958074111e-05 0 0.0058506809162250407 0.00016896257606452615 0 0.0060912663720421078 0.00033267531618019709 0 0.0057535823891174146 0.0001141649770335141 0 0.0058506809162250407 0.00016896257606452615 0 0.0060912663720421078 0.00033267531618019709 0 0.0060462494786340379 0.00011971316508024733 0 0.007041773495189114 0.00011115222093604125 0 0.0068568427022484106 5.675531908293423e-05 0 0.0067675781843356151 0.00012411521709728625 0 0.0065870425399011112 8.1947093461590023e-05 0 0.0066577446109018059 8.2635732815000451e-05 0 0.0060912663720421078 0.00033267531618019709 0 0.0063167393231869729 0.00013976019420934333 0 0.0067675781843356151 0.00012411521709728625 0 0.0060912663720421078 0.00033267531618019709 0 0.0060462494786340379 0.00011971316508024733 0 0.0063167393231869729 0.00013976019420934333 0 0.0064206102157499138 1.080925562934081e-07 0 0.0064919652993661904 4.1433293958074111e-05 0 0.0064193949320372262 -3.0892628795839865e-07 0 0.0057535823891174146 0.0001141649770335141 0 0.0057172700381200861 0.00014590973231322997 0 0.0072768260285059104 -1.6103779752561393e-05 0 0.0064223569576539281 -6.7519332440765032e-07 0 0.0072323946487928828 -0.00014124367213334669 0 0.0072768260285059104 -1.6103779752561393e-05 0 0.0071587806917451143 -4.1792277641872325e-05 0 0.0072323946487928828 -0.00014124367213334669 0 0.0058506809162250407 0.00016896257606452615 0 0.0057535823891174146 0.0001141649770335141 0 0.0057172700381200861 0.00014590973231322997 0 0.0058506809162250407 0.00016896257606452615 0 0.0057172700381200861 0.00014590973231322997 0 0.0057994896044592827 7.6166075363308478e-05 0 0.0064193949320372262 -3.0892628795839865e-07 0 0.0057172700381200861 0.00014590973231322997 0 0.005525981710334864 7.0830116212600149e-07 0 0.0057172700381200861 0.00014590973231322997 0 0.005525981710334864 7.0830116212600149e-07 0 0.0054677843567292033 3.057752556180551e-05 0 0.005525981710334864 7.0830116212600149e-07 0 0.0054677843567292033 3.057752556180551e-05 0 0.0046323912297837359 -1.0275262484487431e-06 0 0.005584381222075387 -0.00031157547819978443 0 0.0054677843567292033 3.057752556180551e-05 0 0.0046323912297837359 -1.0275262484487431e-06 0 0.005584381222075387 -0.00031157547819978443 0 0.0054677843567292033 3.057752556180551e-05 0 0.0058027888486919758 -0.00010923389261273458 0 0.0054677843567292033 3.057752556180551e-05 0 0.0057994896044592827 7.6166075363308478e-05 0 0.0058027888486919758 -0.00010923389261273458 0 0.0057172700381200861 0.00014590973231322997 0 0.0054677843567292033 3.057752556180551e-05 0 0.0057994896044592827 7.6166075363308478e-05 0 0.0058506809162250407 0.00016896257606452615 0 0.0057994896044592827 7.6166075363308478e-05 0 0.0060462494786340379 0.00011971316508024733 0 0.0057994896044592827 7.6166075363308478e-05 0 0.0060462494786340379 0.00011971316508024733 0 0.0060483425951711129 -6.0075801549140101e-05 0 0.0057994896044592827 7.6166075363308478e-05 0 0.0060483425951711129 -6.0075801549140101e-05 0 0.0058027888486919758 -0.00010923389261273458 0 0.0063167393231869729 0.00013976019420934333 0 0.0063015573158795146 1.9079242672850383e-05 0 0.0065013022477157937 6.4171594205353561e-05 0 0.0060462494786340379 0.00011971316508024733 0 0.0063167393231869729 0.00013976019420934333 0 0.0063015573158795146 1.9079242672850383e-05 0 0.0060483425951711129 -6.0075801549140101e-05 0 0.0063015573158795146 1.9079242672850383e-05 0 0.0063399830336428702 -0.00010170870357292573 0 0.0060462494786340379 0.00011971316508024733 0 0.0060483425951711129 -6.0075801549140101e-05 0 0.0063015573158795146 1.9079242672850383e-05 0 0.0063015573158795146 1.9079242672850383e-05 0 0.0063399830336428702 -0.00010170870357292573 0 0.0066176151959876578 3.4110887700392294e-06 0 0.0045682135008203962 0.0002750851301315859 0 0.0051576832054722093 -0.00015353322718392493 0 0.005716819643212607 0.00026117573502939612 0 0.0054240199831989714 -7.2684419247375588e-06 0 0.0058968396916437528 2.3660436206591803e-05 0 0.0063399830336428702 -0.00010170870357292573 0 0.0061140798643004191 -0.0003118922520999585 0 0.0065707968269084092 -0.00015900794353623495 0 0.0060483425951711129 -6.0075801549140101e-05 0 0.0063399830336428702 -0.00010170870357292573 0 0.0061140798643004191 -0.0003118922520999585 0 0.005584381222075387 -0.00031157547819978443 0 0.0058027888486919758 -0.00010923389261273458 0 0.0061140798643004191 -0.0003118922520999585 0 0.0050078174083918172 -2.3175656936143238e-05 0 0.0054240199831989714 -7.2684419247375588e-06 0 0.0060483425951711129 -6.0075801549140101e-05 0 0.0058027888486919758 -0.00010923389261273458 0 0.0061140798643004191 -0.0003118922520999585 0 0.0041200068552448817 -1.339252062740496e-05 0 0.0045682135008203962 0.0002750851301315859 0 0.0043020067060653916 -6.7080158738983724e-05 0 0.0045682135008203962 0.0002750851301315859 0 0.0043020067060653916 -6.7080158738983724e-05 0 0.0051576832054722093 -0.00015353322718392493 0 0.0043020067060653916 -6.7080158738983724e-05 0 0.0051576832054722093 -0.00015353322718392493 0 0.0053811891133864927 -0.00086287830193143968 0 0.0043054295587701668 -2.4622635439815677e-05 0 0.0042147166862330923 -2.6001200563049672e-05 0 0.0042531945762916976 -0.00011949852977285287 0 0.0046250598760844679 -0.00026959643665899709 0 0.0048367460987206092 -0.00041520963178642677 0 0.0043020067060653916 -6.7080158738983724e-05 0 0.0042147166862330923 -2.6001200563049672e-05 0 0.0040753883621801584 5.220608163349013e-05 0 0.0043020067060653916 -6.7080158738983724e-05 0 0.0043054295587701668 -2.4622635439815677e-05 0 0.0042147166862330923 -2.6001200563049672e-05 0 0.0040753883621801584 5.220608163349013e-05 0 0.004057402042618786 -3.2532473260931928e-05 0 0.0038320393605354398 2.5583973433828982e-05 0 0.0042147166862330923 -2.6001200563049672e-05 0 0.0040753883621801584 5.220608163349013e-05 0 0.004057402042618786 -3.2532473260931928e-05 0 0.0040753883621801584 5.220608163349013e-05 0 0.0039337376954082506 4.5402971298030586e-07 0 0.0038320393605354398 2.5583973433828982e-05 0 0.0041200068552448817 -1.339252062740496e-05 0 0.0040753883621801584 5.220608163349013e-05 0 0.004629856734904258 -2.8657767163795704e-07 0 0.0050078174083918172 -2.3175656936143238e-05 0 0.0046316398102205954 -1.0406495472671416e-07 0 0.0040753883621801584 5.220608163349013e-05 0 0.0039337376954082506 4.5402971298030586e-07 0 0.004629856734904258 -2.8657767163795704e-07 0 0.0041200068552448817 -1.339252062740496e-05 0 0.0043020067060653916 -6.7080158738983724e-05 0 0.0040753883621801584 5.220608163349013e-05 0 0.0067352116703338549 -0.00062579884568204761 0 0.006505188879930999 -0.00031078617629795309 0 0.0069446667043259669 -0.00017439298857012308 0 0.0070347060929482836 -0.00062443152010568557 0 0.0067352116703338549 -0.00062579884568204761 0 0.0069446667043259669 -0.00017439298857012308 0 0.0070347060929482836 -0.00062443152010568557 0 0.0069446667043259669 -0.00017439298857012308 0 0.0072805448990855568 -0.00040139059978793124 0 0.0070347060929482836 -0.00062443152010568557 0 0.0068401658360055656 -0.0008977342575089513 0 0.0067352116703338549 -0.00062579884568204761 0 0.0070347060929482836 -0.00062443152010568557 0 0.0073186538986029486 -0.00076261025697982646 0 0.0070756241726290118 -0.00095661644089413303 0 0.0070347060929482836 -0.00062443152010568557 0 0.0068401658360055656 -0.0008977342575089513 0 0.0070756241726290118 -0.00095661644089413303 0 0.0068401658360055656 -0.0008977342575089513 0 0.0067352116703338549 -0.00062579884568204761 0 0.0065543128236936355 -0.00090958250946974529 0 0.0067352116703338549 -0.00062579884568204761 0 0.0065543128236936355 -0.00090958250946974529 0 0.0062892020278559561 -0.00070783052687332492 0 0.0067352116703338549 -0.00062579884568204761 0 0.0062892020278559561 -0.00070783052687332492 0 0.006505188879930999 -0.00031078617629795309 0 0.0065543128236936355 -0.00090958250946974529 0 0.0062892020278559561 -0.00070783052687332492 0 0.006188431791371028 -0.0011997777007390466 0 0.0053811891133864927 -0.00086287830193143968 0 0.0062892020278559561 -0.00070783052687332492 0 0.0058146507789439902 -0.00037412161353172921 0 0.0053811891133864927 -0.00086287830193143968 0 0.0062892020278559561 -0.00070783052687332492 0 0.006188431791371028 -0.0011997777007390466 0 0.0051576832054722093 -0.00015353322718392493 0 0.0058146507789439902 -0.00037412161353172921 0 0.005716819643212607 0.00026117573502939612 0 0.0051576832054722093 -0.00015353322718392493 0 0.0053811891133864927 -0.00086287830193143968 0 0.0058146507789439902 -0.00037412161353172921 0 0.0058146507789439902 -0.00037412161353172921 0 0.006505188879930999 -0.00031078617629795309 0 0.005716819643212607 0.00026117573502939612 0 0.0062892020278559561 -0.00070783052687332492 0 0.0058146507789439902 -0.00037412161353172921 0 0.006505188879930999 -0.00031078617629795309 0 0.0061399206311768149 3.6697149009918429e-05 0 0.0058968396916437528 2.3660436206591803e-05 0 0.006505188879930999 -0.00031078617629795309 0 0.0066604043430342035 5.4114562741237221e-06 0 0.005716819643212607 0.00026117573502939612 0 0.0066604043430342035 5.4114562741237221e-06 0 0.0065707968269084092 -0.00015900794353623495 0 0.0066176151959876578 3.4110887700392294e-06 0 0.0063399830336428702 -0.00010170870357292573 0 0.0065707968269084092 -0.00015900794353623495 0 0.0066176151959876578 3.4110887700392294e-06 0 0.0063167393231869729 0.00013976019420934333 0 0.0065013022477157937 6.4171594205353561e-05 0 0.0067675781843356151 0.00012411521709728625 0 0.0063015573158795146 1.9079242672850383e-05 0 0.0066176151959876578 3.4110887700392294e-06 0 0.0065013022477157937 6.4171594205353561e-05 0 0.0066176151959876578 3.4110887700392294e-06 0 0.0067426814961069614 0.00013454041073967987 0 0.0067675781843356151 0.00012411521709728625 0 0.0066176151959876578 3.4110887700392294e-06 0 0.0065013022477157937 6.4171594205353561e-05 0 0.0067675781843356151 0.00012411521709728625 0 0.0067426814961069614 0.00013454041073967987 0 0.0068966115300354838 9.6411131623796873e-05 0 0.0068882684263803159 0.00014759471961568036 0 0.0066604043430342035 5.4114562741237221e-06 0 0.0066176151959876578 3.4110887700392294e-06 0 0.0067426814961069614 0.00013454041073967987 0 0.0066604043430342035 5.4114562741237221e-06 0 0.0067426814961069614 0.00013454041073967987 0 0.0068966115300354838 9.6411131623796873e-05 0 0.0066604043430342035 5.4114562741237221e-06 0 0.0068966115300354838 9.6411131623796873e-05 0 0.0069446667043259669 -0.00017439298857012308 0 0.006505188879930999 -0.00031078617629795309 0 0.0066604043430342035 5.4114562741237221e-06 0 0.0069446667043259669 -0.00017439298857012308 0 0.0069446667043259669 -0.00017439298857012308 0 0.0070727336279239623 5.5562305222861973e-05 0 0.0071846183249440112 -8.9703307214163971e-05 0 0.0068966115300354838 9.6411131623796873e-05 0 0.0069446667043259669 -0.00017439298857012308 0 0.0070727336279239623 5.5562305222861973e-05 0 0.0068966115300354838 9.6411131623796873e-05 0 0.0070727336279239623 5.5562305222861973e-05 0 0.0070187467098057595 0.00011359412070534079 0 0.0068966115300354838 9.6411131623796873e-05 0 0.006945130305496503 0.00012389727122689273 0 0.0068882684263803159 0.00014759471961568036 0 0.0068966115300354838 9.6411131623796873e-05 0 0.0070187467098057595 0.00011359412070534079 0 0.006945130305496503 0.00012389727122689273 0 0.006945130305496503 0.00012389727122689273 0 0.0069655659841252587 8.574511615327748e-05 0 0.0069902145189497137 9.0911750008662188e-05 0 0.0070187467098057595 0.00011359412070534079 0 0.006945130305496503 0.00012389727122689273 0 0.0069902145189497137 9.0911750008662188e-05 0 0.0070187467098057595 0.00011359412070534079 0 0.0069902145189497137 9.0911750008662188e-05 0 0.0070783726115596392 0.00012113595847641777 0 0.0067426814961069614 0.00013454041073967987 0 0.0068568427022484106 5.675531908293423e-05 0 0.0067675781843356151 0.00012411521709728625 0 0.0070560382108009389 0.00012733525285499545 0 0.0071860814170489878 6.867991845936478e-05 0 0.0073111165229259919 0.00024991701534702958 0 0.0069255305006941945 0.00016727940422924114 0 0.0070635759768310664 0.00016387915617528713 0 0.0067426814961069614 0.00013454041073967987 0 0.0073111165229259919 0.00024991701534702958 0 0.0069255305006941945 0.00016727940422924114 0 0.0069255305006941945 0.00016727940422924114 0 0.0069623221837182385 0.00014419400878892279 0 0.0070635759768310664 0.00016387915617528713 0 0.0067426814961069614 0.00013454041073967987 0 0.0069255305006941945 0.00016727940422924114 0 0.0068882684263803159 0.00014759471961568036 0 0.0069255305006941945 0.00016727940422924114 0 0.0068882684263803159 0.00014759471961568036 0 0.0069623221837182385 0.00014419400878892279 0 0.006945130305496503 0.00012389727122689273 0 0.0068882684263803159 0.00014759471961568036 0 0.0069623221837182385 0.00014419400878892279 0 0.006945130305496503 0.00012389727122689273 0 0.0069623221837182385 0.00014419400878892279 0 0.0069655659841252587 8.574511615327748e-05 0 0.0069655659841252587 8.574511615327748e-05 0 0.0071102411152291576 8.8740897510190985e-05 0 0.0069705154737375241 -1.9198631445352184e-05 0 0.0069623221837182385 0.00014419400878892279 0 0.0070635759768310664 0.00016387915617528713 0 0.0071102411152291576 8.8740897510190985e-05 0 0.0069623221837182385 0.00014419400878892279 0 0.0069655659841252587 8.574511615327748e-05 0 0.0071102411152291576 8.8740897510190985e-05 0 0.0073111165229259919 0.00024991701534702958 0 0.0071102411152291576 8.8740897510190985e-05 0 0.007384727209556372 -0.00010631288134795777 0 0.0073111165229259919 0.00024991701534702958 0 0.0070635759768310664 0.00016387915617528713 0 0.0071102411152291576 8.8740897510190985e-05 0 0.0076391048587681502 -0.00027434576402521219 0 0.007384727209556372 -0.00010631288134795777 0 0.007242247361766178 -0.00028281406229643114 0 0.007384727209556372 -0.00010631288134795777 0 0.0069705154737375241 -1.9198631445352184e-05 0 0.007242247361766178 -0.00028281406229643114 0 0.0071102411152291576 8.8740897510190985e-05 0 0.007384727209556372 -0.00010631288134795777 0 0.0069705154737375241 -1.9198631445352184e-05 0 0.0078048683231417273 -0.00018021380775560855 0 0.0079361358353883717 -0.00026542475791246749 0 0.0069705154737375241 -1.9198631445352184e-05 0 0.0069555855636409779 -0.00049232466987852433 0 0.007242247361766178 -0.00028281406229643114 0 0.0069705154737375241 -1.9198631445352184e-05 0 0.0069542715811302695 0.0001221802493993688 0 0.0070074656707935206 7.7792060148553513e-05 0 0.0074886595017841307 -0.00063192078844232825 0 0.0069555855636409779 -0.00049232466987852433 0 0.007242247361766178 -0.00028281406229643114 0 0.0074886595017841307 -0.00063192078844232825 0 0.0076391048587681502 -0.00027434576402521219 0 0.007242247361766178 -0.00028281406229643114 0 0.0069902145189497137 9.0911750008662188e-05 0 0.0070452532971849984 0.00012085404387380424 0 0.0070783726115596392 0.00012113595847641777 0 0.0069902145189497137 9.0911750008662188e-05 0 0.0070074656707935206 7.7792060148553513e-05 0 0.0070452532971849984 0.00012085404387380424 0 0.0069655659841252587 8.574511615327748e-05 0 0.0069705154737375241 -1.9198631445352184e-05 0 0.0069902145189497137 9.0911750008662188e-05 0 0.0069705154737375241 -1.9198631445352184e-05 0 0.0069902145189497137 9.0911750008662188e-05 0 0.0070074656707935206 7.7792060148553513e-05 0 0.0070074656707935206 7.7792060148553513e-05 0 0.0070196422916682637 0.00013544705143331414 0 0.0070452532971849984 0.00012085404387380424 0 0.0069542715811302695 0.0001221802493993688 0 0.0070074656707935206 7.7792060148553513e-05 0 0.0070196422916682637 0.00013544705143331414 0 0.0070629232945623264 0.0001755898689416355 0 0.0070196422916682637 0.00013544705143331414 0 0.0070452532971849984 0.00012085404387380424 0 0.0070629232945623264 0.0001755898689416355 0 0.0070452532971849984 0.00012085404387380424 0 0.0070869024811788146 0.00015342203747672207 0 0.0070452532971849984 0.00012085404387380424 0 0.0070869024811788146 0.00015342203747672207 0 0.0070953752663076202 0.00013928244673356319 0 0.0070869024811788146 0.00015342203747672207 0 0.0070953752663076202 0.00013928244673356319 0 0.007117962538920589 0.00015738851749170368 0 0.0070953752663076202 0.00013928244673356319 0 0.0070783726115596392 0.00012113595847641777 0 0.0071462257290130227 0.00013866374581348874 0 0.0070452532971849984 0.00012085404387380424 0 0.0070953752663076202 0.00013928244673356319 0 0.0070783726115596392 0.00012113595847641777 0 0.0074171741291045538 5.3071813118118675e-05 0 0.0074320588883060191 7.3090069725187477e-05 0 0.0074321183541382974 6.7865883801560475e-05 0 0.0070953752663076202 0.00013928244673356319 0 0.0071462257290130227 0.00013866374581348874 0 0.007117962538920589 0.00015738851749170368 0 0.00789594805696992 0.00013884038172284969 0 0.008463098203472505 6.6976786803550715e-05 0 0.0074356351624699961 7.5870832264836479e-05 0 0.0074320588883060191 7.3090069725187477e-05 0 0.0074321183541382974 6.7865883801560475e-05 0 0.0074356351624699961 7.5870832264836479e-05 0 0.0074321183541382974 6.7865883801560475e-05 0 0.0074389394483494369 7.0560312354451917e-05 0 0.0074450948294758641 7.779030521352901e-05 0 0.0074389394483494369 7.0560312354451917e-05 0 0.0074511253351727622 6.6332724076544153e-05 0 0.0074354071168601021 6.0431940415103515e-05 0 0.0074511253351727622 6.6332724076544153e-05 0 0.0074475118242552001 5.6773163554402531e-05 0 0.0074389394483494369 7.0560312354451917e-05 0 0.0074354071168601021 6.0431940415103515e-05 0 0.0074511253351727622 6.6332724076544153e-05 0 0.0074321183541382974 6.7865883801560475e-05 0 0.0074389394483494369 7.0560312354451917e-05 0 0.0074354071168601021 6.0431940415103515e-05 0 0.0074615885783682161 8.3963286619007264e-05 0 0.0074832845455243997 5.4628984580211868e-05 0 0.0075085176043862088 3.4719934723578565e-05 0 0.0085105184494766138 0.00011385455922551361 0 0.0081727590518042847 0.00020818742292270562 0 0.0074615885783682161 8.3963286619007264e-05 0 0.0074832845455243997 5.4628984580211868e-05 0 0.0074659408928765816 6.3820092718326298e-05 0 0.0074615885783682161 8.3963286619007264e-05 0 0.0074511253351727622 6.6332724076544153e-05 0 0.0074659408928765816 6.3820092718326298e-05 0 0.0074450948294758641 7.779030521352901e-05 0 0.0074615885783682161 8.3963286619007264e-05 0 0.0074511253351727622 6.6332724076544153e-05 0 0.0074511253351727622 6.6332724076544153e-05 0 0.0074659408928765816 6.3820092718326298e-05 0 0.0074681103341746411 5.9341525539822625e-05 0 0.0074511253351727622 6.6332724076544153e-05 0 0.0074681103341746411 5.9341525539822625e-05 0 0.0074475118242552001 5.6773163554402531e-05 0 0.0074832845455243997 5.4628984580211868e-05 0 0.0074681103341746411 5.9341525539822625e-05 0 0.0074853220870562042 6.190631673027852e-05 0 0.0074832845455243997 5.4628984580211868e-05 0 0.0074659408928765816 6.3820092718326298e-05 0 0.0074681103341746411 5.9341525539822625e-05 0 0.0074504774668961628 5.1250276049174749e-05 0 0.0074719441925035959 6.1257270241143888e-05 0 0.0074647847214912985 3.617092823311483e-05 0 0.0074681103341746411 5.9341525539822625e-05 0 0.0074504774668961628 5.1250276049174749e-05 0 0.0074719441925035959 6.1257270241143888e-05 0 0.0074681103341746411 5.9341525539822625e-05 0 0.0074475118242552001 5.6773163554402531e-05 0 0.0074504774668961628 5.1250276049174749e-05 0 0.0074475118242552001 5.6773163554402531e-05 0 0.0074504774668961628 5.1250276049174749e-05 0 0.007429093222298358 4.8009716397075831e-05 0 0.0074171741291045538 5.3071813118118675e-05 0 0.0074354071168601021 6.0431940415103515e-05 0 0.007429093222298358 4.8009716397075831e-05 0 0.0074171741291045538 5.3071813118118675e-05 0 0.0074321183541382974 6.7865883801560475e-05 0 0.0074354071168601021 6.0431940415103515e-05 0 0.0074354071168601021 6.0431940415103515e-05 0 0.0074475118242552001 5.6773163554402531e-05 0 0.007429093222298358 4.8009716397075831e-05 0 0.007429093222298358 4.8009716397075831e-05 0 0.0074327246305957171 3.2179336588336689e-05 0 0.0073927957474239142 2.4501620510959355e-05 0 0.0074171741291045538 5.3071813118118675e-05 0 0.007429093222298358 4.8009716397075831e-05 0 0.0073927957474239142 2.4501620510959355e-05 0 0.0074504774668961628 5.1250276049174749e-05 0 0.0074327246305957171 3.2179336588336689e-05 0 0.0074647847214912985 3.617092823311483e-05 0 0.0074504774668961628 5.1250276049174749e-05 0 0.007429093222298358 4.8009716397075831e-05 0 0.0074327246305957171 3.2179336588336689e-05 0 0.0074327246305957171 3.2179336588336689e-05 0 0.007442098094881412 8.151401439121591e-06 0 0.0074647847214912985 3.617092823311483e-05 0 0.0074327246305957171 3.2179336588336689e-05 0 0.007442098094881412 8.151401439121591e-06 0 0.0074053193442172429 1.2250696305942273e-05 0 0.007442098094881412 8.151401439121591e-06 0 0.0074053193442172429 1.2250696305942273e-05 0 0.0074111392431039074 -1.7078569669851112e-05 0 0.0076611905927202678 8.9032451739568723e-05 0 0.0076011098161234024 4.8004427080886183e-05 0 0.0074053193442172429 1.2250696305942273e-05 0 0.0073927957474239142 2.4501620510959355e-05 0 0.0073369095386318188 -2.5234343650281662e-05 0 0.0074327246305957171 3.2179336588336689e-05 0 0.0074053193442172429 1.2250696305942273e-05 0 0.0073927957474239142 2.4501620510959355e-05 0 0.007224267181171912 9.9281316083119016e-05 0 0.0071309120533554803 0.00010300765485108697 0 0.0071788323593810332 3.5518985832451135e-05 0 0.007224267181171912 9.9281316083119016e-05 0 0.0071788323593810332 3.5518985832451135e-05 0 0.0073369095386318188 -2.5234343650281662e-05 0 0.0070727336279239623 5.5562305222861973e-05 0 0.0070187467098057595 0.00011359412070534079 0 0.0071309120533554803 0.00010300765485108697 0 0.0070727336279239623 5.5562305222861973e-05 0 0.0071309120533554803 0.00010300765485108697 0 0.0071788323593810332 3.5518985832451135e-05 0 0.0070783726115596392 0.00012113595847641777 0 0.0071462257290130227 0.00013866374581348874 0 0.0071309120533554803 0.00010300765485108697 0 0.0070187467098057595 0.00011359412070534079 0 0.0070783726115596392 0.00012113595847641777 0 0.0071309120533554803 0.00010300765485108697 0 0.0071462257290130227 0.00013866374581348874 0 0.007224267181171912 9.9281316083119016e-05 0 0.0071309120533554803 0.00010300765485108697 0 0.00789594805696992 0.00013884038172284969 0 0.0076611905927202678 8.9032451739568723e-05 0 0.011289488106556712 -0.0020486186156184185 0 0.011499747235675154 -0.0018261132188375994 0 0.01123836413726363 -0.0015612293096085989 0 0.011499747235675154 -0.0018261132188375994 0 0.011572911567820669 -0.0015871534543339672 0 0.01123836413726363 -0.0015612293096085989 0 0.011289488106556712 -0.0020486186156184185 0 0.011643180754727374 -0.0020556825934222099 0 0.011499747235675154 -0.0018261132188375994 0 0.011584438401020618 -0.0023239068362952585 0 0.011289488106556712 -0.0020486186156184185 0 0.011643180754727374 -0.0020556825934222099 0 0.011643180754727374 -0.0020556825934222099 0 0.011499747235675154 -0.0018261132188375994 0 0.011740644627756746 -0.0018676072044898663 0 0.011839976568319621 -0.0016166128147699404 0 0.011740644627756746 -0.0018676072044898663 0 0.011572911567820669 -0.0015871534543339672 0 0.011499747235675154 -0.0018261132188375994 0 0.011740644627756746 -0.0018676072044898663 0 0.011572911567820669 -0.0015871534543339672 0 0.011839976568319621 -0.0016166128147699404 0 0.011740644627756746 -0.0018676072044898663 0 0.012042550396071505 -0.0019973933862525196 0 0.010066125800546898 -0.00069475882116139297 0 0.010028064001017984 -0.00086062211820165193 0 0.007516620087532155 5.1346872862514973e-05 0 0.0074622202680707265 8.2902361491562853e-05 0 0.0074838313799775432 5.1298097076321878e-05 0 0.011643180754727374 -0.0020556825934222099 0 0.011740644627756746 -0.0018676072044898663 0 0.011872959832772602 -0.0021124430038323046 0 0.011740644627756746 -0.0018676072044898663 0 0.011872959832772602 -0.0021124430038323046 0 0.012042550396071505 -0.0019973933862525196 0 0.011760198679936525 -0.0022586065586988327 0 0.011643180754727374 -0.0020556825934222099 0 0.011872959832772602 -0.0021124430038323046 0 0.0076298836690689882 -0.00017002974451396489 0 0.0074622202680707265 8.2902361491562853e-05 0 0.0075085176043862088 3.4719934723578565e-05 0 0.012022846703940096 -0.002236042648915095 0 0.011872959832772602 -0.0021124430038323046 0 0.012042550396071505 -0.0019973933862525196 0 0.0074622202680707265 8.2902361491562853e-05 0 0.0074853220870562042 6.190631673027852e-05 0 0.0074719441925035959 6.1257270241143888e-05 0 0.0074832845455243997 5.4628984580211868e-05 0 0.0075085176043862088 3.4719934723578565e-05 0 0.0074853220870562042 6.190631673027852e-05 0 0.0074622202680707265 8.2902361491562853e-05 0 0.0075085176043862088 3.4719934723578565e-05 0 0.0074853220870562042 6.190631673027852e-05 0 0.0074681103341746411 5.9341525539822625e-05 0 0.0074853220870562042 6.190631673027852e-05 0 0.0074719441925035959 6.1257270241143888e-05 0 0.0074719441925035959 6.1257270241143888e-05 0 0.0074838313799775432 5.1298097076321878e-05 0 0.0074647847214912985 3.617092823311483e-05 0 0.0074622202680707265 8.2902361491562853e-05 0 0.0074719441925035959 6.1257270241143888e-05 0 0.0074838313799775432 5.1298097076321878e-05 0 0.0074838313799775432 5.1298097076321878e-05 0 0.0074647847214912985 3.617092823311483e-05 0 0.007500224774049281 1.4968397653283699e-05 0 0.0074647847214912985 3.617092823311483e-05 0 0.007470915908428662 1.3861142574198997e-05 0 0.007500224774049281 1.4968397653283699e-05 0 0.007442098094881412 8.151401439121591e-06 0 0.0074647847214912985 3.617092823311483e-05 0 0.007470915908428662 1.3861142574198997e-05 0 0.0074771306194480426 -1.136615515274596e-05 0 0.007500224774049281 1.4968397653283699e-05 0 0.0075079191452973619 -3.7064174801725398e-05 0 0.007442098094881412 8.151401439121591e-06 0 0.007470915908428662 1.3861142574198997e-05 0 0.0074771306194480426 -1.136615515274596e-05 0 0.007442098094881412 8.151401439121591e-06 0 0.0074771306194480426 -1.136615515274596e-05 0 0.0074440752657642358 -3.4744403761235822e-05 0 0.007470915908428662 1.3861142574198997e-05 0 0.0074771306194480426 -1.136615515274596e-05 0 0.007500224774049281 1.4968397653283699e-05 0 0.010507905094147422 -0.00077000595654561522 0 0.0095174973637693252 -0.0006235005134641574 0 0.007500224774049281 1.4968397653283699e-05 0 0.0075564573653865595 7.8534458127454955e-06 0 0.0075079191452973619 -3.7064174801725398e-05 0 0.007516620087532155 5.1346872862514973e-05 0 0.007500224774049281 1.4968397653283699e-05 0 0.0075564573653865595 7.8534458127454955e-06 0 0.007516620087532155 5.1346872862514973e-05 0 0.0074838313799775432 5.1298097076321878e-05 0 0.007500224774049281 1.4968397653283699e-05 0 0.011572911567820669 -0.0015871534543339672 0 0.011603367917314878 -0.0012526338565023345 0 0.01123836413726363 -0.0015612293096085989 0 0.011839976568319621 -0.0016166128147699404 0 0.011572911567820669 -0.0015871534543339672 0 0.011603367917314878 -0.0012526338565023345 0 0.010066125800546898 -0.00069475882116139297 0 0.010507905094147422 -0.00077000595654561522 0 0.011157022982110973 -0.00098869143033550777 0 0.011091971098499812 -0.00097774049486790376 0 0.011192457503275128 -0.00090846858442084327 0 0.011157022982110973 -0.00098869143033550777 0 0.011164088817037511 -0.00099733817470109426 0 0.011192457503275128 -0.00090846858442084327 0 0.011157022982110973 -0.00098869143033550777 0 0.011186115604026943 -0.0010074635116174378 0 0.011091971098499812 -0.00097774049486790376 0 0.010514417782506535 -0.00077663341665588686 0 0.010507905094147422 -0.00077000595654561522 0 0.011186115604026943 -0.0010074635116174378 0 0.011091971098499812 -0.00097774049486790376 0 0.011003279296209208 -0.0010679662496986646 0 0.011091971098499812 -0.00097774049486790376 0 0.010893728717629414 -0.00087880865660770063 0 0.010969652380193397 -0.00068735450763792534 0 0.011091971098499812 -0.00097774049486790376 0 0.010893728717629414 -0.00087880865660770063 0 0.011003279296209208 -0.0010679662496986646 0 0.010893728717629414 -0.00087880865660770063 0 0.011003279296209208 -0.0010679662496986646 0 0.010748928869966527 -0.00099473371892957259 0 0.011186115604026943 -0.0010074635116174378 0 0.011003279296209208 -0.0010679662496986646 0 0.011003727463478264 -0.0013350709043480852 0 0.011003279296209208 -0.0010679662496986646 0 0.011003727463478264 -0.0013350709043480852 0 0.010748928869966527 -0.00099473371892957259 0 0.010507905094147422 -0.00077000595654561522 0 0.010745554441891098 -0.001179392601675711 0 0.011154543527290057 -0.00017119174258495602 0 0.010900333876987621 -0.0003624531592723485 0 0.010499221209532301 0.00021803449685335464 0 0.011154543527290057 -0.00017119174258495602 0 0.011405823667558383 1.1770566488855547e-05 0 0.010499221209532301 0.00021803449685335464 0 0.011154543527290057 -0.00017119174258495602 0 0.010900333876987621 -0.0003624531592723485 0 0.01116157535230276 -0.00045253211130934749 0 0.010900333876987621 -0.0003624531592723485 0 0.010969652380193397 -0.00068735450763792534 0 0.010640906901743226 -0.00057107230863979899 0 0.010893728717629414 -0.00087880865660770063 0 0.010969652380193397 -0.00068735450763792534 0 0.010640906901743226 -0.00057107230863979899 0 0.011091971098499812 -0.00097774049486790376 0 0.010969652380193397 -0.00068735450763792534 0 0.011248274027568093 -0.0006870814922773984 0 0.010900333876987621 -0.0003624531592723485 0 0.010969652380193397 -0.00068735450763792534 0 0.01116157535230276 -0.00045253211130934749 0 0.010969652380193397 -0.00068735450763792534 0 0.01116157535230276 -0.00045253211130934749 0 0.011248274027568093 -0.0006870814922773984 0 0.011091971098499812 -0.00097774049486790376 0 0.011248274027568093 -0.0006870814922773984 0 0.01163107443186563 -0.00056040320834126612 0 0.01116157535230276 -0.00045253211130934749 0 0.011371204434756669 -0.0005051300909100718 0 0.011446363211016407 -0.00031650456344053235 0 0.010778236497880475 -0.00041170321655639567 0 0.010644041731231707 -0.00024796140280619556 0 0.01116157535230276 -0.00045253211130934749 0 0.011371204434756669 -0.0005051300909100718 0 0.011248274027568093 -0.0006870814922773984 0 0.011371204434756669 -0.0005051300909100718 0 0.011248274027568093 -0.0006870814922773984 0 0.01163107443186563 -0.00056040320834126612 0 0.011371204434756669 -0.0005051300909100718 0 0.011446363211016407 -0.00031650456344053235 0 0.01163107443186563 -0.00056040320834126612 0 0.011446363211016407 -0.00031650456344053235 0 0.011625145265334782 -0.00032029015121961667 0 0.01163107443186563 -0.00056040320834126612 0 0.011446363211016407 -0.00031650456344053235 0 0.011633629203028779 -0.00016187848177211912 0 0.011625145265334782 -0.00032029015121961667 0 0.011154543527290057 -0.00017119174258495602 0 0.01116157535230276 -0.00045253211130934749 0 0.011446363211016407 -0.00031650456344053235 0 0.011154543527290057 -0.00017119174258495602 0 0.011446363211016407 -0.00031650456344053235 0 0.011439170686973397 -0.00014791819964068864 0 0.011154543527290057 -0.00017119174258495602 0 0.011439170686973397 -0.00014791819964068864 0 0.011405823667558383 1.1770566488855547e-05 0 0.011439170686973397 -0.00014791819964068864 0 0.011633629203028779 -0.00016187848177211912 0 0.011405823667558383 1.1770566488855547e-05 0 0.011446363211016407 -0.00031650456344053235 0 0.011439170686973397 -0.00014791819964068864 0 0.011633629203028779 -0.00016187848177211912 0 0.011633629203028779 -0.00016187848177211912 0 0.01178782629684285 -0.00024118708301473543 0 0.012145648746662496 -8.8294352564425427e-05 0 0.011633629203028779 -0.00016187848177211912 0 0.012145648746662496 -8.8294352564425427e-05 0 0.011405823667558383 1.1770566488855547e-05 0 0.0094230376520896379 -0.0002942627182666412 0 0.009772601314197606 1.5582625831436364e-05 0 0.01178782629684285 -0.00024118708301473543 0 0.01163107443186563 -0.00056040320834126612 0 0.012145648746662496 -8.8294352564425427e-05 0 0.010644041731231707 -0.00024796140280619556 0 0.0094230376520896379 -0.0002942627182666412 0 0.01178782629684285 -0.00024118708301473543 0 0.011625145265334782 -0.00032029015121961667 0 0.01163107443186563 -0.00056040320834126612 0 0.011633629203028779 -0.00016187848177211912 0 0.01178782629684285 -0.00024118708301473543 0 0.011625145265334782 -0.00032029015121961667 0 0.011192457503275128 -0.00090846858442084327 0 0.0112138018019087 -0.00091297868802369005 0 0.011214031211443598 -0.00088736478445571271 0 0.011164088817037511 -0.00099733817470109426 0 0.011192457503275128 -0.00090846858442084327 0 0.0112138018019087 -0.00091297868802369005 0 0.0075079191452973619 -3.7064174801725398e-05 0 0.0074691280165736038 -4.6624074503267738e-05 0 0.0074467948173307557 -0.00011230105087358714 0 0.0074771306194480426 -1.136615515274596e-05 0 0.0075079191452973619 -3.7064174801725398e-05 0 0.0074691280165736038 -4.6624074503267738e-05 0 0.0074771306194480426 -1.136615515274596e-05 0 0.0074691280165736038 -4.6624074503267738e-05 0 0.0074440752657642358 -3.4744403761235822e-05 0 0.0095174973637693252 -0.0006235005134641574 0 0.0087402011978827635 -0.00049751405076884085 0 0.0112138018019087 -0.00091297868802369005 0 0.011214031211443598 -0.00088736478445571271 0 0.011220308292545313 -0.00088716465184246604 0 0.0094230376520896379 -0.0002942627182666412 0 0.0087402011978827635 -0.00049751405076884085 0 0.0080481206412818373 0.00039622745200881403 0 0.0080231477259349038 0.00032114490952428123 0 0.0078524004384111119 0.00033184767845524454 0 0.0080719238280869531 0.00052856958911168923 0 0.0080481206412818373 0.00039622745200881403 0 0.0078524004384111119 0.00033184767845524454 0 0.0080719238280869531 0.00052856958911168923 0 0.0080481206412818373 0.00039622745200881403 0 0.0081576001465136112 0.00043926131199254441 0 0.0081366347811191279 0.00036028877855941854 0 0.0080481206412818373 0.00039622745200881403 0 0.0081576001465136112 0.00043926131199254441 0 0.0081366347811191279 0.00036028877855941854 0 0.0080481206412818373 0.00039622745200881403 0 0.0080231477259349038 0.00032114490952428123 0 0.0080231477259349038 0.00032114490952428123 0 0.0081073381683627252 0.00025635876976505567 0 0.0079630820018276177 0.00021121797922956189 0 0.0081073381683627252 0.00025635876976505567 0 0.0079630820018276177 0.00021121797922956189 0 0.0081122149904912979 0.00013309765519245724 0 0.0081366347811191279 0.00036028877855941854 0 0.0080231477259349038 0.00032114490952428123 0 0.0081073381683627252 0.00025635876976505567 0 0.0081366347811191279 0.00036028877855941854 0 0.0081073381683627252 0.00025635876976505567 0 0.0082247893069869911 0.00031837324414143374 0 0.0081073381683627252 0.00025635876976505567 0 0.0082247893069869911 0.00031837324414143374 0 0.0082170631595451047 0.00020900883735397509 0 0.0081073381683627252 0.00025635876976505567 0 0.0082170631595451047 0.00020900883735397509 0 0.0081122149904912979 0.00013309765519245724 0 0.0082170631595451047 0.00020900883735397509 0 0.0083295333372227099 0.00028340162059396578 0 0.0083193231814321696 0.00016690312628386163 0 0.0082170631595451047 0.00020900883735397509 0 0.0083193231814321696 0.00016690312628386163 0 0.0082416077849748748 9.7030161226324322e-05 0 0.0082247893069869911 0.00031837324414143374 0 0.0082170631595451047 0.00020900883735397509 0 0.0083295333372227099 0.00028340162059396578 0 0.0080719238280869531 0.00052856958911168923 0 0.0082586620652279289 0.00044532812997472482 0 0.0084125296877149165 0.00049561183995788924 0 0.0082247893069869911 0.00031837324414143374 0 0.0083075663928791916 0.00038015409329298928 0 0.0083295333372227099 0.00028340162059396578 0 0.0080719238280869531 0.00052856958911168923 0 0.0081576001465136112 0.00043926131199254441 0 0.0082586620652279289 0.00044532812997472482 0 0.0083075663928791916 0.00038015409329298928 0 0.0082301085423971253 0.00039242298106578684 0 0.0082586620652279289 0.00044532812997472482 0 0.0082247893069869911 0.00031837324414143374 0 0.0083075663928791916 0.00038015409329298928 0 0.0082301085423971253 0.00039242298106578684 0 0.0081366347811191279 0.00036028877855941854 0 0.0082301085423971253 0.00039242298106578684 0 0.0081576001465136112 0.00043926131199254441 0 0.0081366347811191279 0.00036028877855941854 0 0.0082247893069869911 0.00031837324414143374 0 0.0082301085423971253 0.00039242298106578684 0 0.0082301085423971253 0.00039242298106578684 0 0.0081576001465136112 0.00043926131199254441 0 0.0082586620652279289 0.00044532812997472482 0 0.0083075663928791916 0.00038015409329298928 0 0.0082586620652279289 0.00044532812997472482 0 0.0083740329879409339 0.00043571101031379835 0 0.0082586620652279289 0.00044532812997472482 0 0.0083740329879409339 0.00043571101031379835 0 0.0084125296877149165 0.00049561183995788924 0 0.0083740329879409339 0.00043571101031379835 0 0.0084108869879724098 0.0004482916088043249 0 0.0084109092980134345 0.00041183673814427151 0 0.0083740329879409339 0.00043571101031379835 0 0.0084108869879724098 0.0004482916088043249 0 0.0084125296877149165 0.00049561183995788924 0 0.0084109092980134345 0.00041183673814427151 0 0.008446105986650616 0.00045455617426853304 0 0.0084460668818103837 0.00035615291361837777 0 0.0084108869879724098 0.0004482916088043249 0 0.0084125296877149165 0.00049561183995788924 0 0.008446105986650616 0.00045455617426853304 0 0.0084108869879724098 0.0004482916088043249 0 0.0084109092980134345 0.00041183673814427151 0 0.008446105986650616 0.00045455617426853304 0 0.0084109092980134345 0.00041183673814427151 0 0.0084460668818103837 0.00035615291361837777 0 0.0083812965430691173 0.00036125407090485646 0 0.0084460668818103837 0.00035615291361837777 0 0.0083812965430691173 0.00036125407090485646 0 0.0084103960100704953 0.00029923470928916625 0 0.0083075663928791916 0.00038015409329298928 0 0.0083812965430691173 0.00036125407090485646 0 0.0083295333372227099 0.00028340162059396578 0 0.0083740329879409339 0.00043571101031379835 0 0.0084109092980134345 0.00041183673814427151 0 0.0083812965430691173 0.00036125407090485646 0 0.0083075663928791916 0.00038015409329298928 0 0.0083740329879409339 0.00043571101031379835 0 0.0083812965430691173 0.00036125407090485646 0 0.0083295333372227099 0.00028340162059396578 0 0.0084114137755488191 0.00021101055211395953 0 0.0084103960100704953 0.00029923470928916625 0 0.0083812965430691173 0.00036125407090485646 0 0.0083295333372227099 0.00028340162059396578 0 0.0084103960100704953 0.00029923470928916625 0 0.0083295333372227099 0.00028340162059396578 0 0.0083193231814321696 0.00016690312628386163 0 0.0084114137755488191 0.00021101055211395953 0 0.0084114137755488191 0.00021101055211395953 0 0.0084782913738151149 0.00027269015971240456 0 0.0085133051463622666 0.00020557913108239047 0 0.0084460668818103837 0.00035615291361837777 0 0.0084103960100704953 0.00029923470928916625 0 0.0084782913738151149 0.00027269015971240456 0 0.0084114137755488191 0.00021101055211395953 0 0.0084103960100704953 0.00029923470928916625 0 0.0084782913738151149 0.00027269015971240456 0 0.0084782913738151149 0.00027269015971240456 0 0.0085133051463622666 0.00020557913108239047 0 0.0085616507199946911 0.00028844717735848423 0 0.0084460668818103837 0.00035615291361837777 0 0.0084782913738151149 0.00027269015971240456 0 0.0085616507199946911 0.00028844717735848423 0 0.0085133051463622666 0.00020557913108239047 0 0.0085616507199946911 0.00028844717735848423 0 0.0086859744452767243 0.00015475894339748222 0 0.008446105986650616 0.00045455617426853304 0 0.0087026433765493849 0.00024539101654689278 0 0.0088689327995065004 0.00043011349046974802 0 0.0084125296877149165 0.00049561183995788924 0 0.008446105986650616 0.00045455617426853304 0 0.0088689327995065004 0.00043011349046974802 0 0.009772601314197606 1.5582625831436364e-05 0 0.0095999161033329325 0.00017039041097129411 0 0.0079429003902596277 0.00014692876648774185 0 0.007713672369007653 0.00021271223753058916 0 0.008446105986650616 0.00045455617426853304 0 0.0084460668818103837 0.00035615291361837777 0 0.0085616507199946911 0.00028844717735848423 0 0.0071846183249440112 -8.9703307214163971e-05 0 0.0077477386512716656 -0.00012053438727075879 0 0.0075005898430437314 -0.00030259007087116944 0 0.0074473556401754189 -0.00021128996990860645 0 0.0077200940409401396 -0.00027144913600589063 0 0.0071846183249440112 -8.9703307214163971e-05 0 0.0072503938179759248 -5.0204820899001765e-05 0 0.007309893668211072 -0.00010715566315099309 0 0.0071846183249440112 -8.9703307214163971e-05 0 0.0075005898430437314 -0.00030259007087116944 0 0.0072805448990855568 -0.00040139059978793124 0 0.0069446667043259669 -0.00017439298857012308 0 0.0071846183249440112 -8.9703307214163971e-05 0 0.0072805448990855568 -0.00040139059978793124 0 0.0070727336279239623 5.5562305222861973e-05 0 0.0071846183249440112 -8.9703307214163971e-05 0 0.0071788323593810332 3.5518985832451135e-05 0 0.0071846183249440112 -8.9703307214163971e-05 0 0.0071788323593810332 3.5518985832451135e-05 0 0.0072503938179759248 -5.0204820899001765e-05 0 0.0071788323593810332 3.5518985832451135e-05 0 0.0072503938179759248 -5.0204820899001765e-05 0 0.0073369095386318188 -2.5234343650281662e-05 0 0.0072503938179759248 -5.0204820899001765e-05 0 0.0073369095386318188 -2.5234343650281662e-05 0 0.007309893668211072 -0.00010715566315099309 0 0.0074053193442172429 1.2250696305942273e-05 0 0.0073369095386318188 -2.5234343650281662e-05 0 0.0074111392431039074 -1.7078569669851112e-05 0 0.0073369095386318188 -2.5234343650281662e-05 0 0.0074111392431039074 -1.7078569669851112e-05 0 0.0073939972640761058 -5.6871589687595979e-05 0 0.0073369095386318188 -2.5234343650281662e-05 0 0.0073939972640761058 -5.6871589687595979e-05 0 0.007309893668211072 -0.00010715566315099309 0 0.0074691280165736038 -4.6624074503267738e-05 0 0.0074440752657642358 -3.4744403761235822e-05 0 0.0074467948173307557 -0.00011230105087358714 0 0.007442098094881412 8.151401439121591e-06 0 0.0074440752657642358 -3.4744403761235822e-05 0 0.0074111392431039074 -1.7078569669851112e-05 0 0.0074440752657642358 -3.4744403761235822e-05 0 0.0074111392431039074 -1.7078569669851112e-05 0 0.0073939972640761058 -5.6871589687595979e-05 0 0.0074440752657642358 -3.4744403761235822e-05 0 0.0073939972640761058 -5.6871589687595979e-05 0 0.0074467948173307557 -0.00011230105087358714 0 0.0073939972640761058 -5.6871589687595979e-05 0 0.0074467948173307557 -0.00011230105087358714 0 0.007309893668211072 -0.00010715566315099309 0 0.0082624381825828225 -0.00017898324028552839 0 0.0077477386512716656 -0.00012053438727075879 0 0.007989759244279639 -0.00042627859892913181 0 0.0087402011978827635 -0.00049751405076884085 0 0.0077200940409401396 -0.00027144913600589063 0 0.0077477386512716656 -0.00012053438727075879 0 0.0077372848615836548 -0.0003772820982403437 0 0.007989759244279639 -0.00042627859892913181 0 0.007989759244279639 -0.00042627859892913181 0 0.008123789734561869 -0.0005490945581989612 0 0.0079413701877275346 -0.00057488625099384619 0 0.007989759244279639 -0.00042627859892913181 0 0.0078054753606154352 -0.00055527157599217125 0 0.0079413701877275346 -0.00057488625099384619 0 0.0077372848615836548 -0.0003772820982403437 0 0.007989759244279639 -0.00042627859892913181 0 0.0078054753606154352 -0.00055527157599217125 0 0.0094230376520896379 -0.0002942627182666412 0 0.0080945023656436819 -0.00024474603415419022 0 0.0082623107650778901 -0.00017796132907334859 0 0.007989759244279639 -0.00042627859892913181 0 0.008123789734561869 -0.0005490945581989612 0 0.008509831492203199 -0.00020471591474789574 0 0.0082623107650778901 -0.00017796132907334859 0 0.008123789734561869 -0.0005490945581989612 0 0.0087402011978827635 -0.00049751405076884085 0 0.0085736905611322484 -0.00055070216635617149 0 0.0078524004384111119 0.00033184767845524454 0 0.0078292258613796486 0.00018081368739667402 0 0.0079630820018276177 0.00021121797922956189 0 0.0080231477259349038 0.00032114490952428123 0 0.0078524004384111119 0.00033184767845524454 0 0.0079630820018276177 0.00021121797922956189 0 0.0078524004384111119 0.00033184767845524454 0 0.0078292258613796486 0.00018081368739667402 0 0.0076985478763771532 0.00019507250178308732 0 0.0078292258613796486 0.00018081368739667402 0 0.0076985478763771532 0.00019507250178308732 0 0.0076237219182072437 0.00012708784543889477 0 0.0078054753606154352 -0.00055527157599217125 0 0.0078575266866665206 -0.00077876978011879412 0 0.0076510339074484564 -0.00069369045109132115 0 0.0078054753606154352 -0.00055527157599217125 0 0.0079413701877275346 -0.00057488625099384619 0 0.0078575266866665206 -0.00077876978011879412 0 0.0080945023656436819 -0.00024474603415419022 0 0.0072892793267099283 -0.00023331541174923161 0 0.008123789734561869 -0.0005490945581989612 0 0.0079413701877275346 -0.00057488625099384619 0 0.0078575266866665206 -0.00077876978011879412 0 0.0072892793267099283 -0.00023331541174923161 0 0.0067951034110882904 -0.00028202502655071842 0 0.0078575266866665206 -0.00077876978011879412 0 0.0076510339074484564 -0.00069369045109132115 0 0.0077323069084474158 -0.00088486891596853531 0 0.0076510339074484564 -0.00069369045109132115 0 0.0073186538986029486 -0.00076261025697982646 0 0.0077323069084474158 -0.00088486891596853531 0 0.0072265553854898006 -0.00048203554659739296 0 0.0067951034110882904 -0.00028202502655071842 0 0.0076510339074484564 -0.00069369045109132115 0 0.0075674745989638102 -0.00050633092189630218 0 0.0073186538986029486 -0.00076261025697982646 0 0.0078054753606154352 -0.00055527157599217125 0 0.0076510339074484564 -0.00069369045109132115 0 0.0075674745989638102 -0.00050633092189630218 0 0.0077372848615836548 -0.0003772820982403437 0 0.0078054753606154352 -0.00055527157599217125 0 0.0075674745989638102 -0.00050633092189630218 0 0.0075674745989638102 -0.00050633092189630218 0 0.0075005898430437314 -0.00030259007087116944 0 0.0072805448990855568 -0.00040139059978793124 0 0.0077477386512716656 -0.00012053438727075879 0 0.0077372848615836548 -0.0003772820982403437 0 0.0075005898430437314 -0.00030259007087116944 0 0.0077372848615836548 -0.0003772820982403437 0 0.0075674745989638102 -0.00050633092189630218 0 0.0075005898430437314 -0.00030259007087116944 0 0.0075674745989638102 -0.00050633092189630218 0 0.0072805448990855568 -0.00040139059978793124 0 0.0073186538986029486 -0.00076261025697982646 0 0.0070347060929482836 -0.00062443152010568557 0 0.0072805448990855568 -0.00040139059978793124 0 0.0073186538986029486 -0.00076261025697982646 0 0.0073186538986029486 -0.00076261025697982646 0 0.0073232391815539885 -0.001080386226119615 0 0.0077498037813564461 -0.001013553942310879 0 0.0073186538986029486 -0.00076261025697982646 0 0.0073232391815539885 -0.001080386226119615 0 0.0070756241726290118 -0.00095661644089413303 0 0.0053185821561508107 -3.2828015782513044e-05 0 0.0046707280720089039 -0.00033155527987236745 0 0.0073232391815539885 -0.001080386226119615 0 0.007423477838974033 -0.0013675797798503209 0 0.0070733424948375874 -0.0012307984285893094 0 0.004672972727455601 -0.00011535165455633267 0 0.0044495486755834739 -0.00012331222626098335 0 0.0045193714710798092 -0.00018339283469404711 0 0.004672972727455601 -0.00011535165455633267 0 0.0045625767174269465 -0.00023442094526703977 0 0.0045193714710798092 -0.00018339283469404711 0 0.0048845383980417991 0.00019853965071225667 0 0.0048502381674236355 6.0488804136818881e-05 0 0.004698966424434633 -2.0821155965840226e-06 0 0.0048845383980417991 0.00019853965071225667 0 0.0048502381674236355 6.0488804136818881e-05 0 0.004980737618231733 8.8749023806845601e-05 0 0.0053185821561508107 -3.2828015782513044e-05 0 0.0042955173026977839 -1.744841237110253e-06 0 0.0053185821561508107 -3.2828015782513044e-05 0 0.0052574671055325307 2.3673319834219576e-05 0 0.0049993147304134497 0.0001923074256869573 0 0.0051974742957387344 0.0001996336939974901 0 0.0051819878532060716 0.00039526848450030597 0 0.0048845383980417991 0.00019853965071225667 0 0.004980737618231733 8.8749023806845601e-05 0 0.0051522279735813064 0.00020375940821143815 0 0.004980737618231733 8.8749023806845601e-05 0 0.0051522279735813064 0.00020375940821143815 0 0.0052201328556758788 5.4589919563123105e-05 0 0.0073232391815539885 -0.001080386226119615 0 0.007423477838974033 -0.0013675797798503209 0 0.0077498037813564461 -0.001013553942310879 0 0.0053185821561508107 -3.2828015782513044e-05 0 0.0065118183768108524 -0.00024322066174594785 0 0.0073186538986029486 -0.00076261025697982646 0 0.0077498037813564461 -0.001013553942310879 0 0.007831560018839492 -0.00092387499250059634 0 0.0051974742957387344 0.0001996336939974901 0 0.0051819878532060716 0.00039526848450030597 0 0.0052266367875924025 0.00044562382282457548 0 0.0065118183768108524 -0.00024322066174594785 0 0.0067951034110882904 -0.00028202502655071842 0 0.0051974742957387344 0.0001996336939974901 0 0.0053238730956323968 0.00033236515730974823 0 0.0052266367875924025 0.00044562382282457548 0 0.0067951034110882904 -0.00028202502655071842 0 0.0065560889362841438 0.0001249121864435056 0 0.0053238730956323968 0.00033236515730974823 0 0.0052266367875924025 0.00044562382282457548 0 0.0055741822663770806 0.00036552331679598319 0 0.0078292258613796486 0.00018081368739667402 0 0.0076237219182072437 0.00012708784543889477 0 0.0079305761267248268 5.2592340581888254e-05 0 0.0053238730956323968 0.00033236515730974823 0 0.0055741822663770806 0.00036552331679598319 0 0.0053947005329894855 0.00020412678623090317 0 0.0078292258613796486 0.00018081368739667402 0 0.0079630820018276177 0.00021121797922956189 0 0.0079305761267248268 5.2592340581888254e-05 0 0.0055741822663770806 0.00036552331679598319 0 0.0055843983154447458 0.00017011419470667002 0 0.0053947005329894855 0.00020412678623090317 0 0.0046415819279619023 0.00044241777191689137 0 0.0041868602856408492 0.00032569978069503232 0 0.0033467375836301215 0.00091619946759416025 0 0.0030446635470875133 0.00081141535285630549 0 0.0031829287644095181 0.00074952223997001139 0 0.0055843983154447458 0.00017011419470667002 0 0.0053947005329894855 0.00020412678623090317 0 0.0052201328556758788 5.4589919563123105e-05 0 0.0052574671055325307 2.3673319834219576e-05 0 0.0052796349792912619 4.2355315601405534e-05 0 0.0051522279735813064 0.00020375940821143815 0 0.0053947005329894855 0.00020412678623090317 0 0.0052201328556758788 5.4589919563123105e-05 0 0.0051974742957387344 0.0001996336939974901 0 0.0053238730956323968 0.00033236515730974823 0 0.0053947005329894855 0.00020412678623090317 0 0.0030446635470875133 0.00081141535285630549 0 0.0031829287644095181 0.00074952223997001139 0 0.0030710980697950937 0.00067441967358070727 0 0.0031829287644095181 0.00074952223997001139 0 0.0030710980697950937 0.00067441967358070727 0 0.0031725851011484151 0.00063636076921693948 0 0.0030446635470875133 0.00081141535285630549 0 0.0030710980697950937 0.00067441967358070727 0 0.00295094012774599 0.00066734375873810298 0 0.0033467375836301215 0.00091619946759416025 0 0.0032934171459329084 0.00072693696872320177 0 0.0033953698410773528 0.00080789721886017902 0 0.0033467375836301215 0.00091619946759416025 0 0.0031829287644095181 0.00074952223997001139 0 0.0032934171459329084 0.00072693696872320177 0 0.0032934171459329084 0.00072693696872320177 0 0.003277175282301828 0.0006282871925953051 0 0.0031725851011484151 0.00063636076921693948 0 0.0031829287644095181 0.00074952223997001139 0 0.0032934171459329084 0.00072693696872320177 0 0.0031725851011484151 0.00063636076921693948 0 0.0032934171459329084 0.00072693696872320177 0 0.003277175282301828 0.0006282871925953051 0 0.0034025385565681176 0.00064500864120021952 0 0.0032934171459329084 0.00072693696872320177 0 0.0033953698410773528 0.00080789721886017902 0 0.0034025385565681176 0.00064500864120021952 0 0.0032273282671985053 0.00051796845358515994 0 0.0034025385565681176 0.00064500864120021952 0 0.0032798994080265862 0.00037918693653322949 0 0.0025365584380048116 0.00097491904041022257 0 0.0017435346761086924 0.0010936251799348708 0 0.003277175282301828 0.0006282871925953051 0 0.0032273282671985053 0.00051796845358515994 0 0.0034025385565681176 0.00064500864120021952 0 0.003277175282301828 0.0006282871925953051 0 0.0032273282671985053 0.00051796845358515994 0 0.0031725851011484151 0.00063636076921693948 0 0.0032273282671985053 0.00051796845358515994 0 0.0030481992166397371 0.00055492398871361665 0 0.0030515823439002513 0.00038324219864128121 0 0.0032273282671985053 0.00051796845358515994 0 0.0031725851011484151 0.00063636076921693948 0 0.0030481992166397371 0.00055492398871361665 0 0.0030710980697950937 0.00067441967358070727 0 0.0031725851011484151 0.00063636076921693948 0 0.0030481992166397371 0.00055492398871361665 0 0.0030710980697950937 0.00067441967358070727 0 0.0030481992166397371 0.00055492398871361665 0 0.00295094012774599 0.00066734375873810298 0 0.0030481992166397371 0.00055492398871361665 0 0.002875358620654887 0.00051453080574219 0 0.0030515823439002513 0.00038324219864128121 0 0.0030481992166397371 0.00055492398871361665 0 0.002875358620654887 0.00051453080574219 0 0.00295094012774599 0.00066734375873810298 0 0.002875358620654887 0.00051453080574219 0 0.0028379368182843362 0.00062387716576043392 0 0.00295094012774599 0.00066734375873810298 0 0.002875358620654887 0.00051453080574219 0 0.0027642785732798214 0.00059301438464531842 0 0.0027354216430655171 0.00042646876720575156 0 0.0027642785732798214 0.00059301438464531842 0 0.0027354216430655171 0.00042646876720575156 0 0.0026176772955157717 0.00067720963033653634 0 0.002875358620654887 0.00051453080574219 0 0.0027642785732798214 0.00059301438464531842 0 0.0028379368182843362 0.00062387716576043392 0 0.0027642785732798214 0.00059301438464531842 0 0.0028379368182843362 0.00062387716576043392 0 0.0027617735406485497 0.00071986215961402744 0 0.0040885594722668448 0.00025255704139635806 0 0.0039783350411195326 0.00028522778460608446 0 0.0038968538296471279 0.00019631518102939828 0 0.0027642785732798214 0.00059301438464531842 0 0.0027617735406485497 0.00071986215961402744 0 0.0026176772955157717 0.00067720963033653634 0 0.0038483272614508695 0.00016042539972977346 0 0.0038359121255914694 8.1233701107137691e-05 0 0.0048502381674236355 6.0488804136818881e-05 0 0.0047934573807415044 -7.6571630366333672e-05 0 0.0046970465533525997 -2.1303915734278353e-06 0 0.0043619658892610335 1.9171636817952188e-05 0 0.0042955173026977839 -1.744841237110253e-06 0 0.0047934573807415044 -7.6571630366333672e-05 0 0.0046970465533525997 -2.1303915734278353e-06 0 0.0046633090105759984 -3.8735802917389775e-05 0 0.0038483272614508695 0.00016042539972977346 0 0.0041414960326386857 4.13228129177501e-06 0 0.0042955173026977839 -1.744841237110253e-06 0 0.0041414960326386857 4.13228129177501e-06 0 0.0048502381674236355 6.0488804136818881e-05 0 0.004980737618231733 8.8749023806845601e-05 0 0.0047934573807415044 -7.6571630366333672e-05 0 0.0041868602856408492 0.00032569978069503232 0 0.0038483272614508695 0.00016042539972977346 0 0.0028379368182843362 0.00062387716576043392 0 0.0027617735406485497 0.00071986215961402744 0 0.00295094012774599 0.00066734375873810298 0 0.0030446635470875133 0.00081141535285630549 0 0.0027649942629317942 0.00072057204674388789 0 0.00295094012774599 0.00066734375873810298 0 0.0038483272614508695 0.00016042539972977346 0 0.0034515255379392981 0.00030833093400800364 0 0.004980737618231733 8.8749023806845601e-05 0 0.0052201328556758788 5.4589919563123105e-05 0 0.0047934573807415044 -7.6571630366333672e-05 0 0.0030803163090807554 0.002495834284714385 0 0.0029702189638007984 0.0021215856049381634 0 0.0035389843731562739 0.0023875747792588939 0 0.0030803163090807554 0.002495834284714385 0 0.0031833307985579071 0.0028250499896748829 0 0.0035389843731562739 0.0023875747792588939 0 0.0085133051463622666 0.00020557913108239047 0 0.0085453952011580302 0.00011051738832977502 0 0.0083884737113927126 6.7328680793672863e-05 0 0.0085133051463622666 0.00020557913108239047 0 0.0085453952011580302 0.00011051738832977502 0 0.0086859744452767243 0.00015475894339748222 0 0.0030803163090807554 0.002495834284714385 0 0.0031833307985579071 0.0028250499896748829 0 0.0027537624031632804 0.002702448487672985 0 0.0060072090404568023 0.00096087594660376275 0 0.0055927169723413378 0.00088417037935099461 0 0.0083193231814321696 0.00016690312628386163 0 0.0084114137755488191 0.00021101055211395953 0 0.008389516954137307 2.9842297166576238e-05 0 0.0062383487701347324 0.0010650616967634852 0 0.0055927169723413378 0.00088417037935099461 0 0.0084114137755488191 0.00021101055211395953 0 0.0085133051463622666 0.00020557913108239047 0 0.008389516954137307 2.9842297166576238e-05 0 0.0083193231814321696 0.00016690312628386163 0 0.008389516954137307 2.9842297166576238e-05 0 0.0082416077849748748 9.7030161226324322e-05 0 0.0055927169723413378 0.00088417037935099461 0 0.0056517650571002139 0.00062012513598092456 0 0.0027537624031632804 0.002702448487672985 0 0.0023492007252120992 0.0022014649652188356 0 0.0029702189638007984 0.0021215856049381634 0 0.0030803163090807554 0.002495834284714385 0 0.0027537624031632804 0.002702448487672985 0 0.0029702189638007984 0.0021215856049381634 0 0.0039187440169682949 0.0010855127290507406 0 0.0037869582273061808 0.0010015499870685007 0 0.0036969787037203828 0.00081702329092740689 0 0.0055927169723413378 0.00088417037935099461 0 0.0038712667030748227 0.00099717435761847539 0 0.003700354079098407 0.0010237416418960258 0 0.0035443390148185198 0.00094655591489154151 0 0.0036969787037203828 0.00081702329092740689 0 0.0039187440169682949 0.0010855127290507406 0 0.0037039879447310162 0.0010252349783423603 0 0.0037869582273061808 0.0010015499870685007 0 0.0056517650571002139 0.00062012513598092456 0 0.0055414300079655032 0.00064904447374069499 0 0.003700354079098407 0.0010237416418960258 0 0.0037869582273061808 0.0010015499870685007 0 0.0036969787037203828 0.00081702329092740689 0 0.008389516954137307 2.9842297166576238e-05 0 0.0082246739618208262 -2.3225588892032291e-05 0 0.0082416077849748748 9.7030161226324322e-05 0 0.0082170631595451047 0.00020900883735397509 0 0.0082416077849748748 9.7030161226324322e-05 0 0.0081122149904912979 0.00013309765519245724 0 0.0082246739618208262 -2.3225588892032291e-05 0 0.0082416077849748748 9.7030161226324322e-05 0 0.0081122149904912979 0.00013309765519245724 0 0.0079305761267248268 5.2592340581888254e-05 0 0.0082246739618208262 -2.3225588892032291e-05 0 0.0081122149904912979 0.00013309765519245724 0 0.0065560889362841438 0.0001249121864435056 0 0.0056517650571002139 0.00062012513598092456 0 0.0079630820018276177 0.00021121797922956189 0 0.0079305761267248268 5.2592340581888254e-05 0 0.0081122149904912979 0.00013309765519245724 0 0.0055741822663770806 0.00036552331679598319 0 0.0055843983154447458 0.00017011419470667002 0 0.0059195285324522423 0.00027187317087753635 0 0.0046415819279619023 0.00044241777191689137 0 0.0056517650571002139 0.00062012513598092456 0 0.0033467375836301215 0.00091619946759416025 0 0.003700354079098407 0.0010237416418960258 0 0.0035443390148185198 0.00094655591489154151 0 0.0033467375836301215 0.00091619946759416025 0 0.0035443390148185198 0.00094655591489154151 0 0.0033953698410773528 0.00080789721886017902 0 0.0034039321818471486 0.00062150399210861372 0 0.0034801021004539461 0.0005569741685311244 0 0.0036969787037203828 0.00081702329092740689 0 0.0035443390148185198 0.00094655591489154151 0 0.0034039321818471486 0.00062150399210861372 0 0.0036969787037203828 0.00081702329092740689 0 0.0035443390148185198 0.00094655591489154151 0 0.0033953698410773528 0.00080789721886017902 0 0.0034025385565681176 0.00064500864120021952 0 0.0027947533501170066 0.0010328276384158404 0 0.0025365584380048116 0.00097491904041022257 0 0.0034039321818471486 0.00062150399210861372 0 0.0034801021004539461 0.0005569741685311244 0 0.0032611027324290524 0.00029772284888666809 0 0.0027888475102588995 0.0010652680122944112 0 0.0017435346761086924 0.0010936251799348708 0 0.001943694989296243 0.0017003814620700926 0 0.0024425226640478262 0.0016335283174076691 0 0.0020061814995867636 0.0012367244046802145 0 0.001943694989296243 0.0017003814620700926 0 0.0024425226640478262 0.0016335283174076691 0 0.0023492007252120992 0.0022014649652188356 0 0.0027888475102588995 0.0010652680122944112 0 0.0038712667030748227 0.00099717435761847539 0 0.0024425226640478262 0.0016335283174076691 0 0.0023492007252120992 0.0022014649652188356 0 0.0029702189638007984 0.0021215856049381634 0 0.0024425226640478262 0.0016335283174076691 0 0.0029853757495709008 0.0014346756603277415 0 0.0029702189638007984 0.0021215856049381634 0 0.00027733530036940087 0.0030894639186826575 0 0.0012782203993761628 0.0031226323423516542 0 0.0029853757495709008 0.0014346756603277415 0 0.0029702189638007984 0.0021215856049381634 0 0.0035701679220068953 0.0017642339737875862 0 -0.0033803914982786934 0.0051393698772704338 0 -0.0036471727161316515 0.0054000850692711945 0 -0.003580212508866195 0.0047873566870957592 0 -0.0029368996096641575 0.0051649193583381183 0 -0.0031372696302010027 0.0051649801492869079 0 -0.0029944597040227942 0.0049846134721585498 0 -0.0031372696302010027 0.0051649801492869079 0 -0.0032307546650340428 0.0049829244116760887 0 -0.0029944597040227942 0.0049846134721585498 0 -0.0031372696302010027 0.0051649801492869079 0 -0.0030118238715956692 0.0053546574874932702 0 -0.0033184558769793174 0.0053803717807564891 0 -0.0029368996096641575 0.0051649193583381183 0 -0.0031372696302010027 0.0051649801492869079 0 -0.0030118238715956692 0.0053546574874932702 0 -0.0032099339659357609 0.0057361484223927258 0 -0.0030118238715956692 0.0053546574874932702 0 -0.0027588210518945649 0.0056264343917585462 0 -0.0032099339659357609 0.0057361484223927258 0 -0.0030118238715956692 0.0053546574874932702 0 -0.0033184558769793174 0.0053803717807564891 0 0.00027733530036940087 0.0030894639186826575 0 -0.0003334443765044484 0.0028603630717051773 0 0.0024425226640478262 0.0016335283174076691 0 0.0029853757495709008 0.0014346756603277415 0 0.0023999758346152072 0.0011056549056104471 0 -0.0032099339659357609 0.0057361484223927258 0 -0.0033184558769793174 0.0053803717807564891 0 -0.0036471727161316515 0.0054000850692711945 0 -0.0033184558769793174 0.0053803717807564891 0 -0.0033803914982786934 0.0051393698772704338 0 -0.0036471727161316515 0.0054000850692711945 0 -0.0031372696302010027 0.0051649801492869079 0 -0.0033184558769793174 0.0053803717807564891 0 -0.0033803914982786934 0.0051393698772704338 0 -0.0031372696302010027 0.0051649801492869079 0 -0.0033803914982786934 0.0051393698772704338 0 -0.0032307546650340428 0.0049829244116760887 0 -0.0036471727161316515 0.0054000850692711945 0 -0.004035583588603146 0.0051375647664857419 0 -0.003580212508866195 0.0047873566870957592 0 0.0024425226640478262 0.0016335283174076691 0 0.0023999758346152072 0.0011056549056104471 0 0.0020061814995867636 0.0012367244046802145 0 0.001943694989296243 0.0017003814620700926 0 0.0020061814995867636 0.0012367244046802145 0 0.0015391457434544356 0.0011989954536960796 0 0.0020061814995867636 0.0012367244046802145 0 0.00181444962424028 0.00077740642029227854 0 0.0015391457434544356 0.0011989954536960796 0 0.0023999758346152072 0.0011056549056104471 0 0.0020061814995867636 0.0012367244046802145 0 0.00181444962424028 0.00077740642029227854 0 -0.0003334443765044484 0.0028603630717051773 0 -0.00069758352804721174 0.0024427249147905851 0 -0.004035583588603146 0.0051375647664857419 0 -0.0040523337598276756 0.0047207088399470664 0 -0.003580212508866195 0.0047873566870957592 0 -0.0038173781439091474 0.0033840871164216363 0 -0.0038532893362106671 0.0033296123566556365 0 -0.0037863079071924466 0.0033307242094155658 0 -0.0038173781439091474 0.0033840871164216363 0 -0.0037275161343412479 0.0034063951699321339 0 -0.0037863079071924466 0.0033307242094155658 0 -0.0037275161343412479 0.0034063951699321339 0 -0.0037194304915287553 0.0033481800841709433 0 -0.0037863079071924466 0.0033307242094155658 0 -0.0035068010230094905 0.0033272271971683831 0 -0.0035154759272133062 0.0037845582782042352 0 -0.0033803914982786934 0.0051393698772704338 0 -0.003580212508866195 0.0047873566870957592 0 -0.0032307546650340428 0.0049829244116760887 0 -0.003580212508866195 0.0047873566870957592 0 -0.0030559822521343985 0.0048442573288503777 0 -0.0032307546650340428 0.0049829244116760887 0 -0.0035154759272133062 0.0037845582782042352 0 -0.0031761162064550545 0.0040741966447937665 0 -0.0037275161343412479 0.0034063951699321339 0 -0.0036813993178568408 0.003375526368689413 0 -0.0036252909297063195 0.0034268477482594386 0 -0.0037275161343412479 0.0034063951699321339 0 -0.0037194304915287553 0.0033481800841709433 0 -0.0036813993178568408 0.003375526368689413 0 -0.0037194304915287553 0.0033481800841709433 0 -0.0036813993178568408 0.003375526368689413 0 -0.0036622939766415103 0.0033198950019959778 0 -0.0030377512604784179 0.0045860281444599386 0 -0.0030759083284161741 0.0047735317300875157 0 -0.0033410626373293817 0.0041652536497712818 0 -0.0036813993178568408 0.003375526368689413 0 -0.0036252909297063195 0.0034268477482594386 0 -0.0036622939766415103 0.0033198950019959778 0 -0.0031761162064550545 0.0040741966447937665 0 -0.0034254990804682079 0.0037174741223342466 0 -0.0030377512604784179 0.0045860281444599386 0 -0.0029091369555412491 0.0044542886110240628 0 -0.0033410626373293817 0.0041652536497712818 0 -0.0030377512604784179 0.0045860281444599386 0 -0.0028896439469727518 0.004688578483481678 0 -0.0029091369555412491 0.0044542886110240628 0 -0.0030377512604784179 0.0045860281444599386 0 -0.0030759083284161741 0.0047735317300875157 0 -0.0030423369829323892 0.0047795096273316835 0 -0.0030377512604784179 0.0045860281444599386 0 -0.0030423369829323892 0.0047795096273316835 0 -0.0028896439469727518 0.004688578483481678 0 -0.0030423369829323892 0.0047795096273316835 0 -0.0028850609964402576 0.0048582217433325598 0 -0.0028896439469727518 0.004688578483481678 0 -0.0031761162064550545 0.0040741966447937665 0 -0.003175398983733692 0.0040749152854863161 0 -0.0030559822521343985 0.0048442573288503777 0 -0.0032307546650340428 0.0049829244116760887 0 -0.0029944597040227942 0.0049846134721585498 0 -0.0031761162064550545 0.0040741966447937665 0 -0.0031480708011510082 0.0041623592287922395 0 -0.0030820252427734176 0.0047735449910886671 0 -0.0030423369829323892 0.0047795096273316835 0 -0.0029944597040227942 0.0049846134721585498 0 -0.0030423369829323892 0.0047795096273316835 0 -0.0029944597040227942 0.0049846134721585498 0 -0.0028850609964402576 0.0048582217433325598 0 0.002964861999566938 0.00023460451276696874 0 0.0028530612406141537 0.00017140452623195864 0 0.0028990172884599662 0.00034904784460906585 0 0.002964861999566938 0.00023460451276696874 0 0.0030942154569102067 0.00015982692650006478 0 0.0029268023894144673 0.00011323530715166677 0 0.002964861999566938 0.00023460451276696874 0 0.0028530612406141537 0.00017140452623195864 0 0.0029268023894144673 0.00011323530715166677 0 0.0028530612406141537 0.00017140452623195864 0 0.0027415912568291476 0.00021067661816769122 0 0.0027958417090209091 3.8134960353168474e-05 0 0.0031438269969283564 0.00039355174666468842 0 0.0032423842288919744 0.00043306467092209326 0 0.0028530612406141537 0.00017140452623195864 0 0.0027415912568291476 0.00021067661816769122 0 0.0027622258482344936 0.00034669340536849964 0 0.0027415912568291476 0.00021067661816769122 0 0.0027622258482344936 0.00034669340536849964 0 0.0026889467362334715 0.0003470549452160954 0 0.0028530612406141537 0.00017140452623195864 0 0.0027354216430655171 0.00042646876720575156 0 0.0028990172884599662 0.00034904784460906585 0 0.002875358620654887 0.00051453080574219 0 0.0027354216430655171 0.00042646876720575156 0 0.0028990172884599662 0.00034904784460906585 0 0.002875358620654887 0.00051453080574219 0 0.0028990172884599662 0.00034904784460906585 0 0.0030515823439002513 0.00038324219864128121 0 0.002964861999566938 0.00023460451276696874 0 0.0028990172884599662 0.00034904784460906585 0 0.0030515823439002513 0.00038324219864128121 0 0.0032273282671985053 0.00051796845358515994 0 0.0030515823439002513 0.00038324219864128121 0 0.0032798994080265862 0.00037918693653322949 0 0.0030515823439002513 0.00038324219864128121 0 0.0032798994080265862 0.00037918693653322949 0 0.0030942154569102067 0.00015982692650006478 0 0.0017435346761086924 0.0010936251799348708 0 0.00060859366633003904 0.0013927262178211088 0 0.0017435346761086924 0.0010936251799348708 0 0.0012857464048577764 0.0011219739712161375 0 -0.00069758352804721174 0.0024427249147905851 0 -0.00060738339347112718 0.0018441126140420971 0 0.0010194550857942001 0.001440889197819605 0 0.0009426095961430767 0.0012546681803882566 0 0.00080980165782364763 0.0011797452226030029 0 0.00181444962424028 0.00077740642029227854 0 0.0015391457434544356 0.0011989954536960796 0 0.0013843249041276223 0.00082457547041865675 0 0.00181444962424028 0.00077740642029227854 0 0.0013843249041276223 0.00082457547041865675 0 0.0012295074873184661 0.00045046657052979545 0 0.002964861999566938 0.00023460451276696874 0 0.0030515823439002513 0.00038324219864128121 0 0.0030942154569102067 0.00015982692650006478 0 0.00060859366633003904 0.0013927262178211088 0 -0.00060738339347112718 0.0018441126140420971 0 0.0009426095961430767 0.0012546681803882566 0 0.00080980165782364763 0.0011797452226030029 0 0.00086605279083505052 0.0010682964626980201 0 -0.00060738339347112718 0.0018441126140420971 0 0.00032377986701036384 0.0012843646523051154 0 0.00080980165782364763 0.0011797452226030029 0 0.00086605279083505052 0.0010682964626980201 0 0.000602442708153954 0.00091810148261099137 0 -0.00091155831035575978 0.0021326268444749256 0 -0.0010116955153573718 0.001883375401611866 0 -0.001435580947521233 0.0018323623353869879 0 -0.0044004487354097309 0.004897644580493854 0 -0.0043326347361952308 0.0048602345853220787 0 -0.0044599397983850703 0.0047323231328338395 0 -0.00060738339347112718 0.0018441126140420971 0 -0.0018055167648718946 0.0024468528929503294 0 -0.001951862953273914 0.0025326935060762377 0 -0.0018055167648718946 0.0024468528929503294 0 -0.004035583588603146 0.0051375647664857419 0 -0.0040523337598276756 0.0047207088399470664 0 -0.0043326347361952308 0.0048602345853220787 0 -0.004035583588603146 0.0051375647664857419 0 -0.0044004487354097309 0.004897644580493854 0 -0.0043326347361952308 0.0048602345853220787 0 -0.0040523337598276756 0.0047207088399470664 0 -0.0043326347361952308 0.0048602345853220787 0 -0.0044638772964982268 0.004733888565336279 0 -0.0035068010230094905 0.0033272271971683831 0 -0.0021996003693523477 0.0025419368624513277 0 -0.0040523337598276756 0.0047207088399470664 0 -0.0044963679092513802 0.0046491688932323045 0 -0.0044638772964982268 0.004733888565336279 0 -0.0038173781439091474 0.0033840871164216363 0 -0.0038992278804569672 0.0033670992050146803 0 -0.0038532893362106671 0.0033296123566556365 0 -0.0023640152996011656 0.0024144369028175744 0 -0.0024560779434639433 0.0024002589657228725 0 -0.0025226840778748406 0.0020203807073550044 0 -0.0021996003693523477 0.0025419368624513277 0 -0.0027198160174908381 0.0023670815638277337 0 -0.0011698801711330013 0.001738256093850707 0 -0.0010116955153573718 0.001883375401611866 0 -0.001435580947521233 0.0018323623353869879 0 -0.0021996003693523477 0.0025419368624513277 0 -0.0019806843718590526 0.0023947093959236299 0 -0.0017874333344148287 0.0020636218496987001 0 -0.001978178442923782 0.0020343987645045957 0 -0.0016948506731328207 0.0022949825444090887 0 -0.0019806843718590526 0.0023947093959236299 0 -0.0018055167648718946 0.0024468528929503294 0 -0.0021996003693523477 0.0025419368624513277 0 -0.0018055167648718946 0.0024468528929503294 0 -0.0038992278804569672 0.0033670992050146803 0 -0.003888563560005874 0.003323424619455589 0 -0.0038532893362106671 0.0033296123566556365 0 -0.0019806843718590526 0.0023947093959236299 0 -0.0018202234751987924 0.0023318054243288222 0 -0.0011698801711330013 0.001738256093850707 0 -0.0016066073913765238 0.0016711439501375502 0 -0.001435580947521233 0.0018323623353869879 0 -0.001177686174499851 0.0017390732503601123 0 -0.0016066073913765238 0.0016711439501375502 0 -0.0017112693221760554 0.0012444901876980084 0 0.0030942154569102067 0.00015982692650006478 0 0.0029154370989154239 -4.8098446729428012e-05 0 0.0029268023894144673 0.00011323530715166677 0 0.0029154370989154239 -4.8098446729428012e-05 0 0.0029268023894144673 0.00011323530715166677 0 0.0027958417090209091 3.8134960353168474e-05 0 0.0012857464048577764 0.0011219739712161375 0 0.00032377986701036384 0.0012843646523051154 0 0.0028530612406141537 0.00017140452623195864 0 0.0029268023894144673 0.00011323530715166677 0 0.0027958417090209091 3.8134960353168474e-05 0 0.0027030314605168567 0.0002344558439741257 0 0.0027958417090209091 3.8134960353168474e-05 0 0.0026447965218185411 8.7199372797121884e-05 0 0.0027958417090209091 3.8134960353168474e-05 0 0.0027028066168857928 -0.00016497759103360196 0 0.0026447965218185411 8.7199372797121884e-05 0 0.0030500057415017317 0.00028443174290988983 0 0.0030163010170499395 0.00023888044624174187 0 0.0029154370989154239 -4.8098446729428012e-05 0 0.0027958417090209091 3.8134960353168474e-05 0 0.0027028066168857928 -0.00016497759103360196 0 0.00032377986701036384 0.0012843646523051154 0 -0.00046617064317211129 0.00065586691244157831 0 -0.0016066073913765238 0.0016711439501375502 0 -0.001435580947521233 0.0018323623353869879 0 -0.0019310644041721887 0.0015475184175902008 0 -0.00046617064317211129 0.00065586691244157831 0 0.00087394834908901967 4.6052093591834531e-05 0 -0.00046215576762886169 7.9321306016693873e-05 0 -0.0004733905724473595 7.8596113562230343e-05 0 -0.00052216397190087767 1.8825852326737224e-05 0 -0.0004733905724473595 7.8596113562230343e-05 0 -0.00053784743939750193 5.6410615212755275e-05 0 -0.00043441387213074894 0.00010999947810452097 0 -0.0004733905724473595 7.8596113562230343e-05 0 -0.00043441387213074894 0.00010999947810452097 0 -0.00052216397190087767 1.8825852326737224e-05 0 -0.00043441387213074894 0.00010999947810452097 0 -0.00052216397190087767 1.8825852326737224e-05 0 -0.0003160367277229764 -0.00014004696902441806 0 0.0027028066168857928 -0.00016497759103360196 0 0.0025249872383965896 8.8576761655190036e-05 0 0.0026447965218185411 8.7199372797121884e-05 0 0.0025249872383965896 8.8576761655190036e-05 0 0.0026447965218185411 8.7199372797121884e-05 0 0.0025768146091580076 0.00015638516548625143 0 0.0026447965218185411 8.7199372797121884e-05 0 0.0026210450685033131 0.00023932153210476847 0 0.0025768146091580076 0.00015638516548625143 0 0.0030491391884510987 0.00022857134326886015 0 0.0030922089729508262 0.00025808570014748786 0 0.0027030314605168567 0.0002344558439741257 0 0.0026447965218185411 8.7199372797121884e-05 0 0.0026316388708079478 0.00025888641492246553 0 0.0026210450685033131 0.00023932153210476847 0 0.0025169947618152578 0.00020742536900254788 0 0.0025420358351305973 0.00029927472021882391 0 0.0026210450685033131 0.00023932153210476847 0 0.0025169947618152578 0.00020742536900254788 0 0.0025768146091580076 0.00015638516548625143 0 0.0025249872383965896 8.8576761655190036e-05 0 0.0025169947618152578 0.00020742536900254788 0 0.0025768146091580076 0.00015638516548625143 0 0.00087394834908901967 4.6052093591834531e-05 0 0.0017273882353656376 -3.8366331927059242e-05 0 0.0025169947618152578 0.00020742536900254788 0 0.0024570460638382043 0.00029144884885145026 0 0.0023664031009646602 0.00031294860325562347 0 0.0025249872383965896 8.8576761655190036e-05 0 0.0025169947618152578 0.00020742536900254788 0 0.0023664031009646602 0.00031294860325562347 0 -0.00052216397190087767 1.8825852326737224e-05 0 -0.0003160367277229764 -0.00014004696902441806 0 -0.0002768884222877429 -0.00045431722616609169 0 0.0025169947618152578 0.00020742536900254788 0 0.0024570460638382043 0.00029144884885145026 0 0.0025420358351305973 0.00029927472021882391 0 0.0024570460638382043 0.00029144884885145026 0 0.0024783756183648724 0.00035702348452575918 0 0.0025420358351305973 0.00029927472021882391 0 0.0024783756183648724 0.00035702348452575918 0 0.0023571450953624165 0.00032958537081293957 0 0.002540337284985063 0.00052497890535698312 0 0.0024570460638382043 0.00029144884885145026 0 0.0024783756183648724 0.00035702348452575918 0 0.0023701689405496006 0.00031150380957000779 0 0.0024783756183648724 0.00035702348452575918 0 0.0023571450953624165 0.00032958537081293957 0 0.0023701689405496006 0.00031150380957000779 0 0.0018165484409995145 -3.9971780734145866e-05 0 0.0017273882353656376 -3.8366331927059242e-05 0 0.0027030314605168567 0.0002344558439741257 0 0.0026316388708079478 0.00025888641492246553 0 0.0026168572640876903 0.00042476482120419145 0 0.0030922089729508262 0.00025808570014748786 0 0.0032399471559220994 0.00026503990837967336 0 0.0030500057415017317 0.00028443174290988983 0 0.0032399471559220994 0.00026503990837967336 0 0.0026210450685033131 0.00023932153210476847 0 0.0026046529417354338 0.00038463791251552827 0 0.0025420358351305973 0.00029927472021882391 0 0.0024783756183648724 0.00035702348452575918 0 0.0026046529417354338 0.00038463791251552827 0 0.0025420358351305973 0.00029927472021882391 0 0.0022176609602488641 -0.00029292655135519088 0 0.0021929160215904786 -0.00028845038416407348 0 0.0022238226709669225 -0.000274957191192123 0 0.0016242152963697558 -0.00016840051361302429 0 0.0019601414722152741 -0.00030628447293592034 0 0.00022067600260337376 -0.00027714817770926181 0 0.00027511360757685819 -0.00014353116334317174 0 0.00036616417821681157 -0.00021226470996960235 0 0.0022176609602488641 -0.00029292655135519088 0 0.002230700539200413 -0.00028685331399016004 0 0.0022238226709669225 -0.000274957191192123 0 0.0022176609602488641 -0.00029292655135519088 0 0.002230700539200413 -0.00028685331399016004 0 0.0022430176956989385 -0.0002952994048869225 0 0.00022067600260337376 -0.00027714817770926181 0 4.5416262090597652e-05 -0.00024636189334648962 0 0.00015716649263254303 -0.00012050016161155143 0 0.0016242152963697558 -0.00016840051361302429 0 0.0017955609957614465 -5.7735749264029722e-05 0 0.0017955609957614465 -5.7735749264029722e-05 0 0.002888660677960315 -0.00027042304862842333 0 0.002230700539200413 -0.00028685331399016004 0 0.0022430176956989385 -0.0002952994048869225 0 0.0022276009927426443 -0.00027387112985170531 0 -0.00024910633162706237 -0.00049124773393476018 0 -0.0002768884222877429 -0.00045431722616609169 0 -0.00020360350454923096 -0.00029453685200840125 0 0.0017955609957614465 -5.7735749264029722e-05 0 0.0017273882353656376 -3.8366331927059242e-05 0 0.0017955609957614465 -5.7735749264029722e-05 0 0.0010224730905438839 -0.00039804294847911066 0 -0.0003160367277229764 -0.00014004696902441806 0 -0.0002768884222877429 -0.00045431722616609169 0 -0.00020360350454923096 -0.00029453685200840125 0 -0.00024910633162706237 -0.00049124773393476018 0 -0.00020360350454923096 -0.00029453685200840125 0 5.6901838048375878e-07 -0.00025468570429251595 0 -0.0003160367277229764 -0.00014004696902441806 0 -0.00020360350454923096 -0.00029453685200840125 0 -9.6181775310608106e-05 -6.2783922779764329e-05 0 -0.00020360350454923096 -0.00029453685200840125 0 5.6901838048375878e-07 -0.00025468570429251595 0 -9.6181775310608106e-05 -6.2783922779764329e-05 0 0.00022067600260337376 -0.00027714817770926181 0 0.00015716649263254303 -0.00012050016161155143 0 0.00027511360757685819 -0.00014353116334317174 0 0.0010224730905438839 -0.00039804294847911066 0 0.00088093478583144971 -0.00041953183766178781 0 0.00015716649263254303 -0.00012050016161155143 0 0.00027511360757685819 -0.00014353116334317174 0 0.00024340233603465403 -1.4343685744871806e-05 0 0.00027511360757685819 -0.00014353116334317174 0 0.00024340233603465403 -1.4343685744871806e-05 0 0.00038515376241955035 -8.0394629077019185e-05 0 0.00024340233603465403 -1.4343685744871806e-05 0 -9.6181775310608106e-05 -6.2783922779764329e-05 0 0.00013396063797718396 0.00023611247966491824 0 0.00024340233603465403 -1.4343685744871806e-05 0 0.00013396063797718396 0.00023611247966491824 0 0.00041393138545111664 6.5356445865240781e-05 0 5.6901838048375878e-07 -0.00025468570429251595 0 0.00024340233603465403 -1.4343685744871806e-05 0 -9.6181775310608106e-05 -6.2783922779764329e-05 0 -0.00043441387213074894 0.00010999947810452097 0 -9.6181775310608106e-05 -6.2783922779764329e-05 0 0.00013396063797718396 0.00023611247966491824 0 -0.00043441387213074894 0.00010999947810452097 0 -0.0003160367277229764 -0.00014004696902441806 0 -9.6181775310608106e-05 -6.2783922779764329e-05 0 -0.00053784743939750193 5.6410615212755275e-05 0 -0.00043441387213074894 0.00010999947810452097 0 -0.00073157893978941456 0.0001307090117608406 0 -0.00038624990456278944 9.4652891628824051e-05 0 -0.00033168773907752607 0.00010117055272366363 0 -0.00053784743939750193 5.6410615212755275e-05 0 -0.00073157893978941456 0.0001307090117608406 0 -0.00063418292123692719 -4.4253341824479774e-06 0 -0.00033168773907752607 0.00010117055272366363 0 -0.00027387273807246966 8.0440706940668489e-05 0 -0.00073157893978941456 0.0001307090117608406 0 -0.00092060629287327904 3.4631989711172291e-05 0 -0.00079475138210751372 -9.1640004280269688e-06 0 0.00013396063797718396 0.00023611247966491824 0 0.00047845346802952019 0.00017215156558497835 0 0.00041393138545111664 6.5356445865240781e-05 0 0.00047845346802952019 0.00017215156558497835 0 0.00053932576601460277 0.00010552578290663749 0 0.00041393138545111664 6.5356445865240781e-05 0 0.00047845346802952019 0.00017215156558497835 0 0.00053932576601460277 0.00010552578290663749 0 0.00048665227103149273 -1.6859399612029118e-05 0 0.00053932576601460277 0.00010552578290663749 0 0.00061971045403318061 4.5527264946122407e-05 0 0.00050256546838659693 -8.092390586181748e-06 0 0.00053932576601460277 0.00010552578290663749 0 0.00050256546838659693 -8.092390586181748e-06 0 0.00041393138545111664 6.5356445865240781e-05 0 0.00050256546838659693 -8.092390586181748e-06 0 0.00041393138545111664 6.5356445865240781e-05 0 0.00038515376241955035 -8.0394629077019185e-05 0 0.00024340233603465403 -1.4343685744871806e-05 0 0.00041393138545111664 6.5356445865240781e-05 0 0.00038515376241955035 -8.0394629077019185e-05 0 0.00045673393817268761 3.7171096737219146e-07 0 0.00052777292816353607 0.00010114796704943182 0 0.00011319154388688126 5.073326859739849e-05 0 0.00052777292816353607 0.00010114796704943182 0 0.00048665227103149273 -1.6859399612029118e-05 0 0.00011319154388688126 5.073326859739849e-05 0 0.00053932576601460277 0.00010552578290663749 0 0.00052777292816353607 0.00010114796704943182 0 0.00048665227103149273 -1.6859399612029118e-05 0 0.00053932576601460277 0.00010552578290663749 0 0.00061971045403318061 4.5527264946122407e-05 0 0.00052777292816353607 0.00010114796704943182 0 0.00061971045403318061 4.5527264946122407e-05 0 0.00052777292816353607 0.00010114796704943182 0 0.00073066314966255047 6.2246101069553348e-05 0 0.00045673393817268761 3.7171096737219146e-07 0 0.00073066314966255047 6.2246101069553348e-05 0 0.00099182100870264314 1.2665747316339787e-05 0 0.00045673393817268761 3.7171096737219146e-07 0 0.00052777292816353607 0.00010114796704943182 0 0.00073066314966255047 6.2246101069553348e-05 0 0.00045673393817268761 3.7171096737219146e-07 0 0.0013190637510515342 1.7613026902376041e-07 0 0.00099182100870264314 1.2665747316339787e-05 0 0.0013190637510515342 1.7613026902376041e-07 0 0.00099182100870264314 1.2665747316339787e-05 0 0.0012190572627476335 2.9181835457286235e-05 0 0.0016432511965243917 -0.00045349040342008035 0 0.0017501947413744892 -0.0004648132829741168 0 0.00099182100870264314 1.2665747316339787e-05 0 0.0012152884045349348 2.9261598289408778e-05 0 0.0012190572627476335 2.9181835457286235e-05 0 0.00073066314966255047 6.2246101069553348e-05 0 0.00099182100870264314 1.2665747316339787e-05 0 0.00069255519086843128 -5.2590001404577521e-05 0 0.00061971045403318061 4.5527264946122407e-05 0 0.00073066314966255047 6.2246101069553348e-05 0 0.00069255519086843128 -5.2590001404577521e-05 0 0.00069255519086843128 -5.2590001404577521e-05 0 0.00069584485907157455 -0.00023236929975485937 0 0.00062697307543063295 -0.0001710545511649533 0 0.00099182100870264314 1.2665747316339787e-05 0 0.00069255519086843128 -5.2590001404577521e-05 0 0.00069584485907157455 -0.00023236929975485937 0 0.0012152884045349348 2.9261598289408778e-05 0 0.0012143795932613715 1.3797202968826264e-06 0 0.0012190572627476335 2.9181835457286235e-05 0 0.0012152884045349348 2.9261598289408778e-05 0 0.0012143795932613715 1.3797202968826264e-06 0 0.0011607151102620862 -1.9442146833917642e-05 0 0.0012143795932613715 1.3797202968826264e-06 0 0.0012718574182252335 -2.5568023938798321e-05 0 0.0011452924446897286 -8.4924416998595798e-05 0 0.0012718574182252335 -2.5568023938798321e-05 0 0.0012190572627476335 2.9181835457286235e-05 0 0.0014803498865504563 1.4690221552001884e-05 0 0.0012143795932613715 1.3797202968826264e-06 0 0.0012718574182252335 -2.5568023938798321e-05 0 0.0012190572627476335 2.9181835457286235e-05 0 0.0012718574182252335 -2.5568023938798321e-05 0 0.0014803498865504563 1.4690221552001884e-05 0 0.0013687110039058321 -0.00017002862089594113 0 0.0013190637510515342 1.7613026902376041e-07 0 0.0014803498865504563 1.4690221552001884e-05 0 0.0021807388699606402 -5.9337704025710186e-07 0 0.0013190637510515342 1.7613026902376041e-07 0 0.0012190572627476335 2.9181835457286235e-05 0 0.0014803498865504563 1.4690221552001884e-05 0 0.00046862414491114131 -0.0001696653135284748 0 0.00038515376241955035 -8.0394629077019185e-05 0 0.00036616417821681157 -0.00021226470996960235 0 0.00027511360757685819 -0.00014353116334317174 0 0.00038515376241955035 -8.0394629077019185e-05 0 0.00036616417821681157 -0.00021226470996960235 0 0.00050256546838659693 -8.092390586181748e-06 0 0.00046862414491114131 -0.0001696653135284748 0 0.00038515376241955035 -8.0394629077019185e-05 0 0.00050256546838659693 -8.092390586181748e-06 0 0.00046862414491114131 -0.0001696653135284748 0 0.00057350040674602207 -9.6755945041019877e-05 0 0.00061971045403318061 4.5527264946122407e-05 0 0.00050256546838659693 -8.092390586181748e-06 0 0.00057350040674602207 -9.6755945041019877e-05 0 0.00061971045403318061 4.5527264946122407e-05 0 0.00069255519086843128 -5.2590001404577521e-05 0 0.00057350040674602207 -9.6755945041019877e-05 0 0.00069255519086843128 -5.2590001404577521e-05 0 0.00057350040674602207 -9.6755945041019877e-05 0 0.00062697307543063295 -0.0001710545511649533 0 0.00057350040674602207 -9.6755945041019877e-05 0 0.00062697307543063295 -0.0001710545511649533 0 0.00054964235556049503 -0.00019325249029931242 0 0.00046862414491114131 -0.0001696653135284748 0 0.00057350040674602207 -9.6755945041019877e-05 0 0.00054964235556049503 -0.00019325249029931242 0 0.00046862414491114131 -0.0001696653135284748 0 0.00048288275624990554 -0.000231725729490509 0 0.00054964235556049503 -0.00019325249029931242 0 0.00048288275624990554 -0.000231725729490509 0 0.00054964235556049503 -0.00019325249029931242 0 0.00064259811875460476 -0.00025790183729290829 0 0.00064259811875460476 -0.00025790183729290829 0 0.00057057988429331846 -0.00032195373410092608 0 0.00045130019779338624 -0.00032582319683211743 0 0.0013529851965256837 -0.00046027721315801585 0 0.0019601414722152741 -0.00030628447293592034 0 0.00048288275624990554 -0.000231725729490509 0 0.00064259811875460476 -0.00025790183729290829 0 0.00040443732207924707 -0.00033383182846940943 0 0.0017501947413744892 -0.0004648132829741168 0 0.0022021823331670226 -0.00039747269115808048 0 0.00069584485907157455 -0.00023236929975485937 0 0.00064259811875460476 -0.00025790183729290829 0 0.00057057988429331846 -0.00032195373410092608 0 0.00069584485907157455 -0.00023236929975485937 0 0.00062697307543063295 -0.0001710545511649533 0 0.00064259811875460476 -0.00025790183729290829 0 0.00062697307543063295 -0.0001710545511649533 0 0.00054964235556049503 -0.00019325249029931242 0 0.00064259811875460476 -0.00025790183729290829 0 0.0012143795932613715 1.3797202968826264e-06 0 0.0011607151102620862 -1.9442146833917642e-05 0 0.0011452924446897286 -8.4924416998595798e-05 0 0.0012152884045349348 2.9261598289408778e-05 0 0.0011607151102620862 -1.9442146833917642e-05 0 0.0011117889507633002 -2.6851716728116165e-05 0 0.002143527844542012 -0.00040320148637140854 0 0.0022021823331670226 -0.00039747269115808048 0 0.0025007159901605236 -0.00022236800889585345 0 0.0025585010795020221 -0.0002669287950976708 0 0.0011607151102620862 -1.9442146833917642e-05 0 0.0011214157498193663 -3.7024488526838642e-05 0 0.0011452924446897286 -8.4924416998595798e-05 0 0.0011607151102620862 -1.9442146833917642e-05 0 0.0011214157498193663 -3.7024488526838642e-05 0 0.0011044656215454969 -3.6641592890922782e-05 0 0.0011214157498193663 -3.7024488526838642e-05 0 0.0010729064082739873 -6.4596557725182853e-05 0 0.0011623072971554101 -8.657158842034608e-05 0 0.0011214157498193663 -3.7024488526838642e-05 0 0.0011044656215454969 -3.6641592890922782e-05 0 0.0010729064082739873 -6.4596557725182853e-05 0 0.0022021823331670226 -0.00039747269115808048 0 0.0024953396884571147 -0.00031711856025148032 0 0.0022021823331670226 -0.00039747269115808048 0 0.0023301847434013308 -0.00033201790823820978 0 0.0024927958157243916 -0.00026543584000532453 0 0.0024669714780540994 -0.0002878238517894134 0 0.0024377910085166513 -0.00028053174434071915 0 0.0024953396884571147 -0.00031711856025148032 0 0.0023301847434013308 -0.00033201790823820978 0 0.00022067600260337376 -0.00027714817770926181 0 0.00040443732207924707 -0.00033383182846940943 0 0.00036616417821681157 -0.00021226470996960235 0 0.00057057988429331846 -0.00032195373410092608 0 0.00050212770640077999 -0.00033941004074356022 0 0.00045130019779338624 -0.00032582319683211743 0 0.0023301847434013308 -0.00033201790823820978 0 0.0019601414722152741 -0.00030628447293592034 0 0.00048288275624990554 -0.000231725729490509 0 0.00040443732207924707 -0.00033383182846940943 0 0.00036616417821681157 -0.00021226470996960235 0 0.00046862414491114131 -0.0001696653135284748 0 0.00048288275624990554 -0.000231725729490509 0 0.00036616417821681157 -0.00021226470996960235 0 0.0023301847434013308 -0.00033201790823820978 0 0.0028181431690474331 -0.00026849670324419168 0 0.0040719984808772229 -0.00082409165978210091 0 0.0041302209967815024 -0.00083797876276301439 0 0.0043297636878859959 -0.00060266113470168101 0 0.0042014420334482777 -0.00082874293083197176 0 0.0044223746293625176 -0.00061027136987471583 0 0.0041524146030398855 -0.00067715675029025283 0 0.0041302209967815024 -0.00083797876276301439 0 0.0043297636878859959 -0.00060266113470168101 0 0.0045495648578689528 -0.00071629864140825721 0 0.0020482666356223334 -0.00040326424391394966 0 0.0021821958187906447 -0.00043449213653263641 0 0.0027564813738237713 -0.00019467821592130134 0 0.0024953396884571147 -0.00031711856025148032 0 0.0035428674083095159 -0.00013501252995187882 0 0.0024953396884571147 -0.00031711856025148032 0 0.0025585010795020221 -0.0002669287950976708 0 0.0042014420334482777 -0.00082874293083197176 0 0.0040768350382821188 -0.00080121979278695928 0 0.0041524146030398855 -0.00067715675029025283 0 0.0041848013642173934 -0.0005280782382389189 0 0.0038177918563282159 -0.00055734660710146904 0 0.0041491392046239216 -0.00029684135750543996 0 0.0041524146030398855 -0.00067715675029025283 0 0.0041848013642173934 -0.0005280782382389189 0 0.0038177918563282159 -0.00055734660710146904 0 0.0041848013642173934 -0.0005280782382389189 0 0.0043239815552534354 -0.00045290511226524249 0 0.0041491392046239216 -0.00029684135750543996 0 0.0044223746293625176 -0.00061027136987471583 0 0.0041848013642173934 -0.0005280782382389189 0 0.0043239815552534354 -0.00045290511226524249 0 0.0044223746293625176 -0.00061027136987471583 0 0.0041524146030398855 -0.00067715675029025283 0 0.0041848013642173934 -0.0005280782382389189 0 0.0043239815552534354 -0.00045290511226524249 0 0.0044106645175648251 -0.00033718053567226649 0 0.0044366655118349418 -0.00045524031376248636 0 0.0044223746293625176 -0.00061027136987471583 0 0.0043239815552534354 -0.00045290511226524249 0 0.0044366655118349418 -0.00045524031376248636 0 0.0021816956094987765 -2.5553955314672214e-07 0 0.0022031995919395719 -0.000103909566337536 0 0.0014803498865504563 1.4690221552001884e-05 0 0.0021807388699606402 -5.9337704025710186e-07 0 0.0013687110039058321 -0.00017002862089594113 0 0.0021827591919570586 -1.3494027217855703e-07 0 0.0024896658312592258 -0.00013120204104597589 0 0.0025164351996049984 4.4764283046247492e-05 0 0.0025585010795020221 -0.0002669287950976708 0 0.0022031995919395719 -0.000103909566337536 0 0.0012718574182252335 -2.5568023938798321e-05 0 0.0011452924446897286 -8.4924416998595798e-05 0 0.0013687110039058321 -0.00017002862089594113 0 0.0040768350382821188 -0.00080121979278695928 0 0.0041524146030398855 -0.00067715675029025283 0 0.0038177918563282159 -0.00055734660710146904 0 0.0026588768908404146 -0.00017260411727312207 0 0.0024896658312592258 -0.00013120204104597589 0 0.0025164351996049984 4.4764283046247492e-05 0 0.0025585010795020221 -0.0002669287950976708 0 0.0030208752509708193 -0.00021729819975851951 0 0.0021827591919570586 -1.3494027217855703e-07 0 0.0025164351996049984 4.4764283046247492e-05 0 0.0027087856129382861 1.3437224934960778e-07 0 0.0025164351996049984 4.4764283046247492e-05 0 0.0027087856129382861 1.3437224934960778e-07 0 0.0032352233859677271 -1.3422414703107788e-07 0 0.0030208752509708193 -0.00021729819975851951 0 0.0032354820335066216 -2.6598095402538227e-07 0 0.0038177918563282159 -0.00055734660710146904 0 0.0032371227303909463 -7.9673867528534627e-07 0 0.0038756779072775596 -0.00017178714895744535 0 0.0038177918563282159 -0.00055734660710146904 0 0.0038756779072775596 -0.00017178714895744535 0 0.0041491392046239216 -0.00029684135750543996 0 0.0038756779072775596 -0.00017178714895744535 0 0.004057402042618786 -3.2532473260931928e-05 0 0.0041491392046239216 -0.00029684135750543996 0 0.0038756779072775596 -0.00017178714895744535 0 0.004057402042618786 -3.2532473260931928e-05 0 0.0038320393605354398 2.5583973433828982e-05 0 0.0039337376954082506 4.5402971298030586e-07 0 0.0032371227303909463 -7.9673867528534627e-07 0 0.0038320393605354398 2.5583973433828982e-05 0 0.0032371227303909463 -7.9673867528534627e-07 0 0.0038756779072775596 -0.00017178714895744535 0 0.0038320393605354398 2.5583973433828982e-05 0 0.0043727267523793632 -0.00033463190339255402 0 0.0042868192501312047 -0.00033036778769320518 0 0.0043377485427184012 -0.00026124348450187062 0 0.0041491392046239216 -0.00029684135750543996 0 0.0042531945762916976 -0.00011949852977285287 0 0.0043239815552534354 -0.00045290511226524249 0 0.0044106645175648251 -0.00033718053567226649 0 0.0041491392046239216 -0.00029684135750543996 0 0.004057402042618786 -3.2532473260931928e-05 0 0.0041491392046239216 -0.00029684135750543996 0 0.0042531945762916976 -0.00011949852977285287 0 0.0042147166862330923 -2.6001200563049672e-05 0 0.004057402042618786 -3.2532473260931928e-05 0 0.0042531945762916976 -0.00011949852977285287 0 0.0043054295587701668 -2.4622635439815677e-05 0 0.0042531945762916976 -0.00011949852977285287 0 0.0043769724685610535 -0.00015670752471482816 0 0.0043377485427184012 -0.00026124348450187062 0 0.0042531945762916976 -0.00011949852977285287 0 0.0043769724685610535 -0.00015670752471482816 0 0.0048367460987206092 -0.00041520963178642677 0 0.0050909429979526868 -0.00058973040319113175 0 0.0043054295587701668 -2.4622635439815677e-05 0 0.0043769724685610535 -0.00015670752471482816 0 0.0044897650390352314 -0.00012829358359757638 0 0.0043769724685610535 -0.00015670752471482816 0 0.0044867392398342237 -0.00019703306711680183 0 0.0044897650390352314 -0.00012829358359757638 0 0.0044106645175648251 -0.00033718053567226649 0 0.0046266076601509838 -0.00033232065573970921 0 0.0045833137631779777 -0.00042036807939916255 0 0.0044106645175648251 -0.00033718053567226649 0 0.0044366655118349418 -0.00045524031376248636 0 0.0045833137631779777 -0.00042036807939916255 0 0.0043377485427184012 -0.00026124348450187062 0 0.0043769724685610535 -0.00015670752471482816 0 0.0044384166079220961 -0.00023678497663293823 0 0.0043727267523793632 -0.00033463190339255402 0 0.0044923549787210301 -0.00035293541875261296 0 0.0043377485427184012 -0.00026124348450187062 0 0.0044384166079220961 -0.00023678497663293823 0 0.0044913620327275946 -0.00025108238900187495 0 0.0043769724685610535 -0.00015670752471482816 0 0.0044384166079220961 -0.00023678497663293823 0 0.0044867392398342237 -0.00019703306711680183 0 0.0044923549787210301 -0.00035293541875261296 0 0.0047993872857991409 -0.00042461691047512758 0 0.0050909429979526868 -0.00058973040319113175 0 0.0047993872857991409 -0.00042461691047512758 0 0.0046266076601509838 -0.00033232065573970921 0 0.0048500396709360944 -0.00039864273646213113 0 0.0047085856669619166 -0.00046335020289594279 0 0.0044976146889177098 -0.00025542353753580071 0 0.0044867392398342237 -0.00019703306711680183 0 0.0046612443197587509 -0.00024997285705956427 0 0.0044923549787210301 -0.00035293541875261296 0 0.0041581660315025346 -0.00026819139429308346 0 0.0044867392398342237 -0.00019703306711680183 0 0.0044897650390352314 -0.00012829358359757638 0 0.0046612443197587509 -0.00024997285705956427 0 0.0044384166079220961 -0.00023678497663293823 0 0.0044976146889177098 -0.00025542353753580071 0 0.0044867392398342237 -0.00019703306711680183 0 0.0044873966158376121 -0.00034903049133746356 0 0.0044923549787210301 -0.00035293541875261296 0 0.0065543128236936355 -0.00090958250946974529 0 0.006188431791371028 -0.0011997777007390466 0 0.0066674381467559081 -0.001147686752725781 0 0.006188431791371028 -0.0011997777007390466 0 0.0066674381467559081 -0.001147686752725781 0 0.0067036263709028959 -0.0014419598961113213 0 0.0068401658360055656 -0.0008977342575089513 0 0.0065543128236936355 -0.00090958250946974529 0 0.0066674381467559081 -0.001147686752725781 0 0.0068401658360055656 -0.0008977342575089513 0 0.0066674381467559081 -0.001147686752725781 0 0.006893686142996229 -0.0011324474012410822 0 0.0066674381467559081 -0.001147686752725781 0 0.006893686142996229 -0.0011324474012410822 0 0.006779089625480037 -0.0012940690436169726 0 0.0068401658360055656 -0.0008977342575089513 0 0.0070756241726290118 -0.00095661644089413303 0 0.006893686142996229 -0.0011324474012410822 0 0.006893686142996229 -0.0011324474012410822 0 0.0070733424948375874 -0.0012307984285893094 0 0.0069052461467704737 -0.0012875543882865997 0 0.006893686142996229 -0.0011324474012410822 0 0.0069052461467704737 -0.0012875543882865997 0 0.006779089625480037 -0.0012940690436169726 0 0.0070756241726290118 -0.00095661644089413303 0 0.006893686142996229 -0.0011324474012410822 0 0.0070733424948375874 -0.0012307984285893094 0 0.0073232391815539885 -0.001080386226119615 0 0.0070756241726290118 -0.00095661644089413303 0 0.0070733424948375874 -0.0012307984285893094 0 0.007423477838974033 -0.0013675797798503209 0 0.0070733424948375874 -0.0012307984285893094 0 0.006954204503037297 -0.0013960114707594197 0 0.0070733424948375874 -0.0012307984285893094 0 0.006954204503037297 -0.0013960114707594197 0 0.0069052461467704737 -0.0012875543882865997 0 0.0046707280720089039 -0.00033155527987236745 0 0.0047038983738747096 -0.00041290441031744367 0 0.006954204503037297 -0.0013960114707594197 0 0.0069052461467704737 -0.0012875543882865997 0 0.0068413706494288148 -0.0014036369875730335 0 0.0046707280720089039 -0.00033155527987236745 0 0.0042602633082816114 -0.00014947562149862314 0 0.0044587592838663025 -0.00026672817793662961 0 0.0043046569929984131 -0.00027186614695199994 0 0.0044059682926181534 -0.00048045835968817677 0 0.0044587592838663025 -0.00026672817793662961 0 0.0044856383338085616 -0.00053819758401283454 0 0.0044059682926181534 -0.00048045835968817677 0 0.0047038983738747096 -0.00041290441031744367 0 0.0043718337621795915 -0.0002225954452988973 0 0.0044495486755834739 -0.00012331222626098335 0 0.0045193714710798092 -0.00018339283469404711 0 0.0044591395270145153 -0.00022066257716516144 0 0.0045064392558286448 -0.00032925123583319945 0 0.0044581870158459129 -0.00032931954691874533 0 0.0044634343644235491 -0.00032515293445379748 0 0.0045064392558286448 -0.00032925123583319945 0 0.0044578307380189041 -0.00031317079005228221 0 0.0044634343644235491 -0.00032515293445379748 0 0.0066674381467559081 -0.001147686752725781 0 0.006779089625480037 -0.0012940690436169726 0 0.0067036263709028959 -0.0014419598961113213 0 0.0069052461467704737 -0.0012875543882865997 0 0.006779089625480037 -0.0012940690436169726 0 0.0068413706494288148 -0.0014036369875730335 0 0.006779089625480037 -0.0012940690436169726 0 0.0067036263709028959 -0.0014419598961113213 0 0.0068470750405247574 -0.0014347383510118286 0 0.0047863945845389591 -0.00051693655892158204 0 0.0047038983738747096 -0.00041290441031744367 0 0.0044581870158459129 -0.00032931954691874533 0 0.0044578337065368815 -0.00031164986257630606 0 0.0044634343644235491 -0.00032515293445379748 0 0.0044581870158459129 -0.00032931954691874533 0 0.0044578337065368815 -0.00031164986257630606 0 0.00443150522346569 -0.00030887114462959628 0 0.0045410779382197338 -0.00037750280762276412 0 0.0046218207673149716 -0.00037462955506599314 0 0.0046675922848900403 -0.00046909176254849856 0 0.0047993872857991409 -0.00042461691047512758 0 0.0043718337621795915 -0.0002225954452988973 0 0.0047993872857991409 -0.00042461691047512758 0 0.0047038983738747096 -0.00041290441031744367 0 0.0041581660315025346 -0.00026819139429308346 0 0.0041643220821527263 -0.00027431046956713327 0 0.0048500396709360944 -0.00039864273646213113 0 0.004805308317590247 -0.00049835295604200368 0 0.0047085856669619166 -0.00046335020289594279 0 0.0048500396709360944 -0.00039864273646213113 0 0.0049113165000411116 -0.00053091365243391239 0 0.004805308317590247 -0.00049835295604200368 0 0.003941752454545009 -0.00010829981499009565 0 0.0039488633404220902 -0.00012375054956509233 0 0.0039573249214070643 -0.00011248247435796363 0 0.0041581660315025346 -0.00026819139429308346 0 0.0037440926417939484 -8.1387371768106031e-05 0 0.0041581660315025346 -0.00026819139429308346 0 0.0042397658490596537 -0.00016288387604843158 0 0.0037216459552090711 1.7497799976003943e-05 0 0.0037627455158468007 -7.180134306447975e-05 0 0.0033674680450573617 -0.00018691571893575488 0 0.0037440926417939484 -8.1387371768106031e-05 0 0.0035797661101281031 7.9369816439241333e-06 0 0.0037440926417939484 -8.1387371768106031e-05 0 0.0035008172428638135 -0.00014388504734201888 0 0.0049113165000411116 -0.00053091365243391239 0 0.004805308317590247 -0.00049835295604200368 0 0.0047503006437431775 -0.00060178179158606635 0 0.004805308317590247 -0.00049835295604200368 0 0.0047503006437431775 -0.00060178179158606635 0 0.0047085856669619166 -0.00046335020289594279 0 0.0042955173026977839 -1.744841237110253e-06 0 0.0041771018097683174 -2.4608390877335777e-05 0 0.0039370154741870354 3.784297740914431e-05 0 0.0039862010649600946 2.3180463813391785e-05 0 0.0038377669654902124 -0.00013782496597694051 0 0.0041453982887668878 -0.00018479498099163583 0 0.0042054307671268573 -0.00016025472237817215 0 0.0041761628395994227 -0.00015141086430452895 0 0.0041771018097683174 -2.4608390877335777e-05 0 0.0041414960326386857 4.13228129177501e-06 0 0.0045625767174269465 -0.00023442094526703977 0 0.0045193714710798092 -0.00018339283469404711 0 0.0045245010743226117 -0.00025013991030062581 0 0.0041771018097683174 -2.4608390877335777e-05 0 0.0042602633082816114 -0.00014947562149862314 0 0.0045193714710798092 -0.00018339283469404711 0 0.0045245010743226117 -0.00025013991030062581 0 0.0044591395270145153 -0.00022066257716516144 0 0.0041771018097683174 -2.4608390877335777e-05 0 0.0040238205544029645 -4.2958098411824552e-05 0 0.0041676083684726245 0.0001393478374285582 0 0.0040234720198263187 9.559751922056376e-05 0 0.004012109754955963 0.00020968854343503016 0 0.0039488633404220902 -0.00012375054956509233 0 0.0039601495984440942 -0.00011820332517393068 0 0.0039573249214070643 -0.00011248247435796363 0 0.0044578337065368815 -0.00031164986257630606 0 0.0044281166119778384 -0.00030172723595869335 0 0.00443150522346569 -0.00030887114462959628 0 0.0040238205544029645 -4.2958098411824552e-05 0 0.0042602633082816114 -0.00014947562149862314 0 0.0040238205544029645 -4.2958098411824552e-05 0 0.0042397658490596537 -0.00016288387604843158 0 0.0040773264767735911 -0.00027626609260088519 0 0.0040679376163328942 -0.00018078985245699328 0 0.004036148677852988 -0.00019147038724230797 0 0.0043824701576393038 -8.5590293535706686e-05 0 0.0042680417088611696 -0.00012409376389204346 0 0.0041768165664285116 6.3495138275918887e-05 0 0.0042397658490596537 -0.00016288387604843158 0 0.0043718337621795915 -0.0002225954452988973 0 0.0042602633082816114 -0.00014947562149862314 0 0.0043718337621795915 -0.0002225954452988973 0 0.0042602633082816114 -0.00014947562149862314 0 0.0042397658490596537 -0.00016288387604843158 0 0.0037440926417939484 -8.1387371768106031e-05 0 0.0040238205544029645 -4.2958098411824552e-05 0 0.0037227010410953976 -9.2986427856551519e-05 0 0.0039059505636992041 -2.4615778467518558e-06 0 0.0039179516767115907 -0.00012359878541503121 0 0.0037227010410953976 -9.2986427856551519e-05 0 0.0037580525229827656 -0.00016980732955000042 0 0.0039179516767115907 -0.00012359878541503121 0 0.0034126144808541356 -1.0538325769492923e-05 0 0.0034566335537650414 2.218539682536078e-06 0 0.0034260035136376025 -3.9795795844332006e-05 0 0.0035797661101281031 7.9369816439241333e-06 0 0.0037537524754460124 6.5708904390450606e-05 0 0.0040238205544029645 -4.2958098411824552e-05 0 0.0037537524754460124 6.5708904390450606e-05 0 0.0039370154741870354 3.784297740914431e-05 0 0.0037759527242636234 -1.1008636511657956e-05 0 0.0038377669654902124 -0.00013782496597694051 0 0.0039661246951889018 7.6886361173307498e-05 0 0.0039452983731936113 0.00028289875514131223 0 0.0038753562415140851 0.00026282409492796608 0 0.0040238205544029645 -4.2958098411824552e-05 0 0.0038359121255914694 8.1233701107137691e-05 0 0.0037537524754460124 6.5708904390450606e-05 0 0.0038359121255914694 8.1233701107137691e-05 0 0.0041414960326386857 4.13228129177501e-06 0 0.0038359121255914694 8.1233701107137691e-05 0 0.0024783756183648724 0.00035702348452575918 0 0.0026046529417354338 0.00038463791251552827 0 0.002540337284985063 0.00052497890535698312 0 0.0032399471559220994 0.00026503990837967336 0 0.0034093824333125394 9.1955946123234455e-05 0 0.0032423842288919744 0.00043306467092209326 0 0.0038359121255914694 8.1233701107137691e-05 0 0.0027622258482344936 0.00034669340536849964 0 0.0026790065261941896 0.00049281112631267821 0 0.0026910642406826673 0.00049620289993298745 0 0.0035027007753056531 0.00025864241804886371 0 0.0035305857116246517 -6.9127079594637892e-06 0 0.0035884981069442298 7.4016812221881092e-05 0 0.0032399471559220994 0.00026503990837967336 0 0.0037537524754460124 6.5708904390450606e-05 0 0.0027622258482344936 0.00034669340536849964 0 0.0026889467362334715 0.0003470549452160954 0 0.0026790065261941896 0.00049281112631267821 0 0.0037537524754460124 6.5708904390450606e-05 0 0.0034093824333125394 9.1955946123234455e-05 0 0.0035797661101281031 7.9369816439241333e-06 0 0.0034093824333125394 9.1955946123234455e-05 0 0.0028572646030254382 7.4028485390038604e-05 0 0.002890672083469555 1.0132271722037684e-06 0 0.0026240689210646801 6.4604828114983271e-06 0 0.0017955609957614465 -5.7735749264029722e-05 0 0.0034093824333125394 9.1955946123234455e-05 0 0.0025843873397199233 -0.0003293428486688889 0 0.002890672083469555 1.0132271722037684e-06 0 0.0026240689210646801 6.4604828114983271e-06 0 0.0037216459552090711 1.7497799976003943e-05 0 0.0033674680450573617 -0.00018691571893575488 0 0.0033443522937507174 -0.00013870675340523368 0 0.0035797661101281031 7.9369816439241333e-06 0 0.0031644818679602686 -0.00014095861708843978 0 0.0025843873397199233 -0.0003293428486688889 0 0.0026240689210646801 6.4604828114983271e-06 0 0.0023917893514938554 -6.1171274394159996e-05 0 0.0035008172428638135 -0.00014388504734201888 0 0.002888660677960315 -0.00027042304862842333 0 0.0031644818679602686 -0.00014095861708843978 0 0.002888660677960315 -0.00027042304862842333 0 0.0033674680450573617 -0.00018691571893575488 0 0.0033443522937507174 -0.00013870675340523368 0 0.0029722303424834563 -0.00030324509909172821 0 0.0045815751239812012 -0.00068271315405224399 0 0.0045182783632423361 -0.00060339188562817322 0 0.0046079320643669271 -0.00058754604440737187 0 0.0047503006437431775 -0.00060178179158606635 0 0.0045815751239812012 -0.00068271315405224399 0 0.0046079320643669271 -0.00058754604440737187 0 0.002230700539200413 -0.00028685331399016004 0 0.0022276009927426443 -0.00027387112985170531 0 0.0022238226709669225 -0.000274957191192123 0 0.0019601414722152741 -0.00030628447293592034 0 0.0028181431690474331 -0.00026849670324419168 0 0.002888660677960315 -0.00027042304862842333 0 0.0028181431690474331 -0.00026849670324419168 0 0.0043297636878859959 -0.00060266113470168101 0 0.0045495648578689528 -0.00071629864140825721 0 0.0045182783632423361 -0.00060339188562817322 0 0.0045907283455233257 -0.00070404088823554183 0 0.0045495648578689528 -0.00071629864140825721 0 0.0045182783632423361 -0.00060339188562817322 0 0.002888660677960315 -0.00027042304862842333 0 0.0029966046336794903 -0.00036371900098798631 0 0.0045182783632423361 -0.00060339188562817322 0 0.004544933973694436 -0.00053140612035360415 0 0.0046079320643669271 -0.00058754604440737187 0 0.0043297636878859959 -0.00060266113470168101 0 0.004544933973694436 -0.00053140612035360415 0 0.0045833137631779777 -0.00042036807939916255 0 0.0044223746293625176 -0.00061027136987471583 0 0.0044366655118349418 -0.00045524031376248636 0 0.0045833137631779777 -0.00042036807939916255 0 0.0035428674083095159 -0.00013501252995187882 0 0.0038395741555037784 -8.8821161842320682e-05 0 0.0043297636878859959 -0.00060266113470168101 0 0.0045182783632423361 -0.00060339188562817322 0 0.004544933973694436 -0.00053140612035360415 0 0.0046266076601509838 -0.00033232065573970921 0 0.0045833137631779777 -0.00042036807939916255 0 0.0047085856669619166 -0.00046335020289594279 0 0.004544933973694436 -0.00053140612035360415 0 0.0045833137631779777 -0.00042036807939916255 0 0.0046391387696637539 -0.00052003292262007867 0 0.0045833137631779777 -0.00042036807939916255 0 0.0047085856669619166 -0.00046335020289594279 0 0.0046391387696637539 -0.00052003292262007867 0 0.0047503006437431775 -0.00060178179158606635 0 0.0047085856669619166 -0.00046335020289594279 0 0.0046391387696637539 -0.00052003292262007867 0 0.0047503006437431775 -0.00060178179158606635 0 0.0046079320643669271 -0.00058754604440737187 0 0.0046391387696637539 -0.00052003292262007867 0 0.004544933973694436 -0.00053140612035360415 0 0.0046079320643669271 -0.00058754604440737187 0 0.0046391387696637539 -0.00052003292262007867 0 0.0043633245430514311 0.00075718287515260123 0 0.0045773502698137807 0.00087840166291726764 0 0.0045239831500843994 0.00072654733811462497 0 0.0043633245430514311 0.00075718287515260123 0 0.0045239831500843994 0.00072654733811462497 0 0.0044117970804373099 0.00060727597485099941 0 0.0043633245430514311 0.00075718287515260123 0 0.0044117970804373099 0.00060727597485099941 0 0.0042560057110662677 0.00057816562176858264 0 0.0043633245430514311 0.00075718287515260123 0 0.0041536741778666481 0.00067096560623531188 0 0.0041796983952290057 0.00080279357896421749 0 0.0043633245430514311 0.00075718287515260123 0 0.0041536741778666481 0.00067096560623531188 0 0.0042560057110662677 0.00057816562176858264 0 0.0041536741778666481 0.00067096560623531188 0 0.0042560057110662677 0.00057816562176858264 0 0.0041051708899517547 0.00055839350612041036 0 0.0041536741778666481 0.00067096560623531188 0 0.0041796983952290057 0.00080279357896421749 0 0.0040534003399651302 0.00075539167740232695 0 0.0043633245430514311 0.00075718287515260123 0 0.0041796983952290057 0.00080279357896421749 0 0.0042623819624038415 0.00090376950404873842 0 0.0042623819624038415 0.00090376950404873842 0 0.0040814909262514307 0.00091294761034271409 0 0.0042437799539893186 0.0010143551152191619 0 0.0041796983952290057 0.00080279357896421749 0 0.0042623819624038415 0.00090376950404873842 0 0.0040814909262514307 0.00091294761034271409 0 0.0042623819624038415 0.00090376950404873842 0 0.0044013962675645557 0.00093388779626231682 0 0.0042437799539893186 0.0010143551152191619 0 0.0043633245430514311 0.00075718287515260123 0 0.0044013962675645557 0.00093388779626231682 0 0.0045773502698137807 0.00087840166291726764 0 0.0043633245430514311 0.00075718287515260123 0 0.0042623819624038415 0.00090376950404873842 0 0.0044013962675645557 0.00093388779626231682 0 0.0044013962675645557 0.00093388779626231682 0 0.0045773502698137807 0.00087840166291726764 0 0.0046114880499479793 0.0010358513003134394 0 0.0045773502698137807 0.00087840166291726764 0 0.0047598831835628146 0.0010020561586916151 0 0.0046114880499479793 0.0010358513003134394 0 0.0045773502698137807 0.00087840166291726764 0 0.0047598831835628146 0.0010020561586916151 0 0.0047548213138785041 0.0008728856629855264 0 0.0047598831835628146 0.0010020561586916151 0 0.0049197099169378455 0.0010688653095405111 0 0.0048941470600039425 0.0009640643846147367 0 0.0047548213138785041 0.0008728856629855264 0 0.004895979432823004 0.00083743953457235669 0 0.0048941470600039425 0.0009640643846147367 0 0.0047598831835628146 0.0010020561586916151 0 0.0047548213138785041 0.0008728856629855264 0 0.0048941470600039425 0.0009640643846147367 0 0.0047548213138785041 0.0008728856629855264 0 0.004895979432823004 0.00083743953457235669 0 0.0046822232843214155 0.00073825743922615217 0 0.004895979432823004 0.00083743953457235669 0 0.0046822232843214155 0.00073825743922615217 0 0.0048248705928558558 0.00063638955128593065 0 0.004895979432823004 0.00083743953457235669 0 0.0048248705928558558 0.00063638955128593065 0 0.0050298618922914509 0.00065353912882521272 0 0.0045239831500843994 0.00072654733811462497 0 0.0046822232843214155 0.00073825743922615217 0 0.0045975198795177707 0.00051465647598185164 0 0.0045773502698137807 0.00087840166291726764 0 0.0045239831500843994 0.00072654733811462497 0 0.0046822232843214155 0.00073825743922615217 0 0.0045773502698137807 0.00087840166291726764 0 0.0047548213138785041 0.0008728856629855264 0 0.0046822232843214155 0.00073825743922615217 0 0.0045239831500843994 0.00072654733811462497 0 0.0045975198795177707 0.00051465647598185164 0 0.0044117970804373099 0.00060727597485099941 0 0.0046822232843214155 0.00073825743922615217 0 0.0045975198795177707 0.00051465647598185164 0 0.0048248705928558558 0.00063638955128593065 0 0.0045975198795177707 0.00051465647598185164 0 0.0048248705928558558 0.00063638955128593065 0 0.0048489006430126611 0.00041881344290465233 0 0.0048248705928558558 0.00063638955128593065 0 0.0048489006430126611 0.00041881344290465233 0 0.0050298618922914509 0.00065353912882521272 0 0.0048489006430126611 0.00041881344290465233 0 0.0046432079498253311 0.00026811266988476228 0 0.0048908017151188142 0.00011867097709543074 0 0.0045975198795177707 0.00051465647598185164 0 0.0046432079498253311 0.00026811266988476228 0 0.0044054868428333649 0.00027880781599790282 0 0.0045975198795177707 0.00051465647598185164 0 0.0048489006430126611 0.00041881344290465233 0 0.0046432079498253311 0.00026811266988476228 0 0.0044054868428333649 0.00027880781599790282 0 0.0043328618557546602 0.00045763431206090734 0 0.0041950397154394822 0.00035094081571325421 0 0.0045975198795177707 0.00051465647598185164 0 0.0044054868428333649 0.00027880781599790282 0 0.0043328618557546602 0.00045763431206090734 0 0.0045975198795177707 0.00051465647598185164 0 0.0043328618557546602 0.00045763431206090734 0 0.0044117970804373099 0.00060727597485099941 0 0.0043328618557546602 0.00045763431206090734 0 0.0044117970804373099 0.00060727597485099941 0 0.0042560057110662677 0.00057816562176858264 0 0.0042560057110662677 0.00057816562176858264 0 0.0041887660781941049 0.00047666530477707796 0 0.0041051708899517547 0.00055839350612041036 0 0.0043328618557546602 0.00045763431206090734 0 0.0041887660781941049 0.00047666530477707796 0 0.0041950397154394822 0.00035094081571325421 0 0.0043328618557546602 0.00045763431206090734 0 0.0042560057110662677 0.00057816562176858264 0 0.0041887660781941049 0.00047666530477707796 0 0.0041887660781941049 0.00047666530477707796 0 0.0041051708899517547 0.00055839350612041036 0 0.0040598632224584895 0.0004375457025659322 0 0.0041887660781941049 0.00047666530477707796 0 0.0041950397154394822 0.00035094081571325421 0 0.0040598632224584895 0.0004375457025659322 0 0.0044054868428333649 0.00027880781599790282 0 0.0041950397154394822 0.00035094081571325421 0 0.0041927525275453695 0.00015469457102874226 0 0.0041950397154394822 0.00035094081571325421 0 0.0040393877081748419 0.00033048533773203563 0 0.0041927525275453695 0.00015469457102874226 0 0.0040393877081748419 0.00033048533773203563 0 0.0039110667677132163 0.00028252945899672724 0 0.0041927525275453695 0.00015469457102874226 0 0.0063512538940998682 -0.00025774178928897546 0 0.0062207093065499213 -0.00013603020353082241 0 0.0068088653474157332 -0.00031879302481649515 0 0.0040393877081748419 0.00033048533773203563 0 0.0039484720708547879 0.00040834588314032065 0 0.0040598632224584895 0.0004375457025659322 0 0.0041950397154394822 0.00035094081571325421 0 0.0040393877081748419 0.00033048533773203563 0 0.0040598632224584895 0.0004375457025659322 0 0.0040393877081748419 0.00033048533773203563 0 0.0039484720708547879 0.00040834588314032065 0 0.0039373172820443506 0.00035045493387459136 0 0.0040393877081748419 0.00033048533773203563 0 0.0039373172820443506 0.00035045493387459136 0 0.0039110667677132163 0.00028252945899672724 0 0.0063512538940998682 -0.00025774178928897546 0 0.0062207093065499213 -0.00013603020353082241 0 0.0049822471746082155 -0.00043410004684559151 0 0.0038536600141641474 0.00037964861516899545 0 0.0037831010748368178 0.000434024980361926 0 0.0036613545368882946 0.00040716580582237126 0 0.0049721244010493271 3.7876444728258026e-05 0 0.0043690821797886734 0.00024600862996745351 0 0.0039110667677132163 0.00028252945899672724 0 0.0038536600141641474 0.00037964861516899545 0 0.0036613545368882946 0.00040716580582237126 0 0.0058188821485337956 -0.00028685574039537286 0 0.0055057297948185712 -0.00028349063241488474 0 0.0039373172820443506 0.00035045493387459136 0 0.0039110667677132163 0.00028252945899672724 0 0.0038536600141641474 0.00037964861516899545 0 0.0039484720708547879 0.00040834588314032065 0 0.0039373172820443506 0.00035045493387459136 0 0.0038536600141641474 0.00037964861516899545 0 0.0039484720708547879 0.00040834588314032065 0 0.0038536600141641474 0.00037964861516899545 0 0.0038539312424943463 0.00046707339749697184 0 0.0039484720708547879 0.00040834588314032065 0 0.0038539312424943463 0.00046707339749697184 0 0.0039576120795057988 0.00051897782306295688 0 0.0038539312424943463 0.00046707339749697184 0 0.0037831010748368178 0.000434024980361926 0 0.003742260878905594 0.00050763355020315101 0 0.0038536600141641474 0.00037964861516899545 0 0.0038539312424943463 0.00046707339749697184 0 0.0037831010748368178 0.000434024980361926 0 0.0038484359263992445 0.00055074432166223194 0 0.003742260878905594 0.00050763355020315101 0 0.0037767133364775387 0.00060688202122843697 0 0.0038539312424943463 0.00046707339749697184 0 0.0038484359263992445 0.00055074432166223194 0 0.003742260878905594 0.00050763355020315101 0 0.0038539312424943463 0.00046707339749697184 0 0.0038484359263992445 0.00055074432166223194 0 0.0039576120795057988 0.00051897782306295688 0 0.0038484359263992445 0.00055074432166223194 0 0.0039576120795057988 0.00051897782306295688 0 0.0038971230814043903 0.00066582698110394679 0 0.0039576120795057988 0.00051897782306295688 0 0.0041051708899517547 0.00055839350612041036 0 0.0040598632224584895 0.0004375457025659322 0 0.0039576120795057988 0.00051897782306295688 0 0.0041051708899517547 0.00055839350612041036 0 0.0040261605452030563 0.00063576203972260737 0 0.0039484720708547879 0.00040834588314032065 0 0.0039576120795057988 0.00051897782306295688 0 0.0040598632224584895 0.0004375457025659322 0 0.0036707916983517515 -0.00036852187814192568 0 0.0047896237378331147 0.00022122250554481543 0 0.0035093851143658829 0.00046816609561922494 0 0.0051323689809401494 -0.00025106781444257908 0 0.0055057297948185712 -0.00028349063241488474 0 0.0036707916983517515 -0.00036852187814192568 0 0.0047896237378331147 0.00022122250554481543 0 0.0049822471746082155 -0.00043410004684559151 0 0.0062207093065499213 -0.00013603020353082241 0 0.0047896237378331147 0.00022122250554481543 0 0.0049822471746082155 -0.00043410004684559151 0 0.0037831010748368178 0.000434024980361926 0 0.0036613545368882946 0.00040716580582237126 0 0.003742260878905594 0.00050763355020315101 0 0.003742260878905594 0.00050763355020315101 0 0.0036743607501818669 0.00061410137935648517 0 0.0037767133364775387 0.00060688202122843697 0 0.003742260878905594 0.00050763355020315101 0 0.0036197900070147385 0.00051321522674955199 0 0.0036743607501818669 0.00061410137935648517 0 0.0036197900070147385 0.00051321522674955199 0 0.0035555393724732202 0.00058979841829994199 0 0.0036743607501818669 0.00061410137935648517 0 0.0036613545368882946 0.00040716580582237126 0 0.003742260878905594 0.00050763355020315101 0 0.0036197900070147385 0.00051321522674955199 0 0.0036197900070147385 0.00051321522674955199 0 0.0035555393724732202 0.00058979841829994199 0 0.0035093851143658829 0.00046816609561922494 0 0.0036613545368882946 0.00040716580582237126 0 0.0036197900070147385 0.00051321522674955199 0 0.0035093851143658829 0.00046816609561922494 0 0.0035555393724732202 0.00058979841829994199 0 0.0035093851143658829 0.00046816609561922494 0 0.0034182214256682211 0.00066445165535256891 0 0.0043690821797886734 0.00024600862996745351 0 0.0040239614651805923 0.00035723618219752571 0 0.0035555393724732202 0.00058979841829994199 0 0.0035632175496540896 0.00075294708813052167 0 0.0034182214256682211 0.00066445165535256891 0 0.0035555393724732202 0.00058979841829994199 0 0.0036743607501818669 0.00061410137935648517 0 0.0035632175496540896 0.00075294708813052167 0 0.0036743607501818669 0.00061410137935648517 0 0.0036919371028398891 0.00080381823783556156 0 0.0035632175496540896 0.00075294708813052167 0 0.0036743607501818669 0.00061410137935648517 0 0.0036919371028398891 0.00080381823783556156 0 0.0037919217367017549 0.00071548031823720796 0 0.0036743607501818669 0.00061410137935648517 0 0.0037767133364775387 0.00060688202122843697 0 0.0037919217367017549 0.00071548031823720796 0 0.0036919371028398891 0.00080381823783556156 0 0.0035632175496540896 0.00075294708813052167 0 0.003568651254698314 0.0009499516638374571 0 0.0036919371028398891 0.00080381823783556156 0 0.003568651254698314 0.0009499516638374571 0 0.0037399605228114756 0.00095458073666875379 0 0.0035632175496540896 0.00075294708813052167 0 0.0034182214256682211 0.00066445165535256891 0 0.0033849776316139304 0.0008920150487330738 0 0.0035632175496540896 0.00075294708813052167 0 0.003568651254698314 0.0009499516638374571 0 0.0033849776316139304 0.0008920150487330738 0 0.0040534003399651302 0.00075539167740232695 0 0.0038971230814043903 0.00066582698110394679 0 0.0039348372124864486 0.00080423216087287914 0 0.0040534003399651302 0.00075539167740232695 0 0.0040261605452030563 0.00063576203972260737 0 0.0038971230814043903 0.00066582698110394679 0 0.0041536741778666481 0.00067096560623531188 0 0.0040534003399651302 0.00075539167740232695 0 0.0040261605452030563 0.00063576203972260737 0 0.0041536741778666481 0.00067096560623531188 0 0.0041051708899517547 0.00055839350612041036 0 0.0040261605452030563 0.00063576203972260737 0 0.0039576120795057988 0.00051897782306295688 0 0.0040261605452030563 0.00063576203972260737 0 0.0038971230814043903 0.00066582698110394679 0 0.0038484359263992445 0.00055074432166223194 0 0.0038971230814043903 0.00066582698110394679 0 0.0037767133364775387 0.00060688202122843697 0 0.0038971230814043903 0.00066582698110394679 0 0.0037767133364775387 0.00060688202122843697 0 0.0037919217367017549 0.00071548031823720796 0 0.0038971230814043903 0.00066582698110394679 0 0.0037919217367017549 0.00071548031823720796 0 0.0039348372124864486 0.00080423216087287914 0 0.0037919217367017549 0.00071548031823720796 0 0.0038127764674334846 0.00084208226269563095 0 0.0039348372124864486 0.00080423216087287914 0 0.0036919371028398891 0.00080381823783556156 0 0.0037919217367017549 0.00071548031823720796 0 0.0038127764674334846 0.00084208226269563095 0 0.0036919371028398891 0.00080381823783556156 0 0.0038127764674334846 0.00084208226269563095 0 0.0037399605228114756 0.00095458073666875379 0 0.0038127764674334846 0.00084208226269563095 0 0.0038854618662682596 0.00094702175692076384 0 0.0037399605228114756 0.00095458073666875379 0 0.0038127764674334846 0.00084208226269563095 0 0.0039348372124864486 0.00080423216087287914 0 0.0038854618662682596 0.00094702175692076384 0 0.0039348372124864486 0.00080423216087287914 0 0.0040814909262514307 0.00091294761034271409 0 0.0038854618662682596 0.00094702175692076384 0 0.0040534003399651302 0.00075539167740232695 0 0.0039348372124864486 0.00080423216087287914 0 0.0040814909262514307 0.00091294761034271409 0 0.0041796983952290057 0.00080279357896421749 0 0.0040534003399651302 0.00075539167740232695 0 0.0040814909262514307 0.00091294761034271409 0 0.0040814909262514307 0.00091294761034271409 0 0.0039652247816397727 0.0010594879349467268 0 0.0041106282719000952 0.0010319415979991365 0 0.0040814909262514307 0.00091294761034271409 0 0.0039652247816397727 0.0010594879349467268 0 0.0038854618662682596 0.00094702175692076384 0 0.0039652247816397727 0.0010594879349467268 0 0.0041210507151074873 0.0011403432624536656 0 0.0041106282719000952 0.0010319415979991365 0 0.0038854618662682596 0.00094702175692076384 0 0.0038203910889544287 0.001093989923045676 0 0.0037399605228114756 0.00095458073666875379 0 0.0039652247816397727 0.0010594879349467268 0 0.0038854618662682596 0.00094702175692076384 0 0.0038203910889544287 0.001093989923045676 0 0.0038203910889544287 0.001093989923045676 0 0.0039587404410269048 0.0011917806283771929 0 0.0037578150203229676 0.0012736262167804358 0 0.0039587404410269048 0.0011917806283771929 0 0.0038991988741505813 0.0013390495770913237 0 0.0037578150203229676 0.0012736262167804358 0 0.0038203910889544287 0.001093989923045676 0 0.0036093993826655361 0.0011343003979034027 0 0.0037578150203229676 0.0012736262167804358 0 0.0039587404410269048 0.0011917806283771929 0 0.0040391433502230904 0.0012981362762786608 0 0.0038991988741505813 0.0013390495770913237 0 0.0039587404410269048 0.0011917806283771929 0 0.0040391433502230904 0.0012981362762786608 0 0.0041210507151074873 0.0011403432624536656 0 0.0039652247816397727 0.0010594879349467268 0 0.0039587404410269048 0.0011917806283771929 0 0.0041210507151074873 0.0011403432624536656 0 0.0039652247816397727 0.0010594879349467268 0 0.0038203910889544287 0.001093989923045676 0 0.0039587404410269048 0.0011917806283771929 0 0.003568651254698314 0.0009499516638374571 0 0.0036093993826655361 0.0011343003979034027 0 0.0033831552815648093 0.0011218047612849722 0 0.003568651254698314 0.0009499516638374571 0 0.0033831552815648093 0.0011218047612849722 0 0.0033849776316139304 0.0008920150487330738 0 0.0038203910889544287 0.001093989923045676 0 0.0037399605228114756 0.00095458073666875379 0 0.0036093993826655361 0.0011343003979034027 0 0.003568651254698314 0.0009499516638374571 0 0.0037399605228114756 0.00095458073666875379 0 0.0036093993826655361 0.0011343003979034027 0 0.0036093993826655361 0.0011343003979034027 0 0.0034682777785771642 0.0013317139101547794 0 0.0037578150203229676 0.0012736262167804358 0 0.0036093993826655361 0.0011343003979034027 0 0.0033831552815648093 0.0011218047612849722 0 0.0034682777785771642 0.0013317139101547794 0 0.0034682777785771642 0.0013317139101547794 0 0.0036134660130654884 0.0015129515488915249 0 0.0034076512057757582 0.0015589648229839476 0 0.0034682777785771642 0.0013317139101547794 0 0.0034076512057757582 0.0015589648229839476 0 0.0032380987233404965 0.0014781953985587265 0 0.0034682777785771642 0.0013317139101547794 0 0.0036134660130654884 0.0015129515488915249 0 0.0037578150203229676 0.0012736262167804358 0 0.0034295281708599606 0.0014754607554922448 0 0.0035297180702597766 0.0013880062895815142 0 0.0034859551737637584 0.0014271066060716577 0 0.0032437282298848811 0.0016167734071877379 0 0.0035490332038399198 0.0015873410073848398 0 0.0034859551737637584 0.0014271066060716577 0 0.0037644258644395196 0.0014607756196465896 0 0.0035490332038399198 0.0015873410073848398 0 0.0036134660130654884 0.0015129515488915249 0 0.0034076512057757582 0.0015589648229839476 0 0.0034361713894509715 0.0017744506189881549 0 0.0034295281708599606 0.0014754607554922448 0 0.0032204257869135619 0.0016239105035206832 0 0.0038991988741505813 0.0013390495770913237 0 0.0037644258644395196 0.0014607756196465896 0 0.003998061413696549 0.0014250597524383287 0 0.0039894305506483181 0.001383096888784084 0 0.0039856295067085224 0.0014034517487282365 0 0.0040391433502230904 0.0012981362762786608 0 0.0038991988741505813 0.0013390495770913237 0 0.003998061413696549 0.0014250597524383287 0 0.0038991988741505813 0.0013390495770913237 0 0.0037578150203229676 0.0012736262167804358 0 0.0037644258644395196 0.0014607756196465896 0 0.0034859551737637584 0.0014271066060716577 0 0.0037578150203229676 0.0012736262167804358 0 0.0037644258644395196 0.0014607756196465896 0 0.0037644258644395196 0.0014607756196465896 0 0.0037573293081963242 0.0016830964315432291 0 0.003991032928246185 0.0015870167026406587 0 0.0037644258644395196 0.0014607756196465896 0 0.003998061413696549 0.0014250597524383287 0 0.003991032928246185 0.0015870167026406587 0 0.0039856295067085224 0.0014034517487282365 0 0.0039722089019599352 0.0013729218395576819 0 0.0048873230963553073 0.0012657505328092945 0 0.004898319826133664 0.0011363245846371048 0 0.005021513029768593 0.0011725797711246509 0 0.0044407561070736699 0.0012980546675570542 0 0.0039722089019599352 0.0013729218395576819 0 0.0040542732070715714 0.0015195519375454177 0 0.0043848927032625121 0.0015646726098088083 0 0.004061907461256258 0.0017343425812919103 0 0.0048873230963553073 0.0012657505328092945 0 0.0047987863870076111 0.0011837485090503148 0 0.004898319826133664 0.0011363245846371048 0 0.0043848927032625121 0.0015646726098088083 0 0.0044684133929771396 0.0013066716597179993 0 0.0046911846492673692 0.0013593034210183398 0 0.0043848927032625121 0.0015646726098088083 0 0.0044684133929771396 0.0013066716597179993 0 0.0042652658762095683 0.0013681881042524029 0 0.0040542732070715714 0.0015195519375454177 0 0.0043848927032625121 0.0015646726098088083 0 0.0042652658762095683 0.0013681881042524029 0 0.0040391433502230904 0.0012981362762786608 0 0.0040542732070715714 0.0015195519375454177 0 0.0042652658762095683 0.0013681881042524029 0 0.0040391433502230904 0.0012981362762786608 0 0.0042652658762095683 0.0013681881042524029 0 0.0043114264258183 0.0011895573082172923 0 0.0040391433502230904 0.0012981362762786608 0 0.0041210507151074873 0.0011403432624536656 0 0.0043114264258183 0.0011895573082172923 0 0.0044684133929771396 0.0013066716597179993 0 0.0042652658762095683 0.0013681881042524029 0 0.0043114264258183 0.0011895573082172923 0 0.0044684133929771396 0.0013066716597179993 0 0.0043114264258183 0.0011895573082172923 0 0.0045552818498565155 0.0011471455877536663 0 0.0043114264258183 0.0011895573082172923 0 0.0044074752523256431 0.0010680873585978148 0 0.0042437799539893186 0.0010143551152191619 0 0.0043114264258183 0.0011895573082172923 0 0.0044074752523256431 0.0010680873585978148 0 0.0045552818498565155 0.0011471455877536663 0 0.0044013962675645557 0.00093388779626231682 0 0.0044074752523256431 0.0010680873585978148 0 0.0046114880499479793 0.0010358513003134394 0 0.0044013962675645557 0.00093388779626231682 0 0.0044074752523256431 0.0010680873585978148 0 0.0042437799539893186 0.0010143551152191619 0 0.0041210507151074873 0.0011403432624536656 0 0.0043114264258183 0.0011895573082172923 0 0.0042437799539893186 0.0010143551152191619 0 0.0040814909262514307 0.00091294761034271409 0 0.0042437799539893186 0.0010143551152191619 0 0.0041106282719000952 0.0010319415979991365 0 0.0041210507151074873 0.0011403432624536656 0 0.0042437799539893186 0.0010143551152191619 0 0.0041106282719000952 0.0010319415979991365 0 0.0047598831835628146 0.0010020561586916151 0 0.0047548955021730795 0.0011656354535368267 0 0.0046114880499479793 0.0010358513003134394 0 0.0047598831835628146 0.0010020561586916151 0 0.0047548955021730795 0.0011656354535368267 0 0.0049197099169378455 0.0010688653095405111 0 0.0047548955021730795 0.0011656354535368267 0 0.0046114880499479793 0.0010358513003134394 0 0.0045552818498565155 0.0011471455877536663 0 0.0044074752523256431 0.0010680873585978148 0 0.0046114880499479793 0.0010358513003134394 0 0.0045552818498565155 0.0011471455877536663 0 0.0047548955021730795 0.0011656354535368267 0 0.0045552818498565155 0.0011471455877536663 0 0.0046911846492673692 0.0013593034210183398 0 0.0044684133929771396 0.0013066716597179993 0 0.0045552818498565155 0.0011471455877536663 0 0.0046911846492673692 0.0013593034210183398 0 0.0047548955021730795 0.0011656354535368267 0 0.0046911846492673692 0.0013593034210183398 0 0.0047909599058284531 0.0012886553335629634 0 0.0046911846492673692 0.0013593034210183398 0 0.0046808518241499356 0.0013298478873516682 0 0.0047909599058284531 0.0012886553335629634 0 0.0044407561070736699 0.0012980546675570542 0 0.0045475013140111103 0.001287690696968791 0 0.0046911846492673692 0.0013593034210183398 0 0.0046895025910343759 0.0012372230770910262 0 0.0047987863870076111 0.0011837485090503148 0 0.0048873230963553073 0.0012657505328092945 0 0.0046911846492673692 0.0013593034210183398 0 0.0047987863870076111 0.0011837485090503148 0 0.0046911846492673692 0.0013593034210183398 0 0.0046808518241499356 0.0013298478873516682 0 0.0046895025910343759 0.0012372230770910262 0 0.0046808518241499356 0.0013298478873516682 0 0.0047578020684265485 0.0013397704112131979 0 0.0044316474219288759 0.0012772202949262465 0 0.0046808518241499356 0.0013298478873516682 0 0.0044316474219288759 0.0012772202949262465 0 0.0046895025910343759 0.0012372230770910262 0 0.0046808518241499356 0.0013298478873516682 0 0.0047909599058284531 0.0012886553335629634 0 0.0047578020684265485 0.0013397704112131979 0 0.0043735650175291615 0.0021746650613983505 0 0.0041939592419712761 0.0028234093499368406 0 0.0047909599058284531 0.0012886553335629634 0 0.0047578020684265485 0.0013397704112131979 0 0.0050143608815400439 0.0012502713056659882 0 0.0043735650175291615 0.0021746650613983505 0 0.0044702356724460393 0.0018199295632689548 0 0.0039742188232759932 0.0028376954551902933 0 0.0034714284854308491 0.0017136297088855489 0 0.0044316474219288759 0.0012772202949262465 0 0.0039742188232759932 0.0028376954551902933 0 0.0017971602213573189 0.0019145649105365521 0 0.0034714284854308491 0.0017136297088855489 0 0.0039742188232759932 0.0028376954551902933 0 0.0017971602213573189 0.0019145649105365521 0 0.0016055177678661635 0.0041196906539706628 0 3.9206745790911832e-05 0.0032064459862859549 0 -0.00092720397721268895 0.0040882913185415507 0 0.0017971602213573189 0.0019145649105365521 0 0.0016055177678661635 0.0041196906539706628 0 -0.00010664942119428689 0.0034261584694822945 0 0.0039742188232759932 0.0028376954551902933 0 0.0016055177678661635 0.0041196906539706628 0 0.0033064892671838238 0.0045864948175221368 0 0.0041939592419712761 0.0028234093499368406 0 0.0040776879557551408 0.0033130599794307389 0 0.0016055177678661635 0.0041196906539706628 0 0.0033064892671838238 0.0045864948175221368 0 0.002622695552525289 0.0064283823123670687 0 0.0016055177678661635 0.0041196906539706628 0 0.00075002951203315311 0.0056710233069802163 0 0.00041883517801954301 0.0044981772688365363 0 0.0016055177678661635 0.0041196906539706628 0 0.00075002951203315311 0.0056710233069802163 0 0.002622695552525289 0.0064283823123670687 0 0.00075002951203315311 0.0056710233069802163 0 0.002622695552525289 0.0064283823123670687 0 0.0012986526064173178 0.0069592276997333139 0 0.0050143608815400439 0.0012502713056659882 0 0.0052043839228290596 0.0010690204312401063 0 0.0050830686230474084 0.0010637230972116046 0 0.0050143608815400439 0.0012502713056659882 0 0.0050830686230474084 0.0010637230972116046 0 0.004911375418466272 0.0011701834335986702 0 0.0047548955021730795 0.0011656354535368267 0 0.004911375418466272 0.0011701834335986702 0 0.0049197099169378455 0.0010688653095405111 0 0.0050830686230474084 0.0010637230972116046 0 0.004911375418466272 0.0011701834335986702 0 0.0049197099169378455 0.0010688653095405111 0 0.0047548955021730795 0.0011656354535368267 0 0.0047909599058284531 0.0012886553335629634 0 0.004911375418466272 0.0011701834335986702 0 0.0047909599058284531 0.0012886553335629634 0 0.0050143608815400439 0.0012502713056659882 0 0.004911375418466272 0.0011701834335986702 0 -0.0029944597040227942 0.0049846134721585498 0 -0.0028850609964402576 0.0048582217433325598 0 -0.0027755988473481402 0.005025908949117518 0 -0.0028850609964402576 0.0048582217433325598 0 -0.0027344980151510876 0.0048131098123940126 0 -0.0027755988473481402 0.005025908949117518 0 -0.0025703022293683325 0.0049212060881081605 0 -0.0027344980151510876 0.0048131098123940126 0 -0.0025038684172952073 0.0047122564979332621 0 -0.0025703022293683325 0.0049212060881081605 0 -0.0027344980151510876 0.0048131098123940126 0 -0.0027755988473481402 0.005025908949117518 0 -0.0027344980151510876 0.0048131098123940126 0 -0.0027104183168390615 0.0046335795063536089 0 -0.0025038684172952073 0.0047122564979332621 0 -0.0027344980151510876 0.0048131098123940126 0 -0.0027104183168390615 0.0046335795063536089 0 -0.0028896439469727518 0.004688578483481678 0 -0.0028850609964402576 0.0048582217433325598 0 -0.0027344980151510876 0.0048131098123940126 0 -0.0028896439469727518 0.004688578483481678 0 -0.0027104183168390615 0.0046335795063536089 0 -0.0028896439469727518 0.004688578483481678 0 -0.0029091369555412491 0.0044542886110240628 0 -0.0029091369555412491 0.0044542886110240628 0 -0.0026496935608268965 0.0044604616223851614 0 -0.0028307457291477799 0.0041687323990216218 0 -0.0027104183168390615 0.0046335795063536089 0 -0.0026496935608268965 0.0044604616223851614 0 -0.0025038684172952073 0.0047122564979332621 0 -0.0027104183168390615 0.0046335795063536089 0 -0.0029091369555412491 0.0044542886110240628 0 -0.0026496935608268965 0.0044604616223851614 0 -0.0026496935608268965 0.0044604616223851614 0 -0.0022720300645349212 0.0044403662354016542 0 -0.0025405444022453295 0.0042181770849887071 0 -0.0026496935608268965 0.0044604616223851614 0 -0.0022720300645349212 0.0044403662354016542 0 -0.0025038684172952073 0.0047122564979332621 0 -0.0022720300645349212 0.0044403662354016542 0 -0.0025038684172952073 0.0047122564979332621 0 -0.0021930461201052575 0.0047894303282413914 0 -0.0025703022293683325 0.0049212060881081605 0 -0.0025038684172952073 0.0047122564979332621 0 -0.0023226144061841954 0.0049513074718278748 0 -0.0025038684172952073 0.0047122564979332621 0 -0.0021930461201052575 0.0047894303282413914 0 -0.0023226144061841954 0.0049513074718278748 0 -0.0022720300645349212 0.0044403662354016542 0 -0.0021930461201052575 0.0047894303282413914 0 -0.0018686006959450472 0.0047058715759836483 0 -0.0021930461201052575 0.0047894303282413914 0 -0.0018686006959450472 0.0047058715759836483 0 -0.002054533557424007 0.0051526910566104811 0 -0.0022720300645349212 0.0044403662354016542 0 -0.0018686006959450472 0.0047058715759836483 0 -0.0019429625354315555 0.0042139153885040054 0 -0.0015296768815014649 0.0042991113171920031 0 -0.0018686006959450472 0.0047058715759836483 0 -0.0019429625354315555 0.0042139153885040054 0 0.0016055177678661635 0.0041196906539706628 0 -0.00010664942119428689 0.0034261584694822945 0 0.00041883517801954301 0.0044981772688365363 0 -0.00010664942119428689 0.0034261584694822945 0 0.00041883517801954301 0.0044981772688365363 0 -0.0005262205732062072 0.0051173889430654613 0 0.00075002951203315311 0.0056710233069802163 0 0.00041883517801954301 0.0044981772688365363 0 -0.0005262205732062072 0.0051173889430654613 0 0.00075002951203315311 0.0056710233069802163 0 -0.00048928691792085794 0.006495024340137206 0 0.0012986526064173178 0.0069592276997333139 0 0.00075002951203315311 0.0056710233069802163 0 -0.0005262205732062072 0.0051173889430654613 0 -0.00048928691792085794 0.006495024340137206 0 -0.00048928691792085794 0.006495024340137206 0 -0.0016106871009737348 0.0055265576213638853 0 -0.0018034291956896746 0.0071742682474635984 0 -0.0005262205732062072 0.0051173889430654613 0 -0.00048928691792085794 0.006495024340137206 0 -0.0016106871009737348 0.0055265576213638853 0 0.0018234462247501107 0.0047494045050319074 0 0.0024286751366985149 0.0038048787137597486 0 -0.0016106871009737348 0.0055265576213638853 0 -0.0020519243058384671 0.0055389612045557719 0 -0.0018692141300929914 0.0061094091921046444 0 -0.00092720397721268895 0.0040882913185415507 0 -0.0015063491793909326 0.004635590921864682 0 -0.00010664942119428689 0.0034261584694822945 0 -0.0005262205732062072 0.0051173889430654613 0 -0.002054533557424007 0.0051526910566104811 0 -0.0005262205732062072 0.0051173889430654613 0 -0.0016106871009737348 0.0055265576213638853 0 -0.002054533557424007 0.0051526910566104811 0 -0.0016106871009737348 0.0055265576213638853 0 -0.002054533557424007 0.0051526910566104811 0 -0.0020519243058384671 0.0055389612045557719 0 -0.0021930461201052575 0.0047894303282413914 0 -0.0023226144061841954 0.0049513074718278748 0 -0.002054533557424007 0.0051526910566104811 0 -0.0023226144061841954 0.0049513074718278748 0 -0.002054533557424007 0.0051526910566104811 0 -0.002280274187914229 0.005185611963108407 0 -0.0023226144061841954 0.0049513074718278748 0 -0.002280274187914229 0.005185611963108407 0 -0.0025165119635507968 0.0051186440605210139 0 -0.0025703022293683325 0.0049212060881081605 0 -0.0023226144061841954 0.0049513074718278748 0 -0.0025165119635507968 0.0051186440605210139 0 -0.002280274187914229 0.005185611963108407 0 -0.0023443918050335107 0.0055637233933528516 0 -0.0025165119635507968 0.0051186440605210139 0 -0.002054533557424007 0.0051526910566104811 0 -0.002280274187914229 0.005185611963108407 0 -0.0020519243058384671 0.0055389612045557719 0 -0.002280274187914229 0.005185611963108407 0 -0.0020519243058384671 0.0055389612045557719 0 -0.0023443918050335107 0.0055637233933528516 0 -0.00061842573241878483 0.0038006693551287732 0 0.0024286751366985149 0.0038048787137597486 0 -0.0020519243058384671 0.0055389612045557719 0 -0.0023443918050335107 0.0055637233933528516 0 -0.0018692141300929914 0.0061094091921046444 0 -0.0023443918050335107 0.0055637233933528516 0 -0.0027588210518945649 0.0056264343917585462 0 -0.0018692141300929914 0.0061094091921046444 0 -0.0023443918050335107 0.0055637233933528516 0 -0.0027588210518945649 0.0056264343917585462 0 -0.0027327299983829312 0.0053273020818453212 0 -0.0030118238715956692 0.0053546574874932702 0 -0.0027588210518945649 0.0056264343917585462 0 -0.0027327299983829312 0.0053273020818453212 0 -0.0029368996096641575 0.0051649193583381183 0 -0.0030118238715956692 0.0053546574874932702 0 -0.0027327299983829312 0.0053273020818453212 0 -0.0023443918050335107 0.0055637233933528516 0 -0.0027327299983829312 0.0053273020818453212 0 -0.0025165119635507968 0.0051186440605210139 0 -0.0025703022293683325 0.0049212060881081605 0 -0.0025165119635507968 0.0051186440605210139 0 -0.0027755988473481402 0.005025908949117518 0 -0.0027327299983829312 0.0053273020818453212 0 -0.0025165119635507968 0.0051186440605210139 0 -0.0027755988473481402 0.005025908949117518 0 -0.0029368996096641575 0.0051649193583381183 0 -0.0029944597040227942 0.0049846134721585498 0 -0.0027755988473481402 0.005025908949117518 0 -0.0029368996096641575 0.0051649193583381183 0 -0.0027327299983829312 0.0053273020818453212 0 -0.0027755988473481402 0.005025908949117518 0 0.0035701679220068953 0.0017642339737875862 0 0.0038430766868162774 0.0022339305546015056 0 0.0035389843731562739 0.0023875747792588939 0 0.0029702189638007984 0.0021215856049381634 0 0.0035701679220068953 0.0017642339737875862 0 0.0035389843731562739 0.0023875747792588939 0 -0.0032099339659357609 0.0057361484223927258 0 -0.0027588210518945649 0.0056264343917585462 0 -0.0026910946629059448 0.0060697195204941663 0 -0.0027588210518945649 0.0056264343917585462 0 -0.0026910946629059448 0.0060697195204941663 0 -0.0023234600475637306 0.0060686649933692077 0 -0.0027588210518945649 0.0056264343917585462 0 -0.0023234600475637306 0.0060686649933692077 0 -0.0020544454297887669 0.0058178680092668003 0 -0.0023234600475637306 0.0060686649933692077 0 -0.0021307732953842495 0.0063803183090144766 0 -0.0020544454297887669 0.0058178680092668003 0 -0.0026910946629059448 0.0060697195204941663 0 -0.0023234600475637306 0.0060686649933692077 0 -0.0021307732953842495 0.0063803183090144766 0 0.0012782203993761628 0.0031226323423516542 0 0.0035468443233495394 0.0031354260641074743 0 0.0035701679220068953 0.0017642339737875862 0 0.004154239132109854 0.0020940609849042393 0 0.0038430766868162774 0.0022339305546015056 0 0.008859736529007305 0.0011120460476215224 0 0.0083722672832645031 0.0011442238729408301 0 0.0087394208808712608 0.0020251579165899898 0 0.008859736529007305 0.0011120460476215224 0 0.0086839451519415342 0.0010150502074486977 0 0.0083722672832645031 0.0011442238729408301 0 0.0035468443233495394 0.0031354260641074743 0 0.0037001789159997367 0.0031676077726054811 0 0.0035468443233495394 0.0031354260641074743 0 0.0024286751366985149 0.0038048787137597486 0 -0.00048928691792085794 0.006495024340137206 0 -0.0018034291956896746 0.0071742682474635984 0 8.2320209858504433e-05 0.0077608095984077596 0 0.0024286751366985149 0.0038048787137597486 0 0.0038415647000875964 0.003599442117787198 0 0.0083722672832645031 0.0011442238729408301 0 0.0087394208808712608 0.0020251579165899898 0 0.007897199615615802 0.001762243735938302 0 -0.00048928691792085794 0.006495024340137206 0 8.2320209858504433e-05 0.0077608095984077596 0 0.0012986526064173178 0.0069592276997333139 0 0.0083722672832645031 0.0011442238729408301 0 0.007897199615615802 0.001762243735938302 0 0.0076735006478450022 0.0011096878959281371 0 0.0083722672832645031 0.0011442238729408301 0 0.0076735006478450022 0.0011096878959281371 0 0.0079736635858767991 0.0006908079745748248 0 0.0076735006478450022 0.0011096878959281371 0 0.0079736635858767991 0.0006908079745748248 0 0.0073925519732402764 0.00045871795057996227 0 0.0083722672832645031 0.0011442238729408301 0 0.0079736635858767991 0.0006908079745748248 0 0.0084067240660986794 0.00053162629363305721 0 0.0079736635858767991 0.0006908079745748248 0 0.0080205934836932724 0.0002048310408105719 0 0.0084067240660986794 0.00053162629363305721 0 0.0079736635858767991 0.0006908079745748248 0 0.0080205934836932724 0.0002048310408105719 0 0.0073925519732402764 0.00045871795057996227 0 0.0061984633175394006 0.0005026798729726845 0 0.0067235065355220475 -0.00016582186967407003 0 0.0080205934836932724 0.0002048310408105719 0 0.0083814698385788634 -0.00014088310888541998 0 0.0078223223575693262 -0.00064434622800885113 0 0.0080205934836932724 0.0002048310408105719 0 0.0073925519732402764 0.00045871795057996227 0 0.0078223223575693262 -0.00064434622800885113 0 0.0080205934836932724 0.0002048310408105719 0 0.0085878379682843304 0.00023712123894137024 0 0.0083814698385788634 -0.00014088310888541998 0 0.0083814698385788634 -0.00014088310888541998 0 0.0089649007724528478 0.00024708848185667144 0 0.0085030796964421975 -0.00081442720422659142 0 0.0087912294291309593 -7.5411752966551712e-05 0 0.008670445033607704 -0.00030798264364256816 0 0.0089649007724528478 0.00024708848185667144 0 0.0090224075910223765 0.00018171591768602663 0 0.009084918094944704 0.00028393790790091163 0 0.0085878379682843304 0.00023712123894137024 0 0.0083814698385788634 -0.00014088310888541998 0 0.0089649007724528478 0.00024708848185667144 0 0.0085878379682843304 0.00023712123894137024 0 0.0090235631127176009 0.00039213582610935958 0 0.0089649007724528478 0.00024708848185667144 0 0.0085878379682843304 0.00023712123894137024 0 0.0084067240660986794 0.00053162629363305721 0 0.0090235631127176009 0.00039213582610935958 0 0.0080205934836932724 0.0002048310408105719 0 0.0085878379682843304 0.00023712123894137024 0 0.0084067240660986794 0.00053162629363305721 0 0.0086839451519415342 0.0010150502074486977 0 0.0083722672832645031 0.0011442238729408301 0 0.0089153491143474459 0.00060900998244897285 0 0.0088407101690449047 0.0011067838350739797 0 0.0086839451519415342 0.0010150502074486977 0 0.0089153491143474459 0.00060900998244897285 0 0.0068045417700225092 0.00083245564262266251 0 0.0058211885600573813 0.001450279701160467 0 0.0083722672832645031 0.0011442238729408301 0 0.0084067240660986794 0.00053162629363305721 0 0.0090235631127176009 0.00039213582610935958 0 0.0038430766868162774 0.0022339305546015056 0 0.0041040888821264982 0.0024549738303236393 0 0.0035389843731562739 0.0023875747792588939 0 0.0035468443233495394 0.0031354260641074743 0 0.0058211885600573813 0.001450279701160467 0 0.004154239132109854 0.0020940609849042393 0 0.0038430766868162774 0.0022339305546015056 0 0.0041040888821264982 0.0024549738303236393 0 0.0058211885600573813 0.001450279701160467 0 0.0064565446586370874 0.0009117207806730004 0 0.0090274162227339146 5.4635962410429916e-05 0 0.0090224075910223765 0.00018171591768602663 0 0.008945354746695543 0.00016186316936896982 0 0.0090274162227339146 5.4635962410429916e-05 0 0.0089159208653516973 0.0001537945542578304 0 0.008945354746695543 0.00016186316936896982 0 0.0058211885600573813 0.001450279701160467 0 0.0064087943960695459 0.0007123187105939824 0 0.0090235631127176009 0.00039213582610935958 0 0.0089649007724528478 0.00024708848185667144 0 0.0090224075910223765 0.00018171591768602663 0 0.0031833307985579071 0.0028250499896748829 0 0.0036124213701109074 0.0029469414717841528 0 0.0035389843731562739 0.0023875747792588939 0 0.0060072090404568023 0.00096087594660376275 0 0.0064565446586370874 0.0009117207806730004 0 0.0064565446586370874 0.0009117207806730004 0 0.0065490579085632885 0.00092241655342408272 0 0.0041040888821264982 0.0024549738303236393 0 0.0036124213701109074 0.0029469414717841528 0 0.0035389843731562739 0.0023875747792588939 0 0.0053362064377004571 0.00095840044384175836 0 0.0051076288823216172 0.00086945002405109317 0 0.0051969101589264682 0.0009732809107808729 0 0.0053362064377004571 0.00095840044384175836 0 0.0051969101589264682 0.0009732809107808729 0 0.0052126199202019562 0.00098976256543070826 0 0.0053362064377004571 0.00095840044384175836 0 0.0061185858473401626 0.00077457828530592173 0 0.0055130672525047202 0.00055229043644600606 0 0.0053362064377004571 0.00095840044384175836 0 0.0051076288823216172 0.00086945002405109317 0 0.005212252339831097 0.0006930525203973682 0 0.0051076288823216172 0.00086945002405109317 0 0.0050298618922914509 0.00065353912882521272 0 0.005212252339831097 0.0006930525203973682 0 0.004895979432823004 0.00083743953457235669 0 0.0051076288823216172 0.00086945002405109317 0 0.0050298618922914509 0.00065353912882521272 0 0.004895979432823004 0.00083743953457235669 0 0.0051076288823216172 0.00086945002405109317 0 0.0050554693009384668 0.00097820408877175979 0 0.0051076288823216172 0.00086945002405109317 0 0.0050554693009384668 0.00097820408877175979 0 0.0051969101589264682 0.0009732809107808729 0 0.0050830686230474084 0.0010637230972116046 0 0.0049197099169378455 0.0010688653095405111 0 0.0050554693009384668 0.00097820408877175979 0 0.004895979432823004 0.00083743953457235669 0 0.0050554693009384668 0.00097820408877175979 0 0.0048941470600039425 0.0009640643846147367 0 0.0049197099169378455 0.0010688653095405111 0 0.0050554693009384668 0.00097820408877175979 0 0.0048941470600039425 0.0009640643846147367 0 0.0050830686230474084 0.0010637230972116046 0 0.0050554693009384668 0.00097820408877175979 0 0.0051969101589264682 0.0009732809107808729 0 0.0052043839228290596 0.0010690204312401063 0 0.0050830686230474084 0.0010637230972116046 0 0.0052126199202019562 0.00098976256543070826 0 0.0050830686230474084 0.0010637230972116046 0 0.0051969101589264682 0.0009732809107808729 0 0.0052126199202019562 0.00098976256543070826 0 0.0040776879557551408 0.0033130599794307389 0 0.0044126733765280516 0.0026463401124153505 0 0.0052043839228290596 0.0010690204312401063 0 0.0052126199202019562 0.00098976256543070826 0 0.0052153155671514758 0.00099351969074601659 0 0.0038415647000875964 0.003599442117787198 0 0.0044126733765280516 0.0026463401124153505 0 0.002622695552525289 0.0064283823123670687 0 0.0012986526064173178 0.0069592276997333139 0 0.0019062469045101828 0.0083331953080035531 0 8.2320209858504433e-05 0.0077608095984077596 0 0.0012986526064173178 0.0069592276997333139 0 0.0019062469045101828 0.0083331953080035531 0 0.007897199615615802 0.001762243735938302 0 0.0076735006478450022 0.0011096878959281371 0 0.0070039004547863435 0.0014823204054794992 0 0.0044126733765280516 0.0026463401124153505 0 0.0061984633175394006 0.0005026798729726845 0 0.0076735006478450022 0.0011096878959281371 0 0.0070039004547863435 0.0014823204054794992 0 0.0073925519732402764 0.00045871795057996227 0 0.0049615865719551235 0.0023356541326148895 0 0.0044126733765280516 0.0026463401124153505 0 0.0070080627225331121 0.0016073908842134566 0 0.0061185858473401626 0.00077457828530592173 0 0.0066242118915613201 0.00053606838103432042 0 0.0053362064377004571 0.00095840044384175836 0 0.0070080627225331121 0.0016073908842134566 0 0.0061185858473401626 0.00077457828530592173 0 0.0053362064377004571 0.00095840044384175836 0 0.0052126199202019562 0.00098976256543070826 0 0.0052153155671514758 0.00099351969074601659 0 0.0061185858473401626 0.00077457828530592173 0 0.0066242118915613201 0.00053606838103432042 0 0.0061912087267096691 0.00033511762750047667 0 0.0066242118915613201 0.00053606838103432042 0 0.0074730154882802846 0.00022427487396953162 0 0.0065212270583204519 -0.00018999806696720926 0 0.0066242118915613201 0.00053606838103432042 0 0.0061912087267096691 0.00033511762750047667 0 0.0065212270583204519 -0.00018999806696720926 0 0.0070080627225331121 0.0016073908842134566 0 0.0066242118915613201 0.00053606838103432042 0 0.0074730154882802846 0.00022427487396953162 0 0.0074730154882802846 0.00022427487396953162 0 0.0071618958568653406 -0.00036258977885140933 0 0.0065212270583204519 -0.00018999806696720926 0 0.0074730154882802846 0.00022427487396953162 0 0.0071618958568653406 -0.00036258977885140933 0 0.0078223223575693262 -0.00064434622800885113 0 0.0061912087267096691 0.00033511762750047667 0 0.0065212270583204519 -0.00018999806696720926 0 0.0055985961775152976 -0.00055927298970527735 0 0.0071618958568653406 -0.00036258977885140933 0 0.0065212270583204519 -0.00018999806696720926 0 0.0066988864341997389 -0.0006007811917791351 0 0.0065212270583204519 -0.00018999806696720926 0 0.0062737059352462043 -0.00033702316111224419 0 0.0066988864341997389 -0.0006007811917791351 0 0.0063112738028560109 -0.00027253025059339499 0 0.0063023988357173016 -0.00027511357667211697 0 0.0061912087267096691 0.00033511762750047667 0 0.0055985961775152976 -0.00055927298970527735 0 0.0055130672525047202 0.00055229043644600606 0 0.0063023988357173016 -0.00027511357667211697 0 0.0062115259901517087 -2.3832687383933568e-05 0 0.0054055075646300445 0.00023061613121382271 0 0.0055130672525047202 0.00055229043644600606 0 0.0051981845819242482 0.00041264263637597894 0 0.0053362064377004571 0.00095840044384175836 0 0.0055130672525047202 0.00055229043644600606 0 0.005212252339831097 0.0006930525203973682 0 0.0055130672525047202 0.00055229043644600606 0 0.005212252339831097 0.0006930525203973682 0 0.0051981845819242482 0.00041264263637597894 0 0.0061185858473401626 0.00077457828530592173 0 0.0061912087267096691 0.00033511762750047667 0 0.0055130672525047202 0.00055229043644600606 0 0.0048489006430126611 0.00041881344290465233 0 0.0050298618922914509 0.00065353912882521272 0 0.0051981845819242482 0.00041264263637597894 0 0.0050298618922914509 0.00065353912882521272 0 0.005212252339831097 0.0006930525203973682 0 0.0051981845819242482 0.00041264263637597894 0 0.0048489006430126611 0.00041881344290465233 0 0.0051981845819242482 0.00041264263637597894 0 0.0048908017151188142 0.00011867097709543074 0 0.0054055075646300445 0.00023061613121382271 0 0.0051981845819242482 0.00041264263637597894 0 0.0048908017151188142 0.00011867097709543074 0 0.0063023988357173016 -0.00027511357667211697 0 0.0058156360937388308 -0.00035331266765630155 0 0.0064222890707678493 -0.00054209323292439451 0 0.0063299635529372802 -0.00047206887183875036 0 0.0063271299147733707 -0.00061030039179976378 0 0.0065207239398678762 -0.00040101232878770433 0 0.0064222890707678493 -0.00054209323292439451 0 0.0063299635529372802 -0.00047206887183875036 0 0.0070855633726775499 -0.0010189409562905009 0 0.0067693478337648881 -0.00073079424459235993 0 0.0064222890707678493 -0.00054209323292439451 0 0.0065158087300642093 -0.00067767511142578991 0 0.0063271299147733707 -0.00061030039179976378 0 0.0063273355173208978 -0.00093625980486191013 0 0.0066870924383239175 -0.001475503069266193 0 0.006337354907343727 -0.0016381816581906485 0 0.0064222890707678493 -0.00054209323292439451 0 0.0065180445387801548 -0.0005388999697898577 0 0.0065158087300642093 -0.00067767511142578991 0 0.0066535617303755939 -0.00068702798289402766 0 0.0070855633726775499 -0.0010189409562905009 0 0.0063023988357173016 -0.00027511357667211697 0 0.0066535617303755939 -0.00068702798289402766 0 0.0062737059352462043 -0.00033702316111224419 0 0.0063273355173208978 -0.00093625980486191013 0 0.0066988864341997389 -0.0006007811917791351 0 0.0065207239398678762 -0.00040101232878770433 0 0.0064222890707678493 -0.00054209323292439451 0 0.0065180445387801548 -0.0005388999697898577 0 0.0071618958568653406 -0.00036258977885140933 0 0.0066988864341997389 -0.0006007811917791351 0 0.0072138095332819133 -0.00078780199283075161 0 0.0066988864341997389 -0.0006007811917791351 0 0.0072138095332819133 -0.00078780199283075161 0 0.0068575602024328088 -0.0010863741743103012 0 0.0072138095332819133 -0.00078780199283075161 0 0.0072355567810404959 -0.0012369102574804084 0 0.0068575602024328088 -0.0010863741743103012 0 0.0063273355173208978 -0.00093625980486191013 0 0.0066988864341997389 -0.0006007811917791351 0 0.0068575602024328088 -0.0010863741743103012 0 0.0071618958568653406 -0.00036258977885140933 0 0.0072138095332819133 -0.00078780199283075161 0 0.0078223223575693262 -0.00064434622800885113 0 0.0072138095332819133 -0.00078780199283075161 0 0.0075586160706090071 -0.0010797999321911088 0 0.0078223223575693262 -0.00064434622800885113 0 0.0072138095332819133 -0.00078780199283075161 0 0.0075586160706090071 -0.0010797999321911088 0 0.0072355567810404959 -0.0012369102574804084 0 0.0075586160706090071 -0.0010797999321911088 0 0.0075129938263667987 -0.001353113337652772 0 0.0077334030164681496 -0.0014251996370525104 0 0.0075586160706090071 -0.0010797999321911088 0 0.0075129938263667987 -0.001353113337652772 0 0.0072355567810404959 -0.0012369102574804084 0 0.0075129938263667987 -0.001353113337652772 0 0.0072355567810404959 -0.0012369102574804084 0 0.007458088820238123 -0.0016061474180668191 0 0.0075129938263667987 -0.001353113337652772 0 0.0076317544762583012 -0.0015914558891763062 0 0.007458088820238123 -0.0016061474180668191 0 0.0072355567810404959 -0.0012369102574804084 0 0.0070969773712682184 -0.0014675942267346146 0 0.007458088820238123 -0.0016061474180668191 0 0.0075129938263667987 -0.001353113337652772 0 0.0076317544762583012 -0.0015914558891763062 0 0.0077334030164681496 -0.0014251996370525104 0 0.0076317544762583012 -0.0015914558891763062 0 0.0077646734512327497 -0.001690893011299388 0 0.0077334030164681496 -0.0014251996370525104 0 0.0063273355173208978 -0.00093625980486191013 0 0.0068575602024328088 -0.0010863741743103012 0 0.0066870924383239175 -0.001475503069266193 0 0.0072355567810404959 -0.0012369102574804084 0 0.0068575602024328088 -0.0010863741743103012 0 0.0070969773712682184 -0.0014675942267346146 0 0.0070969773712682184 -0.0014675942267346146 0 0.0066870924383239175 -0.001475503069266193 0 0.0070900750757009901 -0.0017861490148789606 0 0.0068575602024328088 -0.0010863741743103012 0 0.0070969773712682184 -0.0014675942267346146 0 0.0066870924383239175 -0.001475503069266193 0 0.0066870924383239175 -0.001475503069266193 0 0.0070900750757009901 -0.0017861490148789606 0 0.0070572319121693919 -0.0018620593001628747 0 0.0074308053747454868 -0.00124703306192728 0 0.0070855633726775499 -0.0010189409562905009 0 0.0066870924383239175 -0.001475503069266193 0 0.0070572319121693919 -0.0018620593001628747 0 0.006337354907343727 -0.0016381816581906485 0 0.0073297049906345365 -0.0016865754168061892 0 0.0070900750757009901 -0.0017861490148789606 0 0.0077019852357363824 -0.0018840202964515236 0 0.0070969773712682184 -0.0014675942267346146 0 0.0073297049906345365 -0.0016865754168061892 0 0.0070900750757009901 -0.0017861490148789606 0 0.0070900750757009901 -0.0017861490148789606 0 0.0070570989566907079 -0.0018794681018396307 0 0.0077019852357363824 -0.0018840202964515236 0 0.0070969773712682184 -0.0014675942267346146 0 0.0073297049906345365 -0.0016865754168061892 0 0.007458088820238123 -0.0016061474180668191 0 0.0074292801205132564 -0.0012505923530932233 0 0.0074308053747454868 -0.00124703306192728 0 0.0080125658431689697 -0.0019648732627672843 0 0.0077019852357363824 -0.0018840202964515236 0 0.0079514750239532868 -0.0016909271373417843 0 0.0074308053747454868 -0.00124703306192728 0 0.0074646684773775817 -0.0012836842191077159 0 0.0076317544762583012 -0.0015914558891763062 0 0.0077646734512327497 -0.001690893011299388 0 0.0077019852357363824 -0.0018840202964515236 0 0.0076317544762583012 -0.0015914558891763062 0 0.007458088820238123 -0.0016061474180668191 0 0.0077019852357363824 -0.0018840202964515236 0 0.0073297049906345365 -0.0016865754168061892 0 0.007458088820238123 -0.0016061474180668191 0 0.0077019852357363824 -0.0018840202964515236 0 0.0077646734512327497 -0.001690893011299388 0 0.0077019852357363824 -0.0018840202964515236 0 0.0077258818337143011 -0.0018081623759732294 0 0.0082172659723873543 -0.0011033993619319808 0 0.0081423014101089427 -0.0012551201347820273 0 0.0079514750239532868 -0.0016909271373417843 0 0.0077258818337143011 -0.0018081623759732294 0 0.0081043134103150147 -0.0014044537058719557 0 0.0077019852357363824 -0.0018840202964515236 0 0.0079514750239532868 -0.0016909271373417843 0 0.0077258818337143011 -0.0018081623759732294 0 0.0074308053747454868 -0.00124703306192728 0 0.0076425127594364458 -0.0013434862292477016 0 0.0074918326602025744 -0.0012569594894560299 0 0.0074720591516302965 -0.0012826572373300727 0 0.0074821619644116185 -0.0012862583666874026 0 0.0080125658431689697 -0.0019648732627672843 0 0.0079514750239532868 -0.0016909271373417843 0 0.0082995128547598725 -0.0014908085640077411 0 0.0079242532116374671 -0.0010973995642702208 0 0.0076670837118743033 -0.0008240540486108436 0 0.0075600783709587711 -0.0010725070066759858 0 0.0076670837118743033 -0.0008240540486108436 0 0.0079259426954423739 -0.00069475799648052955 0 0.0075409438932924561 -0.00056002740086085335 0 0.0079242532116374671 -0.0010973995642702208 0 0.0076670837118743033 -0.0008240540486108436 0 0.0079259426954423739 -0.00069475799648052955 0 0.0074747873131251908 -0.0011996719370052089 0 0.0070855633726775499 -0.0010189409562905009 0 0.0074918326602025744 -0.0012569594894560299 0 0.0074720591516302965 -0.0012826572373300727 0 0.0074717046033074283 -0.0012497606486224255 0 0.0087026433765493849 0.00024539101654689278 0 0.0088689327995065004 0.00043011349046974802 0 0.0089094123309205724 0.00023357681596402927 0 0.0088689327995065004 0.00043011349046974802 0 0.0089094123309205724 0.00023357681596402927 0 0.00900498153570789 0.00027568642817061493 0 0.0087026433765493849 0.00024539101654689278 0 0.0089000902986501925 0.00013403365620556762 0 0.0089094123309205724 0.00023357681596402927 0 0.007713672369007653 0.00021271223753058916 0 0.0064565446586370874 0.0009117207806730004 0 0.008945354746695543 0.00016186316936896982 0 0.0089094123309205724 0.00023357681596402927 0 0.0089933821208847027 0.00021869504829071291 0 0.0089000902986501925 0.00013403365620556762 0 0.008945354746695543 0.00016186316936896982 0 0.0089094123309205724 0.00023357681596402927 0 0.0089094123309205724 0.00023357681596402927 0 0.00900498153570789 0.00027568642817061493 0 0.0089933821208847027 0.00021869504829071291 0 0.0090224075910223765 0.00018171591768602663 0 0.008945354746695543 0.00016186316936896982 0 0.0089933821208847027 0.00021869504829071291 0 0.0090224075910223765 0.00018171591768602663 0 0.0089933821208847027 0.00021869504829071291 0 0.0090640889767639576 0.00024961418104311095 0 0.00900498153570789 0.00027568642817061493 0 0.0089933821208847027 0.00021869504829071291 0 0.0090640889767639576 0.00024961418104311095 0 0.00900498153570789 0.00027568642817061493 0 0.0090640889767639576 0.00024961418104311095 0 0.0091609506351801595 0.00026535235706002998 0 0.0095999161033329325 0.00017039041097129411 0 0.0093960454942664962 0.00021738849800091053 0 0.010499221209532301 0.00021803449685335464 0 0.0091609506351801595 0.00026535235706002998 0 0.0098026918169190434 -0.00029841198338414614 0 0.0088689327995065004 0.00043011349046974802 0 0.00900498153570789 0.00027568642817061493 0 0.0091609506351801595 0.00026535235706002998 0 0.0091609506351801595 0.00026535235706002998 0 0.009084918094944704 0.00028393790790091163 0 0.0088041428758174577 0.00013778164819774227 0 0.008670445033607704 -0.00030798264364256816 0 0.0084338102408965474 -0.00071985332378463149 0 0.0090640889767639576 0.00024961418104311095 0 0.0091609506351801595 0.00026535235706002998 0 0.009084918094944704 0.00028393790790091163 0 0.0090224075910223765 0.00018171591768602663 0 0.0090640889767639576 0.00024961418104311095 0 0.009084918094944704 0.00028393790790091163 0 0.0083814698385788634 -0.00014088310888541998 0 0.0085030796964421975 -0.00081442720422659142 0 0.0078223223575693262 -0.00064434622800885113 0 0.0085030796964421975 -0.00081442720422659142 0 0.0078223223575693262 -0.00064434622800885113 0 0.0079161068648534866 -0.0011086977188036386 0 0.0075586160706090071 -0.0010797999321911088 0 0.0078223223575693262 -0.00064434622800885113 0 0.0079161068648534866 -0.0011086977188036386 0 0.0085030796964421975 -0.00081442720422659142 0 0.0079161068648534866 -0.0011086977188036386 0 0.0080207688029956901 -0.001580130809323404 0 0.0079161068648534866 -0.0011086977188036386 0 0.0080207688029956901 -0.001580130809323404 0 0.0077334030164681496 -0.0014251996370525104 0 0.0075586160706090071 -0.0010797999321911088 0 0.0079161068648534866 -0.0011086977188036386 0 0.0077334030164681496 -0.0014251996370525104 0 0.0077646734512327497 -0.001690893011299388 0 0.0080207688029956901 -0.001580130809323404 0 0.0077334030164681496 -0.0014251996370525104 0 0.0077646734512327497 -0.001690893011299388 0 0.0080207688029956901 -0.001580130809323404 0 0.0077258818337143011 -0.0018081623759732294 0 0.0088041428758174577 0.00013778164819774227 0 0.0083685678463408936 -0.00065463648902708044 0 0.0090889712837814163 -0.00036629313770982619 0 0.0084338102408965474 -0.00071985332378463149 0 0.0082172659723873543 -0.0011033993619319808 0 0.0083685678463408936 -0.00065463648902708044 0 0.008854352189728236 -0.00090498142873931219 0 0.0090889712837814163 -0.00036629313770982619 0 0.0083685678463408936 -0.00065463648902708044 0 0.008854352189728236 -0.00090498142873931219 0 0.0084841425933881911 -0.0011658895216572801 0 0.008854352189728236 -0.00090498142873931219 0 0.0090889712837814163 -0.00036629313770982619 0 0.0097024824431690068 -0.00106408172027232 0 0.0091609506351801595 0.00026535235706002998 0 0.0088041428758174577 0.00013778164819774227 0 0.0090889712837814163 -0.00036629313770982619 0 0.0091609506351801595 0.00026535235706002998 0 0.0090889712837814163 -0.00036629313770982619 0 0.0098026918169190434 -0.00029841198338414614 0 0.0090889712837814163 -0.00036629313770982619 0 0.0098026918169190434 -0.00029841198338414614 0 0.0097024824431690068 -0.00106408172027232 0 0.0098026918169190434 -0.00029841198338414614 0 0.0097024824431690068 -0.00106408172027232 0 0.010640906901743226 -0.00057107230863979899 0 0.010455525883828214 -0.00072522253155997581 0 0.010640906901743226 -0.00057107230863979899 0 0.010748928869966527 -0.00099473371892957259 0 0.009961115182103103 -0.00086163365274717814 0 0.010230756701942654 -0.0007261596217657811 0 0.010499221209532301 0.00021803449685335464 0 0.0098026918169190434 -0.00029841198338414614 0 0.010640906901743226 -0.00057107230863979899 0 0.010900333876987621 -0.0003624531592723485 0 0.010499221209532301 0.00021803449685335464 0 0.010640906901743226 -0.00057107230863979899 0 0.011003727463478264 -0.0013350709043480852 0 0.010748928869966527 -0.00099473371892957259 0 0.010462804526796012 -0.0012551672221768166 0 0.010893728717629414 -0.00087880865660770063 0 0.010640906901743226 -0.00057107230863979899 0 0.010748928869966527 -0.00099473371892957259 0 0.010455525883828214 -0.00072522253155997581 0 0.010748928869966527 -0.00099473371892957259 0 0.010462804526796012 -0.0012551672221768166 0 0.010462804526796012 -0.0012551672221768166 0 0.010036026395269163 -0.00085192392482424668 0 0.0099240082814689087 -0.0012368193713689409 0 0.009961115182103103 -0.00086163365274717814 0 0.0094621579894529368 -0.0010899146003710376 0 0.008854352189728236 -0.00090498142873931219 0 0.0097024824431690068 -0.00106408172027232 0 0.008891712915782236 -0.0014088253999753454 0 0.010455525883828214 -0.00072522253155997581 0 0.010462804526796012 -0.0012551672221768166 0 0.010036026395269163 -0.00085192392482424668 0 0.008891712915782236 -0.0014088253999753454 0 0.0084841425933881911 -0.0011658895216572801 0 0.0082234883310388657 -0.001550277136481399 0 0.008854352189728236 -0.00090498142873931219 0 0.008891712915782236 -0.0014088253999753454 0 0.0084841425933881911 -0.0011658895216572801 0 0.0099240082814689087 -0.0012368193713689409 0 0.0093871930664897307 -0.0010173430069801797 0 0.0092951173234663946 -0.0016445483051186233 0 0.010036026395269163 -0.00085192392482424668 0 0.0099240082814689087 -0.0012368193713689409 0 0.0093871930664897307 -0.0010173430069801797 0 0.0094621579894529368 -0.0010899146003710376 0 0.0089874842897851061 -0.0012929238554988604 0 0.0099240082814689087 -0.0012368193713689409 0 0.010012567779191151 -0.0017339262724893241 0 0.0092951173234663946 -0.0016445483051186233 0 0.0096133302459068416 -0.0019854933901299206 0 0.0099548680273177145 -0.0023521724755398831 0 0.0091805969221931388 -0.0022221199217267746 0 0.0096133302459068416 -0.0019854933901299206 0 0.010012567779191151 -0.0017339262724893241 0 0.0099548680273177145 -0.0023521724755398831 0 0.0096133302459068416 -0.0019854933901299206 0 0.010012567779191151 -0.0017339262724893241 0 0.0092951173234663946 -0.0016445483051186233 0 0.010012567779191151 -0.0017339262724893241 0 0.010781215372196843 -0.0018507575797499808 0 0.010646840714345074 -0.0023337546513081714 0 0.010012567779191151 -0.0017339262724893241 0 0.010646840714345074 -0.0023337546513081714 0 0.0099548680273177145 -0.0023521724755398831 0 0.010462804526796012 -0.0012551672221768166 0 0.0099240082814689087 -0.0012368193713689409 0 0.010012567779191151 -0.0017339262724893241 0 0.010462804526796012 -0.0012551672221768166 0 0.010012567779191151 -0.0017339262724893241 0 0.010781215372196843 -0.0018507575797499808 0 0.011289488106556712 -0.0020486186156184185 0 0.010781215372196843 -0.0018507575797499808 0 0.0110841174604957 -0.0023683829679256364 0 0.011289488106556712 -0.0020486186156184185 0 0.01123836413726363 -0.0015612293096085989 0 0.010781215372196843 -0.0018507575797499808 0 0.011003727463478264 -0.0013350709043480852 0 0.010462804526796012 -0.0012551672221768166 0 0.010781215372196843 -0.0018507575797499808 0 0.010745554441891098 -0.001179392601675711 0 0.010668652898236616 -0.0014290733592265726 0 0.0082727491038454264 -0.0014063636363082503 0 0.0082995128547598725 -0.0014908085640077411 0 0.0083259673073041059 -0.0014069516288129481 0 0.0083259673073041059 -0.0014069516288129481 0 0.008492667281619376 -0.0014109608861841969 0 0.0082297574587808613 -0.0014277965099053407 0 0.0082727491038454264 -0.0014063636363082503 0 0.0083259673073041059 -0.0014069516288129481 0 0.0082297574587808613 -0.0014277965099053407 0 0.0076868655167959838 -0.0014203627268455257 0 0.007691883383207164 -0.0014206144354261775 0 0.0077106869945302494 -0.0013182264311222328 0 0.0077421890458922987 -0.0016623805587562177 0 0.0075194241360609258 -0.0014633892290931915 0 0.0079557352804745553 -0.0015170831682926821 0 0.0077106869945302494 -0.0013182264311222328 0 0.0077421890458922987 -0.0016623805587562177 0 0.0079242532116374671 -0.0010973995642702208 0 0.0077106869945302494 -0.0013182264311222328 0 0.0075600783709587711 -0.0010725070066759858 0 0.0076868655167959838 -0.0014203627268455257 0 0.0076425127594364458 -0.0013434862292477016 0 0.0074720591516302965 -0.0012826572373300727 0 0.0074728318005375955 -0.0013166344480486959 0 0.0074821619644116185 -0.0012862583666874026 0 0.0074747873131251908 -0.0011996719370052089 0 0.0076868655167959838 -0.0014203627268455257 0 0.0079242532116374671 -0.0010973995642702208 0 0.0079557352804745553 -0.0015170831682926821 0 0.0077106869945302494 -0.0013182264311222328 0 0.0079514750239532868 -0.0016909271373417843 0 0.0082995128547598725 -0.0014908085640077411 0 0.0081043134103150147 -0.0014044537058719557 0 0.0082995128547598725 -0.0014908085640077411 0 0.0081043134103150147 -0.0014044537058719557 0 0.0082655234636474055 -0.0014318192267925146 0 0.0082995128547598725 -0.0014908085640077411 0 0.0082655234636474055 -0.0014318192267925146 0 0.0083259673073041059 -0.0014069516288129481 0 0.0084841425933881911 -0.0011658895216572801 0 0.0081043134103150147 -0.0014044537058719557 0 0.0082234883310388657 -0.001550277136481399 0 0.0083685678463408936 -0.00065463648902708044 0 0.0084841425933881911 -0.0011658895216572801 0 0.0081043134103150147 -0.0014044537058719557 0 0.0089874842897851061 -0.0012929238554988604 0 0.0087777315943148512 -0.0013846030759175154 0 0.0082234883310388657 -0.001550277136481399 0 0.0082655234636474055 -0.0014318192267925146 0 0.008492667281619376 -0.0014109608861841969 0 0.0081043134103150147 -0.0014044537058719557 0 0.0082234883310388657 -0.001550277136481399 0 0.0082655234636474055 -0.0014318192267925146 0 0.0082655234636474055 -0.0014318192267925146 0 0.0083259673073041059 -0.0014069516288129481 0 0.008492667281619376 -0.0014109608861841969 0 0.008492667281619376 -0.0014109608861841969 0 0.0087500722540824628 -0.0019412414650067753 0 0.0083666792471773898 -0.0017541131979509916 0 0.008492667281619376 -0.0014109608861841969 0 0.0092951173234663946 -0.0016445483051186233 0 0.0087500722540824628 -0.0019412414650067753 0 0.0093871930664897307 -0.0010173430069801797 0 0.008492667281619376 -0.0014109608861841969 0 0.0092951173234663946 -0.0016445483051186233 0 0.0092951173234663946 -0.0016445483051186233 0 0.0087500722540824628 -0.0019412414650067753 0 0.0091805969221931388 -0.0022221199217267746 0 0.0096133302459068416 -0.0019854933901299206 0 0.0092951173234663946 -0.0016445483051186233 0 0.0091805969221931388 -0.0022221199217267746 0 0.0087500722540824628 -0.0019412414650067753 0 0.0091805969221931388 -0.0022221199217267746 0 0.0087952927887967568 -0.002447776945667785 0 0.0087500722540824628 -0.0019412414650067753 0 0.0084248851765601086 -0.0021688001396711477 0 0.0087952927887967568 -0.002447776945667785 0 0.0087500722540824628 -0.0019412414650067753 0 0.0084248851765601086 -0.0021688001396711477 0 0.0083666792471773898 -0.0017541131979509916 0 0.0084248851765601086 -0.0021688001396711477 0 0.0078958353485670315 -0.001961005989293513 0 0.0082296665865337314 -0.0023926571293100924 0 0.0084248851765601086 -0.0021688001396711477 0 0.0083666792471773898 -0.0017541131979509916 0 0.0078958353485670315 -0.001961005989293513 0 0.0082488320037341217 -0.001299717581017035 0 0.0082297574587808613 -0.0014277965099053407 0 0.0078958353485670315 -0.001961005989293513 0 0.008492667281619376 -0.0014109608861841969 0 0.0083666792471773898 -0.0017541131979509916 0 0.0082297574587808613 -0.0014277965099053407 0 0.0076868655167959838 -0.0014203627268455257 0 0.0077087617739758319 -0.0016242817099504209 0 0.0083666792471773898 -0.0017541131979509916 0 0.0082297574587808613 -0.0014277965099053407 0 0.0078958353485670315 -0.001961005989293513 0 0.0079557352804745553 -0.0015170831682926821 0 0.0077421890458922987 -0.0016623805587562177 0 0.0078958353485670315 -0.001961005989293513 0 0.0077421890458922987 -0.0016623805587562177 0 0.0078958353485670315 -0.001961005989293513 0 0.0075006269413557224 -0.001887755800933235 0 0.0078958353485670315 -0.001961005989293513 0 0.0075006269413557224 -0.001887755800933235 0 0.0077005683794009964 -0.0022322560066999932 0 0.0074943347035056245 -0.0016939211025933198 0 0.0073792549222559652 -0.0018101881529901664 0 0.0074935066942854829 -0.0019072344519000561 0 0.0082316753402178148 -0.0018678417563306152 0 0.0087263325587434645 -0.0022135408870232695 0 0.0075006269413557224 -0.001887755800933235 0 0.0074824345043618245 -0.0024753023503897207 0 0.0077005683794009964 -0.0022322560066999932 0 0.0074943347035056245 -0.0016939211025933198 0 0.0073792549222559652 -0.0018101881529901664 0 0.0073636804219240331 -0.0016977378110589337 0 0.007254348010614124 -0.0017239356998719024 0 0.0073636804219240331 -0.0016977378110589337 0 0.0073322755613033606 -0.0015818582862967344 0 0.0073792549222559652 -0.0018101881529901664 0 0.007254348010614124 -0.0017239356998719024 0 0.0072635333277368585 -0.0018732915588609126 0 0.0073792549222559652 -0.0018101881529901664 0 0.007254348010614124 -0.0017239356998719024 0 0.0073636804219240331 -0.0016977378110589337 0 0.0073322755613033606 -0.0015818582862967344 0 0.0071681038466251306 -0.0015946275089863003 0 0.0071886868106680619 -0.0014191023777365024 0 0.007254348010614124 -0.0017239356998719024 0 0.0073322755613033606 -0.0015818582862967344 0 0.0071681038466251306 -0.0015946275089863003 0 0.0077421890458922987 -0.0016623805587562177 0 0.0075006269413557224 -0.001887755800933235 0 0.0075194241360609258 -0.0014633892290931915 0 0.0082316753402178148 -0.0018678417563306152 0 0.0080908247469350242 -0.0016990187770022174 0 0.0074943347035056245 -0.0016939211025933198 0 0.0073636804219240331 -0.0016977378110589337 0 0.0073322755613033606 -0.0015818582862967344 0 0.0074943347035056245 -0.0016939211025933198 0 0.0073322755613033606 -0.0015818582862967344 0 0.0075194241360609258 -0.0014633892290931915 0 0.0070004609647999587 -0.0017645595731929388 0 0.0070230315366278098 -0.0016102148859025022 0 0.006894262613093549 -0.0016889048395744202 0 0.0070004609647999587 -0.0017645595731929388 0 0.0071226504675273227 -0.0016912483637191711 0 0.0071427093278520863 -0.0018145907092090988 0 0.0070004609647999587 -0.0017645595731929388 0 0.0071226504675273227 -0.0016912483637191711 0 0.0070230315366278098 -0.0016102148859025022 0 0.007254348010614124 -0.0017239356998719024 0 0.0071427093278520863 -0.0018145907092090988 0 0.0072635333277368585 -0.0018732915588609126 0 0.007254348010614124 -0.0017239356998719024 0 0.0071226504675273227 -0.0016912483637191711 0 0.0071427093278520863 -0.0018145907092090988 0 0.007254348010614124 -0.0017239356998719024 0 0.0071226504675273227 -0.0016912483637191711 0 0.0071681038466251306 -0.0015946275089863003 0 0.0070982750370622918 -0.0015236906077444128 0 0.0071681038466251306 -0.0015946275089863003 0 0.0070230315366278098 -0.0016102148859025022 0 0.0071226504675273227 -0.0016912483637191711 0 0.0071681038466251306 -0.0015946275089863003 0 0.0070230315366278098 -0.0016102148859025022 0 0.0070982750370622918 -0.0015236906077444128 0 0.0071681038466251306 -0.0015946275089863003 0 0.0071886868106680619 -0.0014191023777365024 0 0.0070230315366278098 -0.0016102148859025022 0 0.0070141462295346436 -0.0014700996022103132 0 0.006830136543374824 -0.0015079819929824595 0 0.0070982750370622918 -0.0015236906077444128 0 0.0070230315366278098 -0.0016102148859025022 0 0.0070141462295346436 -0.0014700996022103132 0 0.0070230315366278098 -0.0016102148859025022 0 0.0068616220861444652 -0.001589261652160144 0 0.006894262613093549 -0.0016889048395744202 0 0.0067307523530951881 -0.0013499606249033637 0 0.0068321189796397607 -0.0015006304232741759 0 0.0069208199889051331 -0.0013320711528616521 0 0.0068321189796397607 -0.0015006304232741759 0 0.0071886868106680619 -0.0014191023777365024 0 0.0069208199889051331 -0.0013320711528616521 0 0.0068684415748451969 -0.0014377642693941678 0 0.0069945381717061968 -0.0014214288498284283 0 0.0070982750370622918 -0.0015236906077444128 0 0.0070141462295346436 -0.0014700996022103132 0 0.0071886868106680619 -0.0014191023777365024 0 0.0071886868106680619 -0.0014191023777365024 0 0.0069533511174654497 -0.0011461284695183144 0 0.0069208199889051331 -0.0013320711528616521 0 0.0071886868106680619 -0.0014191023777365024 0 0.0069533511174654497 -0.0011461284695183144 0 0.0072283218053912626 -0.0010853261501546515 0 0.0067307523530951881 -0.0013499606249033637 0 0.0069533511174654497 -0.0011461284695183144 0 0.0069208199889051331 -0.0013320711528616521 0 0.006715107799158215 -0.0013594892527907748 0 0.0068002351275546413 -0.00128307246112085 0 0.0066850900325572367 -0.0013526759498550644 0 0.0069533511174654497 -0.0011461284695183144 0 0.0066443948180240882 -0.0010925182272269911 0 0.0073322755613033606 -0.0015818582862967344 0 0.0075194241360609258 -0.0014633892290931915 0 0.00737073243623502 -0.001291766307718308 0 0.0077106869945302494 -0.0013182264311222328 0 0.0075194241360609258 -0.0014633892290931915 0 0.00737073243623502 -0.001291766307718308 0 0.0073322755613033606 -0.0015818582862967344 0 0.0071886868106680619 -0.0014191023777365024 0 0.00737073243623502 -0.001291766307718308 0 0.0071886868106680619 -0.0014191023777365024 0 0.00737073243623502 -0.001291766307718308 0 0.0072283218053912626 -0.0010853261501546515 0 0.0077106869945302494 -0.0013182264311222328 0 0.00737073243623502 -0.001291766307718308 0 0.0075600783709587711 -0.0010725070066759858 0 0.00737073243623502 -0.001291766307718308 0 0.0075600783709587711 -0.0010725070066759858 0 0.0072283218053912626 -0.0010853261501546515 0 0.0076670837118743033 -0.0008240540486108436 0 0.0075600783709587711 -0.0010725070066759858 0 0.007391370469996837 -0.00083204484834679385 0 0.0075600783709587711 -0.0010725070066759858 0 0.007391370469996837 -0.00083204484834679385 0 0.0072283218053912626 -0.0010853261501546515 0 0.0076670837118743033 -0.0008240540486108436 0 0.007391370469996837 -0.00083204484834679385 0 0.0075409438932924561 -0.00056002740086085335 0 0.007391370469996837 -0.00083204484834679385 0 0.0071564501681857092 -0.00081746114449477727 0 0.0071915924615363978 -0.00062718027474086176 0 0.007391370469996837 -0.00083204484834679385 0 0.0071564501681857092 -0.00081746114449477727 0 0.0072283218053912626 -0.0010853261501546515 0 0.0071564501681857092 -0.00081746114449477727 0 0.0072283218053912626 -0.0010853261501546515 0 0.0069068346430752499 -0.00091422475328739095 0 0.0069533511174654497 -0.0011461284695183144 0 0.0072283218053912626 -0.0010853261501546515 0 0.0069068346430752499 -0.00091422475328739095 0 0.0069533511174654497 -0.0011461284695183144 0 0.0069068346430752499 -0.00091422475328739095 0 0.0066443948180240882 -0.0010925182272269911 0 0.0069068346430752499 -0.00091422475328739095 0 0.0065579114935812336 -0.00086243171042274514 0 0.0066443948180240882 -0.0010925182272269911 0 0.0069068346430752499 -0.00091422475328739095 0 0.0067458216434789125 -0.00069521774769889014 0 0.0065579114935812336 -0.00086243171042274514 0 0.0069068346430752499 -0.00091422475328739095 0 0.0069972706466075339 -0.0006710912439818785 0 0.0067458216434789125 -0.00069521774769889014 0 0.0071564501681857092 -0.00081746114449477727 0 0.0069068346430752499 -0.00091422475328739095 0 0.0069972706466075339 -0.0006710912439818785 0 0.0071564501681857092 -0.00081746114449477727 0 0.0069972706466075339 -0.0006710912439818785 0 0.0071915924615363978 -0.00062718027474086176 0 0.0069972706466075339 -0.0006710912439818785 0 0.006865953046437165 -0.00051907180820934837 0 0.0070892533192824124 -0.0004493871094473811 0 0.0069972706466075339 -0.0006710912439818785 0 0.0070892533192824124 -0.0004493871094473811 0 0.0071915924615363978 -0.00062718027474086176 0 0.0071397149390664567 -0.00042915467296367329 0 0.0070892533192824124 -0.0004493871094473811 0 0.0071915924615363978 -0.00062718027474086176 0 0.0069972706466075339 -0.0006710912439818785 0 0.0067458216434789125 -0.00069521774769889014 0 0.006865953046437165 -0.00051907180820934837 0 0.0067458216434789125 -0.00069521774769889014 0 0.006865953046437165 -0.00051907180820934837 0 0.0066101262648019608 -0.00047956295111377129 0 0.006865953046437165 -0.00051907180820934837 0 0.0068088653474157332 -0.00031879302481649515 0 0.0066101262648019608 -0.00047956295111377129 0 0.0054587083511444109 -0.00016234726656791035 0 0.0059228452461907218 -0.00040729823068809585 0 0.0068088653474157332 -0.00031879302481649515 0 0.0071347512942642032 -0.00043214959626497739 0 0.0070892533192824124 -0.0004493871094473811 0 0.0044054868428333649 0.00027880781599790282 0 0.0041927525275453695 0.00015469457102874226 0 0.0044979221273740459 1.9826136939568059e-05 0 0.006865953046437165 -0.00051907180820934837 0 0.0068088653474157332 -0.00031879302481649515 0 0.0070892533192824124 -0.0004493871094473811 0 0.0059228452461907218 -0.00040729823068809585 0 0.0059446442585888472 -0.00040158858186153902 0 0.0046432079498253311 0.00026811266988476228 0 0.0044979221273740459 1.9826136939568059e-05 0 0.0048908017151188142 0.00011867097709543074 0 0.0059228452461907218 -0.00040729823068809585 0 0.0058156360937388308 -0.00035331266765630155 0 0.0046432079498253311 0.00026811266988476228 0 0.0044054868428333649 0.00027880781599790282 0 0.0044979221273740459 1.9826136939568059e-05 0 0.0061379085190058427 -0.00054249102885111972 0 0.0063299635529372802 -0.00047206887183875036 0 0.0063271299147733707 -0.00061030039179976378 0 0.007391370469996837 -0.00083204484834679385 0 0.0075409438932924561 -0.00056002740086085335 0 0.0071915924615363978 -0.00062718027474086176 0 0.0071397149390664567 -0.00042915467296367329 0 0.0075409438932924561 -0.00056002740086085335 0 0.0071915924615363978 -0.00062718027474086176 0 0.0059228452461907218 -0.00040729823068809585 0 0.0067693478337648881 -0.00073079424459235993 0 0.0061528401348052405 -0.00062547702731179534 0 0.0059194957317656016 -0.00072814236533613329 0 0.0060698501299664698 -0.00079029197310428469 0 0.0059765223761293592 -0.00068648412369356159 0 0.0058525981506741178 -0.00071508830794218532 0 0.0061528401348052405 -0.00062547702731179534 0 0.0061145690331394706 -0.00044207293288411187 0 0.0062437986960800114 -0.00044445393055965292 0 0.0058251974848577597 -0.0006889908819933308 0 0.0059481816447809503 -0.00041546985769516621 0 0.0057630637295028094 -0.0004802183704220127 0 0.0061528401348052405 -0.00062547702731179534 0 0.0058251974848577597 -0.0006889908819933308 0 0.0059481816447809503 -0.00041546985769516621 0 0.0057571733376942259 -0.00028352507490689375 0 0.0061047203943301858 -0.00029110969597937104 0 0.0059481816447809503 -0.00041546985769516621 0 0.0057651366538350518 -0.00030965623894215437 0 0.0059481816447809503 -0.00041546985769516621 0 0.0057630637295028094 -0.0004802183704220127 0 0.0051323689809401494 -0.00025106781444257908 0 0.0053404730620829396 -0.00035587656765717884 0 0.0061047203943301858 -0.00029110969597937104 0 0.0059481816447809503 -0.00041546985769516621 0 0.0061145690331394706 -0.00044207293288411187 0 0.0061528401348052405 -0.00062547702731179534 0 0.0059481816447809503 -0.00041546985769516621 0 0.0061145690331394706 -0.00044207293288411187 0 0.0061047203943301858 -0.00029110969597937104 0 0.0061145690331394706 -0.00044207293288411187 0 0.0062437986960800114 -0.00044445393055965292 0 0.0063512538940998682 -0.00025774178928897546 0 0.0061047203943301858 -0.00029110969597937104 0 0.0062681874779711164 -0.00034984215434343989 0 0.0061047203943301858 -0.00029110969597937104 0 0.0062681874779711164 -0.00034984215434343989 0 0.0062437986960800114 -0.00044445393055965292 0 0.0063512538940998682 -0.00025774178928897546 0 0.0062681874779711164 -0.00034984215434343989 0 0.0063942570026354287 -0.00042362443478176104 0 0.0062681874779711164 -0.00034984215434343989 0 0.0062437986960800114 -0.00044445393055965292 0 0.0063942570026354287 -0.00042362443478176104 0 0.0062437986960800114 -0.00044445393055965292 0 0.0063942570026354287 -0.00042362443478176104 0 0.0064479599503900597 -0.00059331158921956096 0 0.0063512538940998682 -0.00025774178928897546 0 0.0068088653474157332 -0.00031879302481649515 0 0.0066101262648019608 -0.00047956295111377129 0 0.0049721244010493271 3.7876444728258026e-05 0 0.0054587083511444109 -0.00016234726656791035 0 0.0063512538940998682 -0.00025774178928897546 0 0.0063942570026354287 -0.00042362443478176104 0 0.0066101262648019608 -0.00047956295111377129 0 0.0067458216434789125 -0.00069521774769889014 0 0.0066101262648019608 -0.00047956295111377129 0 0.0064479599503900597 -0.00059331158921956096 0 0.0063942570026354287 -0.00042362443478176104 0 0.0066101262648019608 -0.00047956295111377129 0 0.0064479599503900597 -0.00059331158921956096 0 0.0061528401348052405 -0.00062547702731179534 0 0.0064479599503900597 -0.00059331158921956096 0 0.0062751175989090874 -0.00080872068223784008 0 0.0061528401348052405 -0.00062547702731179534 0 0.0062437986960800114 -0.00044445393055965292 0 0.0064479599503900597 -0.00059331158921956096 0 0.0064479599503900597 -0.00059331158921956096 0 0.0062751175989090874 -0.00080872068223784008 0 0.0065579114935812336 -0.00086243171042274514 0 0.0062751175989090874 -0.00080872068223784008 0 0.0065579114935812336 -0.00086243171042274514 0 0.0063735522825905562 -0.001014377542820953 0 0.0067458216434789125 -0.00069521774769889014 0 0.0064479599503900597 -0.00059331158921956096 0 0.0065579114935812336 -0.00086243171042274514 0 0.0065579114935812336 -0.00086243171042274514 0 0.0066443948180240882 -0.0010925182272269911 0 0.0063735522825905562 -0.001014377542820953 0 0.0066443948180240882 -0.0010925182272269911 0 0.0063735522825905562 -0.001014377542820953 0 0.0064115786967932848 -0.0012417486213934003 0 0.0062751175989090874 -0.00080872068223784008 0 0.0063735522825905562 -0.001014377542820953 0 0.0061081967788259592 -0.00095028884141972348 0 0.0063735522825905562 -0.001014377542820953 0 0.0061081967788259592 -0.00095028884141972348 0 0.0062109151422640565 -0.0011342918987923959 0 0.0061081967788259592 -0.00095028884141972348 0 0.0060368657508489227 -0.0011167662850739557 0 0.0062109151422640565 -0.0011342918987923959 0 0.0061528401348052405 -0.00062547702731179534 0 0.0062751175989090874 -0.00080872068223784008 0 0.0060698501299664698 -0.00079029197310428469 0 0.0062751175989090874 -0.00080872068223784008 0 0.0061081967788259592 -0.00095028884141972348 0 0.0060698501299664698 -0.00079029197310428469 0 0.0061081967788259592 -0.00095028884141972348 0 0.0060698501299664698 -0.00079029197310428469 0 0.0059515323170628151 -0.00085626642359607538 0 0.0059194957317656016 -0.00072814236533613329 0 0.0059515323170628151 -0.00085626642359607538 0 0.0058251592842355031 -0.00086506843078770464 0 0.0059194957317656016 -0.00072814236533613329 0 0.0060698501299664698 -0.00079029197310428469 0 0.0059515323170628151 -0.00085626642359607538 0 0.0059515323170628151 -0.00085626642359607538 0 0.0059428656583440679 -0.0009895891185481944 0 0.0058251592842355031 -0.00086506843078770464 0 0.0061081967788259592 -0.00095028884141972348 0 0.0059515323170628151 -0.00085626642359607538 0 0.0059428656583440679 -0.0009895891185481944 0 0.0061081967788259592 -0.00095028884141972348 0 0.0059428656583440679 -0.0009895891185481944 0 0.0060368657508489227 -0.0011167662850739557 0 0.0059428656583440679 -0.0009895891185481944 0 0.0060368657508489227 -0.0011167662850739557 0 0.0058478516523861523 -0.0011680993719797752 0 0.0063156165134740537 -0.0012977698039368685 0 0.0062047621736713836 -0.0013226869669748405 0 0.0061805486461694262 -0.0012258893988399977 0 0.0060368657508489227 -0.0011167662850739557 0 0.0061331212017404647 -0.0013553795212179142 0 0.0058478516523861523 -0.0011680993719797752 0 0.006279937501038035 -0.0012824063345650667 0 0.0060431664353198297 -0.0011210844579810913 0 0.006123711974841268 -0.0012755458290879041 0 0.0060431664353198297 -0.0011210844579810913 0 0.0060368657508489227 -0.0011167662850739557 0 0.0062109151422640565 -0.0011342918987923959 0 0.0061331212017404647 -0.0013553795212179142 0 0.0063156165134740537 -0.0012977698039368685 0 0.0062714947932505163 -0.001359190812115292 0 0.0063368036458398037 -0.0013970092062619245 0 0.0060418290936107098 -0.0011784527780680292 0 0.0060885210888634023 -0.0013479395810929652 0 0.0059260512477983668 -0.0012355830897230276 0 0.0062047621736713836 -0.0013226869669748405 0 0.0062714947932505163 -0.001359190812115292 0 0.0062288192317193833 -0.001419301907575003 0 0.0063156165134740537 -0.0012977698039368685 0 0.0062047621736713836 -0.0013226869669748405 0 0.0062714947932505163 -0.001359190812115292 0 0.006123711974841268 -0.0012755458290879041 0 0.0062091178667702624 -0.0014547975041381031 0 0.0066850900325572367 -0.0013526759498550644 0 0.0066443948180240882 -0.0010925182272269911 0 0.0064115786967932848 -0.0012417486213934003 0 0.0063735522825905562 -0.001014377542820953 0 0.0062109151422640565 -0.0011342918987923959 0 0.0064115786967932848 -0.0012417486213934003 0 0.0062109151422640565 -0.0011342918987923959 0 0.0061331212017404647 -0.0013553795212179142 0 0.0064115786967932848 -0.0012417486213934003 0 0.006279937501038035 -0.0012824063345650667 0 0.0066211971345164376 -0.0014521972037074078 0 0.0063156165134740537 -0.0012977698039368685 0 0.0064563576831375442 -0.0013724744677905696 0 0.0064451741135288709 -0.0013747731316378453 0 0.0061331212017404647 -0.0013553795212179142 0 0.0064115786967932848 -0.0012417486213934003 0 0.0064628521063622608 -0.0015500832112462126 0 0.0063156165134740537 -0.0012977698039368685 0 0.0064451741135288709 -0.0013747731316378453 0 0.0063368036458398037 -0.0013970092062619245 0 0.0068684415748451969 -0.0014377642693941678 0 0.0066211971345164376 -0.0014521972037074078 0 0.0067307523530951881 -0.0013499606249033637 0 0.0068321189796397607 -0.0015006304232741759 0 0.0065067826525795607 -0.0015666182507600855 0 0.0066850900325572367 -0.0013526759498550644 0 0.0064115786967932848 -0.0012417486213934003 0 0.0064628521063622608 -0.0015500832112462126 0 0.006715107799158215 -0.0013594892527907748 0 0.0066211971345164376 -0.0014521972037074078 0 0.0070230315366278098 -0.0016102148859025022 0 0.006751555720811481 -0.0014406689133966671 0 0.0068616220861444652 -0.001589261652160144 0 0.0068247848291841575 -0.0015453484726890734 0 0.0066211971345164376 -0.0014521972037074078 0 0.006751555720811481 -0.0014406689133966671 0 0.0068616220861444652 -0.001589261652160144 0 0.0067453288855994177 -0.0015104616085419539 0 0.0068616220861444652 -0.001589261652160144 0 0.0067781665228327072 -0.0015955719615882813 0 0.0067891162379622857 -0.0016706461830522457 0 0.0068616220861444652 -0.001589261652160144 0 0.0067453288855994177 -0.0015104616085419539 0 0.0067781665228327072 -0.0015955719615882813 0 0.0066909420213214672 -0.0014656202811471513 0 0.0065620525911628032 -0.0015797494186903197 0 0.0065061754182962261 -0.0015038387278624545 0 0.0065999878113446771 -0.001456091613594643 0 0.0064117082261388068 -0.0014537428478719726 0 0.0067453288855994177 -0.0015104616085419539 0 0.0067781665228327072 -0.0015955719615882813 0 0.0066792658440915486 -0.0016269786881643389 0 0.0067453288855994177 -0.0015104616085419539 0 0.0065792808653003963 -0.0015738556683437147 0 0.0066792658440915486 -0.0016269786881643389 0 0.0067453288855994177 -0.0015104616085419539 0 0.0067287630070675805 -0.001446155730311924 0 0.0065792808653003963 -0.0015738556683437147 0 0.006751555720811481 -0.0014406689133966671 0 0.0067453288855994177 -0.0015104616085419539 0 0.0067287630070675805 -0.001446155730311924 0 0.0066211971345164376 -0.0014521972037074078 0 0.0065999878113446771 -0.001456091613594643 0 0.0065999878113446771 -0.001456091613594643 0 0.0065520087423663487 -0.001524065915917602 0 0.0065792808653003963 -0.0015738556683437147 0 0.0066792658440915486 -0.0016269786881643389 0 0.006553977331305221 -0.0016893220337791746 0 0.0066180296234379021 -0.0017586098028232913 0 0.0066792658440915486 -0.0016269786881643389 0 0.006553977331305221 -0.0016893220337791746 0 0.0066180296234379021 -0.0017586098028232913 0 0.0067156305980544525 -0.0017162819641515009 0 0.0066792658440915486 -0.0016269786881643389 0 0.0066180296234379021 -0.0017586098028232913 0 0.0067156305980544525 -0.0017162819641515009 0 0.0067922554094198432 -0.0018130737802921786 0 0.0067156305980544525 -0.0017162819641515009 0 0.0066792658440915486 -0.0016269786881643389 0 0.0067891162379622857 -0.0016706461830522457 0 0.0070004609647999587 -0.0017645595731929388 0 0.006894262613093549 -0.0016889048395744202 0 0.0067922554094198432 -0.0018130737802921786 0 0.0067781665228327072 -0.0015955719615882813 0 0.0066792658440915486 -0.0016269786881643389 0 0.0067891162379622857 -0.0016706461830522457 0 0.0067891162379622857 -0.0016706461830522457 0 0.006894262613093549 -0.0016889048395744202 0 0.0067922554094198432 -0.0018130737802921786 0 0.0067156305980544525 -0.0017162819641515009 0 0.0067891162379622857 -0.0016706461830522457 0 0.0067922554094198432 -0.0018130737802921786 0 0.0068616220861444652 -0.001589261652160144 0 0.0067891162379622857 -0.0016706461830522457 0 0.006894262613093549 -0.0016889048395744202 0 0.0062714947932505163 -0.001359190812115292 0 0.0062288192317193833 -0.001419301907575003 0 0.0063368036458398037 -0.0013970092062619245 0 0.0063184677423199125 -0.001541807424099078 0 0.0065061754182962261 -0.0015038387278624545 0 0.0064604169422278765 -0.0015962378160244224 0 0.0062091178667702624 -0.0014547975041381031 0 0.0064117082261388068 -0.0014537428478719726 0 0.0065620525911628032 -0.0015797494186903197 0 0.0065061754182962261 -0.0015038387278624545 0 0.0064604169422278765 -0.0015962378160244224 0 0.0063184677423199125 -0.001541807424099078 0 0.0064604169422278765 -0.0015962378160244224 0 0.0064321554570432194 -0.0016961482268261318 0 0.0065792808653003963 -0.0015738556683437147 0 0.006553977331305221 -0.0016893220337791746 0 0.0064321554570432194 -0.0016961482268261318 0 0.0065620525911628032 -0.0015797494186903197 0 0.0064604169422278765 -0.0015962378160244224 0 0.0064321554570432194 -0.0016961482268261318 0 0.0065520087423663487 -0.001524065915917602 0 0.0065152431721093576 -0.0015642593193322199 0 0.0066180296234379021 -0.0017586098028232913 0 0.006553977331305221 -0.0016893220337791746 0 0.0064849678755696952 -0.0018140035038937497 0 0.006553977331305221 -0.0016893220337791746 0 0.0064321554570432194 -0.0016961482268261318 0 0.0064849678755696952 -0.0018140035038937497 0 0.0064321554570432194 -0.0016961482268261318 0 0.0063702047284557931 -0.0017564688837715845 0 0.0064849678755696952 -0.0018140035038937497 0 0.0062098316564364138 -0.001321544002914978 0 0.006299384355692981 -0.0016340482256698723 0 0.0060421764294117707 -0.0016034250888040014 0 0.0063184677423199125 -0.001541807424099078 0 0.0064321554570432194 -0.0016961482268261318 0 0.0063702047284557931 -0.0017564688837715845 0 0.0062091178667702624 -0.0014547975041381031 0 0.0062853859742782823 -0.0016666441298919751 0 0.006299384355692981 -0.0016340482256698723 0 0.006165138300916596 -0.0018091986940212885 0 0.0060421764294117707 -0.0016034250888040014 0 0.006299384355692981 -0.0016340482256698723 0 0.006165138300916596 -0.0018091986940212885 0 0.0063984598568659163 -0.001968742273388975 0 0.0062853859742782823 -0.0016666441298919751 0 0.0063211557645118169 -0.0017835141662537986 0 0.0064849678755696952 -0.0018140035038937497 0 0.0063984598568659163 -0.001968742273388975 0 0.0066406700696401161 -0.0019019809376274758 0 0.0063702047284557931 -0.0017564688837715845 0 0.0064849678755696952 -0.0018140035038937497 0 0.0063984598568659163 -0.001968742273388975 0 0.0063984598568659163 -0.001968742273388975 0 0.0066012861031999569 -0.0022302640192228868 0 0.0066506167690975363 -0.0020557819249074384 0 0.006165138300916596 -0.0018091986940212885 0 0.0063984598568659163 -0.001968742273388975 0 0.0061292005657534038 -0.0020140720787936842 0 0.0063984598568659163 -0.001968742273388975 0 0.0061292005657534038 -0.0020140720787936842 0 0.0062274174139365646 -0.0021839275057884953 0 0.0062274174139365646 -0.0021839275057884953 0 0.0064257492876793948 -0.0023216876609471683 0 0.0061665008688857204 -0.0024066184619890613 0 0.0062274174139365646 -0.0021839275057884953 0 0.0061665008688857204 -0.0024066184619890613 0 0.0060106982193396672 -0.0022069125709357441 0 0.0061292005657534038 -0.0020140720787936842 0 0.0062274174139365646 -0.0021839275057884953 0 0.0060106982193396672 -0.0022069125709357441 0 0.0063984598568659163 -0.001968742273388975 0 0.0062274174139365646 -0.0021839275057884953 0 0.0064257492876793948 -0.0023216876609471683 0 0.0063984598568659163 -0.001968742273388975 0 0.0064257492876793948 -0.0023216876609471683 0 0.0066012861031999569 -0.0022302640192228868 0 0.0064257492876793948 -0.0023216876609471683 0 0.0066012861031999569 -0.0022302640192228868 0 0.0066739125047239447 -0.0025914358077939472 0 0.0064257492876793948 -0.0023216876609471683 0 0.0063481236392259124 -0.0025695941739062441 0 0.0066739125047239447 -0.0025914358077939472 0 0.0064257492876793948 -0.0023216876609471683 0 0.0061665008688857204 -0.0024066184619890613 0 0.0063481236392259124 -0.0025695941739062441 0 0.0069546434763019197 -0.0023411926339118871 0 0.0069364414245204108 -0.0022716020680779939 0 0.0073594977517891513 -0.002464571092202114 0 0.0069546434763019197 -0.0023411926339118871 0 0.0068438859119949362 -0.002208061719191939 0 0.0068824367728820184 -0.0025274446715170787 0 0.0069546434763019197 -0.0023411926339118871 0 0.0069364414245204108 -0.0022716020680779939 0 0.0068438859119949362 -0.002208061719191939 0 0.0097765550412451958 -0.001472081204879361 0 0.010010342651942752 -0.0013506473087004799 0 0.0069546434763019197 -0.0023411926339118871 0 0.0071408579626915762 -0.0025385489077200999 0 0.0070504033977935839 -0.0026329824145810911 0 0.0069546434763019197 -0.0023411926339118871 0 0.0068824367728820184 -0.0025274446715170787 0 0.0070318704701108183 -0.0025671064123449975 0 0.0068094753587047748 -0.0022446726277007461 0 0.0067480910542288344 -0.0023903151255686796 0 0.0068438859119949362 -0.002208061719191939 0 0.0066739125047239447 -0.0025914358077939472 0 0.0068824367728820184 -0.0025274446715170787 0 0.0066012861031999569 -0.0022302640192228868 0 0.0067790710838280359 -0.0022815703165089823 0 0.0066739125047239447 -0.0025914358077939472 0 0.0066012861031999569 -0.0022302640192228868 0 0.0067790710838280359 -0.0022815703165089823 0 0.0066506167690975363 -0.0020557819249074384 0 0.0068094753587047748 -0.0022446726277007461 0 0.0068999699500325836 -0.002028877298124095 0 0.0068438859119949362 -0.002208061719191939 0 0.0069759796083768534 -0.0021491959616186228 0 0.0069369135917176474 -0.0019978434533989425 0 0.0069364414245204108 -0.0022716020680779939 0 0.0069759796083768534 -0.0021491959616186228 0 0.0070477823572666657 -0.0022349583462037375 0 0.0069364414245204108 -0.0022716020680779939 0 0.0068438859119949362 -0.002208061719191939 0 0.0069759796083768534 -0.0021491959616186228 0 0.0067790710838280359 -0.0022815703165089823 0 0.0068829377988041491 -0.0020028472529521816 0 0.0066506167690975363 -0.0020557819249074384 0 0.0063984598568659163 -0.001968742273388975 0 0.0066506167690975363 -0.0020557819249074384 0 0.0066406700696401161 -0.0019019809376274758 0 0.0068829377988041491 -0.0020028472529521816 0 0.0066506167690975363 -0.0020557819249074384 0 0.0066406700696401161 -0.0019019809376274758 0 0.0066180296234379021 -0.0017586098028232913 0 0.0066406700696401161 -0.0019019809376274758 0 0.0067922554094198432 -0.0018130737802921786 0 0.0066180296234379021 -0.0017586098028232913 0 0.0064849678755696952 -0.0018140035038937497 0 0.0066406700696401161 -0.0019019809376274758 0 0.0068829377988041491 -0.0020028472529521816 0 0.0066406700696401161 -0.0019019809376274758 0 0.0067922554094198432 -0.0018130737802921786 0 0.0070004609647999587 -0.0017645595731929388 0 0.0068829377988041491 -0.0020028472529521816 0 0.0067922554094198432 -0.0018130737802921786 0 0.0070004609647999587 -0.0017645595731929388 0 0.0069369135917176474 -0.0019978434533989425 0 0.0070591019346895297 -0.0019099389219030694 0 0.0069502001841651381 -0.0019089031458205731 0 0.0068999699500325836 -0.002028877298124095 0 0.0070004609647999587 -0.0017645595731929388 0 0.0070591019346895297 -0.0019099389219030694 0 0.0071427093278520863 -0.0018145907092090988 0 0.0071427093278520863 -0.0018145907092090988 0 0.0071595137372299899 -0.0019426500438683863 0 0.0072635333277368585 -0.0018732915588609126 0 0.0071595137372299899 -0.0019426500438683863 0 0.0072635333277368585 -0.0018732915588609126 0 0.0072611594474330035 -0.0019893059576421577 0 0.0070591019346895297 -0.0019099389219030694 0 0.0071427093278520863 -0.0018145907092090988 0 0.0071595137372299899 -0.0019426500438683863 0 0.0071595137372299899 -0.0019426500438683863 0 0.0071816561431125017 -0.0020548111875480692 0 0.0070673904092780713 -0.0020346512748449733 0 0.0071595137372299899 -0.0019426500438683863 0 0.0071816561431125017 -0.0020548111875480692 0 0.0072611594474330035 -0.0019893059576421577 0 0.0071816561431125017 -0.0020548111875480692 0 0.0072611594474330035 -0.0019893059576421577 0 0.0073102701558781036 -0.0021097973367414234 0 0.0071816561431125017 -0.0020548111875480692 0 0.0070673904092780713 -0.0020346512748449733 0 0.0070978714584023026 -0.0021482311621157392 0 0.0069759796083768534 -0.0021491959616186228 0 0.0069369135917176474 -0.0019978434533989425 0 0.0070673904092780713 -0.0020346512748449733 0 0.0069369135917176474 -0.0019978434533989425 0 0.0070591019346895297 -0.0019099389219030694 0 0.0070673904092780713 -0.0020346512748449733 0 0.0070591019346895297 -0.0019099389219030694 0 0.0071595137372299899 -0.0019426500438683863 0 0.0070673904092780713 -0.0020346512748449733 0 0.0073792549222559652 -0.0018101881529901664 0 0.0074935066942854829 -0.0019072344519000561 0 0.0073792338748637411 -0.0019499079164833025 0 0.0073792549222559652 -0.0018101881529901664 0 0.0073792338748637411 -0.0019499079164833025 0 0.0072635333277368585 -0.0018732915588609126 0 0.0073792338748637411 -0.0019499079164833025 0 0.0072635333277368585 -0.0018732915588609126 0 0.0072611594474330035 -0.0019893059576421577 0 0.0073792338748637411 -0.0019499079164833025 0 0.0074150887899833932 -0.0020415104120442102 0 0.0073396423606469814 -0.0020818722324540927 0 0.0073792338748637411 -0.0019499079164833025 0 0.0072611594474330035 -0.0019893059576421577 0 0.0073102701558781036 -0.0021097973367414234 0 0.0085510141896617941 -0.0024048746793652346 0 0.0087414227762229544 -0.0024178642391378593 0 0.0074824345043618245 -0.0024753023503897207 0 0.0074986035314836951 -0.0030732750461082477 0 0.0077408124807542686 -0.0026555611882509884 0 0.0074935066942854829 -0.0019072344519000561 0 0.0074150887899833932 -0.0020415104120442102 0 0.007494502770354094 -0.0020947242075517831 0 0.0087263325587434645 -0.0022135408870232695 0 0.0098158530301171235 -0.0026466396744119509 0 0.0074935066942854829 -0.0019072344519000561 0 0.0073792338748637411 -0.0019499079164833025 0 0.0074150887899833932 -0.0020415104120442102 0 0.0098158530301171235 -0.0026466396744119509 0 0.01128838225895723 -0.0030628659504309116 0 0.010792191777902678 -0.0024537115530436694 0 0.010728633435080846 -0.0024877977401863553 0 0.010797631154614578 -0.002564151664297333 0 0.0074150887899833932 -0.0020415104120442102 0 0.007494502770354094 -0.0020947242075517831 0 0.0073885551497165185 -0.0021464035282019954 0 0.0098158530301171235 -0.0026466396744119509 0 0.0094886739482932074 -0.0024925028271609142 0 0.0073885551497165185 -0.0021464035282019954 0 0.0073396423606469814 -0.0020818722324540927 0 0.0072975687048877792 -0.0021965608789765926 0 0.0087414227762229544 -0.0024178642391378593 0 0.0094478805180180977 -0.002271290283625921 0 0.0074150887899833932 -0.0020415104120442102 0 0.0073885551497165185 -0.0021464035282019954 0 0.0073396423606469814 -0.0020818722324540927 0 0.0094886739482932074 -0.0024925028271609142 0 0.0094478805180180977 -0.002271290283625921 0 0.010719647326473966 -0.0025584610142792906 0 0.010663165445563963 -0.0025219154739604373 0 0.010633544958374241 -0.0025907478478891348 0 0.010728633435080846 -0.0024877977401863553 0 0.010719647326473966 -0.0025584610142792906 0 0.010663165445563963 -0.0025219154739604373 0 0.01273310120439781 -0.0036012460697439756 0 0.012744366739093385 -0.0038929354474540106 0 0.012841735521043491 -0.003813475255952371 0 0.010728633435080846 -0.0024877977401863553 0 0.010719647326473966 -0.0025584610142792906 0 0.010797631154614578 -0.002564151664297333 0 0.0070477823572666657 -0.0022349583462037375 0 0.0070978714584023026 -0.0021482311621157392 0 0.0071367149737562854 -0.0022290673772218097 0 0.0069759796083768534 -0.0021491959616186228 0 0.0070477823572666657 -0.0022349583462037375 0 0.0070978714584023026 -0.0021482311621157392 0 0.0069759796083768534 -0.0021491959616186228 0 0.0070673904092780713 -0.0020346512748449733 0 0.0070978714584023026 -0.0021482311621157392 0 0.0071816561431125017 -0.0020548111875480692 0 0.0070978714584023026 -0.0021482311621157392 0 0.0072011352677954273 -0.0021534691920105076 0 0.0073102701558781036 -0.0021097973367414234 0 0.0072011352677954273 -0.0021534691920105076 0 0.0072450419594449105 -0.0022619282031073849 0 0.0071816561431125017 -0.0020548111875480692 0 0.0073102701558781036 -0.0021097973367414234 0 0.0072011352677954273 -0.0021534691920105076 0 0.0072011352677954273 -0.0021534691920105076 0 0.0071367149737562854 -0.0022290673772218097 0 0.0072450419594449105 -0.0022619282031073849 0 0.0070978714584023026 -0.0021482311621157392 0 0.0072011352677954273 -0.0021534691920105076 0 0.0071367149737562854 -0.0022290673772218097 0 0.0071367149737562854 -0.0022290673772218097 0 0.0072450419594449105 -0.0022619282031073849 0 0.0070944192004819316 -0.0023409061338464845 0 0.0094478805180180977 -0.002271290283625921 0 0.0095878403441601416 -0.0018483447182647251 0 0.0098404383734947126 -0.0020371880524218842 0 0.010378637586759805 -0.0017440863921094286 0 0.010042946756707539 -0.0015708121471907795 0 0.0094478805180180977 -0.002271290283625921 0 0.010626893413478521 -0.0020442288815828782 0 0.0095878403441601416 -0.0018483447182647251 0 0.010626893413478521 -0.0020442288815828782 0 0.0069546434763019197 -0.0023411926339118871 0 0.0073594977517891513 -0.002464571092202114 0 0.0071408579626915762 -0.0025385489077200999 0 0.0069364414245204108 -0.0022716020680779939 0 0.0070477823572666657 -0.0022349583462037375 0 0.0070944192004819316 -0.0023409061338464845 0 0.0095878403441601416 -0.0018483447182647251 0 0.010087459538201816 -0.0014919641228635691 0 0.0085474036060158732 -0.0016114106691524556 0 0.0095878403441601416 -0.0018483447182647251 0 0.0070477823572666657 -0.0022349583462037375 0 0.0071367149737562854 -0.0022290673772218097 0 0.0070944192004819316 -0.0023409061338464845 0 0.0073594977517891513 -0.002464571092202114 0 0.0071408579626915762 -0.0025385489077200999 0 0.0071865054280318809 -0.0025613925186126012 0 0.010068425816379931 -0.0014878782052898487 0 0.010087459538201816 -0.0014919641228635691 0 0.010087459538201816 -0.0014919641228635691 0 0.011423258037983067 -0.0015854861175962794 0 0.011351255308491539 -0.0016953693342066577 0 0.011107783560702609 -0.0015699908227806627 0 0.011418993042240191 -0.0015311426401234871 0 0.0071408579626915762 -0.0025385489077200999 0 0.0071855179132739866 -0.0025608880379513091 0 0.0070504033977935839 -0.0026329824145810911 0 0.010489212308127121 -0.0012447767903770216 0 0.010086462994895126 -0.0014621267188345928 0 0.010884727693468101 -0.00187199350656345 0 0.010087459538201816 -0.0014919641228635691 0 0.010010342651942752 -0.0013506473087004799 0 0.011351255308491539 -0.0016953693342066577 0 0.011450507987288788 -0.0016422511862395604 0 0.011418993042240191 -0.0015311426401234871 0 0.011423258037983067 -0.0015854861175962794 0 0.012564788426704308 -0.0020332342775879536 0 0.010489212308127121 -0.0012447767903770216 0 0.011034190019256707 -0.0015266683775122922 0 0.010884727693468101 -0.00187199350656345 0 0.01105613451223769 -0.0016542192463373327 0 0.010911189588159646 -0.0019891487168696626 0 0.011918640109981974 -0.0021000452128801216 0 0.010626893413478521 -0.0020442288815828782 0 0.011423258037983067 -0.0015854861175962794 0 0.01480106044637359 -2.0805199455449615e-05 0 0.014822098157495314 -5.439421802002183e-05 0 0.014846643421391284 -4.7615782550066899e-05 0 0.01480106044637359 -2.0805199455449615e-05 0 0.014822098157495314 -5.439421802002183e-05 0 0.014775855995873317 -7.7009583819564139e-05 0 0.011107783560702609 -0.0015699908227806627 0 0.011272271695364277 -0.001194463485012109 0 0.011418993042240191 -0.0015311426401234871 0 0.011326217733007229 -0.0012036194176702538 0 0.011272271695364277 -0.001194463485012109 0 0.011418993042240191 -0.0015311426401234871 0 0.012022385471829473 -0.0011415664258183299 0 0.01043536399896958 -0.0014076739040800885 0 0.011423258037983067 -0.0015854861175962794 0 0.012427208129853488 -0.001025883852162401 0 0.010797631154614578 -0.002564151664297333 0 0.010717939576090147 -0.0026343640412531126 0 0.010803879395286821 -0.0026782621222077941 0 0.01128838225895723 -0.0030628659504309116 0 0.012506450194698171 -0.0030072890027990043 0 0.012744366739093385 -0.0038929354474540106 0 0.01279658487687612 -0.0040322696525097951 0 0.012755910408387023 -0.0041737036045903448 0 0.010719647326473966 -0.0025584610142792906 0 0.010797631154614578 -0.002564151664297333 0 0.010717939576090147 -0.0026343640412531126 0 0.01145151913419383 -0.0024618919593627771 0 0.012506450194698171 -0.0030072890027990043 0 0.01283309437092354 -0.0034195800209609012 0 0.012836032834949261 -0.0031728513960702265 0 0.010719647326473966 -0.0025584610142792906 0 0.010633544958374241 -0.0025907478478891348 0 0.010717939576090147 -0.0026343640412531126 0 0.010911189588159646 -0.0019891487168696626 0 0.011918640109981974 -0.0021000452128801216 0 0.011849052978363049 -0.0024702104027757091 0 0.010626893413478521 -0.0020442288815828782 0 0.01145151913419383 -0.0024618919593627771 0 0.011918640109981974 -0.0021000452128801216 0 0.011849052978363049 -0.0024702104027757091 0 0.012779826211507042 -0.0025449572554672823 0 0.014822098157495314 -5.439421802002183e-05 0 0.014846643421391284 -4.7615782550066899e-05 0 0.014857486714374915 -6.953324076302837e-05 0 0.014846643421391284 -4.7615782550066899e-05 0 0.014858459975739237 -6.7773400415920639e-05 0 0.014857486714374915 -6.953324076302837e-05 0 0.012564788426704308 -0.0020332342775879536 0 0.01290738603783644 -0.002543975539051258 0 0.011849052978363049 -0.0024702104027757091 0 0.012785409484758635 -0.0029500307181991982 0 0.012779826211507042 -0.0025449572554672823 0 0.014846643421391284 -4.7615782550066899e-05 0 0.014860925366635068 -6.5932371202968433e-05 0 0.014858459975739237 -6.7773400415920639e-05 0 0.012636744443065498 -0.002551961805547362 0 0.012888711802756634 -0.002681459209944048 0 0.012636053719211915 -0.0031252212797273993 0 0.01290738603783644 -0.002543975539051258 0 0.012506450194698171 -0.0030072890027990043 0 0.013157539441420387 -0.0028062173880294577 0 0.012836032834949261 -0.0031728513960702265 0 0.013157539441420387 -0.0028062173880294577 0 0.01290738603783644 -0.002543975539051258 0 0.01279658487687612 -0.0040322696525097951 0 0.01279887439192481 -0.0041953197378750921 0 0.012755910408387023 -0.0041737036045903448 0 0.012888711802756634 -0.002681459209944048 0 0.012636053719211915 -0.0031252212797273993 0 0.012895126606038851 -0.0032593596196924366 0 0.012836032834949261 -0.0031728513960702265 0 0.012506450194698171 -0.0030072890027990043 0 0.014839961297100513 -9.3952383019433753e-05 0 0.014854574742163397 -6.7435264900248405e-05 0 0.014857556892943446 -3.9089222538709788e-05 0 0.013157539441420387 -0.0028062173880294577 0 0.014262448969233022 -0.0021033864584609585 0 0.01290738603783644 -0.002543975539051258 0 0.013037208873914522 -0.0019439770036571366 0 0.014860925366635068 -6.5932371202968433e-05 0 0.014854574742163397 -6.7435264900248405e-05 0 0.014858459975739237 -6.7773400415920639e-05 0 0.014839961297100513 -9.3952383019433753e-05 0 0.014847441580826553 -9.9351594804454108e-05 0 0.014854574742163397 -6.7435264900248405e-05 0 0.014854574742163397 -6.7435264900248405e-05 0 0.014858459975739237 -6.7773400415920639e-05 0 0.014864117125389037 -5.0572309666623313e-05 0 0.014858459975739237 -6.7773400415920639e-05 0 0.014857486714374915 -6.953324076302837e-05 0 0.014864117125389037 -5.0572309666623313e-05 0 0.014877674503581781 -2.6200503002477421e-05 0 0.014864117125389037 -5.0572309666623313e-05 0 0.014877169531350685 -2.6748867712711981e-05 0 0.014857486714374915 -6.953324076302837e-05 0 0.014877674503581781 -2.6200503002477421e-05 0 0.014886881599593036 -3.3863196441941331e-05 0 0.014857486714374915 -6.953324076302837e-05 0 0.014877674503581781 -2.6200503002477421e-05 0 0.014864117125389037 -5.0572309666623313e-05 0 0.014864117125389037 -5.0572309666623313e-05 0 0.014857556892943446 -3.9089222538709788e-05 0 0.014877169531350685 -2.6748867712711981e-05 0 0.014854574742163397 -6.7435264900248405e-05 0 0.014864117125389037 -5.0572309666623313e-05 0 0.014857556892943446 -3.9089222538709788e-05 0 0.014916611431783766 -7.0802985554546452e-05 0 0.014896628738410782 -5.6826392776645065e-05 0 0.014910011020473068 -3.1662411984573426e-05 0 0.015065056062090533 0.00063850496705577739 0 0.014948983101764722 0.00037069950455458924 0 0.014931508849204611 0.0005573763308151209 0 0.012505622819279402 -0.00079273939585965852 0 0.01322874367718691 -0.00049368988595009146 0 0.012505622819279402 -0.00079273939585965852 0 0.013399758862783757 6.7496890372968204e-05 0 0.015065056062090533 0.00063850496705577739 0 0.015039743405480621 0.00072301229675113894 0 0.014931508849204611 0.0005573763308151209 0 0.012505622819279402 -0.00079273939585965852 0 0.012022385471829473 -0.0011415664258183299 0 0.012282521599237001 -0.0011967282825428684 0 0.012444076038167036 -0.0017498797916360859 0 0.012070240007318243 -0.0016864642076461045 0 0.012505622819279402 -0.00079273939585965852 0 0.012427208129853488 -0.001025883852162401 0 0.014916611431783766 -7.0802985554546452e-05 0 0.014912363953167664 -7.9960877574952947e-05 0 0.014896628738410782 -5.6826392776645065e-05 0 0.012022385471829473 -0.0011415664258183299 0 0.012427208129853488 -0.001025883852162401 0 0.014857486714374915 -6.953324076302837e-05 0 0.014896628738410782 -5.6826392776645065e-05 0 0.014886881599593036 -3.3863196441941331e-05 0 0.014857486714374915 -6.953324076302837e-05 0 0.014912363953167664 -7.9960877574952947e-05 0 0.014896628738410782 -5.6826392776645065e-05 0 0.014822098157495314 -5.439421802002183e-05 0 0.014857486714374915 -6.953324076302837e-05 0 0.014775855995873317 -7.7009583819564139e-05 0 0.014112568244665042 -0.00091318113405511596 0 0.012427208129853488 -0.001025883852162401 0 0.014886881599593036 -3.3863196441941331e-05 0 0.014910011020473068 -3.1662411984573426e-05 0 0.014890324333622789 1.7182839878588879e-05 0 0.014896628738410782 -5.6826392776645065e-05 0 0.014886881599593036 -3.3863196441941331e-05 0 0.014910011020473068 -3.1662411984573426e-05 0 0.014838060875718864 0.00017924593986038361 0 0.014864018814525036 0.00012147660667355136 0 0.014819812815823568 0.00012732581916672977 0 0.014864018814525036 0.00012147660667355136 0 0.014819812815823568 0.00012732581916672977 0 0.014837700418205904 7.9362499891314503e-05 0 0.014948983101764722 0.00037069950455458924 0 0.014737852249694415 0.00028956067159663411 0 0.014801246482844213 9.8463392542849079e-05 0 0.013399758862783757 6.7496890372968204e-05 0 0.013630129795275243 0.00023146376010812431 0 0.014737852249694415 0.00028956067159663411 0 0.014812631099265733 0.00044358883868710687 0 0.014595484976388276 0.00041766954722744621 0 0.014948983101764722 0.00037069950455458924 0 0.014812631099265733 0.00044358883868710687 0 0.014931508849204611 0.0005573763308151209 0 0.014948983101764722 0.00037069950455458924 0 0.014737852249694415 0.00028956067159663411 0 0.014812631099265733 0.00044358883868710687 0 0.014812631099265733 0.00044358883868710687 0 0.014931508849204611 0.0005573763308151209 0 0.014789227473629566 0.00060695647355293782 0 0.015039743405480621 0.00072301229675113894 0 0.014789227473629566 0.00060695647355293782 0 0.01459112704694456 0.00082335008909680408 0 0.014812631099265733 0.00044358883868710687 0 0.014789227473629566 0.00060695647355293782 0 0.014595484976388276 0.00041766954722744621 0 0.015039743405480621 0.00072301229675113894 0 0.014931508849204611 0.0005573763308151209 0 0.014789227473629566 0.00060695647355293782 0 0.014789227473629566 0.00060695647355293782 0 0.01447550636314753 0.00060996783585929399 0 0.014595484976388276 0.00041766954722744621 0 0.014789227473629566 0.00060695647355293782 0 0.01447550636314753 0.00060996783585929399 0 0.01459112704694456 0.00082335008909680408 0 0.01447550636314753 0.00060996783585929399 0 0.014242322180597353 0.00072059203336931148 0 0.01459112704694456 0.00082335008909680408 0 0.01447550636314753 0.00060996783585929399 0 0.014595484976388276 0.00041766954722744621 0 0.014405896888163152 0.00045623054875921598 0 0.014595484976388276 0.00041766954722744621 0 0.014429696736417934 0.00030846037702625249 0 0.014405896888163152 0.00045623054875921598 0 0.014737852249694415 0.00028956067159663411 0 0.014595484976388276 0.00041766954722744621 0 0.014574883647572985 0.00023946924141224964 0 0.014595484976388276 0.00041766954722744621 0 0.014574883647572985 0.00023946924141224964 0 0.014429696736417934 0.00030846037702625249 0 0.014574883647572985 0.00023946924141224964 0 0.014429696736417934 0.00030846037702625249 0 0.014437288184135739 0.0001758389098917743 0 0.014429696736417934 0.00030846037702625249 0 0.014332873221945892 0.00024755195257036741 0 0.014437288184135739 0.0001758389098917743 0 0.014429696736417934 0.00030846037702625249 0 0.014332873221945892 0.00024755195257036741 0 0.014287167476022386 0.00037076305930216818 0 0.014332873221945892 0.00024755195257036741 0 0.014212977511766837 0.00024159718385489544 0 0.014287167476022386 0.00037076305930216818 0 0.014212977511766837 0.00024159718385489544 0 0.014287167476022386 0.00037076305930216818 0 0.014166462320913113 0.00048784875127520479 0 0.014287167476022386 0.00037076305930216818 0 0.014166462320913113 0.00048784875127520479 0 0.014263274929034626 0.00054095424785520583 0 0.014287167476022386 0.00037076305930216818 0 0.014405896888163152 0.00045623054875921598 0 0.014263274929034626 0.00054095424785520583 0 0.014429696736417934 0.00030846037702625249 0 0.014287167476022386 0.00037076305930216818 0 0.014405896888163152 0.00045623054875921598 0 0.014212977511766837 0.00024159718385489544 0 0.014166462320913113 0.00048784875127520479 0 0.013931529496736528 0.00067319008542564469 0 0.014090131710627275 9.2952926713752381e-05 0 0.013867494387092031 0.00042193717677692014 0 0.013931529496736528 0.00067319008542564469 0 0.014117005519267237 0.0001081366545376178 0 0.014024876673132512 0.00039492462623643874 0 0.013746285279819713 0.00016906472564211521 0 0.013882490573465751 0.0002253205864887861 0 0.013759788954883787 0.00030705721199501704 0 0.013746285279819713 0.00016906472564211521 0 0.013893747115768238 9.512203313134294e-05 0 0.013753438275205948 2.8782259926705332e-05 0 0.013746285279819713 0.00016906472564211521 0 0.013893747115768238 9.512203313134294e-05 0 0.013882490573465751 0.0002253205864887861 0 0.014090131710627275 9.2952926713752381e-05 0 0.013882490573465751 0.0002253205864887861 0 0.013867494387092031 0.00042193717677692014 0 0.014090131710627275 9.2952926713752381e-05 0 0.013893747115768238 9.512203313134294e-05 0 0.013882490573465751 0.0002253205864887861 0 0.013882490573465751 0.0002253205864887861 0 0.013867494387092031 0.00042193717677692014 0 0.013759788954883787 0.00030705721199501704 0 0.013867494387092031 0.00042193717677692014 0 0.013759788954883787 0.00030705721199501704 0 0.013687751634089737 0.00043791016085033079 0 0.013867494387092031 0.00042193717677692014 0 0.01385586673895085 0.00058985487738677218 0 0.013931529496736528 0.00067319008542564469 0 0.013867494387092031 0.00042193717677692014 0 0.013746535601077792 0.00052461444229127204 0 0.013687751634089737 0.00043791016085033079 0 0.013867494387092031 0.00042193717677692014 0 0.013746535601077792 0.00052461444229127204 0 0.01385586673895085 0.00058985487738677218 0 0.014166462320913113 0.00048784875127520479 0 0.013931529496736528 0.00067319008542564469 0 0.014133688902896272 0.00062126544924258603 0 0.013931529496736528 0.00067319008542564469 0 0.014087237747915898 0.00073244977564058847 0 0.014133688902896272 0.00062126544924258603 0 0.01447550636314753 0.00060996783585929399 0 0.014405896888163152 0.00045623054875921598 0 0.014263274929034626 0.00054095424785520583 0 0.01447550636314753 0.00060996783585929399 0 0.014263274929034626 0.00054095424785520583 0 0.014242322180597353 0.00072059203336931148 0 0.014263274929034626 0.00054095424785520583 0 0.014133688902896272 0.00062126544924258603 0 0.014242322180597353 0.00072059203336931148 0 0.014166462320913113 0.00048784875127520479 0 0.014263274929034626 0.00054095424785520583 0 0.014133688902896272 0.00062126544924258603 0 0.014087237747915898 0.00073244977564058847 0 0.014133688902896272 0.00062126544924258603 0 0.014242322180597353 0.00072059203336931148 0 0.0063236538825476637 -0.0028670190112487239 0 0.0066739125047239447 -0.0025914358077939472 0 0.0067308590524184867 -0.0029382310269102209 0 0.010148611997705866 -0.00099708171734423103 0 0.010792003015474646 -0.0010345755686027355 0 0.014242322180597353 0.00072059203336931148 0 0.014058809792309468 0.00096381123901336397 0 0.01459112704694456 0.00082335008909680408 0 0.014087237747915898 0.00073244977564058847 0 0.014242322180597353 0.00072059203336931148 0 0.014058809792309468 0.00096381123901336397 0 0.0063236538825476637 -0.0028670190112487239 0 0.0061490175627235992 -0.002657170959641107 0 0.0059283163996723494 -0.0028075906905246071 0 0.013931529496736528 0.00067319008542564469 0 0.014058809792309468 0.00096381123901336397 0 0.013403587762273723 0.0010768086127557362 0 0.013931529496736528 0.00067319008542564469 0 0.014087237747915898 0.00073244977564058847 0 0.014058809792309468 0.00096381123901336397 0 0.0061665008688857204 -0.0024066184619890613 0 0.0063481236392259124 -0.0025695941739062441 0 0.0061490175627235992 -0.002657170959641107 0 0.0063236538825476637 -0.0028670190112487239 0 0.0063481236392259124 -0.0025695941739062441 0 0.0061490175627235992 -0.002657170959641107 0 0.0063236538825476637 -0.0028670190112487239 0 0.0063481236392259124 -0.0025695941739062441 0 0.0066739125047239447 -0.0025914358077939472 0 0.0066739125047239447 -0.0025914358077939472 0 0.0068724002507360334 -0.0027360724798855319 0 0.0067308590524184867 -0.0029382310269102209 0 0.0066739125047239447 -0.0025914358077939472 0 0.0068824367728820184 -0.0025274446715170787 0 0.0068724002507360334 -0.0027360724798855319 0 0.0068824367728820184 -0.0025274446715170787 0 0.0070318704701108183 -0.0025671064123449975 0 0.0070688229476880433 -0.0026807042988859948 0 0.010010342651942752 -0.0013506473087004799 0 0.01043536399896958 -0.0014076739040800885 0 0.0070688229476880433 -0.0026807042988859948 0 0.0068724002507360334 -0.0027360724798855319 0 0.0069616412380540775 -0.0028431278087890683 0 0.0068824367728820184 -0.0025274446715170787 0 0.0070688229476880433 -0.0026807042988859948 0 0.0068724002507360334 -0.0027360724798855319 0 0.0071769193469416875 -0.0030157428814631604 0 0.0070688229476880433 -0.0026807042988859948 0 0.0069616412380540775 -0.0028431278087890683 0 0.0071769193469416875 -0.0030157428814631604 0 0.0069616412380540775 -0.0028431278087890683 0 0.0067308590524184867 -0.0029382310269102209 0 0.0068724002507360334 -0.0027360724798855319 0 0.0069616412380540775 -0.0028431278087890683 0 0.0067308590524184867 -0.0029382310269102209 0 0.012022385471829473 -0.0011415664258183299 0 0.010792003015474646 -0.0010345755686027355 0 0.011417590761328365 -0.0028043213507411009 0 0.011341827708719136 -0.0029742348833114662 0 0.011196897130955187 -0.0028437030785964626 0 0.011341827708719136 -0.0029742348833114662 0 0.01119350276580057 -0.0029774604262428786 0 0.011196897130955187 -0.0028437030785964626 0 0.01119350276580057 -0.0029774604262428786 0 0.010984133980292 -0.0028649700762584549 0 0.011064374361465467 -0.0029837948777418103 0 0.01119350276580057 -0.0029774604262428786 0 0.010984133980292 -0.0028649700762584549 0 0.011196897130955187 -0.0028437030785964626 0 0.010984133980292 -0.0028649700762584549 0 0.011196897130955187 -0.0028437030785964626 0 0.011033764783899183 -0.0027286740097969314 0 0.010984133980292 -0.0028649700762584549 0 0.011033764783899183 -0.0027286740097969314 0 0.010735158103849922 -0.0027819427184336393 0 0.011417590761328365 -0.0028043213507411009 0 0.011196897130955187 -0.0028437030785964626 0 0.011275789686455529 -0.0026513732778240713 0 0.011196897130955187 -0.0028437030785964626 0 0.011275789686455529 -0.0026513732778240713 0 0.011033764783899183 -0.0027286740097969314 0 0.011275789686455529 -0.0026513732778240713 0 0.0110841174604957 -0.0023683829679256364 0 0.011033764783899183 -0.0027286740097969314 0 0.011362018438269334 -0.0024151507738085424 0 0.011275789686455529 -0.0026513732778240713 0 0.0110841174604957 -0.0023683829679256364 0 0.0110841174604957 -0.0023683829679256364 0 0.010646840714345074 -0.0023337546513081714 0 0.011033764783899183 -0.0027286740097969314 0 0.010781215372196843 -0.0018507575797499808 0 0.0110841174604957 -0.0023683829679256364 0 0.010646840714345074 -0.0023337546513081714 0 0.010646840714345074 -0.0023337546513081714 0 0.011033764783899183 -0.0027286740097969314 0 0.010735158103849922 -0.0027819427184336393 0 0.010735158103849922 -0.0027819427184336393 0 0.0099548680273177145 -0.0023521724755398831 0 0.0097922278436555696 -0.0030883831224972785 0 0.010480801418415217 -0.0029535295690013802 0 0.01034126269354735 -0.0029969696100210085 0 0.010646840714345074 -0.0023337546513081714 0 0.010735158103849922 -0.0027819427184336393 0 0.0099548680273177145 -0.0023521724755398831 0 0.0099548680273177145 -0.0023521724755398831 0 0.0097922278436555696 -0.0030883831224972785 0 0.0092719233797525068 -0.0027112414526206277 0 0.010894188195541348 -0.0028396624787893603 0 0.010919162907458257 -0.0028557331010979426 0 0.010873724839832344 -0.0028772540079500929 0 0.010735158103849922 -0.0027819427184336393 0 0.010894188195541348 -0.0028396624787893603 0 0.010919162907458257 -0.0028557331010979426 0 0.010984133980292 -0.0028649700762584549 0 0.010735158103849922 -0.0027819427184336393 0 0.010919162907458257 -0.0028557331010979426 0 0.010984133980292 -0.0028649700762584549 0 0.010919162907458257 -0.0028557331010979426 0 0.011064374361465467 -0.0029837948777418103 0 0.010919162907458257 -0.0028557331010979426 0 0.010916520559154663 -0.0029375299401380589 0 0.010873724839832344 -0.0028772540079500929 0 0.010919162907458257 -0.0028557331010979426 0 0.010916520559154663 -0.0029375299401380589 0 0.011064374361465467 -0.0029837948777418103 0 0.010853574046971405 -0.0029338088122242353 0 0.010800251946393941 -0.0028954682357878558 0 0.010873724839832344 -0.0028772540079500929 0 0.010916520559154663 -0.0029375299401380589 0 0.010853574046971405 -0.0029338088122242353 0 0.010873724839832344 -0.0028772540079500929 0 0.010916520559154663 -0.0029375299401380589 0 0.010853574046971405 -0.0029338088122242353 0 0.010880945455652378 -0.0029900988326727008 0 0.010853574046971405 -0.0029338088122242353 0 0.010794877984802293 -0.0029685604121457419 0 0.010800251946393941 -0.0028954682357878558 0 0.010853574046971405 -0.0029338088122242353 0 0.010794877984802293 -0.0029685604121457419 0 0.010880945455652378 -0.0029900988326727008 0 0.011802906902800055 -0.0036777318965029436 0 0.011884229062532146 -0.0037606414415985098 0 0.011847562442721279 -0.0036629846761315199 0 0.011343993948175403 -0.0033329939997058674 0 0.011413486924477589 -0.0033814702740151913 0 0.010794877984802293 -0.0029685604121457419 0 0.010800251946393941 -0.0028954682357878558 0 0.010736100061699694 -0.002888380864122977 0 0.010232662824872292 -0.0030596456850163723 0 0.010892191128235402 -0.003035146617450316 0 0.010800251946393941 -0.0028954682357878558 0 0.010821438212468452 -0.0028356141275124036 0 0.010736100061699694 -0.002888380864122977 0 0.010821438212468452 -0.0028356141275124036 0 0.010721501940711715 -0.0028481295634705107 0 0.010736100061699694 -0.002888380864122977 0 0.010894188195541348 -0.0028396624787893603 0 0.010821438212468452 -0.0028356141275124036 0 0.010873724839832344 -0.0028772540079500929 0 0.010800251946393941 -0.0028954682357878558 0 0.010821438212468452 -0.0028356141275124036 0 0.010873724839832344 -0.0028772540079500929 0 0.01034126269354735 -0.0029969696100210085 0 0.010232662824872292 -0.0030596456850163723 0 0.0097922278436555696 -0.0030883831224972785 0 0.0089836133902340149 -0.0032333696120858952 0 0.0092719233797525068 -0.0027112414526206277 0 0.0092719233797525068 -0.0027112414526206277 0 0.0091805969221931388 -0.0022221199217267746 0 0.0087952927887967568 -0.002447776945667785 0 0.0099548680273177145 -0.0023521724755398831 0 0.0092719233797525068 -0.0027112414526206277 0 0.0091805969221931388 -0.0022221199217267746 0 0.0092719233797525068 -0.0027112414526206277 0 0.0087952927887967568 -0.002447776945667785 0 0.0086872082478675096 -0.0028171482931734658 0 0.0084248851765601086 -0.0021688001396711477 0 0.0087952927887967568 -0.002447776945667785 0 0.0084910702966137178 -0.0025527863942274849 0 0.0087952927887967568 -0.002447776945667785 0 0.0084910702966137178 -0.0025527863942274849 0 0.0086872082478675096 -0.0028171482931734658 0 0.0089836133902340149 -0.0032333696120858952 0 0.0083773693162921548 -0.003031887509409649 0 0.0082359075696379867 -0.003344934422478412 0 0.0089836133902340149 -0.0032333696120858952 0 0.0092719233797525068 -0.0027112414526206277 0 0.0086872082478675096 -0.0028171482931734658 0 0.0084910702966137178 -0.0025527863942274849 0 0.0086872082478675096 -0.0028171482931734658 0 0.0082987989447811435 -0.0027410425845702507 0 0.0089836133902340149 -0.0032333696120858952 0 0.0086872082478675096 -0.0028171482931734658 0 0.0083773693162921548 -0.003031887509409649 0 0.0083773693162921548 -0.003031887509409649 0 0.0080611969764815099 -0.0028726361559451769 0 0.0082359075696379867 -0.003344934422478412 0 0.013002900208382673 -0.0034555916671402983 0 0.012988786109646462 -0.0036356645099112697 0 0.0130650053058985 -0.0036223606105150242 0 0.010449004762375381 -0.003039554697216599 0 0.010892191128235402 -0.003035146617450316 0 0.0080838978553989631 -0.0028548973988336977 0 0.0082987989447811435 -0.0027410425845702507 0 0.0079546325950792685 -0.002464748761148214 0 0.010449004762375381 -0.003039554697216599 0 0.010270386656973905 -0.0030974725102085785 0 0.0083773693162921548 -0.003031887509409649 0 0.0080611969764815099 -0.0028726361559451769 0 0.0082987989447811435 -0.0027410425845702507 0 0.0086872082478675096 -0.0028171482931734658 0 0.0083773693162921548 -0.003031887509409649 0 0.0082987989447811435 -0.0027410425845702507 0 0.0078958353485670315 -0.001961005989293513 0 0.0082296665865337314 -0.0023926571293100924 0 0.0079546325950792685 -0.002464748761148214 0 0.0084910702966137178 -0.0025527863942274849 0 0.0082987989447811435 -0.0027410425845702507 0 0.0082296665865337314 -0.0023926571293100924 0 0.010449004762375381 -0.003039554697216599 0 0.010215197451256165 -0.0028115978355348786 0 0.0082987989447811435 -0.0027410425845702507 0 0.0082296665865337314 -0.0023926571293100924 0 0.0079546325950792685 -0.002464748761148214 0 0.0084248851765601086 -0.0021688001396711477 0 0.0084910702966137178 -0.0025527863942274849 0 0.0082296665865337314 -0.0023926571293100924 0 0.0074824345043618245 -0.0024753023503897207 0 0.0077005683794009964 -0.0022322560066999932 0 0.0077408124807542686 -0.0026555611882509884 0 0.0077005683794009964 -0.0022322560066999932 0 0.0079546325950792685 -0.002464748761148214 0 0.0077408124807542686 -0.0026555611882509884 0 0.0078958353485670315 -0.001961005989293513 0 0.0077005683794009964 -0.0022322560066999932 0 0.0079546325950792685 -0.002464748761148214 0 0.0074986035314836951 -0.0030732750461082477 0 0.0080699855345464089 -0.0027604822704263509 0 0.0077408124807542686 -0.0026555611882509884 0 0.01273310120439781 -0.0036012460697439756 0 0.013002900208382673 -0.0034555916671402983 0 0.012899717560814027 -0.0036190449595814396 0 0.0098158530301171235 -0.0026466396744119509 0 0.010449004762375381 -0.003039554697216599 0 0.0080699855345464089 -0.0027604822704263509 0 0.0079546325950792685 -0.002464748761148214 0 0.0077408124807542686 -0.0026555611882509884 0 0.013002900208382673 -0.0034555916671402983 0 0.012899717560814027 -0.0036190449595814396 0 0.012988786109646462 -0.0036356645099112697 0 0.01273310120439781 -0.0036012460697439756 0 0.012902202006966887 -0.0037359510092150427 0 0.012899717560814027 -0.0036190449595814396 0 0.01273310120439781 -0.0036012460697439756 0 0.012902202006966887 -0.0037359510092150427 0 0.012841735521043491 -0.003813475255952371 0 0.012902202006966887 -0.0037359510092150427 0 0.012953439586017884 -0.0036919514850856962 0 0.012899717560814027 -0.0036190449595814396 0 0.012967884028538773 -0.003756146261723619 0 0.012902202006966887 -0.0037359510092150427 0 0.012953439586017884 -0.0036919514850856962 0 0.012953439586017884 -0.0036919514850856962 0 0.012899717560814027 -0.0036190449595814396 0 0.012988786109646462 -0.0036356645099112697 0 0.01103754810516913 -0.0030292970963295119 0 0.010892191128235402 -0.003035146617450316 0 0.012988786109646462 -0.0036356645099112697 0 0.013072653461022073 -0.0036218943201338873 0 0.013039845030999163 -0.0036686929315423679 0 0.013072653461022073 -0.0036218943201338873 0 0.013085676215141506 -0.0037029378651614862 0 0.013039845030999163 -0.0036686929315423679 0 0.013072653461022073 -0.0036218943201338873 0 0.013085676215141506 -0.0037029378651614862 0 0.013115392965021424 -0.0037353730849950225 0 0.010892191128235402 -0.003035146617450316 0 0.011413486924477589 -0.0033814702740151913 0 0.013085676215141506 -0.0037029378651614862 0 0.013118914397173201 -0.0037363971241747176 0 0.01306402066697562 -0.0037514353386193964 0 0.011437733849461984 -0.0033995880012914802 0 0.011413486924477589 -0.0033814702740151913 0 0.012953439586017884 -0.0036919514850856962 0 0.012988786109646462 -0.0036356645099112697 0 0.013009695777196836 -0.0037140786364591189 0 0.012988786109646462 -0.0036356645099112697 0 0.013039845030999163 -0.0036686929315423679 0 0.013009695777196836 -0.0037140786364591189 0 0.013085676215141506 -0.0037029378651614862 0 0.013039845030999163 -0.0036686929315423679 0 0.013009695777196836 -0.0037140786364591189 0 0.01306402066697562 -0.0037514353386193964 0 0.013009695777196836 -0.0037140786364591189 0 0.01302539904077879 -0.0037927133205063585 0 0.013085676215141506 -0.0037029378651614862 0 0.01306402066697562 -0.0037514353386193964 0 0.013009695777196836 -0.0037140786364591189 0 0.012967884028538773 -0.003756146261723619 0 0.012953439586017884 -0.0036919514850856962 0 0.013009695777196836 -0.0037140786364591189 0 0.012967884028538773 -0.003756146261723619 0 0.013009695777196836 -0.0037140786364591189 0 0.01302539904077879 -0.0037927133205063585 0 0.01302539904077879 -0.0037927133205063585 0 0.013054042981471963 -0.0038660418532927023 0 0.012957511022197393 -0.0038524627492890415 0 0.013118914397173201 -0.0037363971241747176 0 0.013125210997567301 -0.0038752812157817592 0 0.013209479533594418 -0.0039843710434937308 0 0.011413486924477589 -0.0033814702740151913 0 0.012119512538903813 -0.0038460751731903952 0 0.012967884028538773 -0.003756146261723619 0 0.01302539904077879 -0.0037927133205063585 0 0.012957511022197393 -0.0038524627492890415 0 0.01306402066697562 -0.0037514353386193964 0 0.01302539904077879 -0.0037927133205063585 0 0.013078437134092699 -0.0038050653991957271 0 0.01302539904077879 -0.0037927133205063585 0 0.013078437134092699 -0.0038050653991957271 0 0.013054042981471963 -0.0038660418532927023 0 0.013118914397173201 -0.0037363971241747176 0 0.013078437134092699 -0.0038050653991957271 0 0.013125210997567301 -0.0038752812157817592 0 0.013118914397173201 -0.0037363971241747176 0 0.01306402066697562 -0.0037514353386193964 0 0.013078437134092699 -0.0038050653991957271 0 0.013078437134092699 -0.0038050653991957271 0 0.013125210997567301 -0.0038752812157817592 0 0.013054042981471963 -0.0038660418532927023 0 0.013125210997567301 -0.0038752812157817592 0 0.013139108698385559 -0.0039480877848697259 0 0.013209479533594418 -0.0039843710434937308 0 0.013125210997567301 -0.0038752812157817592 0 0.013095331022075581 -0.0039298044175243418 0 0.013054042981471963 -0.0038660418532927023 0 0.013125210997567301 -0.0038752812157817592 0 0.013095331022075581 -0.0039298044175243418 0 0.013139108698385559 -0.0039480877848697259 0 0.013033569451383828 -0.0039495676546087667 0 0.012959199781420875 -0.0039474621068909784 0 0.012957511022197393 -0.0038524627492890415 0 0.013054042981471963 -0.0038660418532927023 0 0.013033569451383828 -0.0039495676546087667 0 0.012957511022197393 -0.0038524627492890415 0 0.013095331022075581 -0.0039298044175243418 0 0.013054042981471963 -0.0038660418532927023 0 0.013033569451383828 -0.0039495676546087667 0 0.012841735521043491 -0.003813475255952371 0 0.012957511022197393 -0.0038524627492890415 0 0.012876431871360053 -0.003949494924805912 0 0.012959199781420875 -0.0039474621068909784 0 0.012957511022197393 -0.0038524627492890415 0 0.012876431871360053 -0.003949494924805912 0 0.012744366739093385 -0.0038929354474540106 0 0.012841735521043491 -0.003813475255952371 0 0.012876431871360053 -0.003949494924805912 0 0.012967884028538773 -0.003756146261723619 0 0.012902202006966887 -0.0037359510092150427 0 0.012957511022197393 -0.0038524627492890415 0 0.012902202006966887 -0.0037359510092150427 0 0.012841735521043491 -0.003813475255952371 0 0.012957511022197393 -0.0038524627492890415 0 0.012907753983457825 -0.0040672342609255107 0 0.012969725771282586 -0.0040203296419059325 0 0.012989110603242579 -0.0040979286880925402 0 0.012907753983457825 -0.0040672342609255107 0 0.012989110603242579 -0.0040979286880925402 0 0.012949114772150582 -0.0041599910445878777 0 0.012907753983457825 -0.0040672342609255107 0 0.012861144625364116 -0.0041301801599266308 0 0.012949114772150582 -0.0041599910445878777 0 0.01279658487687612 -0.0040322696525097951 0 0.012801895445842357 -0.004207375580792207 0 0.012861144625364116 -0.0041301801599266308 0 0.01279658487687612 -0.0040322696525097951 0 0.012907753983457825 -0.0040672342609255107 0 0.012861144625364116 -0.0041301801599266308 0 0.01279658487687612 -0.0040322696525097951 0 0.012907753983457825 -0.0040672342609255107 0 0.012876431871360053 -0.003949494924805912 0 0.012744366739093385 -0.0038929354474540106 0 0.01279658487687612 -0.0040322696525097951 0 0.012876431871360053 -0.003949494924805912 0 0.012907753983457825 -0.0040672342609255107 0 0.012876431871360053 -0.003949494924805912 0 0.012969725771282586 -0.0040203296419059325 0 0.012959199781420875 -0.0039474621068909784 0 0.012876431871360053 -0.003949494924805912 0 0.012969725771282586 -0.0040203296419059325 0 0.013033569451383828 -0.0039495676546087667 0 0.012959199781420875 -0.0039474621068909784 0 0.012969725771282586 -0.0040203296419059325 0 0.013033569451383828 -0.0039495676546087667 0 0.012969725771282586 -0.0040203296419059325 0 0.013038786448802079 -0.0040515356096622922 0 0.013033569451383828 -0.0039495676546087667 0 0.013125279707081413 -0.0040112055736437717 0 0.013038786448802079 -0.0040515356096622922 0 0.013139108698385559 -0.0039480877848697259 0 0.013125279707081413 -0.0040112055736437717 0 0.013209479533594418 -0.0039843710434937308 0 0.013095331022075581 -0.0039298044175243418 0 0.013033569451383828 -0.0039495676546087667 0 0.013125279707081413 -0.0040112055736437717 0 0.013095331022075581 -0.0039298044175243418 0 0.013139108698385559 -0.0039480877848697259 0 0.013125279707081413 -0.0040112055736437717 0 0.013038786448802079 -0.0040515356096622922 0 0.012989110603242579 -0.0040979286880925402 0 0.013072542450248775 -0.0041624444053707512 0 0.013125279707081413 -0.0040112055736437717 0 0.013038786448802079 -0.0040515356096622922 0 0.013072542450248775 -0.0041624444053707512 0 0.012969725771282586 -0.0040203296419059325 0 0.013038786448802079 -0.0040515356096622922 0 0.012989110603242579 -0.0040979286880925402 0 0.013072542450248775 -0.0041624444053707512 0 0.013172247490691314 -0.0042538370788464943 0 0.012991977346659902 -0.004290316323196831 0 0.012989110603242579 -0.0040979286880925402 0 0.013072542450248775 -0.0041624444053707512 0 0.012949114772150582 -0.0041599910445878777 0 0.013125279707081413 -0.0040112055736437717 0 0.013072542450248775 -0.0041624444053707512 0 0.013172247490691314 -0.0042538370788464943 0 0.013072542450248775 -0.0041624444053707512 0 0.012991977346659902 -0.004290316323196831 0 0.012949114772150582 -0.0041599910445878777 0 0.013172247490691314 -0.0042538370788464943 0 0.012991977346659902 -0.004290316323196831 0 0.013180126549040001 -0.0043396314529015115 0 0.012991977346659902 -0.004290316323196831 0 0.012901262792889851 -0.0041972685527050281 0 0.012949114772150582 -0.0041599910445878777 0 0.012861144625364116 -0.0041301801599266308 0 0.012901262792889851 -0.0041972685527050281 0 0.012949114772150582 -0.0041599910445878777 0 0.012801895445842357 -0.004207375580792207 0 0.012861144625364116 -0.0041301801599266308 0 0.012901262792889851 -0.0041972685527050281 0 0.012836032834949261 -0.0031728513960702265 0 0.013100155395551899 -0.0035564948637546801 0 0.01303512404892467 -0.0042990258795092611 0 0.013034510508968821 -0.004251626529580472 0 0.013116430081251636 -0.0042977404838203878 0 0.012801895445842357 -0.004207375580792207 0 0.012991977346659902 -0.004290316323196831 0 0.012901262792889851 -0.0041972685527050281 0 0.013157539441420387 -0.0028062173880294577 0 0.013826922650161435 -0.0037773043755887493 0 0.015631014161158092 -0.0054732561919932461 0 0.015218556500425305 -0.0047955616714392257 0 0.014489857832571765 -0.0048999134524528665 0 0.01303512404892467 -0.0042990258795092611 0 0.013116430081251636 -0.0042977404838203878 0 0.013157456589413256 -0.004365062603991404 0 0.015631014161158092 -0.0054732561919932461 0 0.015639004300930279 -0.0041278815984217669 0 0.015218556500425305 -0.0047955616714392257 0 0.015218556500425305 -0.0047955616714392257 0 0.014783065016705422 -0.0043421489485620498 0 0.014489857832571765 -0.0048999134524528665 0 0.015639004300930279 -0.0041278815984217669 0 0.015218556500425305 -0.0047955616714392257 0 0.014783065016705422 -0.0043421489485620498 0 0.015639004300930279 -0.0041278815984217669 0 0.014783065016705422 -0.0043421489485620498 0 0.014401110007744094 -0.0036884569920822693 0 0.014124872421785461 -0.004177611812735996 0 0.013772276510551152 -0.003750339792537642 0 0.014401110007744094 -0.0036884569920822693 0 0.014124872421785461 -0.004177611812735996 0 0.014783065016705422 -0.0043421489485620498 0 0.014401110007744094 -0.0036884569920822693 0 0.014124872421785461 -0.004177611812735996 0 0.014783065016705422 -0.0043421489485620498 0 0.014489857832571765 -0.0048999134524528665 0 0.013157456589413256 -0.004365062603991404 0 0.013180126549040001 -0.0043396314529015115 0 0.013230750549805277 -0.004334132285087452 0 0.013100155395551899 -0.0035564948637546801 0 0.013179193765631635 -0.0036732123651449723 0 0.013116430081251636 -0.0042977404838203878 0 0.013157456589413256 -0.004365062603991404 0 0.013180126549040001 -0.0043396314529015115 0 0.013172247490691314 -0.0042538370788464943 0 0.013180126549040001 -0.0043396314529015115 0 0.013220675841789894 -0.0043192270296951579 0 0.013220675841789894 -0.0043192270296951579 0 0.013160959891255083 -0.0043979811284096055 0 0.013268820070324195 -0.0042404555839266377 0 0.013180126549040001 -0.0043396314529015115 0 0.013220675841789894 -0.0043192270296951579 0 0.013230750549805277 -0.004334132285087452 0 0.013157456589413256 -0.004365062603991404 0 0.013230750549805277 -0.004334132285087452 0 0.013300887140966996 -0.0042663433902678915 0 0.012797394103048488 -0.0043998589485618623 0 0.012604392452899297 -0.0041515886293395374 0 0.013220675841789894 -0.0043192270296951579 0 0.013230750549805277 -0.004334132285087452 0 0.013160959891255083 -0.0043979811284096055 0 0.013230750549805277 -0.004334132285087452 0 0.013300887140966996 -0.0042663433902678915 0 0.013160959891255083 -0.0043979811284096055 0 0.013826922650161435 -0.0037773043755887493 0 0.013722139712144633 -0.0038932677302782911 0 0.014124872421785461 -0.004177611812735996 0 0.014489857832571765 -0.0048999134524528665 0 0.013300887140966996 -0.0042663433902678915 0 0.014124872421785461 -0.004177611812735996 0 0.013300887140966996 -0.0042663433902678915 0 0.013772276510551152 -0.003750339792537642 0 0.012901705674608429 -0.0040307284448935134 0 0.012891739198349921 -0.0045560929335364082 0 0.012292096987291241 -0.0039502905285828593 0 0.013300887140966996 -0.0042663433902678915 0 0.012901705674608429 -0.0040307284448935134 0 0.013227592969474067 -0.0034548311192375745 0 0.012901705674608429 -0.0040307284448935134 0 0.012891739198349921 -0.0045560929335364082 0 0.013160959891255083 -0.0043979811284096055 0 0.013300887140966996 -0.0042663433902678915 0 0.012901705674608429 -0.0040307284448935134 0 0.013160959891255083 -0.0043979811284096055 0 0.012336287632418326 -0.0039367939766048205 0 0.012604392452899297 -0.0041515886293395374 0 0.012891739198349921 -0.0045560929335364082 0 0.013160959891255083 -0.0043979811284096055 0 0.013470319788804946 -0.0052442125273770377 0 0.011722104799787178 -0.0034460308684513344 0 0.01171263754720612 -0.0035871114265045028 0 0.011810199749894711 -0.0035558872213707574 0 0.013125279707081413 -0.0040112055736437717 0 0.013172247490691314 -0.0042538370788464943 0 0.013268820070324195 -0.0042404555839266377 0 0.013172247490691314 -0.0042538370788464943 0 0.013220675841789894 -0.0043192270296951579 0 0.013268820070324195 -0.0042404555839266377 0 0.012780192392405555 -0.0042208856453158413 0 0.012604392452899297 -0.0041515886293395374 0 0.013125279707081413 -0.0040112055736437717 0 0.013287799597559583 -0.0042100210489938242 0 0.013209479533594418 -0.0039843710434937308 0 0.011802906902800055 -0.0036777318965029436 0 0.011810199749894711 -0.0035558872213707574 0 0.011847562442721279 -0.0036629846761315199 0 0.012604392452899297 -0.0041515886293395374 0 0.012119512538903813 -0.0038460751731903952 0 0.010794877984802293 -0.0029685604121457419 0 0.010891295551201524 -0.003102476290333537 0 0.010880945455652378 -0.0029900988326727008 0 0.011343993948175403 -0.0033329939997058674 0 0.011335842121428139 -0.0033314561192225515 0 0.011802906902800055 -0.0036777318965029436 0 0.01171263754720612 -0.0035871114265045028 0 0.011810199749894711 -0.0035558872213707574 0 0.010891295551201524 -0.003102476290333537 0 0.010880945455652378 -0.0029900988326727008 0 0.010950987998262628 -0.0030273307064559011 0 0.010916520559154663 -0.0029375299401380589 0 0.010950987998262628 -0.0030273307064559011 0 0.011064374361465467 -0.0029837948777418103 0 0.010891295551201524 -0.003102476290333537 0 0.010950987998262628 -0.0030273307064559011 0 0.011061630807856149 -0.0030758957969758949 0 0.010950987998262628 -0.0030273307064559011 0 0.011064374361465467 -0.0029837948777418103 0 0.011061630807856149 -0.0030758957969758949 0 0.010916520559154663 -0.0029375299401380589 0 0.010880945455652378 -0.0029900988326727008 0 0.010950987998262628 -0.0030273307064559011 0 0.011064374361465467 -0.0029837948777418103 0 0.011061630807856149 -0.0030758957969758949 0 0.011244744337324551 -0.0031382460300712835 0 0.011244744337324551 -0.0031382460300712835 0 0.011115655638744846 -0.0032658053281424257 0 0.011417108846616935 -0.0032785365961362925 0 0.011061630807856149 -0.0030758957969758949 0 0.011244744337324551 -0.0031382460300712835 0 0.011115655638744846 -0.0032658053281424257 0 0.011722104799787178 -0.0034460308684513344 0 0.01171263754720612 -0.0035871114265045028 0 0.011615467375531005 -0.0034894235298704975 0 0.010891295551201524 -0.003102476290333537 0 0.011061630807856149 -0.0030758957969758949 0 0.011115655638744846 -0.0032658053281424257 0 0.011335842121428139 -0.0033314561192225515 0 0.011355650601211697 -0.0033404990104564519 0 0.011722104799787178 -0.0034460308684513344 0 0.011620815627657977 -0.0034090525934241805 0 0.011615467375531005 -0.0034894235298704975 0 0.012336287632418326 -0.0039367939766048205 0 0.012053666329460307 -0.0036489629325657542 0 0.011722104799787178 -0.0034460308684513344 0 0.011620815627657977 -0.0034090525934241805 0 0.011630908983299805 -0.00333274247984115 0 0.011630908983299805 -0.00333274247984115 0 0.011501579484037107 -0.0033663413591784263 0 0.011623134922031153 -0.0033340053171089208 0 0.011620815627657977 -0.0034090525934241805 0 0.011630908983299805 -0.00333274247984115 0 0.011501579484037107 -0.0033663413591784263 0 0.011115655638744846 -0.0032658053281424257 0 0.011501579484037107 -0.0033663413591784263 0 0.011417108846616935 -0.0032785365961362925 0 0.011355650601211697 -0.0033404990104564519 0 0.011375841443742563 -0.0033470410452382891 0 0.011620815627657977 -0.0034090525934241805 0 0.011615467375531005 -0.0034894235298704975 0 0.011501579484037107 -0.0033663413591784263 0 0.011417108846616935 -0.0032785365961362925 0 0.011565003753349351 -0.0033462306565058839 0 0.01154474523196467 -0.0032941723290015046 0 0.011501579484037107 -0.0033663413591784263 0 0.011565003753349351 -0.0033462306565058839 0 0.011623134922031153 -0.0033340053171089208 0 0.011501579484037107 -0.0033663413591784263 0 0.011417108846616935 -0.0032785365961362925 0 0.011565003753349351 -0.0033462306565058839 0 0.01166729245519728 -0.0033685306057281818 0 0.011565003753349351 -0.0033462306565058839 0 0.01154474523196467 -0.0032941723290015046 0 0.011417108846616935 -0.0032785365961362925 0 0.01154474523196467 -0.0032941723290015046 0 0.011406782741412935 -0.0031871103577898827 0 0.011531674045004041 -0.0031981016118217344 0 0.011406782741412935 -0.0031871103577898827 0 0.011397456489594372 -0.0030907565456764429 0 0.011531674045004041 -0.0031981016118217344 0 0.01154474523196467 -0.0032941723290015046 0 0.011406782741412935 -0.0031871103577898827 0 0.011244744337324551 -0.0031382460300712835 0 0.011406782741412935 -0.0031871103577898827 0 0.011264670804900756 -0.0030757958165456168 0 0.011244744337324551 -0.0031382460300712835 0 0.011417108846616935 -0.0032785365961362925 0 0.011406782741412935 -0.0031871103577898827 0 0.01119350276580057 -0.0029774604262428786 0 0.011064374361465467 -0.0029837948777418103 0 0.011264670804900756 -0.0030757958165456168 0 0.011064374361465467 -0.0029837948777418103 0 0.011244744337324551 -0.0031382460300712835 0 0.011264670804900756 -0.0030757958165456168 0 0.011341827708719136 -0.0029742348833114662 0 0.01119350276580057 -0.0029774604262428786 0 0.011397456489594372 -0.0030907565456764429 0 0.01119350276580057 -0.0029774604262428786 0 0.011264670804900756 -0.0030757958165456168 0 0.011397456489594372 -0.0030907565456764429 0 0.011513717359892248 -0.0030742315322765073 0 0.011341827708719136 -0.0029742348833114662 0 0.011397456489594372 -0.0030907565456764429 0 0.011406782741412935 -0.0031871103577898827 0 0.011264670804900756 -0.0030757958165456168 0 0.011397456489594372 -0.0030907565456764429 0 0.012726904204721001 -0.0014994944160801648 0 0.013530706854572258 -0.0021062530431853587 0 0.012548417583435782 -0.0024425838039831491 0 0.012726904204721001 -0.0014994944160801648 0 0.013530706854572258 -0.0021062530431853587 0 0.013739137736675166 -0.0013810555923261113 0 0.013530706854572258 -0.0021062530431853587 0 0.014553843769071557 -0.0025167555527370613 0 0.014149431252947301 -0.0018026437901281903 0 0.013530706854572258 -0.0021062530431853587 0 0.014149431252947301 -0.0018026437901281903 0 0.013739137736675166 -0.0013810555923261113 0 0.014149431252947301 -0.0018026437901281903 0 0.014252140278963019 -0.0013636597495509234 0 0.013739137736675166 -0.0013810555923261113 0 0.012651806881290698 -0.0027205007838870827 0 0.013204270618771613 -0.002333122699830709 0 0.013530706854572258 -0.0021062530431853587 0 0.013430815405091964 -0.0029806442702049909 0 0.014553843769071557 -0.0025167555527370613 0 0.011873430242679072 -0.0032799222002712325 0 0.012548417583435782 -0.0024425838039831491 0 0.013430815405091964 -0.0029806442702049909 0 0.013530706854572258 -0.0021062530431853587 0 0.012548417583435782 -0.0024425838039831491 0 0.013430815405091964 -0.0029806442702049909 0 0.011873430242679072 -0.0032799222002712325 0 0.011649411787464054 -0.0032958586654503745 0 0.011627133600199801 -0.0031699960631040693 0 0.01236474169152189 -0.0028793867929804207 0 0.012651806881290698 -0.0027205007838870827 0 0.01166729245519728 -0.0033685306057281818 0 0.011565003753349351 -0.0033462306565058839 0 0.011649411787464054 -0.0032958586654503745 0 0.01166729245519728 -0.0033685306057281818 0 0.011873430242679072 -0.0032799222002712325 0 0.011649411787464054 -0.0032958586654503745 0 0.011565003753349351 -0.0033462306565058839 0 0.011649411787464054 -0.0032958586654503745 0 0.011623134922031153 -0.0033340053171089208 0 0.011649411787464054 -0.0032958586654503745 0 0.011623134922031153 -0.0033340053171089208 0 0.011750122836495369 -0.0033080598223664977 0 0.011649411787464054 -0.0032958586654503745 0 0.011627133600199801 -0.0031699960631040693 0 0.011750122836495369 -0.0033080598223664977 0 0.011750122836495369 -0.0033080598223664977 0 0.012349889609018689 -0.0029862286627632471 0 0.011955082458447624 -0.002781062553897584 0 0.011627133600199801 -0.0031699960631040693 0 0.011750122836495369 -0.0033080598223664977 0 0.011955082458447624 -0.002781062553897584 0 0.012053666329460307 -0.0036489629325657542 0 0.011917110991277713 -0.0034951885342515538 0 0.011630908983299805 -0.00333274247984115 0 0.011623134922031153 -0.0033340053171089208 0 0.011750122836495369 -0.0033080598223664977 0 0.012901705674608429 -0.0040307284448935134 0 0.012292096987291241 -0.0039502905285828593 0 0.012592638636553487 -0.003429239193043799 0 0.012292096987291241 -0.0039502905285828593 0 0.011750122836495369 -0.0033080598223664977 0 0.012592638636553487 -0.003429239193043799 0 0.012592638636553487 -0.003429239193043799 0 0.012349889609018689 -0.0029862286627632471 0 0.012871078346056317 -0.0029669892627018158 0 0.011750122836495369 -0.0033080598223664977 0 0.012592638636553487 -0.003429239193043799 0 0.012349889609018689 -0.0029862286627632471 0 0.013204270618771613 -0.002333122699830709 0 0.013750321894296837 -0.0017796352912468716 0 0.012349889609018689 -0.0029862286627632471 0 0.011955082458447624 -0.002781062553897584 0 0.012611501852837407 -0.00245536606297512 0 0.014553843769071557 -0.0025167555527370613 0 0.014149431252947301 -0.0018026437901281903 0 0.014678327734077477 -0.0017135264724315652 0 0.014149431252947301 -0.0018026437901281903 0 0.014678327734077477 -0.0017135264724315652 0 0.014252140278963019 -0.0013636597495509234 0 0.013750321894296837 -0.0017796352912468716 0 0.014134411704080366 -0.0012590991854714855 0 0.014553843769071557 -0.0025167555527370613 0 0.014678327734077477 -0.0017135264724315652 0 0.015498484848160467 -0.0021307602036649046 0 0.014678327734077477 -0.0017135264724315652 0 0.015498484848160467 -0.0021307602036649046 0 0.015057087072644446 -0.0011451250993705535 0 0.014576531673107858 -0.00071729267862912004 0 0.014600051462621779 -0.00063119979145144316 0 0.014567681435520749 -0.00061014770709416708 0 0.013750321894296837 -0.0017796352912468716 0 0.014131917539026723 -0.0014045336403496133 0 0.014576531673107858 -0.00071729267862912004 0 0.014659199625965007 -0.0007083663370735134 0 0.014600051462621779 -0.00063119979145144316 0 0.014659199625965007 -0.0007083663370735134 0 0.014698008675259876 -0.00079392256045852515 0 0.014689697301565451 -0.00061163247118046419 0 0.014131917539026723 -0.0014045336403496133 0 0.014339526933444872 -0.0012650746640545639 0 0.0135530889189914 -0.0010779143432465914 0 0.013660141626594331 -0.0019400984264649002 0 0.014498936953074359 -0.0015045931927284266 0 0.012527122295463097 -0.0014304908602867819 0 0.0135530889189914 -0.0010779143432465914 0 0.013660141626594331 -0.0019400984264649002 0 0.012349889609018689 -0.0029862286627632471 0 0.012611501852837407 -0.00245536606297512 0 0.012871078346056317 -0.0029669892627018158 0 0.013750321894296837 -0.0017796352912468716 0 0.01357790313477319 -0.002365097247943853 0 0.012527122295463097 -0.0014304908602867819 0 0.013660141626594331 -0.0019400984264649002 0 0.012901314151915184 -0.0024237068920621081 0 0.012592638636553487 -0.003429239193043799 0 0.012871078346056317 -0.0029669892627018158 0 0.013227592969474067 -0.0034548311192375745 0 0.01357790313477319 -0.002365097247943853 0 0.013590059072369568 -0.0026941533721412019 0 0.012901705674608429 -0.0040307284448935134 0 0.012592638636553487 -0.003429239193043799 0 0.013227592969474067 -0.0034548311192375745 0 0.013300887140966996 -0.0042663433902678915 0 0.013227592969474067 -0.0034548311192375745 0 0.013772276510551152 -0.003750339792537642 0 0.013227592969474067 -0.0034548311192375745 0 0.013772276510551152 -0.003750339792537642 0 0.013962440556034475 -0.0029716635388294882 0 0.012901314151915184 -0.0024237068920621081 0 0.013227592969474067 -0.0034548311192375745 0 0.013962440556034475 -0.0029716635388294882 0 0.013660141626594331 -0.0019400984264649002 0 0.013962440556034475 -0.0029716635388294882 0 0.014684946965620531 -0.0022358927935517445 0 0.013660141626594331 -0.0019400984264649002 0 0.012901314151915184 -0.0024237068920621081 0 0.013962440556034475 -0.0029716635388294882 0 0.013962440556034475 -0.0029716635388294882 0 0.014841609278533429 -0.0029696035268864051 0 0.014684946965620531 -0.0022358927935517445 0 0.013962440556034475 -0.0029716635388294882 0 0.014841609278533429 -0.0029696035268864051 0 0.014401110007744094 -0.0036884569920822693 0 0.013772276510551152 -0.003750339792537642 0 0.013962440556034475 -0.0029716635388294882 0 0.014401110007744094 -0.0036884569920822693 0 0.015639004300930279 -0.0041278815984217669 0 0.014841609278533429 -0.0029696035268864051 0 0.014401110007744094 -0.0036884569920822693 0 0.015639004300930279 -0.0041278815984217669 0 0.014841609278533429 -0.0029696035268864051 0 0.015643341671947263 -0.0027760673846520304 0 0.014841609278533429 -0.0029696035268864051 0 0.014684946965620531 -0.0022358927935517445 0 0.015643341671947263 -0.0027760673846520304 0 0.014684946965620531 -0.0022358927935517445 0 0.015643341671947263 -0.0027760673846520304 0 0.015566924320982825 -0.0014389720724644491 0 0.014684946965620531 -0.0022358927935517445 0 0.014498936953074359 -0.0015045931927284266 0 0.015566924320982825 -0.0014389720724644491 0 0.013660141626594331 -0.0019400984264649002 0 0.014684946965620531 -0.0022358927935517445 0 0.014498936953074359 -0.0015045931927284266 0 0.014498936953074359 -0.0015045931927284266 0 0.014698008675259876 -0.00079392256045852515 0 0.015566924320982825 -0.0014389720724644491 0 0.0135530889189914 -0.0010779143432465914 0 0.014498936953074359 -0.0015045931927284266 0 0.014698008675259876 -0.00079392256045852515 0 0.014698008675259876 -0.00079392256045852515 0 0.015566924320982825 -0.0014389720724644491 0 0.015354412235681061 -0.00056240429324336608 0 0.014698008675259876 -0.00079392256045852515 0 0.014933464505188215 -0.00043714375307917755 0 0.015354412235681061 -0.00056240429324336608 0 0.014698008675259876 -0.00079392256045852515 0 0.014933464505188215 -0.00043714375307917755 0 0.014689697301565451 -0.00061163247118046419 0 0.014933464505188215 -0.00043714375307917755 0 0.014780601648219895 -0.00038309779815211579 0 0.014689697301565451 -0.00061163247118046419 0 0.014933464505188215 -0.00043714375307917755 0 0.014947841077614396 -0.00015786684071660074 0 0.014780601648219895 -0.00038309779815211579 0 0.014933464505188215 -0.00043714375307917755 0 0.015354412235681061 -0.00056240429324336608 0 0.015187651777165584 -0.00017874410144478247 0 0.015038285207110582 -6.964855327809842e-05 0 0.014947841077614396 -0.00015786684071660074 0 0.015187651777165584 -0.00017874410144478247 0 0.014933464505188215 -0.00043714375307917755 0 0.014947841077614396 -0.00015786684071660074 0 0.015187651777165584 -0.00017874410144478247 0 0.015038285207110582 -6.964855327809842e-05 0 0.015000122072450375 -7.058356988187667e-08 0 0.015000166414644547 3.0214733619579741e-09 0 0.015038285207110582 -6.964855327809842e-05 0 0.015187651777165584 -0.00017874410144478247 0 0.015000166414644547 3.0214733619579741e-09 0 0.015000122072450375 -7.058356988187667e-08 0 0.014947841077614396 -0.00015786684071660074 0 0.014999424518610277 6.8948620824186591e-08 0 0.015038285207110582 -6.964855327809842e-05 0 0.015000122072450375 -7.058356988187667e-08 0 0.014947841077614396 -0.00015786684071660074 0 0.014947841077614396 -0.00015786684071660074 0 0.014771848033207659 -0.00022539324330895309 0 0.014780601648219895 -0.00038309779815211579 0 0.014771848033207659 -0.00022539324330895309 0 0.014999424518610277 6.8948620824186591e-08 0 0.014631483251574883 -9.8011050067056208e-05 0 0.014999827509205156 -1.3624605746625308e-07 0 0.014868162521229907 -9.9939638050331719e-05 0 0.014947841077614396 -0.00015786684071660074 0 0.014771848033207659 -0.00022539324330895309 0 0.014999424518610277 6.8948620824186591e-08 0 0.014999999903336657 2.1125854881988355e-10 0 0.014999999690307766 -2.5703830222435634e-10 0 0.014999878805130156 -1.1890001206305336e-07 0 0.014999999690307766 -2.5703830222435634e-10 0 0.014999878805130156 -1.1890001206305336e-07 0 0.0149998404260097 -1.6481567817286469e-07 0 0.014771848033207659 -0.00022539324330895309 0 0.014631483251574883 -9.8011050067056208e-05 0 0.014568637668171387 -0.00028385575422191508 0 0.014771848033207659 -0.00022539324330895309 0 0.014568637668171387 -0.00028385575422191508 0 0.014641081180745776 -0.00045898639423586567 0 0.014568637668171387 -0.00028385575422191508 0 0.014641081180745776 -0.00045898639423586567 0 0.014492252775889242 -0.00045129879748612487 0 0.014771848033207659 -0.00022539324330895309 0 0.014641081180745776 -0.00045898639423586567 0 0.014780601648219895 -0.00038309779815211579 0 0.014641081180745776 -0.00045898639423586567 0 0.014780601648219895 -0.00038309779815211579 0 0.014689697301565451 -0.00061163247118046419 0 0.014659199625965007 -0.0007083663370735134 0 0.014689697301565451 -0.00061163247118046419 0 0.014600051462621779 -0.00063119979145144316 0 0.014641081180745776 -0.00045898639423586567 0 0.014689697301565451 -0.00061163247118046419 0 0.014600051462621779 -0.00063119979145144316 0 0.014641081180745776 -0.00045898639423586567 0 0.014600051462621779 -0.00063119979145144316 0 0.014492252775889242 -0.00045129879748612487 0 0.01473634084807569 -0.00039505617960170625 0 0.014742745327858497 -0.00032714751969115851 0 0.014600051462621779 -0.00063119979145144316 0 0.014567681435520749 -0.00061014770709416708 0 0.014627694872475363 -0.00052164884672000118 0 0.014678327734077477 -0.0017135264724315652 0 0.015057087072644446 -0.0011451250993705535 0 0.014617822397630764 -0.001213654950600734 0 0.014678327734077477 -0.0017135264724315652 0 0.014617822397630764 -0.001213654950600734 0 0.014252140278963019 -0.0013636597495509234 0 0.014617822397630764 -0.001213654950600734 0 0.014252140278963019 -0.0013636597495509234 0 0.014393710132953742 -0.00097360012713556372 0 0.014393710132953742 -0.00097360012713556372 0 0.014265314459325329 -0.00072328730828967295 0 0.014063820038960713 -0.00097596608747041913 0 0.014252140278963019 -0.0013636597495509234 0 0.014393710132953742 -0.00097360012713556372 0 0.014063820038960713 -0.00097596608747041913 0 0.015057087072644446 -0.0011451250993705535 0 0.014617822397630764 -0.001213654950600734 0 0.014624842708969054 -0.00087953041750289294 0 0.014617822397630764 -0.001213654950600734 0 0.014393710132953742 -0.00097360012713556372 0 0.014624842708969054 -0.00087953041750289294 0 0.014624842708969054 -0.00087953041750289294 0 0.014465296500994415 -0.00068887640125931326 0 0.014568480921952631 -0.00044689594559569256 0 0.014393710132953742 -0.00097360012713556372 0 0.014624842708969054 -0.00087953041750289294 0 0.014465296500994415 -0.00068887640125931326 0 0.014393710132953742 -0.00097360012713556372 0 0.014465296500994415 -0.00068887640125931326 0 0.014265314459325329 -0.00072328730828967295 0 0.014465296500994415 -0.00068887640125931326 0 0.014265314459325329 -0.00072328730828967295 0 0.014387607144408249 -0.00045358053378542805 0 0.014465296500994415 -0.00068887640125931326 0 0.014387607144408249 -0.00045358053378542805 0 0.014568480921952631 -0.00044689594559569256 0 0.014567681435520749 -0.00061014770709416708 0 0.014568480921952631 -0.00044689594559569256 0 0.014627694872475363 -0.00052164884672000118 0 0.015057087072644446 -0.0011451250993705535 0 0.014624842708969054 -0.00087953041750289294 0 0.014568480921952631 -0.00044689594559569256 0 0.014742745327858497 -0.00032714751969115851 0 0.01480089523394615 -0.00019093353290197763 0 0.014134411704080366 -0.0012590991854714855 0 0.014195228936722183 -0.0010041415147009252 0 0.014568480921952631 -0.00044689594559569256 0 0.014627694872475363 -0.00052164884672000118 0 0.014641916629348347 -0.00034343480691755729 0 0.014568637668171387 -0.00028385575422191508 0 0.014492252775889242 -0.00045129879748612487 0 0.014384583943911367 -0.00024093215519136544 0 0.014631483251574883 -9.8011050067056208e-05 0 0.014568637668171387 -0.00028385575422191508 0 0.014384583943911367 -0.00024093215519136544 0 0.014868162521229907 -9.9939638050331719e-05 0 0.01480089523394615 -0.00019093353290197763 0 0.014999599595206659 -4.4906370547757503e-07 0 0.0149998404260097 -1.6481567817286469e-07 0 0.014999999550094232 -6.2619791467648874e-11 0 0.014999878805130156 -1.1890001206305336e-07 0 0.014999599595206659 -4.4906370547757503e-07 0 0.0149998404260097 -1.6481567817286469e-07 0 0.014999999690307766 -2.5703830222435634e-10 0 0.0149998404260097 -1.6481567817286469e-07 0 0.014999999550094232 -6.2619791467648874e-11 0 0.014999759066630175 1.3637239565337935e-07 0 0.0149411853554833 -4.939282288463013e-05 0 0.014763052452324179 1.9573957007730397e-06 0 0.01480089523394615 -0.00019093353290197763 0 0.014999616218525911 -2.6432591907613498e-07 0 0.015036896800834153 -8.0490192490824058e-05 0 0.014999759066630175 1.3637239565337935e-07 0 0.0149411853554833 -4.939282288463013e-05 0 0.014924952762294306 -0.00025316031690837795 0 0.015036896800834153 -8.0490192490824058e-05 0 0.0149411853554833 -4.939282288463013e-05 0 0.014612988228784759 -0.00031731099981401138 0 0.01480089523394615 -0.00019093353290197763 0 0.014387607144408249 -0.00045358053378542805 0 0.014568480921952631 -0.00044689594559569256 0 0.014641916629348347 -0.00034343480691755729 0 0.014924952762294306 -0.00025316031690837795 0 0.0149411853554833 -4.939282288463013e-05 0 0.014763052452324179 1.9573957007730397e-06 0 0.014924952762294306 -0.00025316031690837795 0 0.014763052452324179 1.9573957007730397e-06 0 0.014380674244782768 -0.00036851961889959752 0 0.014763052452324179 1.9573957007730397e-06 0 0.014914928230440732 9.9412806196527254e-06 0 0.014919692661668729 4.328707902904126e-05 0 0.014999759066630175 1.3637239565337935e-07 0 0.014763052452324179 1.9573957007730397e-06 0 0.014917527080966043 -1.7414176632264736e-05 0 0.014999759066630175 1.3637239565337935e-07 0 0.014999851343323425 -8.8680614717551694e-08 0 0.014917527080966043 -1.7414176632264736e-05 0 0.014969499282919355 -9.3011636339038948e-06 0 0.014999851343323425 -8.8680614717551694e-08 0 0.014917527080966043 -1.7414176632264736e-05 0 0.014969499282919355 -9.3011636339038948e-06 0 0.014914928230440732 9.9412806196527254e-06 0 0.014942928693025711 1.9319559419186558e-05 0 0.014969499282919355 -9.3011636339038948e-06 0 0.014917527080966043 -1.7414176632264736e-05 0 0.014914928230440732 9.9412806196527254e-06 0 0.014763052452324179 1.9573957007730397e-06 0 0.014917527080966043 -1.7414176632264736e-05 0 0.014914928230440732 9.9412806196527254e-06 0 0.014914928230440732 9.9412806196527254e-06 0 0.014942928693025711 1.9319559419186558e-05 0 0.014919692661668729 4.328707902904126e-05 0 0.014942928693025711 1.9319559419186558e-05 0 0.014919692661668729 4.328707902904126e-05 0 0.014941441639402525 2.4317965895077382e-05 0 0.014763052452324179 1.9573957007730397e-06 0 0.013584051039784616 -0.00065561038907690529 0 0.014380674244782768 -0.00036851961889959752 0 0.014199088761732658 -0.00034057585615090188 0 0.014051805880187151 -0.00049954995323222607 0 0.014612988228784759 -0.00031731099981401138 0 0.014483763570594194 -0.00039672176270870679 0 0.014265314459325329 -0.00072328730828967295 0 0.014387607144408249 -0.00045358053378542805 0 0.014020749699941671 -0.00064973101938336174 0 0.014924952762294306 -0.00025316031690837795 0 0.014380674244782768 -0.00036851961889959752 0 0.014020749699941671 -0.00064973101938336174 0 0.014265314459325329 -0.00072328730828967295 0 0.014020749699941671 -0.00064973101938336174 0 0.014063820038960713 -0.00097596608747041913 0 0.013584051039784616 -0.00065561038907690529 0 0.014380674244782768 -0.00036851961889959752 0 0.014020749699941671 -0.00064973101938336174 0 0.013584051039784616 -0.00065561038907690529 0 0.014020749699941671 -0.00064973101938336174 0 0.01364058774384163 -0.0010248018433094573 0 0.014020749699941671 -0.00064973101938336174 0 0.01364058774384163 -0.0010248018433094573 0 0.014063820038960713 -0.00097596608747041913 0 0.01364058774384163 -0.0010248018433094573 0 0.014063820038960713 -0.00097596608747041913 0 0.013739137736675166 -0.0013810555923261113 0 0.014252140278963019 -0.0013636597495509234 0 0.014063820038960713 -0.00097596608747041913 0 0.013739137736675166 -0.0013810555923261113 0 0.012726904204721001 -0.0014994944160801648 0 0.01364058774384163 -0.0010248018433094573 0 0.013739137736675166 -0.0013810555923261113 0 0.014951597860575197 1.0212196619316211e-05 0 0.014919692661668729 4.328707902904126e-05 0 0.014941441639402525 2.4317965895077382e-05 0 0.012726904204721001 -0.0014994944160801648 0 0.013584051039784616 -0.00065561038907690529 0 0.01364058774384163 -0.0010248018433094573 0 0.01375946913375312 -0.00082006044730654635 0 0.014051805880187151 -0.00049954995323222607 0 0.01453677142823597 -0.00066946325201230612 0 0.014532828874210132 -0.00095001167129604453 0 0.014377336026858697 -0.00032153495497164143 0 0.01453677142823597 -0.00066946325201230612 0 0.014682262827376627 -0.00090120309844515063 0 0.014482390464299796 -0.00036066816578515321 0 0.014697875370640505 -0.00043158088361632772 0 0.01454407692752303 -0.00017797194969234472 0 0.014696362294656838 -6.5837073730608695e-05 0 0.014754114100481257 -9.6535199751833885e-05 0 0.014576613987519757 -5.6013235089105613e-05 0 0.014754372810629973 -7.8015933890282114e-05 0 0.014696362294656838 -6.5837073730608695e-05 0 0.014754114100481257 -9.6535199751833885e-05 0 0.01453677142823597 -0.00066946325201230612 0 0.014682262827376627 -0.00090120309844515063 0 0.014598397328679411 -0.00089254787488330766 0 0.014696362294656838 -6.5837073730608695e-05 0 0.014716952428053548 -4.0267168266126543e-05 0 0.014653198149252594 -4.0304473418215572e-05 0 0.014754372810629973 -7.8015933890282114e-05 0 0.014696362294656838 -6.5837073730608695e-05 0 0.014746685874241702 -6.0361474749512869e-05 0 0.014696362294656838 -6.5837073730608695e-05 0 0.014746685874241702 -6.0361474749512869e-05 0 0.014716952428053548 -4.0267168266126543e-05 0 0.014746685874241702 -6.0361474749512869e-05 0 0.014716952428053548 -4.0267168266126543e-05 0 0.014780970400189502 -3.5071365069366356e-05 0 0.014746685874241702 -6.0361474749512869e-05 0 0.01479420485965106 -7.2195012710360416e-05 0 0.014780970400189502 -3.5071365069366356e-05 0 0.01479420485965106 -7.2195012710360416e-05 0 0.014780970400189502 -3.5071365069366356e-05 0 0.014830861767683261 -4.8783324450590178e-05 0 0.01479420485965106 -7.2195012710360416e-05 0 0.014830861767683261 -4.8783324450590178e-05 0 0.01485398247722756 -7.0391166850157128e-05 0 0.014754372810629973 -7.8015933890282114e-05 0 0.014746685874241702 -6.0361474749512869e-05 0 0.01479420485965106 -7.2195012710360416e-05 0 0.014754372810629973 -7.8015933890282114e-05 0 0.01479420485965106 -7.2195012710360416e-05 0 0.014779152316874872 -8.4356496430108098e-05 0 0.014779152316874872 -8.4356496430108098e-05 0 0.014814981862577311 -8.6653474690826968e-05 0 0.014754114100481257 -9.6535199751833885e-05 0 0.01479420485965106 -7.2195012710360416e-05 0 0.014779152316874872 -8.4356496430108098e-05 0 0.014814981862577311 -8.6653474690826968e-05 0 0.014814981862577311 -8.6653474690826968e-05 0 0.014754114100481257 -9.6535199751833885e-05 0 0.014852714896781249 -8.8370180295017423e-05 0 0.01479420485965106 -7.2195012710360416e-05 0 0.014814981862577311 -8.6653474690826968e-05 0 0.01485398247722756 -7.0391166850157128e-05 0 0.014814981862577311 -8.6653474690826968e-05 0 0.01485398247722756 -7.0391166850157128e-05 0 0.0148642593554881 -7.9973096136401684e-05 0 0.014616676028808877 -0.00098524067490669029 0 0.014543240589041478 -0.0011753302491295775 0 0.014905170233190226 -0.0014169545206899881 0 0.014682262827376627 -0.00090120309844515063 0 0.014616676028808877 -0.00098524067490669029 0 0.014905170233190226 -0.0014169545206899881 0 0.014697875370640505 -0.00043158088361632772 0 0.014828435375432016 -0.00062083803516937205 0 0.014754372810629973 -7.8015933890282114e-05 0 0.014779152316874872 -8.4356496430108098e-05 0 0.014754114100481257 -9.6535199751833885e-05 0 0.01453677142823597 -0.00066946325201230612 0 0.014598397328679411 -0.00089254787488330766 0 0.014532828874210132 -0.00095001167129604453 0 0.014682262827376627 -0.00090120309844515063 0 0.014598397328679411 -0.00089254787488330766 0 0.014616676028808877 -0.00098524067490669029 0 0.014311086564994429 -0.00079163377125836157 0 0.014303346775028699 -0.00078824218126588889 0 0.014598397328679411 -0.00089254787488330766 0 0.014616676028808877 -0.00098524067490669029 0 0.014532828874210132 -0.00095001167129604453 0 0.014616676028808877 -0.00098524067490669029 0 0.014526678368094717 -0.00095627569510888313 0 0.014486849273083555 -0.0010300332685971379 0 0.014616676028808877 -0.00098524067490669029 0 0.014486849273083555 -0.0010300332685971379 0 0.014543240589041478 -0.0011753302491295775 0 0.014486849273083555 -0.0010300332685971379 0 0.014543240589041478 -0.0011753302491295775 0 0.014398431685045635 -0.0010975018324191875 0 0.014526678368094717 -0.00095627569510888313 0 0.014309673047143711 -0.0010019801366405495 0 0.013977372268531071 -0.00077402309082071844 0 0.014303346775028699 -0.00078824218126588889 0 0.013961268570473067 -0.00073582290174427053 0 0.014543240589041478 -0.0011753302491295775 0 0.014398431685045635 -0.0010975018324191875 0 0.014342550395069532 -0.0011970614348742472 0 0.014486849273083555 -0.0010300332685971379 0 0.014398431685045635 -0.0010975018324191875 0 0.014309673047143711 -0.0010019801366405495 0 0.01431082767817045 -0.0010838836714761916 0 0.014342550395069532 -0.0011970614348742472 0 0.014176543928341376 -0.0010635061328373796 0 0.014398431685045635 -0.0010975018324191875 0 0.01431082767817045 -0.0010838836714761916 0 0.014309673047143711 -0.0010019801366405495 0 0.014398431685045635 -0.0010975018324191875 0 0.01431082767817045 -0.0010838836714761916 0 0.014342550395069532 -0.0011970614348742472 0 0.014176543928341376 -0.0010635061328373796 0 0.014056462395193548 -0.0011310159948903986 0 0.014135785839997417 -0.0012493047409733054 0 0.014342550395069532 -0.0011970614348742472 0 0.014176543928341376 -0.0010635061328373796 0 0.014135785839997417 -0.0012493047409733054 0 0.01431082767817045 -0.0010838836714761916 0 0.014176543928341376 -0.0010635061328373796 0 0.014309673047143711 -0.0010019801366405495 0 0.014176543928341376 -0.0010635061328373796 0 0.014309673047143711 -0.0010019801366405495 0 0.013977372268531071 -0.00077402309082071844 0 0.014526678368094717 -0.00095627569510888313 0 0.014486849273083555 -0.0010300332685971379 0 0.014309673047143711 -0.0010019801366405495 0 0.013915205729932175 -0.0011769457493054027 0 0.013973540708447767 -0.0010227693540612434 0 0.013719868988996083 -0.00095598488389329775 0 0.014176543928341376 -0.0010635061328373796 0 0.014056462395193548 -0.0011310159948903986 0 0.013973540708447767 -0.0010227693540612434 0 0.013915205729932175 -0.0011769457493054027 0 0.014056462395193548 -0.0011310159948903986 0 0.014135785839997417 -0.0012493047409733054 0 0.013915205729932175 -0.0011769457493054027 0 0.014056462395193548 -0.0011310159948903986 0 0.013973540708447767 -0.0010227693540612434 0 0.014176543928341376 -0.0010635061328373796 0 0.013973540708447767 -0.0010227693540612434 0 0.013977372268531071 -0.00077402309082071844 0 0.013973540708447767 -0.0010227693540612434 0 0.013977372268531071 -0.00077402309082071844 0 0.013719868988996083 -0.00095598488389329775 0 0.013959506730162687 -0.0008394753818883416 0 0.014140532855015008 -0.00067235727727680801 0 0.014022639519824224 -0.00045664901547692849 0 0.013959506730162687 -0.0008394753818883416 0 0.013743712234717658 -0.00052808292484861623 0 0.014022639519824224 -0.00045664901547692849 0 0.014468028831183642 -0.0010282299812988196 0 0.013959506730162687 -0.0008394753818883416 0 0.014140532855015008 -0.00067235727727680801 0 0.014468028831183642 -0.0010282299812988196 0 0.014140532855015008 -0.00067235727727680801 0 0.014277043785283817 -0.00046790102173974553 0 0.014303346775028699 -0.00078824218126588889 0 0.014254352914780302 -0.00039828475248599766 0 0.01453677142823597 -0.00066946325201230612 0 0.014377336026858697 -0.00032153495497164143 0 0.014482390464299796 -0.00036066816578515321 0 0.014377336026858697 -0.00032153495497164143 0 0.014482390464299796 -0.00036066816578515321 0 0.014287102937743436 0.00012796239471420622 0 0.01454407692752303 -0.00017797194969234472 0 0.014453960681054241 -2.2737948690575177e-05 0 0.014140532855015008 -0.00067235727727680801 0 0.014277043785283817 -0.00046790102173974553 0 0.014022639519824224 -0.00045664901547692849 0 0.014277043785283817 -0.00046790102173974553 0 0.014022639519824224 -0.00045664901547692849 0 0.014045796128724695 -0.00018183527319740595 0 0.013743712234717658 -0.00052808292484861623 0 0.014022639519824224 -0.00045664901547692849 0 0.013765128822768584 -0.00032397545185556111 0 0.014022639519824224 -0.00045664901547692849 0 0.013765128822768584 -0.00032397545185556111 0 0.013908810922837821 -0.00023756112946834383 0 0.014022639519824224 -0.00045664901547692849 0 0.013908810922837821 -0.00023756112946834383 0 0.014045796128724695 -0.00018183527319740595 0 0.013765128822768584 -0.00032397545185556111 0 0.013782631901157432 -0.00012416763553266391 0 0.013908810922837821 -0.00023756112946834383 0 0.013782631901157432 -0.00012416763553266391 0 0.0139274685424509 -0.00010115233710166011 0 0.013908810922837821 -0.00023756112946834383 0 0.0139274685424509 -0.00010115233710166011 0 0.014045796128724695 -0.00018183527319740595 0 0.013972616102378752 -2.0396811107773035e-06 0 0.0139274685424509 -0.00010115233710166011 0 0.013908810922837821 -0.00023756112946834383 0 0.014045796128724695 -0.00018183527319740595 0 0.014090131710627275 9.2952926713752381e-05 0 0.013893747115768238 9.512203313134294e-05 0 0.013972616102378752 -2.0396811107773035e-06 0 0.014090131710627275 9.2952926713752381e-05 0 0.014045796128724695 -0.00018183527319740595 0 0.013972616102378752 -2.0396811107773035e-06 0 0.013893747115768238 9.512203313134294e-05 0 0.013972616102378752 -2.0396811107773035e-06 0 0.013865551625848283 -1.2076195141320137e-05 0 0.0139274685424509 -0.00010115233710166011 0 0.013972616102378752 -2.0396811107773035e-06 0 0.013865551625848283 -1.2076195141320137e-05 0 0.013782631901157432 -0.00012416763553266391 0 0.0139274685424509 -0.00010115233710166011 0 0.013865551625848283 -1.2076195141320137e-05 0 0.013893747115768238 9.512203313134294e-05 0 0.013865551625848283 -1.2076195141320137e-05 0 0.013753438275205948 2.8782259926705332e-05 0 0.013782631901157432 -0.00012416763553266391 0 0.013865551625848283 -1.2076195141320137e-05 0 0.013753438275205948 2.8782259926705332e-05 0 0.014090131710627275 9.2952926713752381e-05 0 0.014277043785283817 -0.00046790102173974553 0 0.014045796128724695 -0.00018183527319740595 0 0.014576613987519757 -5.6013235089105613e-05 0 0.014482596612317943 6.8947549597653469e-05 0 0.014287102937743436 0.00012796239471420622 0 0.014212977511766837 0.00024159718385489544 0 0.014377336026858697 -0.00032153495497164143 0 0.014287102937743436 0.00012796239471420622 0 0.014117005519267237 0.0001081366545376178 0 0.014254352914780302 -0.00039828475248599766 0 0.014332873221945892 0.00024755195257036741 0 0.014212977511766837 0.00024159718385489544 0 0.014287102937743436 0.00012796239471420622 0 0.014332873221945892 0.00024755195257036741 0 0.014287102937743436 0.00012796239471420622 0 0.014437288184135739 0.0001758389098917743 0 0.014482596612317943 6.8947549597653469e-05 0 0.014287102937743436 0.00012796239471420622 0 0.014437288184135739 0.0001758389098917743 0 0.014574883647572985 0.00023946924141224964 0 0.014437288184135739 0.0001758389098917743 0 0.014563698816138546 0.00011231630882461139 0 0.014574883647572985 0.00023946924141224964 0 0.014673321894170342 0.00015539320315444889 0 0.014563698816138546 0.00011231630882461139 0 0.014737852249694415 0.00028956067159663411 0 0.014574883647572985 0.00023946924141224964 0 0.014673321894170342 0.00015539320315444889 0 0.014673321894170342 0.00015539320315444889 0 0.014684993872564117 5.9323298790188088e-05 0 0.014563698816138546 0.00011231630882461139 0 0.014684993872564117 5.9323298790188088e-05 0 0.014563698816138546 0.00011231630882461139 0 0.014572773815425967 1.5754280905202519e-05 0 0.014482596612317943 6.8947549597653469e-05 0 0.014563698816138546 0.00011231630882461139 0 0.014572773815425967 1.5754280905202519e-05 0 0.014482596612317943 6.8947549597653469e-05 0 0.014437288184135739 0.0001758389098917743 0 0.014563698816138546 0.00011231630882461139 0 0.014576613987519757 -5.6013235089105613e-05 0 0.014482596612317943 6.8947549597653469e-05 0 0.014572773815425967 1.5754280905202519e-05 0 0.014572773815425967 1.5754280905202519e-05 0 0.01467049630933436 -5.4107852650883559e-06 0 0.014611285112394927 -2.3893453019167501e-05 0 0.014684993872564117 5.9323298790188088e-05 0 0.014572773815425967 1.5754280905202519e-05 0 0.01467049630933436 -5.4107852650883559e-06 0 0.01467049630933436 -5.4107852650883559e-06 0 0.014716952428053548 -4.0267168266126543e-05 0 0.014653198149252594 -4.0304473418215572e-05 0 0.01467049630933436 -5.4107852650883559e-06 0 0.014653198149252594 -4.0304473418215572e-05 0 0.014611285112394927 -2.3893453019167501e-05 0 0.014576613987519757 -5.6013235089105613e-05 0 0.014572773815425967 1.5754280905202519e-05 0 0.014611285112394927 -2.3893453019167501e-05 0 0.014696362294656838 -6.5837073730608695e-05 0 0.014576613987519757 -5.6013235089105613e-05 0 0.014653198149252594 -4.0304473418215572e-05 0 0.014576613987519757 -5.6013235089105613e-05 0 0.014653198149252594 -4.0304473418215572e-05 0 0.014611285112394927 -2.3893453019167501e-05 0 0.014780970400189502 -3.5071365069366356e-05 0 0.014830209889414626 1.1755746469481754e-05 0 0.014830861767683261 -4.8783324450590178e-05 0 0.014780970400189502 -3.5071365069366356e-05 0 0.014762598911757354 1.7712989482844567e-05 0 0.014830209889414626 1.1755746469481754e-05 0 0.014716952428053548 -4.0267168266126543e-05 0 0.014780970400189502 -3.5071365069366356e-05 0 0.014762598911757354 1.7712989482844567e-05 0 0.01467049630933436 -5.4107852650883559e-06 0 0.014716952428053548 -4.0267168266126543e-05 0 0.014762598911757354 1.7712989482844567e-05 0 0.014684993872564117 5.9323298790188088e-05 0 0.01467049630933436 -5.4107852650883559e-06 0 0.014762598911757354 1.7712989482844567e-05 0 0.014762598911757354 1.7712989482844567e-05 0 0.014801246482844213 9.8463392542849079e-05 0 0.014830209889414626 1.1755746469481754e-05 0 0.014819812815823568 0.00012732581916672977 0 0.014801246482844213 9.8463392542849079e-05 0 0.014837700418205904 7.9362499891314503e-05 0 0.014684993872564117 5.9323298790188088e-05 0 0.014762598911757354 1.7712989482844567e-05 0 0.014801246482844213 9.8463392542849079e-05 0 0.014673321894170342 0.00015539320315444889 0 0.014684993872564117 5.9323298790188088e-05 0 0.014801246482844213 9.8463392542849079e-05 0 0.014737852249694415 0.00028956067159663411 0 0.014673321894170342 0.00015539320315444889 0 0.014801246482844213 9.8463392542849079e-05 0 0.014864018814525036 0.00012147660667355136 0 0.014837700418205904 7.9362499891314503e-05 0 0.014890324333622789 1.7182839878588879e-05 0 0.014837700418205904 7.9362499891314503e-05 0 0.014890324333622789 1.7182839878588879e-05 0 0.014830209889414626 1.1755746469481754e-05 0 0.014801246482844213 9.8463392542849079e-05 0 0.014837700418205904 7.9362499891314503e-05 0 0.014830209889414626 1.1755746469481754e-05 0 0.014877674503581781 -2.6200503002477421e-05 0 0.014886881599593036 -3.3863196441941331e-05 0 0.014890324333622789 1.7182839878588879e-05 0 0.01322874367718691 -0.00049368988595009146 0 0.01345023312539243 -0.00041458382402955173 0 0.014889852810370656 -1.3018121787292831e-05 0 0.014892790376747903 -1.348482968688767e-05 0 0.014896798811995932 -3.4832364418212194e-05 0 0.014890324333622789 1.7182839878588879e-05 0 0.014889852810370656 -1.3018121787292831e-05 0 0.014866033320899632 -2.8476646165465417e-05 0 0.014890324333622789 1.7182839878588879e-05 0 0.014889852810370656 -1.3018121787292831e-05 0 0.014892790376747903 -1.348482968688767e-05 0 0.014890324333622789 1.7182839878588879e-05 0 0.014830209889414626 1.1755746469481754e-05 0 0.014866033320899632 -2.8476646165465417e-05 0 0.014830209889414626 1.1755746469481754e-05 0 0.014830861767683261 -4.8783324450590178e-05 0 0.014866033320899632 -2.8476646165465417e-05 0 0.014857556892943446 -3.9089222538709788e-05 0 0.014877169531350685 -2.6748867712711981e-05 0 0.01489362524397634 -2.2176024568814176e-05 0 0.014262448969233022 -0.0021033864584609585 0 0.014770049506735577 -0.0014430259912356087 0 0.014877169531350685 -2.6748867712711981e-05 0 0.014892790376747903 -1.348482968688767e-05 0 0.01489362524397634 -2.2176024568814176e-05 0 0.014877674503581781 -2.6200503002477421e-05 0 0.014890324333622789 1.7182839878588879e-05 0 0.014892790376747903 -1.348482968688767e-05 0 0.014877674503581781 -2.6200503002477421e-05 0 0.014877169531350685 -2.6748867712711981e-05 0 0.014892790376747903 -1.348482968688767e-05 0 0.014892790376747903 -1.348482968688767e-05 0 0.01489362524397634 -2.2176024568814176e-05 0 0.014906243308107428 -3.1995391589103972e-05 0 0.014921621161187814 -4.2270291155315644e-05 0 0.014906243308107428 -3.1995391589103972e-05 0 0.014918941877750894 -5.2798056914335026e-05 0 0.014770049506735577 -0.0014430259912356087 0 0.014980518419578474 -0.00086368815278309687 0 0.01489362524397634 -2.2176024568814176e-05 0 0.014921621161187814 -4.2270291155315644e-05 0 0.014906243308107428 -3.1995391589103972e-05 0 0.014892790376747903 -1.348482968688767e-05 0 0.014906243308107428 -3.1995391589103972e-05 0 0.014896798811995932 -3.4832364418212194e-05 0 0.014906243308107428 -3.1995391589103972e-05 0 0.014918941877750894 -5.2798056914335026e-05 0 0.014896798811995932 -3.4832364418212194e-05 0 0.014921621161187814 -4.2270291155315644e-05 0 0.014918941877750894 -5.2798056914335026e-05 0 0.014934193862422644 -5.4999693819985609e-05 0 0.014980518419578474 -0.00086368815278309687 0 0.015039042985882631 -0.00044412615193115893 0 0.014874102084269458 -5.1647974321046263e-05 0 0.014830861767683261 -4.8783324450590178e-05 0 0.01485398247722756 -7.0391166850157128e-05 0 0.014874102084269458 -5.1647974321046263e-05 0 0.014830861767683261 -4.8783324450590178e-05 0 0.014866033320899632 -2.8476646165465417e-05 0 0.014874102084269458 -5.1647974321046263e-05 0 0.014866033320899632 -2.8476646165465417e-05 0 0.014896798811995932 -3.4832364418212194e-05 0 0.014889852810370656 -1.3018121787292831e-05 0 0.014866033320899632 -2.8476646165465417e-05 0 0.014896798811995932 -3.4832364418212194e-05 0 0.014874102084269458 -5.1647974321046263e-05 0 0.014896798811995932 -3.4832364418212194e-05 0 0.01489651726387616 -5.9431529233664543e-05 0 0.014918941877750894 -5.2798056914335026e-05 0 0.014896798811995932 -3.4832364418212194e-05 0 0.01489651726387616 -5.9431529233664543e-05 0 0.014918941877750894 -5.2798056914335026e-05 0 0.01489651726387616 -5.9431529233664543e-05 0 0.014922193034697821 -6.274172169504059e-05 0 0.01489651726387616 -5.9431529233664543e-05 0 0.01485398247722756 -7.0391166850157128e-05 0 0.014889684856283081 -7.0652255872065764e-05 0 0.014874102084269458 -5.1647974321046263e-05 0 0.01489651726387616 -5.9431529233664543e-05 0 0.01485398247722756 -7.0391166850157128e-05 0 0.01485398247722756 -7.0391166850157128e-05 0 0.0148642593554881 -7.9973096136401684e-05 0 0.014889684856283081 -7.0652255872065764e-05 0 0.0148642593554881 -7.9973096136401684e-05 0 0.014901787456001701 -7.2638378574306728e-05 0 0.014889684856283081 -7.0652255872065764e-05 0 0.01489651726387616 -5.9431529233664543e-05 0 0.014889684856283081 -7.0652255872065764e-05 0 0.014922193034697821 -6.274172169504059e-05 0 0.014901787456001701 -7.2638378574306728e-05 0 0.014889684856283081 -7.0652255872065764e-05 0 0.014922193034697821 -6.274172169504059e-05 0 0.014901787456001701 -7.2638378574306728e-05 0 0.014922193034697821 -6.274172169504059e-05 0 0.014935824729006163 -6.0716176841107614e-05 0 0.014922193034697821 -6.274172169504059e-05 0 0.014935824729006163 -6.0716176841107614e-05 0 0.014958005558013758 -4.3137707779768155e-05 0 0.014935824729006163 -6.0716176841107614e-05 0 0.014920397473454739 -6.9246599650525884e-05 0 0.014945947712598023 -6.0845912430170343e-05 0 0.014901787456001701 -7.2638378574306728e-05 0 0.014920397473454739 -6.9246599650525884e-05 0 0.014852714896781249 -8.8370180295017423e-05 0 0.014920397473454739 -6.9246599650525884e-05 0 0.014945947712598023 -6.0845912430170343e-05 0 0.014917820608267855 -7.242541532757993e-05 0 0.014901787456001701 -7.2638378574306728e-05 0 0.014935824729006163 -6.0716176841107614e-05 0 0.014920397473454739 -6.9246599650525884e-05 0 0.014918941877750894 -5.2798056914335026e-05 0 0.014934193862422644 -5.4999693819985609e-05 0 0.014943861465233398 -5.2395432614064088e-05 0 0.014918941877750894 -5.2798056914335026e-05 0 0.014922193034697821 -6.274172169504059e-05 0 0.014943861465233398 -5.2395432614064088e-05 0 0.014922193034697821 -6.274172169504059e-05 0 0.014943861465233398 -5.2395432614064088e-05 0 0.014958005558013758 -4.3137707779768155e-05 0 0.015039042985882631 -0.00044412615193115893 0 0.015031358107421271 -0.00019145671195447219 0 0.014934193862422644 -5.4999693819985609e-05 0 0.014943861465233398 -5.2395432614064088e-05 0 0.014951302369060252 -3.7993430605965951e-05 0 0.014943861465233398 -5.2395432614064088e-05 0 0.014951302369060252 -3.7993430605965951e-05 0 0.014973476361241975 -2.534567861240251e-05 0 0.014943861465233398 -5.2395432614064088e-05 0 0.014973476361241975 -2.534567861240251e-05 0 0.014958005558013758 -4.3137707779768155e-05 0 0.014973476361241975 -2.534567861240251e-05 0 0.014958005558013758 -4.3137707779768155e-05 0 0.014979450619329806 -2.1683238598411294e-05 0 0.014973476361241975 -2.534567861240251e-05 0 0.014999967865449972 -1.8543288090970454e-08 0 0.014979450619329806 -2.1683238598411294e-05 0 0.014951302369060252 -3.7993430605965951e-05 0 0.014973476361241975 -2.534567861240251e-05 0 0.014999923344098512 -1.7033275431882985e-08 0 0.014973476361241975 -2.534567861240251e-05 0 0.014999967865449972 -1.8543288090970454e-08 0 0.014999923344098512 -1.7033275431882985e-08 0 0.015031358107421271 -0.00019145671195447219 0 0.015000066310953566 -2.1234573334264073e-07 0 0.014945947712598023 -6.0845912430170343e-05 0 0.014961527287409416 -4.0627365522371311e-05 0 0.014970301089794779 -3.4405244699672648e-05 0 0.014961527287409416 -4.0627365522371311e-05 0 0.014977879197177415 -2.4191092762881611e-05 0 0.014970301089794779 -3.4405244699672648e-05 0 0.014899761481959624 -0.00018524762695714688 0 0.014825962896135907 -0.00051086870967309008 0 0.014998287443355929 -2.5146111939626486e-06 0 0.014998794026088044 -3.3146740294733177e-06 0 0.014997591486593497 -5.9149817471180849e-06 0 0.014945947712598023 -6.0845912430170343e-05 0 0.014970301089794779 -3.4405244699672648e-05 0 0.014957332687362828 -6.8789426773361003e-05 0 0.014822628644191566 -0.00049549298041507935 0 0.014825962896135907 -0.00051086870967309008 0 0.014935824729006163 -6.0716176841107614e-05 0 0.014945947712598023 -6.0845912430170343e-05 0 0.014961527287409416 -4.0627365522371311e-05 0 0.014935824729006163 -6.0716176841107614e-05 0 0.014958005558013758 -4.3137707779768155e-05 0 0.014961527287409416 -4.0627365522371311e-05 0 0.014958005558013758 -4.3137707779768155e-05 0 0.014961527287409416 -4.0627365522371311e-05 0 0.014979450619329806 -2.1683238598411294e-05 0 0.014999967865449972 -1.8543288090970454e-08 0 0.014979450619329806 -2.1683238598411294e-05 0 0.014999950669550127 -3.9205208276982268e-08 0 0.014977879197177415 -2.4191092762881611e-05 0 0.014979450619329806 -2.1683238598411294e-05 0 0.014999950669550127 -3.9205208276982268e-08 0 0.014961527287409416 -4.0627365522371311e-05 0 0.014977879197177415 -2.4191092762881611e-05 0 0.014979450619329806 -2.1683238598411294e-05 0 0.014999628828170457 -3.364100656170517e-07 0 0.014899761481959624 -0.00018524762695714688 0 0.014999997385629736 -9.9014568401098093e-10 0 0.014998287443355929 -2.5146111939626486e-06 0 0.014999997159140268 -1.4509522476088381e-09 0 0.014977879197177415 -2.4191092762881611e-05 0 0.014999950669550127 -3.9205208276982268e-08 0 0.014970301089794779 -3.4405244699672648e-05 0 0.014998287443355929 -2.5146111939626486e-06 0 0.014999997159140268 -1.4509522476088381e-09 0 0.014998794026088044 -3.3146740294733177e-06 0 0.014999997159140268 -1.4509522476088381e-09 0 0.014999619769490203 -3.7866655471445163e-06 0 0.014998794026088044 -3.3146740294733177e-06 0 0.014999997159140268 -1.4509522476088381e-09 0 0.015000005237214561 -2.6368525681573209e-09 0 0.014999619769490203 -3.7866655471445163e-06 0 0.015000005237214561 -2.6368525681573209e-09 0 0.014999619769490203 -3.7866655471445163e-06 0 0.015001425233921202 -4.4884377682338403e-06 0 0.014999619769490203 -3.7866655471445163e-06 0 0.014999835142327902 -1.0197350533353306e-05 0 0.015001425233921202 -4.4884377682338403e-06 0 0.014999619769490203 -3.7866655471445163e-06 0 0.014997591486593497 -5.9149817471180849e-06 0 0.014999835142327902 -1.0197350533353306e-05 0 0.014999619769490203 -3.7866655471445163e-06 0 0.014998794026088044 -3.3146740294733177e-06 0 0.014997591486593497 -5.9149817471180849e-06 0 0.015133551162457303 -0.0019085353682522968 0 0.014554844738960999 -0.0016599020006116229 0 0.014905170233190226 -0.0014169545206899881 0 0.014825962896135907 -0.00051086870967309008 0 0.014767338440118585 -0.00068249289601048232 0 0.014920397473454739 -6.9246599650525884e-05 0 0.014917820608267855 -7.242541532757993e-05 0 0.014852714896781249 -8.8370180295017423e-05 0 0.014825962896135907 -0.00051086870967309008 0 0.014828435375432016 -0.00062083803516937205 0 0.014543240589041478 -0.0011753302491295775 0 0.014521396201375481 -0.0013417145184625473 0 0.014905170233190226 -0.0014169545206899881 0 0.014554844738960999 -0.0016599020006116229 0 0.014521396201375481 -0.0013417145184625473 0 0.014905170233190226 -0.0014169545206899881 0 0.014554844738960999 -0.0016599020006116229 0 0.014521396201375481 -0.0013417145184625473 0 0.01430315352437898 -0.0013339963526690778 0 0.014543240589041478 -0.0011753302491295775 0 0.014342550395069532 -0.0011970614348742472 0 0.014521396201375481 -0.0013417145184625473 0 0.0148642593554881 -7.9973096136401684e-05 0 0.014901787456001701 -7.2638378574306728e-05 0 0.014852714896781249 -8.8370180295017423e-05 0 0.014814981862577311 -8.6653474690826968e-05 0 0.0148642593554881 -7.9973096136401684e-05 0 0.014852714896781249 -8.8370180295017423e-05 0 0.013915205729932175 -0.0011769457493054027 0 0.013957892356826929 -0.0014088070160775722 0 0.01350515494026687 -0.0012146791527247785 0 0.013915205729932175 -0.0011769457493054027 0 0.013960207979008731 -0.0014070615700819519 0 0.014135785839997417 -0.0012493047409733054 0 0.014453891820233855 -0.00072376414565672432 0 0.014466500574677873 -0.00064039628598470055 0 0.014342550395069532 -0.0011970614348742472 0 0.014135785839997417 -0.0012493047409733054 0 0.01430315352437898 -0.0013339963526690778 0 0.014554844738960999 -0.0016599020006116229 0 0.013960207979008731 -0.0014070615700819519 0 0.01430315352437898 -0.0013339963526690778 0 0.014767338440118585 -0.00068249289601048232 0 0.014466500574677873 -0.00064039628598470055 0 0.013960207979008731 -0.0014070615700819519 0 0.014135785839997417 -0.0012493047409733054 0 0.01430315352437898 -0.0013339963526690778 0 0.014342550395069532 -0.0011970614348742472 0 0.014521396201375481 -0.0013417145184625473 0 0.01430315352437898 -0.0013339963526690778 0 0.014999835142327902 -1.0197350533353306e-05 0 0.015004194045598091 -1.5060442266801676e-05 0 0.015004203509839217 -7.5479925704745336e-06 0 0.014466500574677873 -0.00064039628598470055 0 0.014676988101933587 -0.0003226877965073605 0 0.01425239912559045 -0.00047705284273313127 0 0.014274349390873325 -0.00059230089557274111 0 0.014186553421696578 -0.00054246874734561058 0 0.014274349390873325 -0.00059230089557274111 0 0.014215930559698352 -0.0006263348329033306 0 0.014186553421696578 -0.00054246874734561058 0 0.014274349390873325 -0.00059230089557274111 0 0.014215930559698352 -0.0006263348329033306 0 0.014296794556574352 -0.00070738341744120325 0 0.014676988101933587 -0.0003226877965073605 0 0.014922870156511671 -9.3697671906858596e-05 0 0.015004203509839217 -7.5479925704745336e-06 0 0.015001425233921202 -4.4884377682338403e-06 0 0.015003515296826721 -1.1164954442145403e-06 0 0.014999835142327902 -1.0197350533353306e-05 0 0.015004203509839217 -7.5479925704745336e-06 0 0.015001425233921202 -4.4884377682338403e-06 0 0.015000005237214561 -2.6368525681573209e-09 0 0.015001425233921202 -4.4884377682338403e-06 0 0.015003515296826721 -1.1164954442145403e-06 0 0.014922870156511671 -9.3697671906858596e-05 0 0.014998770162955408 -8.070384620689067e-07 0 0.014999850663413472 -3.1492790238101515e-07 0 0.014922870156511671 -9.3697671906858596e-05 0 0.015000000088090094 1.1263924470235562e-11 0 0.014999965631000008 -5.3692773086526613e-08 0 0.014999999645591086 -2.200619504696269e-10 0 0.014215930559698352 -0.0006263348329033306 0 0.014296794556574352 -0.00070738341744120325 0 0.014189302395524671 -0.00068520832050466402 0 0.014922870156511671 -9.3697671906858596e-05 0 0.014662941650419715 -0.00022925875135412747 0 0.014999954519495633 -6.1486976741102999e-08 0 0.015000002110965395 9.442630338672756e-10 0 0.014999876620854039 5.2889993517722936e-08 0 0.015000002110965395 9.442630338672756e-10 0 0.014999876620854039 5.2889993517722936e-08 0 0.014999995019100869 -2.6865289822647389e-09 0 0.014662941650419715 -0.00022925875135412747 0 0.014521665948440574 -0.00032930349512765722 0 0.014999876620854039 5.2889993517722936e-08 0 0.014999995019100869 -2.6865289822647389e-09 0 0.014996958277249601 -3.3037775520657697e-07 0 0.015000000710498866 2.1167960721798585e-10 0 0.014999998754436255 -3.7158414434255554e-10 0 0.015000047358090185 6.3701797934441495e-08 0 0.014999998410961914 -2.0581526552284747e-10 0 0.014999139036734907 -2.5177702374077172e-08 0 0.014999995019100869 -2.6865289822647389e-09 0 0.014996958277249601 -3.3037775520657697e-07 0 0.014996910967872512 -4.5553745777478644e-07 0 0.014081403019358223 -0.00066227927817391749 0 0.014132348623292986 -0.000604111797385004 0 0.014059769702902248 -0.00057836440926115919 0 0.014189302395524671 -0.00068520832050466402 0 0.014081403019358223 -0.00066227927817391749 0 0.014132348623292986 -0.000604111797385004 0 0.014215930559698352 -0.0006263348329033306 0 0.014189302395524671 -0.00068520832050466402 0 0.014132348623292986 -0.000604111797385004 0 0.014215930559698352 -0.0006263348329033306 0 0.014132348623292986 -0.000604111797385004 0 0.014186553421696578 -0.00054246874734561058 0 0.014999421283911967 -3.0196386741091822e-07 0 0.014999998754436255 -3.7158414434255554e-10 0 0.014999998894883066 -8.0055990922598599e-10 0 0.014999421283911967 -3.0196386741091822e-07 0 0.014998426312016392 -7.7561033880310757e-07 0 0.014999998894883066 -8.0055990922598599e-10 0 0.014996910967872512 -4.5553745777478644e-07 0 0.014998081174044333 -1.0269892145404277e-06 0 0.014998426312016392 -7.7561033880310757e-07 0 0.014996958277249601 -3.3037775520657697e-07 0 0.014996910967872512 -4.5553745777478644e-07 0 0.014998081174044333 -1.0269892145404277e-06 0 0.014999139036734907 -2.5177702374077172e-08 0 0.014999067830093644 -1.5677525121615339e-07 0 0.014999421283911967 -3.0196386741091822e-07 0 0.015000047358090185 6.3701797934441495e-08 0 0.014998426312016392 -7.7561033880310757e-07 0 0.014999421283911967 -3.0196386741091822e-07 0 0.014999998754436255 -3.7158414434255554e-10 0 0.015000047358090185 6.3701797934441495e-08 0 0.013975527010193093 -0.00063832652757303326 0 0.014005180007625816 -0.00055997779676951909 0 0.014059769702902248 -0.00057836440926115919 0 0.014521665948440574 -0.00032930349512765722 0 0.014335317748467555 -0.00042037987575048436 0 0.014081403019358223 -0.00066227927817391749 0 0.013975527010193093 -0.00063832652757303326 0 0.014059769702902248 -0.00057836440926115919 0 0.013975527010193093 -0.00063832652757303326 0 0.013949706527549984 -0.00052954255967748961 0 0.013871660879115512 -0.00061503837660644074 0 0.014998081174044333 -1.0269892145404277e-06 0 0.014998426312016392 -7.7561033880310757e-07 0 0.014997971801856028 -1.2334450826016055e-06 0 0.014335317748467555 -0.00042037987575048436 0 0.013823010228041414 -0.00050396245574947976 0 0.013975527010193093 -0.00063832652757303326 0 0.013949706527549984 -0.00052954255967748961 0 0.014005180007625816 -0.00055997779676951909 0 0.013949706527549984 -0.00052954255967748961 0 0.014005180007625816 -0.00055997779676951909 0 0.014041994873420732 -0.00051171890315130221 0 0.014005180007625816 -0.00055997779676951909 0 0.014059769702902248 -0.00057836440926115919 0 0.014041994873420732 -0.00051171890315130221 0 0.013646167424698494 -0.00065050274984127844 0 0.013605450554906083 -0.00066025050361100969 0 0.013949706527549984 -0.00052954255967748961 0 0.014041994873420732 -0.00051171890315130221 0 0.014026000188795792 -0.00044592601091266538 0 0.013605450554906083 -0.00066025050361100969 0 0.013484684069219627 -0.00073252288293190455 0 0.014043583309756587 -0.00050856042531543719 0 0.014027191360495956 -0.00043907560838449088 0 0.014079732672660793 -0.00046245618057145355 0 0.012461101712568425 -0.0014399381612367939 0 0.012782554119148568 -0.00108480688111192 0 0.012466272113495727 -0.00097558611003202653 0 0.013398746193279179 -0.00087152263022184726 0 0.013484684069219627 -0.00073252288293190455 0 0.012461101712568425 -0.0014399381612367939 0 0.012466272113495727 -0.00097558611003202653 0 0.012152162950028054 -0.0010802483907580817 0 0.014132348623292986 -0.000604111797385004 0 0.014186553421696578 -0.00054246874734561058 0 0.014110183277991878 -0.00052205152321474285 0 0.014132348623292986 -0.000604111797385004 0 0.014059769702902248 -0.00057836440926115919 0 0.014110183277991878 -0.00052205152321474285 0 0.014059769702902248 -0.00057836440926115919 0 0.014043583309756587 -0.00050856042531543719 0 0.014110183277991878 -0.00052205152321474285 0 0.014110183277991878 -0.00052205152321474285 0 0.014079732672660793 -0.00046245618057145355 0 0.01415893014527597 -0.00043667001354601523 0 0.014043583309756587 -0.00050856042531543719 0 0.014110183277991878 -0.00052205152321474285 0 0.014079732672660793 -0.00046245618057145355 0 0.014186553421696578 -0.00054246874734561058 0 0.014110183277991878 -0.00052205152321474285 0 0.01415893014527597 -0.00043667001354601523 0 0.01425239912559045 -0.00047705284273313127 0 0.014186553421696578 -0.00054246874734561058 0 0.01415893014527597 -0.00043667001354601523 0 0.014466500574677873 -0.00064039628598470055 0 0.013948613133814292 -0.0006757287208773667 0 0.013915205729932175 -0.0011769457493054027 0 0.01350515494026687 -0.0012146791527247785 0 0.013719868988996083 -0.00095598488389329775 0 0.01350515494026687 -0.0012146791527247785 0 0.013427253333027921 -0.00089892328128758441 0 0.013719868988996083 -0.00095598488389329775 0 0.013961268570473067 -0.00073582290174427053 0 0.01352408414990789 -0.00060946151033523062 0 0.013959506730162687 -0.0008394753818883416 0 0.013743712234717658 -0.00052808292484861623 0 0.013441751638235445 -0.00064960173088991009 0 0.013427253333027921 -0.00089892328128758441 0 0.013719868988996083 -0.00095598488389329775 0 0.013440613941196892 -0.00059906471355948977 0 0.013977372268531071 -0.00077402309082071844 0 0.013719868988996083 -0.00095598488389329775 0 0.013440613941196892 -0.00059906471355948977 0 0.013440613941196892 -0.00059906471355948977 0 0.013211237560403167 -0.00073256219172013312 0 0.012922863134491112 -0.00044273864399154691 0 0.013211237560403167 -0.00073256219172013312 0 0.012987813974682133 -0.00072752168163687993 0 0.012922863134491112 -0.00044273864399154691 0 0.013427253333027921 -0.00089892328128758441 0 0.013211237560403167 -0.00073256219172013312 0 0.013135601958446284 -0.0009467508491238679 0 0.013427253333027921 -0.00089892328128758441 0 0.013440613941196892 -0.00059906471355948977 0 0.013211237560403167 -0.00073256219172013312 0 0.013211237560403167 -0.00073256219172013312 0 0.013084400858794205 -0.00082062377039617863 0 0.012987813974682133 -0.00072752168163687993 0 0.013211237560403167 -0.00073256219172013312 0 0.013084400858794205 -0.00082062377039617863 0 0.013135601958446284 -0.0009467508491238679 0 0.013084400858794205 -0.00082062377039617863 0 0.013135601958446284 -0.0009467508491238679 0 0.013004351366211928 -0.00087622485984407571 0 0.013135601958446284 -0.0009467508491238679 0 0.013065887005619213 -0.001022945771407566 0 0.013004351366211928 -0.00087622485984407571 0 0.014079732672660793 -0.00046245618057145355 0 0.01415893014527597 -0.00043667001354601523 0 0.014065473867505729 -0.00039645591736921449 0 0.01350515494026687 -0.0012146791527247785 0 0.013427253333027921 -0.00089892328128758441 0 0.013135601958446284 -0.0009467508491238679 0 0.013948613133814292 -0.0006757287208773667 0 0.013547505219685198 -0.00068056352663079097 0 0.01350515494026687 -0.0012146791527247785 0 0.013135601958446284 -0.0009467508491238679 0 0.01306466925208744 -0.0010255588994614962 0 0.013534092398946495 -0.00069365977964918073 0 0.013547505219685198 -0.00068056352663079097 0 0.014027191360495956 -0.00043907560838449088 0 0.014079732672660793 -0.00046245618057145355 0 0.014065473867505729 -0.00039645591736921449 0 0.013438439782224592 -0.00061199665774936936 0 0.013310783420616888 -0.00075372771283610085 0 0.013488354190146584 -0.00083218701511293431 0 0.012782554119148568 -0.00108480688111192 0 0.012722024718439574 -0.00082157524047295769 0 0.012466272113495727 -0.00097558611003202653 0 0.013484684069219627 -0.00073252288293190455 0 0.013547505219685198 -0.00068056352663079097 0 0.013484684069219627 -0.00073252288293190455 0 0.013263908580645802 -0.00061076216714590014 0 0.013065887005619213 -0.001022945771407566 0 0.01282285963553375 -0.00091529446019824169 0 0.013004351366211928 -0.00087622485984407571 0 0.013547505219685198 -0.00068056352663079097 0 0.013263908580645802 -0.00061076216714590014 0 0.012722024718439574 -0.00082157524047295769 0 0.012466272113495727 -0.00097558611003202653 0 0.012487950230330872 -0.00071911931147851393 0 0.012466272113495727 -0.00097558611003202653 0 0.012487950230330872 -0.00071911931147851393 0 0.012251561894942141 -0.00071431114863456508 0 0.012729423841657895 -0.00082541400992602204 0 0.012487950230330872 -0.00071911931147851393 0 0.01264593101115161 -0.00044320479574030139 0 0.012487950230330872 -0.00071911931147851393 0 0.012437907019264794 -0.00053043684083654483 0 0.012251561894942141 -0.00071431114863456508 0 0.013263908580645802 -0.00061076216714590014 0 0.013112244430921353 -0.00057781550230072084 0 0.012487950230330872 -0.00071911931147851393 0 0.012437907019264794 -0.00053043684083654483 0 0.01264593101115161 -0.00044320479574030139 0 0.013263908580645802 -0.00061076216714590014 0 0.01302626064156674 -0.00042001784028482698 0 0.01282285963553375 -0.00091529446019824169 0 0.012862158589128217 -0.00064521854758671981 0 0.01271463241470671 -0.00049610254432813053 0 0.01282285963553375 -0.00091529446019824169 0 0.012987813974682133 -0.00072752168163687993 0 0.013004351366211928 -0.00087622485984407571 0 0.01282285963553375 -0.00091529446019824169 0 0.012987813974682133 -0.00072752168163687993 0 0.012862158589128217 -0.00064521854758671981 0 0.013084400858794205 -0.00082062377039617863 0 0.012987813974682133 -0.00072752168163687993 0 0.013004351366211928 -0.00087622485984407571 0 0.012987813974682133 -0.00072752168163687993 0 0.012862158589128217 -0.00064521854758671981 0 0.012922863134491112 -0.00044273864399154691 0 0.01271463241470671 -0.00049610254432813053 0 0.012584790541711416 -5.3543700382468376e-05 0 0.012841898591630879 -0.00017835731871128967 0 0.012862158589128217 -0.00064521854758671981 0 0.012922863134491112 -0.00044273864399154691 0 0.01271463241470671 -0.00049610254432813053 0 0.012922863134491112 -0.00044273864399154691 0 0.01271463241470671 -0.00049610254432813053 0 0.012841898591630879 -0.00017835731871128967 0 0.012922863134491112 -0.00044273864399154691 0 0.012841898591630879 -0.00017835731871128967 0 0.013041670205581207 -0.00021328905521334201 0 0.01302626064156674 -0.00042001784028482698 0 0.012935980252634356 -0.00027619786354981342 0 0.01264593101115161 -0.00044320479574030139 0 0.012442821788516691 -0.00033444843508986485 0 0.012584790541711416 -5.3543700382468376e-05 0 0.012437907019264794 -0.00053043684083654483 0 0.012442821788516691 -0.00033444843508986485 0 0.012273115678602167 -0.00043083855574798481 0 0.012437907019264794 -0.00053043684083654483 0 0.01264593101115161 -0.00044320479574030139 0 0.012442821788516691 -0.00033444843508986485 0 0.012584790541711416 -5.3543700382468376e-05 0 0.012282726344558952 -0.00017420676410289651 0 0.012391954654324374 0.00022157054730296627 0 0.012442821788516691 -0.00033444843508986485 0 0.012584790541711416 -5.3543700382468376e-05 0 0.012282726344558952 -0.00017420676410289651 0 0.012841898591630879 -0.00017835731871128967 0 0.013026701128141822 -1.5189021886607349e-06 0 0.013041670205581207 -0.00021328905521334201 0 0.012584790541711416 -5.3543700382468376e-05 0 0.012841898591630879 -0.00017835731871128967 0 0.012762321473680357 0.00014604881645869091 0 0.012841898591630879 -0.00017835731871128967 0 0.013026701128141822 -1.5189021886607349e-06 0 0.012762321473680357 0.00014604881645869091 0 0.013026701128141822 -1.5189021886607349e-06 0 0.013215954317068216 -0.00010074799731560136 0 0.013223069174711843 9.5960874467372438e-05 0 0.013026701128141822 -1.5189021886607349e-06 0 0.013041670205581207 -0.00021328905521334201 0 0.013215954317068216 -0.00010074799731560136 0 0.013041670205581207 -0.00021328905521334201 0 0.013215954317068216 -0.00010074799731560136 0 0.013246109576945725 -0.00033084696625132091 0 0.013215954317068216 -0.00010074799731560136 0 0.013416410752343169 -0.00016181872945018346 0 0.013246109576945725 -0.00033084696625132091 0 0.013215954317068216 -0.00010074799731560136 0 0.013396046117049398 2.8683378156254608e-05 0 0.013416410752343169 -0.00016181872945018346 0 0.013215954317068216 -0.00010074799731560136 0 0.013396046117049398 2.8683378156254608e-05 0 0.013223069174711843 9.5960874467372438e-05 0 0.013396046117049398 2.8683378156254608e-05 0 0.013598265847313723 -5.5038313297145772e-05 0 0.013416410752343169 -0.00016181872945018346 0 0.013396046117049398 2.8683378156254608e-05 0 0.013598265847313723 -5.5038313297145772e-05 0 0.013577906422970361 9.6668451276774362e-05 0 0.013753438275205948 2.8782259926705332e-05 0 0.013598265847313723 -5.5038313297145772e-05 0 0.013577906422970361 9.6668451276774362e-05 0 0.013782631901157432 -0.00012416763553266391 0 0.013753438275205948 2.8782259926705332e-05 0 0.013598265847313723 -5.5038313297145772e-05 0 0.013782631901157432 -0.00012416763553266391 0 0.013598265847313723 -5.5038313297145772e-05 0 0.013595089634590976 -0.00020181200897673523 0 0.013765128822768584 -0.00032397545185556111 0 0.013782631901157432 -0.00012416763553266391 0 0.013595089634590976 -0.00020181200897673523 0 0.013595089634590976 -0.00020181200897673523 0 0.013416410752343169 -0.00016181872945018346 0 0.013526983522760643 -0.00037026253811632689 0 0.013598265847313723 -5.5038313297145772e-05 0 0.013595089634590976 -0.00020181200897673523 0 0.013416410752343169 -0.00016181872945018346 0 0.013416410752343169 -0.00016181872945018346 0 0.013526983522760643 -0.00037026253811632689 0 0.013246109576945725 -0.00033084696625132091 0 0.013765128822768584 -0.00032397545185556111 0 0.013595089634590976 -0.00020181200897673523 0 0.013526983522760643 -0.00037026253811632689 0 0.013743712234717658 -0.00052808292484861623 0 0.013765128822768584 -0.00032397545185556111 0 0.013526983522760643 -0.00037026253811632689 0 0.013743712234717658 -0.00052808292484861623 0 0.013441751638235445 -0.00064960173088991009 0 0.013526983522760643 -0.00037026253811632689 0 0.013441751638235445 -0.00064960173088991009 0 0.013526983522760643 -0.00037026253811632689 0 0.013246109576945725 -0.00033084696625132091 0 0.013441751638235445 -0.00064960173088991009 0 0.012922863134491112 -0.00044273864399154691 0 0.013246109576945725 -0.00033084696625132091 0 0.01352408414990789 -0.00060946151033523062 0 0.013277151809765774 -0.0005288836000276175 0 0.012922863134491112 -0.00044273864399154691 0 0.013041670205581207 -0.00021328905521334201 0 0.013246109576945725 -0.00033084696625132091 0 0.011574188148659674 -0.00012485856309883759 0 0.011944085895963368 -0.00040353808622835827 0 0.011390059804444498 -0.00053472553825158989 0 0.011219117176321064 -0.00013418780061435351 0 0.011390059804444498 -0.00053472553825158989 0 0.010898153997311097 -0.00025576459475059243 0 0.011219117176321064 -0.00013418780061435351 0 0.011574188148659674 -0.00012485856309883759 0 0.011390059804444498 -0.00053472553825158989 0 0.011219117176321064 -0.00013418780061435351 0 0.011574188148659674 -0.00012485856309883759 0 0.011222892582835094 0.00021028963896580895 0 0.011574188148659674 -0.00012485856309883759 0 0.011604386189158373 0.00018480434304278648 0 0.011222892582835094 0.00021028963896580895 0 0.012020063588401233 -4.6530494475049262e-05 0 0.011963239414772236 -0.00040650619976954471 0 0.011574188148659674 -0.00012485856309883759 0 0.012013705954342303 2.2626840203456715e-05 0 0.011944085895963368 -0.00040353808622835827 0 0.011574188148659674 -0.00012485856309883759 0 0.012013705954342303 2.2626840203456715e-05 0 0.011604386189158373 0.00018480434304278648 0 0.012040054705117667 8.2377018027644882e-06 0 0.012282726344558952 -0.00017420676410289651 0 0.012391954654324374 0.00022157054730296627 0 0.012040054705117667 8.2377018027644882e-06 0 0.012282726344558952 -0.00017420676410289651 0 0.011984439611971858 -0.00042286344261245607 0 0.012282726344558952 -0.00017420676410289651 0 0.012273115678602167 -0.00043083855574798481 0 0.011984439611971858 -0.00042286344261245607 0 0.012442821788516691 -0.00033444843508986485 0 0.012282726344558952 -0.00017420676410289651 0 0.012273115678602167 -0.00043083855574798481 0 0.011963239414772236 -0.00040650619976954471 0 0.01190706686441347 -0.0007586910614154434 0 0.011944085895963368 -0.00040353808622835827 0 0.011884535692004239 -0.00082283115714454737 0 0.011390059804444498 -0.00053472553825158989 0 0.012273115678602167 -0.00043083855574798481 0 0.011984439611971858 -0.00042286344261245607 0 0.012251561894942141 -0.00071431114863456508 0 0.011984439611971858 -0.00042286344261245607 0 0.012251561894942141 -0.00071431114863456508 0 0.011915923765331494 -0.00083042851694604166 0 0.012437907019264794 -0.00053043684083654483 0 0.012273115678602167 -0.00043083855574798481 0 0.012251561894942141 -0.00071431114863456508 0 0.012251561894942141 -0.00071431114863456508 0 0.011915923765331494 -0.00083042851694604166 0 0.012152162950028054 -0.0010802483907580817 0 0.012466272113495727 -0.00097558611003202653 0 0.012251561894942141 -0.00071431114863456508 0 0.012152162950028054 -0.0010802483907580817 0 0.01190706686441347 -0.0007586910614154434 0 0.011876883509785158 -0.00094523849212203414 0 0.011915923765331494 -0.00083042851694604166 0 0.012152162950028054 -0.0010802483907580817 0 0.011833285572365038 -0.001239664051606458 0 0.011884535692004239 -0.00082283115714454737 0 0.01151127134064011 -0.0009167941346044699 0 0.011833285572365038 -0.001239664051606458 0 0.011884535692004239 -0.00082283115714454737 0 0.01151127134064011 -0.0009167941346044699 0 0.011390059804444498 -0.00053472553825158989 0 0.011539377537596179 -0.00078213976955218885 0 0.011663835591520268 -0.00075384557057514611 0 0.01151127134064011 -0.0009167941346044699 0 0.011390059804444498 -0.00053472553825158989 0 0.011133137722950118 -0.0009841476258516911 0 0.01151127134064011 -0.0009167941346044699 0 0.011416822355349604 -0.0012883560726987501 0 0.011133137722950118 -0.0009841476258516911 0 0.011416822355349604 -0.0012883560726987501 0 0.011195027587960133 -0.0013586973470922064 0 0.011171089043993186 -0.0010128770830083829 0 0.011629344209678748 -0.00085259489036029572 0 0.011663835591520268 -0.00075384557057514611 0 0.01151127134064011 -0.0009167941346044699 0 0.011416822355349604 -0.0012883560726987501 0 0.011833285572365038 -0.001239664051606458 0 0.011416822355349604 -0.0012883560726987501 0 0.011833285572365038 -0.001239664051606458 0 0.011694879324594664 -0.0016983600854541133 0 0.013280074511415227 -0.00048859021924921862 0 0.01346646217430753 -0.00055683937517389764 0 0.011416822355349604 -0.0012883560726987501 0 0.011270557401403892 -0.0015909837440949111 0 0.011694879324594664 -0.0016983600854541133 0 0.011416822355349604 -0.0012883560726987501 0 0.011195027587960133 -0.0013586973470922064 0 0.011270557401403892 -0.0015909837440949111 0 0.012461101712568425 -0.0014399381612367939 0 0.012152162950028054 -0.0010802483907580817 0 0.01212695697792706 -0.0014094461234754655 0 0.012152162950028054 -0.0010802483907580817 0 0.011833285572365038 -0.001239664051606458 0 0.01212695697792706 -0.0014094461234754655 0 0.011833285572365038 -0.001239664051606458 0 0.01212695697792706 -0.0014094461234754655 0 0.011694879324594664 -0.0016983600854541133 0 0.01212695697792706 -0.0014094461234754655 0 0.0121368242884567 -0.0017979110955093408 0 0.011694879324594664 -0.0016983600854541133 0 0.013398746193279179 -0.00087152263022184726 0 0.013823010228041414 -0.00050396245574947976 0 0.012461101712568425 -0.0014399381612367939 0 0.01212695697792706 -0.0014094461234754655 0 0.0121368242884567 -0.0017979110955093408 0 0.014998426312016392 -7.7561033880310757e-07 0 0.014997971801856028 -1.2334450826016055e-06 0 0.014999233003126047 -4.33940368312185e-07 0 0.014985818932552762 -6.7046075284254404e-06 0 0.014995279400382673 -3.3011997422190558e-06 0 0.0149951089099227 -5.3443266254465102e-06 0 0.013823010228041414 -0.00050396245574947976 0 0.01346646217430753 -0.00055683937517389764 0 0.013823010228041414 -0.00050396245574947976 0 0.014454953048830764 -9.6388228935819395e-06 0 0.01499999110164912 -2.3774609695689308e-10 0 0.014999122189625111 3.2784588354550942e-09 0 0.014999233003126047 -4.33940368312185e-07 0 0.014985818932552762 -6.7046075284254404e-06 0 0.014995279400382673 -3.3011997422190558e-06 0 0.014999122189625111 3.2784588354550942e-09 0 0.014997971801856028 -1.2334450826016055e-06 0 0.014999122189625111 3.2784588354550942e-09 0 0.014999233003126047 -4.33940368312185e-07 0 0.01499999110164912 -2.3774609695689308e-10 0 0.014999998894883066 -8.0055990922598599e-10 0 0.014999233003126047 -4.33940368312185e-07 0 0.014998426312016392 -7.7561033880310757e-07 0 0.014999998894883066 -8.0055990922598599e-10 0 0.014999233003126047 -4.33940368312185e-07 0 0.014995591268221252 -2.4466368198748273e-06 0 0.014997943037849895 -1.8506510144979818e-06 0 0.014997906180648585 -1.3173934149127558e-06 0 0.014995591268221252 -2.4466368198748273e-06 0 0.0149951089099227 -5.3443266254465102e-06 0 0.014997943037849895 -1.8506510144979818e-06 0 0.014995279400382673 -3.3011997422190558e-06 0 0.0149951089099227 -5.3443266254465102e-06 0 0.014997943037849895 -1.8506510144979818e-06 0 0.01499999110164912 -2.3774609695689308e-10 0 0.014999122189625111 3.2784588354550942e-09 0 0.014999997921130654 -1.32369234145511e-09 0 0.014999122189625111 3.2784588354550942e-09 0 0.014997943037849895 -1.8506510144979818e-06 0 0.014999997921130654 -1.32369234145511e-09 0 0.014995279400382673 -3.3011997422190558e-06 0 0.014999122189625111 3.2784588354550942e-09 0 0.014997943037849895 -1.8506510144979818e-06 0 0.014997943037849895 -1.8506510144979818e-06 0 0.014999997921130654 -1.32369234145511e-09 0 0.014997906180648585 -1.3173934149127558e-06 0 0.014999997921130654 -1.32369234145511e-09 0 0.014997906180648585 -1.3173934149127558e-06 0 0.014999994575032122 -1.7276267784461529e-09 0 0.014997906180648585 -1.3173934149127558e-06 0 0.014997005792121687 -1.1508463965210466e-06 0 0.014999994575032122 -1.7276267784461529e-09 0 0.014995591268221252 -2.4466368198748273e-06 0 0.014997906180648585 -1.3173934149127558e-06 0 0.014997005792121687 -1.1508463965210466e-06 0 0.014995591268221252 -2.4466368198748273e-06 0 0.014997005792121687 -1.1508463965210466e-06 0 0.014993968917333565 -1.256485578307324e-06 0 0.014995825714190338 -7.2482770011138921e-07 0 0.014994435959103566 -3.0273549657754583e-06 0 0.014984692916028814 -5.9476002835605832e-06 0 0.013999915097234302 0.00018491881243310509 0 0.013314100216253035 -0.00030035640042400417 0 0.014997005792121687 -1.1508463965210466e-06 0 0.014995825714190338 -7.2482770011138921e-07 0 0.014993968917333565 -1.256485578307324e-06 0 0.014997005792121687 -1.1508463965210466e-06 0 0.014999994575032122 -1.7276267784461529e-09 0 0.014995825714190338 -7.2482770011138921e-07 0 0.014995825714190338 -7.2482770011138921e-07 0 0.014999993624156601 2.2108056735663279e-10 0 0.014998690199240243 -4.9942584689927898e-07 0 0.014999994575032122 -1.7276267784461529e-09 0 0.014995825714190338 -7.2482770011138921e-07 0 0.014999993624156601 2.2108056735663279e-10 0 0.014995825714190338 -7.2482770011138921e-07 0 0.014998690199240243 -4.9942584689927898e-07 0 0.014996885448294842 -1.9995361252301428e-06 0 0.014999993624156601 2.2108056735663279e-10 0 0.014998690199240243 -4.9942584689927898e-07 0 0.014999999864213359 -3.621923909948596e-10 0 0.014998690199240243 -4.9942584689927898e-07 0 0.014996885448294842 -1.9995361252301428e-06 0 0.014999205413306797 -7.4556069658160326e-07 0 0.014828045701176231 1.1123896059300103e-05 0 0.014745980747718705 3.5942050288155526e-05 0 0.014996885448294842 -1.9995361252301428e-06 0 0.014994813873254987 -2.4910811155775566e-06 0 0.014994096585252383 -2.6637688470371043e-06 0 0.014996885448294842 -1.9995361252301428e-06 0 0.014995052545776403 -2.9735400083576214e-06 0 0.014994435959103566 -3.0273549657754583e-06 0 0.014996885448294842 -1.9995361252301428e-06 0 0.014995052545776403 -2.9735400083576214e-06 0 0.014994664984939227 -3.0220359853886818e-06 0 0.014996885448294842 -1.9995361252301428e-06 0 0.014994813873254987 -2.4910811155775566e-06 0 0.014994664984939227 -3.0220359853886818e-06 0 0.014995825714190338 -7.2482770011138921e-07 0 0.014996885448294842 -1.9995361252301428e-06 0 0.014994435959103566 -3.0273549657754583e-06 0 0.013508938160085485 -0.00026285747759155644 0 0.013639438870108335 -0.00023434364432214002 0 0.014994435959103566 -3.0273549657754583e-06 0 0.014990148423154178 -6.2503524427776478e-06 0 0.014984692916028814 -5.9476002835605832e-06 0 0.014990148423154178 -6.2503524427776478e-06 0 0.014994002665657234 -3.908588220600655e-06 0 0.014993271864811494 -5.1789871456121144e-06 0 0.014995052545776403 -2.9735400083576214e-06 0 0.014994435959103566 -3.0273549657754583e-06 0 0.014994002665657234 -3.908588220600655e-06 0 0.014994435959103566 -3.0273549657754583e-06 0 0.014990148423154178 -6.2503524427776478e-06 0 0.014994002665657234 -3.908588220600655e-06 0 0.014994716746204667 -2.5640537770853531e-06 0 0.014994664984939227 -3.0220359853886818e-06 0 0.014993271864811494 -5.1789871456121144e-06 0 0.01452034907541533 1.7570103658139529e-05 0 0.014548000456518715 1.8389335954391049e-05 0 0.014995052545776403 -2.9735400083576214e-06 0 0.014994664984939227 -3.0220359853886818e-06 0 0.014994002665657234 -3.908588220600655e-06 0 0.014994664984939227 -3.0220359853886818e-06 0 0.014994002665657234 -3.908588220600655e-06 0 0.014993271864811494 -5.1789871456121144e-06 0 0.01452034907541533 1.7570103658139529e-05 0 0.013639438870108335 -0.00023434364432214002 0 0.012078266986994905 -0.00031687207373461677 0 0.012016491547615776 -0.00022200878789759295 0 0.011899082387436255 -0.00027055653007783046 0 0.012078266986994905 -0.00031687207373461677 0 0.012016491547615776 -0.00022200878789759295 0 0.012171169556323266 -0.00023381510603480627 0 0.012193592975588224 -0.00034334483821084506 0 0.012171169556323266 -0.00023381510603480627 0 0.012258437002582882 -0.000265415371450636 0 0.012193592975588224 -0.00034334483821084506 0 0.012087384800140438 -0.00031802944720272142 0 0.012171169556323266 -0.00023381510603480627 0 0.013639438870108335 -0.00023434364432214002 0 0.013252511173058205 -0.00043630321257507947 0 0.012171169556323266 -0.00023381510603480627 0 0.012258437002582882 -0.000265415371450636 0 0.012200887980184177 -0.00016423835927169655 0 0.012258437002582882 -0.000265415371450636 0 0.012307150200148054 -0.00020119919240295782 0 0.012200887980184177 -0.00016423835927169655 0 0.012258437002582882 -0.000265415371450636 0 0.012365175736996043 -0.00027056278241147319 0 0.012304988605659001 -0.00036916646382631165 0 0.012258437002582882 -0.000265415371450636 0 0.012365175736996043 -0.00027056278241147319 0 0.012307150200148054 -0.00020119919240295782 0 0.011195027587960133 -0.0013586973470922064 0 0.011022718923498806 -0.0012539443220702746 0 0.011171089043993186 -0.0010128770830083829 0 0.012365175736996043 -0.00027056278241147319 0 0.012425917810333219 -0.0001715900518695413 0 0.012307150200148054 -0.00020119919240295782 0 0.01232984881421169 -0.00067639702152070993 0 0.011663835591520268 -0.00075384557057514611 0 0.011195027587960133 -0.0013586973470922064 0 0.011022718923498806 -0.0012539443220702746 0 0.010875853635661008 -0.0014930969731737004 0 0.013280074511415227 -0.00048859021924921862 0 0.013314100216253035 -0.00030035640042400417 0 0.011195027587960133 -0.0013586973470922064 0 0.011270557401403892 -0.0015909837440949111 0 0.010875853635661008 -0.0014930969731737004 0 0.01232984881421169 -0.00067639702152070993 0 0.013314100216253035 -0.00030035640042400417 0 0.013508938160085485 -0.00026285747759155644 0 0.013314100216253035 -0.00030035640042400417 0 0.012193592975588224 -0.00034334483821084506 0 0.012258437002582882 -0.000265415371450636 0 0.012304988605659001 -0.00036916646382631165 0 0.014959472157809017 2.1399206412049409e-05 0 0.014979346266117858 1.8177265153141047e-05 0 0.014997498688176238 1.1384031931992275e-06 0 0.014999349136238495 3.8894520661603715e-06 0 0.014990368228117343 3.2386471271653706e-06 0 0.014997498688176238 1.1384031931992275e-06 0 0.015000009839682624 1.4898081921389572e-06 0 0.014999349136238495 3.8894520661603715e-06 0 0.014997498688176238 1.1384031931992275e-06 0 0.014999993193157504 -1.7234866559066103e-09 0 0.015000009839682624 1.4898081921389572e-06 0 0.014999916982533201 6.8459906692878928e-08 0 0.014943658481076601 2.6688832573276278e-05 0 0.014999995736592794 6.4299866261842635e-10 0 0.014999866321083386 -1.2554608354309195e-06 0 0.014996613504948419 -9.7203019707709093e-07 0 0.015000002962776754 -5.0468960554368673e-10 0 0.014999995736592794 6.4299866261842635e-10 0 0.014999866321083386 -1.2554608354309195e-06 0 0.015000633350786274 3.2031873849727662e-06 0 0.015001541993031303 3.7404373072387203e-06 0 0.014999349136238495 3.8894520661603715e-06 0 0.015000009839682624 1.4898081921389572e-06 0 0.015000633350786274 3.2031873849727662e-06 0 0.015001683838229899 3.7801389348473269e-06 0 0.015000009839682624 1.4898081921389572e-06 0 0.015000633350786274 3.2031873849727662e-06 0 0.014999349136238495 3.8894520661603715e-06 0 0.014943658481076601 2.6688832573276278e-05 0 0.014807312103138756 2.8009187125978415e-05 0 0.014996613504948419 -9.7203019707709093e-07 0 0.014992957316804579 -3.5380656836422024e-06 0 0.014995978574538051 -4.6520509580751463e-06 0 0.014999866321083386 -1.2554608354309195e-06 0 0.014996613504948419 -9.7203019707709093e-07 0 0.014995978574538051 -4.6520509580751463e-06 0 0.015000000427656172 -6.7964923328248398e-11 0 0.015000093236032443 -4.4057563625735248e-07 0 0.014999999864213359 -3.621923909948596e-10 0 0.014999826393636747 1.1729387994516606e-07 0 0.014907876874312572 3.1347073421005647e-05 0 0.015000093236032443 -4.4057563625735248e-07 0 0.014999999864213359 -3.621923909948596e-10 0 0.014999205413306797 -7.4556069658160326e-07 0 0.014998690199240243 -4.9942584689927898e-07 0 0.014999999864213359 -3.621923909948596e-10 0 0.014999205413306797 -7.4556069658160326e-07 0 0.015000093236032443 -4.4057563625735248e-07 0 0.014999205413306797 -7.4556069658160326e-07 0 0.014999156572411174 -2.1370206859160877e-06 0 0.014996885448294842 -1.9995361252301428e-06 0 0.014999205413306797 -7.4556069658160326e-07 0 0.014999156572411174 -2.1370206859160877e-06 0 0.014907876874312572 3.1347073421005647e-05 0 0.014745980747718705 3.5942050288155526e-05 0 0.014745980747718705 3.5942050288155526e-05 0 0.014807312103138756 2.8009187125978415e-05 0 0.01452034907541533 1.7570103658139529e-05 0 0.014745980747718705 3.5942050288155526e-05 0 0.014426641414188668 0.00017178636660557627 0 0.014540342468594369 0.00012496477484971136 0 0.014606220089335801 0.00018209612044128704 0 0.014426641414188668 0.00017178636660557627 0 0.014316344456547369 6.8657303046757952e-05 0 0.014539772200381029 2.3288022814480815e-05 0 0.014426641414188668 0.00017178636660557627 0 0.014540342468594369 0.00012496477484971136 0 0.014539772200381029 2.3288022814480815e-05 0 0.014716091645979621 5.9877469163567625e-05 0 0.014717611872925919 6.1208156948519665e-05 0 0.014720312505942567 6.0350093668189033e-05 0 0.01452034907541533 1.7570103658139529e-05 0 0.014807312103138756 2.8009187125978415e-05 0 0.013639438870108335 -0.00023434364432214002 0 0.013298311097275022 -0.0001418922506865222 0 0.014539772200381029 2.3288022814480815e-05 0 0.014638915038743589 7.5904692446631769e-05 0 0.014752448719259379 -9.7278726025628034e-06 0 0.013298311097275022 -0.0001418922506865222 0 0.013246561943146518 -0.00011426654958777537 0 0.011899082387436255 -0.00027055653007783046 0 0.011733651121600901 -0.00022880328593307526 0 0.011798563936990499 -0.00010663576905192753 0 0.014686732746673521 0.00011211618626464255 0 0.014638915038743589 7.5904692446631769e-05 0 0.01461780835534539 0.00013756816824442961 0 0.014686732746673521 0.00011211618626464255 0 0.014638915038743589 7.5904692446631769e-05 0 0.014726668319919653 7.1505354011019135e-05 0 0.014540342468594369 0.00012496477484971136 0 0.014638915038743589 7.5904692446631769e-05 0 0.01461780835534539 0.00013756816824442961 0 0.014540342468594369 0.00012496477484971136 0 0.014539772200381029 2.3288022814480815e-05 0 0.014638915038743589 7.5904692446631769e-05 0 0.014540342468594369 0.00012496477484971136 0 0.01461780835534539 0.00013756816824442961 0 0.014605219518815177 0.00017983179646759804 0 0.014788328581915363 2.4812986210503154e-05 0 0.014807312103138756 2.8009187125978415e-05 0 0.01461780835534539 0.00013756816824442961 0 0.014605219518815177 0.00017983179646759804 0 0.014618411242325043 0.00018035463086320085 0 0.014807312103138756 2.8009187125978415e-05 0 0.014822234774084623 2.893019047795505e-05 0 0.015000633350786274 3.2031873849727662e-06 0 0.015001683838229899 3.7801389348473269e-06 0 0.015001541993031303 3.7404373072387203e-06 0 0.014686732746673521 0.00011211618626464255 0 0.01461780835534539 0.00013756816824442961 0 0.014618411242325043 0.00018035463086320085 0 0.014822234774084623 2.893019047795505e-05 0 0.014890634407702909 3.0086444157900674e-05 0 0.015000915989969024 6.0548070933777702e-06 0 0.014997111465942436 8.6586325735551546e-06 0 0.014997220402167758 5.8175892538156858e-06 0 0.014686732746673521 0.00011211618626464255 0 0.014618411242325043 0.00018035463086320085 0 0.014828949999739785 9.3331213789563477e-05 0 0.014686732746673521 0.00011211618626464255 0 0.014726668319919653 7.1505354011019135e-05 0 0.014828949999739785 9.3331213789563477e-05 0 0.014822234774084623 2.893019047795505e-05 0 0.014959472157809017 2.1399206412049409e-05 0 0.014638915038743589 7.5904692446631769e-05 0 0.014726668319919653 7.1505354011019135e-05 0 0.014752448719259379 -9.7278726025628034e-06 0 0.014726668319919653 7.1505354011019135e-05 0 0.014752448719259379 -9.7278726025628034e-06 0 0.014828949999739785 9.3331213789563477e-05 0 0.013246561943146518 -0.00011426654958777537 0 0.013224794408748748 -8.9939080534743866e-05 0 0.014752448719259379 -9.7278726025628034e-06 0 0.014828949999739785 9.3331213789563477e-05 0 0.014931971566291044 -2.7676003455565766e-05 0 0.014997111465942436 8.6586325735551546e-06 0 0.014997220402167758 5.8175892538156858e-06 0 0.014990368228117343 3.2386471271653706e-06 0 0.011664226328976617 -8.0486686196527539e-05 0 0.011638307195536577 1.829074367412066e-05 0 0.011553342284879026 -3.2012664429618134e-05 0 0.011664226328976617 -8.0486686196527539e-05 0 0.011722555124677273 -8.7369813258378548e-06 0 0.011638307195536577 1.829074367412066e-05 0 0.011664226328976617 -8.0486686196527539e-05 0 0.011570102381760837 -0.0001896106371273995 0 0.011553342284879026 -3.2012664429618134e-05 0 0.011733651121600901 -0.00022880328593307526 0 0.011664226328976617 -8.0486686196527539e-05 0 0.011570102381760837 -0.0001896106371273995 0 0.011733651121600901 -0.00022880328593307526 0 0.011664226328976617 -8.0486686196527539e-05 0 0.011798563936990499 -0.00010663576905192753 0 0.011664226328976617 -8.0486686196527539e-05 0 0.011722555124677273 -8.7369813258378548e-06 0 0.011798563936990499 -0.00010663576905192753 0 0.011722555124677273 -8.7369813258378548e-06 0 0.011798563936990499 -0.00010663576905192753 0 0.011821007604889203 6.9751205518931175e-06 0 0.011798563936990499 -0.00010663576905192753 0 0.011949841010381344 -8.8265346744557583e-05 0 0.011821007604889203 6.9751205518931175e-06 0 0.011899082387436255 -0.00027055653007783046 0 0.011798563936990499 -0.00010663576905192753 0 0.011949841010381344 -8.8265346744557583e-05 0 0.012016491547615776 -0.00022200878789759295 0 0.011899082387436255 -0.00027055653007783046 0 0.011949841010381344 -8.8265346744557583e-05 0 0.011659592636411626 -0.00017422328365173338 0 0.011470536145786527 -0.00011742936429790963 0 0.011949841010381344 -8.8265346744557583e-05 0 0.011903471180751099 5.1312614647355181e-05 0 0.011995902124369058 4.5872657211337364e-05 0 0.011949841010381344 -8.8265346744557583e-05 0 0.011903471180751099 5.1312614647355181e-05 0 0.011779723398988435 2.4916097144270218e-05 0 0.011903471180751099 5.1312614647355181e-05 0 0.011940933560507428 0.00012398833429591282 0 0.011995902124369058 4.5872657211337364e-05 0 0.011903471180751099 5.1312614647355181e-05 0 0.011940933560507428 0.00012398833429591282 0 0.011826880689052284 0.00011822347375609585 0 0.010959055123466123 0.00015036716178988915 0 0.011024703608859078 0.00010942495535096965 0 0.010476160671181876 0.00012809187895788495 0 0.0106667940143705 0.00016221112654992063 0 0.010515397430402076 0.00029607371496980558 0 0.010476160671181876 0.00012809187895788495 0 0.010388430256721778 0.00023743513259812571 0 0.010515397430402076 0.00029607371496980558 0 0.011940933560507428 0.00012398833429591282 0 0.011871584008498191 0.00019284816290616327 0 0.012012965528786564 0.00021436378308513923 0 0.011940933560507428 0.00012398833429591282 0 0.011871584008498191 0.00019284816290616327 0 0.011826880689052284 0.00011822347375609585 0 0.010959055123466123 0.00015036716178988915 0 0.010609283181469491 0.00014786012993513365 0 0.01028648558198398 9.3878666546674068e-05 0 0.010261275248818777 0.00029646324646343789 0 0.010388430256721778 0.00023743513259812571 0 0.011871584008498191 0.00019284816290616327 0 0.011826880689052284 0.00011822347375609585 0 0.011721903624790949 0.00017010095382794427 0 0.010476160671181876 0.00012809187895788495 0 0.01028648558198398 9.3878666546674068e-05 0 0.010388430256721778 0.00023743513259812571 0 0.011725591186068966 0.00013902445806776201 0 0.011826880689052284 0.00011822347375609585 0 0.011721903624790949 0.00017010095382794427 0 0.011725591186068966 0.00013902445806776201 0 0.011826880689052284 0.00011822347375609585 0 0.011779723398988435 2.4916097144270218e-05 0 0.011903471180751099 5.1312614647355181e-05 0 0.011826880689052284 0.00011822347375609585 0 0.011779723398988435 2.4916097144270218e-05 0 0.011722555124677273 -8.7369813258378548e-06 0 0.011691279866128093 0.00010373865499752325 0 0.011638307195536577 1.829074367412066e-05 0 0.011725591186068966 0.00013902445806776201 0 0.011779723398988435 2.4916097144270218e-05 0 0.011606492165510988 0.00015013468586208334 0 0.011722555124677273 -8.7369813258378548e-06 0 0.011821007604889203 6.9751205518931175e-06 0 0.011691279866128093 0.00010373865499752325 0 0.011470536145786527 -0.00011742936429790963 0 0.010719980105996086 0.00014522703131176958 0 0.010609283181469491 0.00014786012993513365 0 0.010719980105996086 0.00014522703131176958 0 0.010609283181469491 0.00014786012993513365 0 0.010121099948667136 0.00036701527948551871 0 0.011725591186068966 0.00013902445806776201 0 0.01172134801606001 0.0001715340840056352 0 0.011606492165510988 0.00015013468586208334 0 0.0098843122182850161 0.00030620813564938098 0 0.009860227859281926 0.00034388269018799427 0 0.0098732793617897843 0.00040139923166860052 0 0.0098843122182850161 0.00030620813564938098 0 0.009860227859281926 0.00034388269018799427 0 0.0098291111927213959 0.00030220617440519077 0 0.010616202421617054 0.00014557934222351546 0 0.010609283181469491 0.00014786012993513365 0 0.009847869336826208 0.00039023643155174965 0 0.0099135447861531095 0.00039691770957203497 0 0.010240095205257675 0.00016146911078752894 0 0.01000988834066463 0.00012051012050782195 0 0.010014345109409791 0.00033046706966950864 0 0.009860227859281926 0.00034388269018799427 0 0.0098291111927213959 0.00030220617440519077 0 0.0097555947629197476 0.00036045283827438712 0 0.010719980105996086 0.00014522703131176958 0 0.0099135447861531095 0.00039691770957203497 0 0.011638307195536577 1.829074367412066e-05 0 0.011553342284879026 -3.2012664429618134e-05 0 0.011561406892602434 8.0156938435793724e-05 0 0.010719980105996086 0.00014522703131176958 0 0.010735276728402819 0.00012830209035814328 0 0.011691279866128093 0.00010373865499752325 0 0.011638307195536577 1.829074367412066e-05 0 0.011561406892602434 8.0156938435793724e-05 0 0.012314612253764344 -4.4168465967820286e-05 0 0.012227734819959519 -4.6911101009767471e-05 0 0.012280936436912575 -0.00012140733721957221 0 0.012227734819959519 -4.6911101009767471e-05 0 0.012280936436912575 -0.00012140733721957221 0 0.012196271559111018 -8.7970854019703737e-05 0 0.012314612253764344 -4.4168465967820286e-05 0 0.012227734819959519 -4.6911101009767471e-05 0 0.012203533046273623 3.6575709591825255e-05 0 0.011390059804444498 -0.00053472553825158989 0 0.010799216562915335 -0.00065132031445250499 0 0.01110593284128439 -0.00099300827248943973 0 0.012314612253764344 -4.4168465967820286e-05 0 0.012425917810333219 -0.0001715900518695413 0 0.012280936436912575 -0.00012140733721957221 0 0.012425917810333219 -0.0001715900518695413 0 0.012307150200148054 -0.00020119919240295782 0 0.012280936436912575 -0.00012140733721957221 0 0.011449346144787717 -0.00044872344539929264 0 0.011663835591520268 -0.00075384557057514611 0 0.012280936436912575 -0.00012140733721957221 0 0.012200887980184177 -0.00016423835927169655 0 0.012196271559111018 -8.7970854019703737e-05 0 0.012307150200148054 -0.00020119919240295782 0 0.012280936436912575 -0.00012140733721957221 0 0.012200887980184177 -0.00016423835927169655 0 0.012200887980184177 -0.00016423835927169655 0 0.012073401047145311 -0.00014640825858579337 0 0.012132300633128396 -9.0108761193306654e-05 0 0.012171169556323266 -0.00023381510603480627 0 0.012200887980184177 -0.00016423835927169655 0 0.012073401047145311 -0.00014640825858579337 0 0.012200887980184177 -0.00016423835927169655 0 0.012196271559111018 -8.7970854019703737e-05 0 0.012132300633128396 -9.0108761193306654e-05 0 0.012016491547615776 -0.00022200878789759295 0 0.012171169556323266 -0.00023381510603480627 0 0.012073401047145311 -0.00014640825858579337 0 0.012016491547615776 -0.00022200878789759295 0 0.011949841010381344 -8.8265346744557583e-05 0 0.012073401047145311 -0.00014640825858579337 0 0.011949841010381344 -8.8265346744557583e-05 0 0.012073401047145311 -0.00014640825858579337 0 0.012068006816889664 -2.3566451922873219e-05 0 0.011949841010381344 -8.8265346744557583e-05 0 0.012068006816889664 -2.3566451922873219e-05 0 0.011995902124369058 4.5872657211337364e-05 0 0.012073401047145311 -0.00014640825858579337 0 0.012068006816889664 -2.3566451922873219e-05 0 0.012132300633128396 -9.0108761193306654e-05 0 0.012227734819959519 -4.6911101009767471e-05 0 0.012196271559111018 -8.7970854019703737e-05 0 0.012156020856183605 -2.7236257342280943e-05 0 0.012196271559111018 -8.7970854019703737e-05 0 0.012132300633128396 -9.0108761193306654e-05 0 0.012156020856183605 -2.7236257342280943e-05 0 0.012068006816889664 -2.3566451922873219e-05 0 0.012132300633128396 -9.0108761193306654e-05 0 0.012156020856183605 -2.7236257342280943e-05 0 0.012068006816889664 -2.3566451922873219e-05 0 0.012156020856183605 -2.7236257342280943e-05 0 0.012120984709813003 3.541382002868546e-05 0 0.012156020856183605 -2.7236257342280943e-05 0 0.012120984709813003 3.541382002868546e-05 0 0.012203533046273623 3.6575709591825255e-05 0 0.012227734819959519 -4.6911101009767471e-05 0 0.012156020856183605 -2.7236257342280943e-05 0 0.012203533046273623 3.6575709591825255e-05 0 0.011525774809410676 -6.8175023610852426e-05 0 0.01167501710876134 -0.00011858690744508422 0 0.012120984709813003 3.541382002868546e-05 0 0.012112148424730839 0.00012183737456495749 0 0.012064868344714628 6.2497046860699276e-05 0 0.012120984709813003 3.541382002868546e-05 0 0.012112148424730839 0.00012183737456495749 0 0.012203533046273623 3.6575709591825255e-05 0 0.012072176904193965 0.000139156870300943 0 0.012188690186213694 9.8358985959178216e-05 0 0.012203533046273623 3.6575709591825255e-05 0 0.011995902124369058 4.5872657211337364e-05 0 0.012064868344714628 6.2497046860699276e-05 0 0.012029209733762964 0.00012129340528040648 0 0.012068006816889664 -2.3566451922873219e-05 0 0.011995902124369058 4.5872657211337364e-05 0 0.012064868344714628 6.2497046860699276e-05 0 0.012068006816889664 -2.3566451922873219e-05 0 0.012120984709813003 3.541382002868546e-05 0 0.012064868344714628 6.2497046860699276e-05 0 0.012112148424730839 0.00012183737456495749 0 0.012064868344714628 6.2497046860699276e-05 0 0.012029209733762964 0.00012129340528040648 0 0.011940933560507428 0.00012398833429591282 0 0.011995902124369058 4.5872657211337364e-05 0 0.012029209733762964 0.00012129340528040648 0 0.011940933560507428 0.00012398833429591282 0 0.012029209733762964 0.00012129340528040648 0 0.012012965528786564 0.00021436378308513923 0 0.011525774809410676 -6.8175023610852426e-05 0 0.011024703608859078 0.00010942495535096965 0 0.012112148424730839 0.00012183737456495749 0 0.012029209733762964 0.00012129340528040648 0 0.012012965528786564 0.00021436378308513923 0 0.012072176904193965 0.000139156870300943 0 0.012028064844449671 0.00027219881052464461 0 0.011936015364782112 0.00025579123428994997 0 0.010803104851959035 5.1339271080887037e-05 0 0.011024703608859078 0.00010942495535096965 0 0.010841875079283922 3.5021449793506574e-05 0 0.010659227425156228 1.8744349954564182e-06 0 0.010726947201586352 0.00016382607961763955 0 0.010650199444675618 7.0925069951120867e-05 0 0.010536906587959334 0.00017266007259021551 0 0.010736406535334296 1.178415030207995e-05 0 0.010804075662804169 2.3949640619706006e-05 0 0.010649958162198093 0.00010891609384245484 0 0.010803104851959035 5.1339271080887037e-05 0 0.010536906587959334 0.00017266007259021551 0 0.010501790082629426 -0.00031207373597138394 0 0.010211424668618086 1.8479550080173822e-05 0 0.01041109309685939 -3.2228583646765551e-05 0 0.010292551882198757 3.2258661896392285e-05 0 0.01041109309685939 -3.2228583646765551e-05 0 0.010762752396674584 0.00012062097306622743 0 0.011188209690922029 -0.00020129178052606759 0 0.010803104851959035 5.1339271080887037e-05 0 0.012072176904193965 0.000139156870300943 0 0.012188690186213694 9.8358985959178216e-05 0 0.012028064844449671 0.00027219881052464461 0 0.010501790082629426 -0.00031207373597138394 0 0.01041109309685939 -3.2228583646765551e-05 0 0.010651412942214021 -0.00010665773171216382 0 0.010211424668618086 1.8479550080173822e-05 0 0.010293216908064697 3.3080683895367558e-05 0 0.01041109309685939 -3.2228583646765551e-05 0 0.010650199444675618 7.0925069951120867e-05 0 0.010633271949968366 7.5181857123666107e-05 0 0.010803104851959035 5.1339271080887037e-05 0 0.010650199444675618 7.0925069951120867e-05 0 0.010651412942214021 -0.00010665773171216382 0 0.010898153997311097 -0.00025576459475059243 0 0.010762752396674584 0.00012062097306622743 0 0.01041109309685939 -3.2228583646765551e-05 0 0.010651412942214021 -0.00010665773171216382 0 0.010762752396674584 0.00012062097306622743 0 0.010650199444675618 7.0925069951120867e-05 0 0.010745701222957612 0.00010127585175423596 0 0.010501790082629426 -0.00031207373597138394 0 0.010651412942214021 -0.00010665773171216382 0 0.010898153997311097 -0.00025576459475059243 0 0.010799216562915335 -0.00065132031445250499 0 0.010501790082629426 -0.00031207373597138394 0 0.010898153997311097 -0.00025576459475059243 0 0.012314612253764344 -4.4168465967820286e-05 0 0.012188690186213694 9.8358985959178216e-05 0 0.012203533046273623 3.6575709591825255e-05 0 0.011449346144787717 -0.00044872344539929264 0 0.011188209690922029 -0.00020129178052606759 0 0.011390059804444498 -0.00053472553825158989 0 0.010799216562915335 -0.00065132031445250499 0 0.010898153997311097 -0.00025576459475059243 0 0.011219117176321064 -0.00013418780061435351 0 0.010762752396674584 0.00012062097306622743 0 0.011222892582835094 0.00021028963896580895 0 0.011219117176321064 -0.00013418780061435351 0 0.010898153997311097 -0.00025576459475059243 0 0.010762752396674584 0.00012062097306622743 0 0.010828947932581729 0.00042786831307264179 0 0.010665760494179864 9.6532076936623539e-05 0 0.011222892582835094 0.00021028963896580895 0 0.010745701222957612 0.00010127585175423596 0 0.010939647058531059 0.00014105225935584579 0 0.010828947932581729 0.00042786831307264179 0 0.010881140862034603 0.00071067243827725517 0 0.011221690556763777 0.00056869855337469944 0 0.010828947932581729 0.00042786831307264179 0 0.010881140862034603 0.00071067243827725517 0 0.010517289617461126 0.00062152615731204779 0 0.010828947932581729 0.00042786831307264179 0 0.010517289617461126 0.00062152615731204779 0 0.010463471110809816 0.00034794546678034095 0 0.010517289617461126 0.00062152615731204779 0 0.010277399240297531 0.00065127031972463491 0 0.010563483294202708 0.00087527001973715867 0 0.010517289617461126 0.00062152615731204779 0 0.010463471110809816 0.00034794546678034095 0 0.010310822314479726 0.00047819599786091678 0 0.010828947932581729 0.00042786831307264179 0 0.010463471110809816 0.00034794546678034095 0 0.010665760494179864 9.6532076936623539e-05 0 0.010126837828515889 -1.0392477448215825e-06 0 0.010463471110809816 0.00034794546678034095 0 0.010665760494179864 9.6532076936623539e-05 0 0.010126837828515889 -1.0392477448215825e-06 0 0.010463471110809816 0.00034794546678034095 0 0.010166319201152673 0.00032562743489033868 0 0.010126837828515889 -1.0392477448215825e-06 0 0.010166319201152673 0.00032562743489033868 0 0.010026154377012923 0.00018342516674246665 0 0.010463471110809816 0.00034794546678034095 0 0.010166319201152673 0.00032562743489033868 0 0.010310822314479726 0.00047819599786091678 0 0.010659227425156228 1.8744349954564182e-06 0 0.010726947201586352 0.00016382607961763955 0 0.010367003512590709 0.0002617076636856394 0 0.010536906587959334 0.00017266007259021551 0 0.010157579903004386 0.00036116458090482823 0 0.010536906587959334 0.00017266007259021551 0 0.010416398285993066 0.00025352004966596202 0 0.010126837828515889 -1.0392477448215825e-06 0 0.010026154377012923 0.00018342516674246665 0 0.0099143784114606726 0.00011608431637568963 0 0.010026154377012923 0.00018342516674246665 0 0.0099143784114606726 0.00011608431637568963 0 0.0099101367657909133 0.00029801427131281053 0 0.010166319201152673 0.00032562743489033868 0 0.010026154377012923 0.00018342516674246665 0 0.0099101367657909133 0.00029801427131281053 0 0.010166319201152673 0.00032562743489033868 0 0.0099101367657909133 0.00029801427131281053 0 0.0099455321715433455 0.00046371791345285881 0 0.0099101367657909133 0.00029801427131281053 0 0.0098104092141192683 0.00042524409870786309 0 0.0099455321715433455 0.00046371791345285881 0 0.0099101367657909133 0.00029801427131281053 0 0.0098104092141192683 0.00042524409870786309 0 0.0097246997309251449 0.00032861734821579454 0 0.0099143784114606726 0.00011608431637568963 0 0.0099101367657909133 0.00029801427131281053 0 0.0097246997309251449 0.00032861734821579454 0 0.0098104092141192683 0.00042524409870786309 0 0.0099455321715433455 0.00046371791345285881 0 0.0097717677223959163 0.00057725406686270702 0 0.0098104092141192683 0.00042524409870786309 0 0.0097717677223959163 0.00057725406686270702 0 0.0096438684985332354 0.00045668249554344799 0 0.0099455321715433455 0.00046371791345285881 0 0.010012831770168219 0.00063087170939502316 0 0.010139645990244866 0.00050137863556188884 0 0.0099455321715433455 0.00046371791345285881 0 0.010012831770168219 0.00063087170939502316 0 0.0097717677223959163 0.00057725406686270702 0 0.0097717677223959163 0.00057725406686270702 0 0.0098706283002716264 0.00075119127938219903 0 0.0096746169520388111 0.00079881070292283751 0 0.010012831770168219 0.00063087170939502316 0 0.0097717677223959163 0.00057725406686270702 0 0.0098706283002716264 0.00075119127938219903 0 0.010310822314479726 0.00047819599786091678 0 0.010139645990244866 0.00050137863556188884 0 0.010277399240297531 0.00065127031972463491 0 0.010166319201152673 0.00032562743489033868 0 0.0099455321715433455 0.00046371791345285881 0 0.010139645990244866 0.00050137863556188884 0 0.010166319201152673 0.00032562743489033868 0 0.010310822314479726 0.00047819599786091678 0 0.010139645990244866 0.00050137863556188884 0 0.010012831770168219 0.00063087170939502316 0 0.010277399240297531 0.00065127031972463491 0 0.01007340623986379 0.0008403890245321017 0 0.010012831770168219 0.00063087170939502316 0 0.010139645990244866 0.00050137863556188884 0 0.010277399240297531 0.00065127031972463491 0 0.010517289617461126 0.00062152615731204779 0 0.010310822314479726 0.00047819599786091678 0 0.010277399240297531 0.00065127031972463491 0 0.010277399240297531 0.00065127031972463491 0 0.01007340623986379 0.0008403890245321017 0 0.010290275562939566 0.00098846027492483597 0 0.010277399240297531 0.00065127031972463491 0 0.010290275562939566 0.00098846027492483597 0 0.010563483294202708 0.00087527001973715867 0 0.01007340623986379 0.0008403890245321017 0 0.010290275562939566 0.00098846027492483597 0 0.010058479909919538 0.0010768795038246239 0 0.0098706283002716264 0.00075119127938219903 0 0.0098268697133025995 0.00096689955016659968 0 0.0096746169520388111 0.00079881070292283751 0 0.010012831770168219 0.00063087170939502316 0 0.01007340623986379 0.0008403890245321017 0 0.0098706283002716264 0.00075119127938219903 0 0.01007340623986379 0.0008403890245321017 0 0.0098706283002716264 0.00075119127938219903 0 0.0098268697133025995 0.00096689955016659968 0 0.01007340623986379 0.0008403890245321017 0 0.0098268697133025995 0.00096689955016659968 0 0.010058479909919538 0.0010768795038246239 0 0.010058479909919538 0.0010768795038246239 0 0.0097712733454663435 0.0012868250804257703 0 0.010232095702864546 0.0012802019963911043 0 0.0098268697133025995 0.00096689955016659968 0 0.010058479909919538 0.0010768795038246239 0 0.0097712733454663435 0.0012868250804257703 0 0.010290275562939566 0.00098846027492483597 0 0.010232095702864546 0.0012802019963911043 0 0.010536680702973802 0.0012045563359808754 0 0.010290275562939566 0.00098846027492483597 0 0.010058479909919538 0.0010768795038246239 0 0.010232095702864546 0.0012802019963911043 0 0.010536680702973802 0.0012045563359808754 0 0.010473412322065534 0.001477903181483828 0 0.011060887244380308 0.001378852107472158 0 0.010232095702864546 0.0012802019963911043 0 0.010536680702973802 0.0012045563359808754 0 0.01047351553912824 0.0014739866205944771 0 0.0078009962448171858 0.00031691638836120706 0 0.0076205994276131459 0.00015319688402283917 0 0.010850496393685603 0.0010262012713753298 0 0.011060887244380308 0.001378852107472158 0 0.011208624923049014 0.00096278534496750418 0 0.010536680702973802 0.0012045563359808754 0 0.010850496393685603 0.0010262012713753298 0 0.011060887244380308 0.001378852107472158 0 0.010881140862034603 0.00071067243827725517 0 0.010850496393685603 0.0010262012713753298 0 0.011208624923049014 0.00096278534496750418 0 0.010881140862034603 0.00071067243827725517 0 0.010850496393685603 0.0010262012713753298 0 0.010563483294202708 0.00087527001973715867 0 0.010536680702973802 0.0012045563359808754 0 0.010850496393685603 0.0010262012713753298 0 0.010563483294202708 0.00087527001973715867 0 0.010290275562939566 0.00098846027492483597 0 0.010536680702973802 0.0012045563359808754 0 0.010563483294202708 0.00087527001973715867 0 0.010881140862034603 0.00071067243827725517 0 0.010517289617461126 0.00062152615731204779 0 0.010563483294202708 0.00087527001973715867 0 0.0097769193640743317 0.00047847688784086157 0 0.0098595259590897634 0.00050993743501620233 0 0.0097580518721799552 0.00056442118843522972 0 0.0097769193640743317 0.00047847688784086157 0 0.0097580518721799552 0.00056442118843522972 0 0.0096889415611599826 0.0004760420291508609 0 0.009860227859281926 0.00034388269018799427 0 0.0097860205824355662 0.00039170441737073529 0 0.0097003260968082025 0.00036573991220619281 0 0.0097860205824355662 0.00039170441737073529 0 0.0096889415611599826 0.0004760420291508609 0 0.0097003260968082025 0.00036573991220619281 0 0.0097769193640743317 0.00047847688784086157 0 0.0097860205824355662 0.00039170441737073529 0 0.0096889415611599826 0.0004760420291508609 0 0.0097769193640743317 0.00047847688784086157 0 0.0097860205824355662 0.00039170441737073529 0 0.0098235764844860074 0.00043816940609702463 0 0.0098235764844860074 0.00043816940609702463 0 0.0098359189139033947 0.00039344343828905191 0 0.0098732793617897843 0.00040139923166860052 0 0.0097860205824355662 0.00039170441737073529 0 0.0098235764844860074 0.00043816940609702463 0 0.0098359189139033947 0.00039344343828905191 0 0.009860227859281926 0.00034388269018799427 0 0.0097860205824355662 0.00039170441737073529 0 0.0098359189139033947 0.00039344343828905191 0 0.009860227859281926 0.00034388269018799427 0 0.0098359189139033947 0.00039344343828905191 0 0.0098732793617897843 0.00040139923166860052 0 0.010261275248818777 0.00029646324646343789 0 0.010235634837761244 0.00049976756767277654 0 0.010364137134113304 0.00042971069099068511 0 0.0098235764844860074 0.00043816940609702463 0 0.0098732793617897843 0.00040139923166860052 0 0.0098595259590897634 0.00050993743501620233 0 0.010121099948667136 0.00036701527948551871 0 0.0096491721980744172 0.0006040233892084287 0 0.0097769193640743317 0.00047847688784086157 0 0.0098235764844860074 0.00043816940609702463 0 0.0098595259590897634 0.00050993743501620233 0 0.0089881169051684341 0.00062216421413908345 0 0.0090770157169252318 0.00063043322672788789 0 0.0091346491702477325 0.00079962095842258329 0 0.0090770157169252318 0.00063043322672788789 0 0.0093009650118915481 0.00067639057497582847 0 0.0091346491702477325 0.00079962095842258329 0 0.0090770157169252318 0.00063043322672788789 0 0.0093009650118915481 0.00067639057497582847 0 0.0092421896034030147 0.00048364927415976775 0 0.0089881169051684341 0.00062216421413908345 0 0.0090770157169252318 0.00063043322672788789 0 0.0092464976101851414 0.00048103469074794504 0 0.0093009650118915481 0.00067639057497582847 0 0.0092421896034030147 0.00048364927415976775 0 0.009460559879506808 0.00050961529198460928 0 0.0098481830186063508 0.00055313303596054881 0 0.0099438063705132203 0.00049674969664046905 0 0.0096491721980744172 0.0006040233892084287 0 0.0099438063705132203 0.00049674969664046905 0 0.010261275248818777 0.00029646324646343789 0 0.010364137134113304 0.00042971069099068511 0 0.010388430256721778 0.00023743513259812571 0 0.010364137134113304 0.00042971069099068511 0 0.010388430256721778 0.00023743513259812571 0 0.010515397430402076 0.00029607371496980558 0 0.0099438063705132203 0.00049674969664046905 0 0.010157579903004386 0.00036116458090482823 0 0.0099438063705132203 0.00049674969664046905 0 0.010474909162195711 0.00030286553305603901 0 0.0099189910728321104 0.00011348645640907312 0 0.0095770439367749548 0.00029986623776266479 0 0.0097246997309251449 0.00032861734821579454 0 0.010726947201586352 0.00016382607961763955 0 0.010400953083266046 0.00034286436521270124 0 0.010367003512590709 0.0002617076636856394 0 0.010073973250293314 0.00052228510677002852 0 0.010400953083266046 0.00034286436521270124 0 0.010367003512590709 0.0002617076636856394 0 0.011024703608859078 0.00010942495535096965 0 0.010474909162195711 0.00030286553305603901 0 0.0095770439367749548 0.00029986623776266479 0 0.0097246997309251449 0.00032861734821579454 0 0.0096438684985332354 0.00045668249554344799 0 0.0098104092141192683 0.00042524409870786309 0 0.0097246997309251449 0.00032861734821579454 0 0.0096438684985332354 0.00045668249554344799 0 0.0097717677223959163 0.00057725406686270702 0 0.0096438684985332354 0.00045668249554344799 0 0.0095395825022016358 0.00063085340831820684 0 0.0092421896034030147 0.00048364927415976775 0 0.0095770439367749548 0.00029986623776266479 0 0.009460559879506808 0.00050961529198460928 0 0.0096438684985332354 0.00045668249554344799 0 0.009460559879506808 0.00050961529198460928 0 0.0095395825022016358 0.00063085340831820684 0 0.0095770439367749548 0.00029986623776266479 0 0.0096438684985332354 0.00045668249554344799 0 0.009460559879506808 0.00050961529198460928 0 0.0093009650118915481 0.00067639057497582847 0 0.009460559879506808 0.00050961529198460928 0 0.0095395825022016358 0.00063085340831820684 0 0.0093009650118915481 0.00067639057497582847 0 0.0095395825022016358 0.00063085340831820684 0 0.0094844112779074452 0.00081050307527950666 0 0.0097717677223959163 0.00057725406686270702 0 0.0095395825022016358 0.00063085340831820684 0 0.0096746169520388111 0.00079881070292283751 0 0.0096746169520388111 0.00079881070292283751 0 0.0094844112779074452 0.00081050307527950666 0 0.0095550885134962262 0.00098900242506225113 0 0.0095395825022016358 0.00063085340831820684 0 0.0096746169520388111 0.00079881070292283751 0 0.0094844112779074452 0.00081050307527950666 0 0.0094844112779074452 0.00081050307527950666 0 0.0095550885134962262 0.00098900242506225113 0 0.0093103558599053754 0.00091540216794476601 0 0.0098268697133025995 0.00096689955016659968 0 0.0096746169520388111 0.00079881070292283751 0 0.0095550885134962262 0.00098900242506225113 0 0.0097712733454663435 0.0012868250804257703 0 0.0095550885134962262 0.00098900242506225113 0 0.0092780334233333213 0.0012004093625749884 0 0.0098268697133025995 0.00096689955016659968 0 0.0097712733454663435 0.0012868250804257703 0 0.0095550885134962262 0.00098900242506225113 0 0.0092780334233333213 0.0012004093625749884 0 0.008926295932866788 0.0011129704023565745 0 0.009073998244700161 0.0014577089401410185 0 0.0092780334233333213 0.0012004093625749884 0 0.0091596249495162988 0.001015386849337689 0 0.008926295932866788 0.0011129704023565745 0 0.0092780334233333213 0.0012004093625749884 0 0.0091596249495162988 0.001015386849337689 0 0.0093103558599053754 0.00091540216794476601 0 0.0091596249495162988 0.001015386849337689 0 0.0093103558599053754 0.00091540216794476601 0 0.0091346491702477325 0.00079962095842258329 0 0.0095550885134962262 0.00098900242506225113 0 0.0092780334233333213 0.0012004093625749884 0 0.0093103558599053754 0.00091540216794476601 0 0.0093009650118915481 0.00067639057497582847 0 0.0094844112779074452 0.00081050307527950666 0 0.0093103558599053754 0.00091540216794476601 0 0.0093009650118915481 0.00067639057497582847 0 0.0093103558599053754 0.00091540216794476601 0 0.0091346491702477325 0.00079962095842258329 0 0.0089881169051684341 0.00062216421413908345 0 0.0091346491702477325 0.00079962095842258329 0 0.008926295932866788 0.0011129704023565745 0 0.0096491721980744172 0.0006040233892084287 0 0.0093215728362655761 0.0010461398562270341 0 0.0089913139733672348 0.00051240359981452436 0 0.0089249695966108038 0.0010558299688160063 0 0.0085736711359357554 0.00073987773150807525 0 0.0096491721980744172 0.0006040233892084287 0 0.0090694257220044188 0.00066146889896133649 0 0.0091596249495162988 0.001015386849337689 0 0.0091346491702477325 0.00079962095842258329 0 0.008926295932866788 0.0011129704023565745 0 0.0093215728362655761 0.0010461398562270341 0 0.0092143164723817866 0.0012832564654320139 0 0.0089249695966108038 0.0010558299688160063 0 0.0085386827552033171 0.0010567756750350442 0 0.0086845037138823036 0.0013609841644834811 0 0.0085386827552033171 0.0010567756750350442 0 0.0084189019928015228 0.0013524704789072365 0 0.0086845037138823036 0.0013609841644834811 0 0.0089249695966108038 0.0010558299688160063 0 0.0085386827552033171 0.0010567756750350442 0 0.0085736711359357554 0.00073987773150807525 0 0.0085386827552033171 0.0010567756750350442 0 0.0085736711359357554 0.00073987773150807525 0 0.0081562403339934045 0.00096740648760884737 0 0.0065661154744219175 0.00029595782740108294 0 0.0065351315802575837 0.00025087805792466306 0 0.00601054053186462 0.00039278990155220572 0 0.0036539108231368827 0.00051576546303674041 0 0.0035223332340262158 0.00019167113802330562 0 0.0037397404858604778 0.00032664581081287867 0 0.0064761520879680632 0.00019238166144368795 0 0.0055491087688727308 0.00022228209583131033 0 0.0036539108231368827 0.00051576546303674041 0 0.0037397404858604778 0.00032664581081287867 0 0.0039540232803790577 0.00047026278404404376 0 0.0046602864821609601 -5.4094222852515874e-05 0 0.0055491087688727308 0.00022228209583131033 0 0.0064761520879680632 0.00019238166144368795 0 0.0066869355394098395 0.00032065153564532023 0 0.0086829684707755862 0.0017355817347893469 0 0.0086845037138823036 0.0013609841644834811 0 0.0088586359533180704 0.0016010993304379005 0 0.0086829684707755862 0.0017355817347893469 0 0.0084189019928015228 0.0013524704789072365 0 0.0086845037138823036 0.0013609841644834811 0 0.0066869355394098395 0.00032065153564532023 0 0.0076621663082285345 0.00075962265262477502 0 0.0071637035460756322 0.00044964156325560261 0 0.0072832781555752686 0.00062352622973490493 0 0.0074299121437214821 0.00045667969662967607 0 0.008926295932866788 0.0011129704023565745 0 0.0088586359533180704 0.0016010993304379005 0 0.009073998244700161 0.0014577089401410185 0 0.0089249695966108038 0.0010558299688160063 0 0.0086845037138823036 0.0013609841644834811 0 0.0088586359533180704 0.0016010993304379005 0 0.0088586359533180704 0.0016010993304379005 0 0.009073998244700161 0.0014577089401410185 0 0.0088886209156050153 0.001734486927741499 0 0.0065932143406011003 -0.0001434188321552109 0 0.0065774833236064327 -0.0001411519553191025 0 0.0065670756235788729 -0.00018386303214158498 0 0.0065774833236064327 -0.0001411519553191025 0 0.0065515898691648053 -0.00016301838524522184 0 0.0065670756235788729 -0.00018386303214158498 0 0.0068497626156280682 0.00024617361367352831 0 0.0066791948885742015 0.00015231207342908547 0 0.0064761520879680632 0.00019238166144368795 0 0.0055421355052353381 -0.00014069353842416184 0 0.0086829684707755862 0.0017355817347893469 0 0.0088586359533180704 0.0016010993304379005 0 0.0088886209156050153 0.001734486927741499 0 0.0062822707712485663 0.00026438966978025488 0 0.0062015865647896927 0.00014670284450242225 0 0.0068905762612943193 0.00016049322403976739 0 0.0066869355394098395 0.00032065153564532023 0 0.0068497626156280682 0.00024617361367352831 0 0.0064761520879680632 0.00019238166144368795 0 0.0068497626156280682 0.00024617361367352831 0 0.0065723554638173528 -0.00013831580164265191 0 0.0065386279009336419 -0.00012509107186888514 0 0.0065180625715079354 -0.00014128543282650736 0 0.0066317327554206535 -0.00013071341720646243 0 0.0065723554638173528 -0.00013831580164265191 0 0.0065386279009336419 -0.00012509107186888514 0 0.0068497626156280682 0.00024617361367352831 0 0.0077301402612319743 0.00036330793705781654 0 0.0066791948885742015 0.00015231207342908547 0 0.006629471206821707 0.0001231479631530096 0 0.0065323065371270875 -0.00015998766769976974 0 0.0065463752852644381 -0.00014278102360430349 0 0.0065180625715079354 -0.00014128543282650736 0 0.0065774833236064327 -0.0001411519553191025 0 0.0065515898691648053 -0.00016301838524522184 0 0.0065463752852644381 -0.00014278102360430349 0 0.0065515898691648053 -0.00016301838524522184 0 0.0065323065371270875 -0.00015998766769976974 0 0.0065463752852644381 -0.00014278102360430349 0 0.0092780334233333213 0.0012004093625749884 0 0.009073998244700161 0.0014577089401410185 0 0.0094186277172151524 0.0016458394302046155 0 0.009073998244700161 0.0014577089401410185 0 0.0088886209156050153 0.001734486927741499 0 0.0094186277172151524 0.0016458394302046155 0 0.0065386279009336419 -0.00012509107186888514 0 0.0065180625715079354 -0.00014128543282650736 0 0.0064746626990202592 -0.00012126251320693011 0 0.0097712733454663435 0.0012868250804257703 0 0.0094186277172151524 0.0016458394302046155 0 0.0099459771387265753 0.0015607420843005086 0 0.0097712733454663435 0.0012868250804257703 0 0.0092780334233333213 0.0012004093625749884 0 0.0094186277172151524 0.0016458394302046155 0 0.0077301402612319743 0.00036330793705781654 0 0.0079737028319491286 0.00033229186107299331 0 0.0065323065371270875 -0.00015998766769976974 0 0.0065180625715079354 -0.00014128543282650736 0 0.0065095195726783163 -0.00016892356582565886 0 0.0065180625715079354 -0.00014128543282650736 0 0.0065095195726783163 -0.00016892356582565886 0 0.0064875608816595178 -0.00015551876998458591 0 0.0065095195726783163 -0.00016892356582565886 0 0.0065046769524892646 -0.00020202883292406041 0 0.0064775895468839771 -0.00018288877983587169 0 0.0065323065371270875 -0.00015998766769976974 0 0.0065095195726783163 -0.00016892356582565886 0 0.0065341466357869754 -0.00018327666181296704 0 0.0065095195726783163 -0.00016892356582565886 0 0.0065046769524892646 -0.00020202883292406041 0 0.0065341466357869754 -0.00018327666181296704 0 0.0050213623543745676 -0.00031398615822932015 0 0.0053611156568380254 -0.00056872613206446383 0 0.0065046769524892646 -0.00020202883292406041 0 0.0065391668524182305 -0.00022666058637230201 0 0.0064925206907303816 -0.0002386548937181023 0 0.0065046769524892646 -0.00020202883292406041 0 0.0065391668524182305 -0.00022666058637230201 0 0.0065341466357869754 -0.00018327666181296704 0 0.0050213623543745676 -0.00031398615822932015 0 0.0055421355052353381 -0.00014069353842416184 0 0.0034080538130150076 9.4117649618114232e-05 0 0.0034509268560549834 0.00012929428232871662 0 0.0034597483742540348 0.00021972476509408918 0 0.0034080538130150076 9.4117649618114232e-05 0 0.0034378410094738645 0.0001063150523527842 0 0.0034509268560549834 0.00012929428232871662 0 0.003407841075311125 0.00010051594598529109 0 0.0034378410094738645 0.0001063150523527842 0 0.0034209527161648892 4.423166466803165e-05 0 0.0050213623543745676 -0.00031398615822932015 0 0.0049305001010203102 -0.00032165949126711224 0 0.0065391668524182305 -0.00022666058637230201 0 0.0065341466357869754 -0.00018327666181296704 0 0.0065670756235788729 -0.00018386303214158498 0 0.0065515898691648053 -0.00016301838524522184 0 0.0065341466357869754 -0.00018327666181296704 0 0.0065670756235788729 -0.00018386303214158498 0 0.0065515898691648053 -0.00016301838524522184 0 0.0065323065371270875 -0.00015998766769976974 0 0.0065341466357869754 -0.00018327666181296704 0 0.0036539108231368827 0.00051576546303674041 0 0.0034597483742540348 0.00021972476509408918 0 0.0035223332340262158 0.00019167113802330562 0 0.0035223332340262158 0.00019167113802330562 0 0.0035118583225876624 0.00015548437085255285 0 0.0035425368121398092 0.00017563517197684145 0 0.0035223332340262158 0.00019167113802330562 0 0.003493920935266816 0.00016780412329886121 0 0.0035118583225876624 0.00015548437085255285 0 0.0034597483742540348 0.00021972476509408918 0 0.003493920935266816 0.00016780412329886121 0 0.0034742241789162249 0.00015165112825245568 0 0.0034509268560549834 0.00012929428232871662 0 0.0034597483742540348 0.00021972476509408918 0 0.0034742241789162249 0.00015165112825245568 0 0.0034597483742540348 0.00021972476509408918 0 0.0035223332340262158 0.00019167113802330562 0 0.003493920935266816 0.00016780412329886121 0 0.003493920935266816 0.00016780412329886121 0 0.0034742241789162249 0.00015165112825245568 0 0.0034893769838464086 0.00013490133420726889 0 0.0034893769838464086 0.00013490133420726889 0 0.0034729245640107375 0.00011359564881187547 0 0.0035102264957731942 0.00011832353177564781 0 0.0034742241789162249 0.00015165112825245568 0 0.0034893769838464086 0.00013490133420726889 0 0.0034729245640107375 0.00011359564881187547 0 0.0034509268560549834 0.00012929428232871662 0 0.0034742241789162249 0.00015165112825245568 0 0.0034729245640107375 0.00011359564881187547 0 0.0034378410094738645 0.0001063150523527842 0 0.0034509268560549834 0.00012929428232871662 0 0.0034729245640107375 0.00011359564881187547 0 0.0034729245640107375 0.00011359564881187547 0 0.0034960367980718414 7.9134181725738642e-05 0 0.0034618675378790429 7.4170366510712313e-05 0 0.0034378410094738645 0.0001063150523527842 0 0.0034729245640107375 0.00011359564881187547 0 0.0034618675378790429 7.4170366510712313e-05 0 0.0035289942412205472 8.7041178043414466e-05 0 0.0035102264957731942 0.00011832353177564781 0 0.0034960367980718414 7.9134181725738642e-05 0 0.0034729245640107375 0.00011359564881187547 0 0.0035102264957731942 0.00011832353177564781 0 0.0034960367980718414 7.9134181725738642e-05 0 0.0035102264957731942 0.00011832353177564781 0 0.0035118583225876624 0.00015548437085255285 0 0.0035352654457497788 0.00014286992176844985 0 0.0034893769838464086 0.00013490133420726889 0 0.0035102264957731942 0.00011832353177564781 0 0.0035118583225876624 0.00015548437085255285 0 0.003493920935266816 0.00016780412329886121 0 0.0034893769838464086 0.00013490133420726889 0 0.0035118583225876624 0.00015548437085255285 0 0.0035118583225876624 0.00015548437085255285 0 0.0035352654457497788 0.00014286992176844985 0 0.0035425368121398092 0.00017563517197684145 0 0.0035352654457497788 0.00014286992176844985 0 0.0035736365019995151 0.00016390483616701042 0 0.0035425368121398092 0.00017563517197684145 0 0.0035102264957731942 0.00011832353177564781 0 0.0035352654457497788 0.00014286992176844985 0 0.0035530115658576529 0.00011764229459943442 0 0.0035352654457497788 0.00014286992176844985 0 0.0035530115658576529 0.00011764229459943442 0 0.0035736365019995151 0.00016390483616701042 0 0.0035289942412205472 8.7041178043414466e-05 0 0.0035530115658576529 0.00011764229459943442 0 0.0035622090356095524 6.7786656762186903e-05 0 0.0035289942412205472 8.7041178043414466e-05 0 0.0035102264957731942 0.00011832353177564781 0 0.0035530115658576529 0.00011764229459943442 0 0.0035530115658576529 0.00011764229459943442 0 0.0036144637704810098 0.00011783824306312439 0 0.0035622090356095524 6.7786656762186903e-05 0 0.0035530115658576529 0.00011764229459943442 0 0.0035736365019995151 0.00016390483616701042 0 0.0036144637704810098 0.00011783824306312439 0 0.0035736365019995151 0.00016390483616701042 0 0.0036164265351602879 0.00019331850974177038 0 0.0036144637704810098 0.00011783824306312439 0 0.0035736365019995151 0.00016390483616701042 0 0.0035692484099844116 0.00022989633126930007 0 0.0036164265351602879 0.00019331850974177038 0 0.0035692484099844116 0.00022989633126930007 0 0.0036347916228208696 0.00028007751955292184 0 0.0036164265351602879 0.00019331850974177038 0 0.0035736365019995151 0.00016390483616701042 0 0.0035425368121398092 0.00017563517197684145 0 0.0035692484099844116 0.00022989633126930007 0 0.0035223332340262158 0.00019167113802330562 0 0.0035425368121398092 0.00017563517197684145 0 0.0035692484099844116 0.00022989633126930007 0 0.0044071825081122033 -0.00012425395778447264 0 0.0046602864821609601 -5.4094222852515874e-05 0 0.0047078623024547741 -0.0017225319609864564 0 0.0046237282118769905 -0.0016954664734735918 0 0.0046609914244590675 -0.0016432759115268996 0 0.0047078623024547741 -0.0017225319609864564 0 0.0046442763888078307 -0.0017779204650751441 0 0.0046237282118769905 -0.0016954664734735918 0 0.0076205994276131459 0.00015319688402283917 0 0.0079145269652118166 -0.00016336908073959837 0 0.0047078623024547741 -0.0017225319609864564 0 0.0046442763888078307 -0.0017779204650751441 0 0.0047628128594929785 -0.0018041100677089268 0 0.0076205994276131459 0.00015319688402283917 0 0.006527808848414386 -0.00053842309905359801 0 0.0076205994276131459 0.00015319688402283917 0 0.0079737028319491286 0.00033229186107299331 0 0.010232095702864546 0.0012802019963911043 0 0.01047351553912824 0.0014739866205944771 0 0.0099459771387265753 0.0015607420843005086 0 0.0064241477472405661 -0.00011395982233245752 0 0.0064746626990202592 -0.00012126251320693011 0 0.0064303317006242497 -0.00015773768240520474 0 0.0097712733454663435 0.0012868250804257703 0 0.010232095702864546 0.0012802019963911043 0 0.0099459771387265753 0.0015607420843005086 0 0.0064746626990202592 -0.00012126251320693011 0 0.0064875608816595178 -0.00015551876998458591 0 0.0064606787699823774 -0.00016345639371637512 0 0.0065180625715079354 -0.00014128543282650736 0 0.0064746626990202592 -0.00012126251320693011 0 0.0064875608816595178 -0.00015551876998458591 0 0.0064875608816595178 -0.00015551876998458591 0 0.0064606787699823774 -0.00016345639371637512 0 0.0064775895468839771 -0.00018288877983587169 0 0.0064746626990202592 -0.00012126251320693011 0 0.0064303317006242497 -0.00015773768240520474 0 0.0064606787699823774 -0.00016345639371637512 0 0.0064303317006242497 -0.00015773768240520474 0 0.0064606787699823774 -0.00016345639371637512 0 0.0064362287365665495 -0.00020387610226719682 0 0.0064606787699823774 -0.00016345639371637512 0 0.0064775895468839771 -0.00018288877983587169 0 0.0064362287365665495 -0.00020387610226719682 0 0.006527808848414386 -0.00053842309905359801 0 0.0057695463943198263 -0.00082142687717168662 0 0.0064775895468839771 -0.00018288877983587169 0 0.006469084244280489 -0.00021393043133184462 0 0.0064362287365665495 -0.00020387610226719682 0 0.0065046769524892646 -0.00020202883292406041 0 0.0064775895468839771 -0.00018288877983587169 0 0.006469084244280489 -0.00021393043133184462 0 0.0065095195726783163 -0.00016892356582565886 0 0.0064875608816595178 -0.00015551876998458591 0 0.0064775895468839771 -0.00018288877983587169 0 0.0065046769524892646 -0.00020202883292406041 0 0.006469084244280489 -0.00021393043133184462 0 0.0064925206907303816 -0.0002386548937181023 0 0.006469084244280489 -0.00021393043133184462 0 0.0064432020531675028 -0.000250686253161329 0 0.0064925206907303816 -0.0002386548937181023 0 0.0057695463943198263 -0.00082142687717168662 0 0.0050950109114054083 -0.0010076515443551294 0 0.0046060628268069373 -0.0016250173670694676 0 0.0046344260579229751 -0.0015941229935931673 0 0.0045903287277437206 -0.0015645232877454663 0 0.006469084244280489 -0.00021393043133184462 0 0.0064362287365665495 -0.00020387610226719682 0 0.0064432020531675028 -0.000250686253161329 0 0.0046060628268069373 -0.0016250173670694676 0 0.0046344260579229751 -0.0015941229935931673 0 0.0046609914244590675 -0.0016432759115268996 0 0.0046344260579229751 -0.0015941229935931673 0 0.0046609914244590675 -0.0016432759115268996 0 0.0046668702539503087 -0.0015994950569782251 0 0.0046237282118769905 -0.0016954664734735918 0 0.0046060628268069373 -0.0016250173670694676 0 0.0046609914244590675 -0.0016432759115268996 0 0.0047078623024547741 -0.0017225319609864564 0 0.0046609914244590675 -0.0016432759115268996 0 0.0047462011272984281 -0.0016528587247794458 0 0.0046609914244590675 -0.0016432759115268996 0 0.0046668702539503087 -0.0015994950569782251 0 0.0047462011272984281 -0.0016528587247794458 0 0.0053997744219341209 -0.0012438185959218245 0 0.0056255940610113707 -0.0011866643694675284 0 0.0046668702539503087 -0.0015994950569782251 0 0.004713918156378249 -0.0017536439828492853 0 0.0047347973614365836 -0.0015805078764104359 0 0.0048462302136314875 -0.0016283284858071533 0 0.004713918156378249 -0.0017536439828492853 0 0.0047347973614365836 -0.0015805078764104359 0 0.0048462302136314875 -0.0016283284858071533 0 0.0049557938122839701 -0.0016203019941019318 0 0.0049325606751950534 -0.0015430792752951115 0 0.0048462302136314875 -0.0016283284858071533 0 0.0049484863800648296 -0.001690616958941767 0 0.0049557938122839701 -0.0016203019941019318 0 0.0048462302136314875 -0.0016283284858071533 0 0.0048419590827686433 -0.0017725138504560637 0 0.0049484863800648296 -0.001690616958941767 0 0.0048419590827686433 -0.0017725138504560637 0 0.0049609350238465329 -0.0017918441608333283 0 0.0049484863800648296 -0.001690616958941767 0 0.0048419590827686433 -0.0017725138504560637 0 0.0049173273683457063 -0.0018735439116062253 0 0.0049609350238465329 -0.0017918441608333283 0 0.0048462302136314875 -0.0016283284858071533 0 0.0048419590827686433 -0.0017725138504560637 0 0.004713918156378249 -0.0017536439828492853 0 0.0056255940610113707 -0.0011866643694675284 0 0.0063959592387882102 -0.00093688524618235557 0 0.0047078623024547741 -0.0017225319609864564 0 0.0047462011272984281 -0.0016528587247794458 0 0.0048248968811780077 -0.0017317956852497221 0 0.0048419590827686433 -0.0017725138504560637 0 0.004713918156378249 -0.0017536439828492853 0 0.0048051466983866043 -0.0019423916875739122 0 0.0048419590827686433 -0.0017725138504560637 0 0.0048051466983866043 -0.0019423916875739122 0 0.0049173273683457063 -0.0018735439116062253 0 0.0048051466983866043 -0.0019423916875739122 0 0.0049173273683457063 -0.0018735439116062253 0 0.0049803105483190065 -0.0019780491519436243 0 0.0048051466983866043 -0.0019423916875739122 0 0.0049803105483190065 -0.0019780491519436243 0 0.0049266631782947283 -0.0021468770641578957 0 0.0063959592387882102 -0.00093688524618235557 0 0.0081862727919505308 -0.00044076145156963869 0 0.0048248968811780077 -0.0017317956852497221 0 0.0047628128594929785 -0.0018041100677089268 0 0.0049036063870035512 -0.0018273650619313839 0 0.0047078623024547741 -0.0017225319609864564 0 0.0048248968811780077 -0.0017317956852497221 0 0.0047628128594929785 -0.0018041100677089268 0 0.005101388647885962 -0.0020531254625807825 0 0.0052760561557412284 -0.0020089486073853057 0 0.005192085118939818 -0.0022127809290988444 0 0.005101388647885962 -0.0020531254625807825 0 0.0051463537349116378 -0.0019190208621892287 0 0.0052760561557412284 -0.0020089486073853057 0 0.005101388647885962 -0.0020531254625807825 0 0.0049803105483190065 -0.0019780491519436243 0 0.0051463537349116378 -0.0019190208621892287 0 0.005101388647885962 -0.0020531254625807825 0 0.0049803105483190065 -0.0019780491519436243 0 0.0049266631782947283 -0.0021468770641578957 0 0.0049803105483190065 -0.0019780491519436243 0 0.0050370834976033356 -0.0018564912134932695 0 0.0051463537349116378 -0.0019190208621892287 0 0.0049173273683457063 -0.0018735439116062253 0 0.0049803105483190065 -0.0019780491519436243 0 0.0050370834976033356 -0.0018564912134932695 0 0.0049173273683457063 -0.0018735439116062253 0 0.0050370834976033356 -0.0018564912134932695 0 0.0049609350238465329 -0.0017918441608333283 0 0.0050370834976033356 -0.0018564912134932695 0 0.0051463537349116378 -0.0019190208621892287 0 0.0051238251482815418 -0.0018108635919230093 0 0.0051463537349116378 -0.0019190208621892287 0 0.0052451035148088337 -0.0019015894791089018 0 0.0052760561557412284 -0.0020089486073853057 0 0.0051463537349116378 -0.0019190208621892287 0 0.0052451035148088337 -0.0019015894791089018 0 0.0052205585996449025 -0.0018258065809330037 0 0.0051463537349116378 -0.0019190208621892287 0 0.0052205585996449025 -0.0018258065809330037 0 0.0051238251482815418 -0.0018108635919230093 0 0.0052205585996449025 -0.0018258065809330037 0 0.0051598507006190659 -0.0017766180694417958 0 0.0051866154156898362 -0.0017320446301205079 0 0.0051050184823670493 -0.0016858242992168662 0 0.005093196427540015 -0.0017004788778471624 0 0.0050395872244042902 -0.0016414085485887281 0 0.0052205585996449025 -0.0018258065809330037 0 0.0051598507006190659 -0.0017766180694417958 0 0.0051238251482815418 -0.0018108635919230093 0 0.0051598507006190659 -0.0017766180694417958 0 0.0051106142959670888 -0.0017393674535810797 0 0.0051866154156898362 -0.0017320446301205079 0 0.0051598507006190659 -0.0017766180694417958 0 0.0051238251482815418 -0.0018108635919230093 0 0.0051106142959670888 -0.0017393674535810797 0 0.0051238251482815418 -0.0018108635919230093 0 0.0051106142959670888 -0.0017393674535810797 0 0.0050401859757187306 -0.0017500125680224049 0 0.0051106142959670888 -0.0017393674535810797 0 0.0051866154156898362 -0.0017320446301205079 0 0.0050395872244042902 -0.0016414085485887281 0 0.0050370834976033356 -0.0018564912134932695 0 0.0049609350238465329 -0.0017918441608333283 0 0.0050401859757187306 -0.0017500125680224049 0 0.0050370834976033356 -0.0018564912134932695 0 0.0051238251482815418 -0.0018108635919230093 0 0.0050401859757187306 -0.0017500125680224049 0 0.0051106142959670888 -0.0017393674535810797 0 0.0050401859757187306 -0.0017500125680224049 0 0.0050395872244042902 -0.0016414085485887281 0 0.0049609350238465329 -0.0017918441608333283 0 0.0050401859757187306 -0.0017500125680224049 0 0.0049484863800648296 -0.001690616958941767 0 0.0049484863800648296 -0.001690616958941767 0 0.0050395872244042902 -0.0016414085485887281 0 0.0049557938122839701 -0.0016203019941019318 0 0.0050401859757187306 -0.0017500125680224049 0 0.0049484863800648296 -0.001690616958941767 0 0.0050395872244042902 -0.0016414085485887281 0 0.0050395872244042902 -0.0016414085485887281 0 0.0050622737550925787 -0.0016192988735965962 0 0.0050087939229306504 -0.0015915429725089653 0 0.0050395872244042902 -0.0016414085485887281 0 0.0049557938122839701 -0.0016203019941019318 0 0.0050087939229306504 -0.0015915429725089653 0 0.0051050184823670493 -0.0016858242992168662 0 0.0050395872244042902 -0.0016414085485887281 0 0.0050622737550925787 -0.0016192988735965962 0 0.0051498713340439057 -0.001870982950221516 0 0.0050622737550925787 -0.0016192988735965962 0 0.0051812789550746583 -0.001706519911033451 0 0.0054339374516157602 -0.0016542829262105711 0 0.0053603657791974953 -0.0016207380479865536 0 0.0054080989160428224 -0.0016088360080413087 0 0.0053317867932455411 -0.0015824487320646198 0 0.0050622737550925787 -0.0016192988735965962 0 0.0051812789550746583 -0.001706519911033451 0 0.0051479707254851017 -0.0016098245639460584 0 0.0052842780214986708 -0.0017892719452483822 0 0.0052712700935818166 -0.0016517739908034547 0 0.0054992926277004856 -0.001774321640956275 0 0.0051812789550746583 -0.001706519911033451 0 0.0052842780214986708 -0.0017892719452483822 0 0.0052712700935818166 -0.0016517739908034547 0 0.0051812789550746583 -0.001706519911033451 0 0.0052712700935818166 -0.0016517739908034547 0 0.0051479707254851017 -0.0016098245639460584 0 0.0051498713340439057 -0.001870982950221516 0 0.0051812789550746583 -0.001706519911033451 0 0.0052842780214986708 -0.0017892719452483822 0 0.0052712700935818166 -0.0016517739908034547 0 0.0054992926277004856 -0.001774321640956275 0 0.0053347130674858993 -0.0015272780291455859 0 0.0052842780214986708 -0.0017892719452483822 0 0.0054992926277004856 -0.001774321640956275 0 0.0053436260700564448 -0.0019462185551744403 0 0.0055340300192674675 -0.0017871501243411584 0 0.0055090179465215857 -0.0019619519545971032 0 0.0055865149360685212 -0.0018128733333699146 0 0.0056685606399633579 -0.0021079641032472718 0 0.0054997737981517473 -0.0021691566265575769 0 0.0054992926277004856 -0.001774321640956275 0 0.0053436260700564448 -0.0019462185551744403 0 0.0054997737981517473 -0.0021691566265575769 0 0.0051050184823670493 -0.0016858242992168662 0 0.005093196427540015 -0.0017004788778471624 0 0.0051546133612178731 -0.0017646005872219424 0 0.0054339374516157602 -0.0016542829262105711 0 0.0056311062035409786 -0.0016699695215466781 0 0.0051498713340439057 -0.001870982950221516 0 0.0053436260700564448 -0.0019462185551744403 0 0.005293486035620347 -0.0021537455850462713 0 0.0054080989160428224 -0.0016088360080413087 0 0.0056311062035409786 -0.0016699695215466781 0 0.0052205585996449025 -0.0018258065809330037 0 0.0051866154156898362 -0.0017320446301205079 0 0.005340923711844389 -0.0018541541520982231 0 0.0051498713340439057 -0.001870982950221516 0 0.0052842780214986708 -0.0017892719452483822 0 0.0053436260700564448 -0.0019462185551744403 0 0.0059646821336118514 -0.0018260323939036775 0 0.0058069592492274889 -0.0016341384754851047 0 0.0060421764294117707 -0.0016034250888040014 0 0.006165138300916596 -0.0018091986940212885 0 0.0059646821336118514 -0.0018260323939036775 0 0.0060421764294117707 -0.0016034250888040014 0 0.006165138300916596 -0.0018091986940212885 0 0.0061292005657534038 -0.0020140720787936842 0 0.0059646821336118514 -0.0018260323939036775 0 0.0055865149360685212 -0.0018128733333699146 0 0.0059646821336118514 -0.0018260323939036775 0 0.0058069592492274889 -0.0016341384754851047 0 0.0055865149360685212 -0.0018128733333699146 0 0.0059646821336118514 -0.0018260323939036775 0 0.005859013143254964 -0.0020353387407295851 0 0.0055865149360685212 -0.0018128733333699146 0 0.005859013143254964 -0.0020353387407295851 0 0.0056685606399633579 -0.0021079641032472718 0 0.0061292005657534038 -0.0020140720787936842 0 0.0059646821336118514 -0.0018260323939036775 0 0.005859013143254964 -0.0020353387407295851 0 0.0061292005657534038 -0.0020140720787936842 0 0.005859013143254964 -0.0020353387407295851 0 0.0060106982193396672 -0.0022069125709357441 0 0.0060106982193396672 -0.0022069125709357441 0 0.0057959023380983743 -0.0022413513656048645 0 0.0059569027891512869 -0.0023687308325639951 0 0.005859013143254964 -0.0020353387407295851 0 0.0057959023380983743 -0.0022413513656048645 0 0.0056685606399633579 -0.0021079641032472718 0 0.005859013143254964 -0.0020353387407295851 0 0.0060106982193396672 -0.0022069125709357441 0 0.0057959023380983743 -0.0022413513656048645 0 0.0057959023380983743 -0.0022413513656048645 0 0.0056685606399633579 -0.0021079641032472718 0 0.005603409184777571 -0.0022984925346259174 0 0.0057959023380983743 -0.0022413513656048645 0 0.0058115791171786365 -0.002455914471007807 0 0.005603409184777571 -0.0022984925346259174 0 0.0058115791171786365 -0.002455914471007807 0 0.005603409184777571 -0.0022984925346259174 0 0.0056247579352856842 -0.0024992332579171993 0 0.0057959023380983743 -0.0022413513656048645 0 0.0058115791171786365 -0.002455914471007807 0 0.0059569027891512869 -0.0023687308325639951 0 0.0061665008688857204 -0.0024066184619890613 0 0.0061490175627235992 -0.002657170959641107 0 0.0059941294576495666 -0.0025310051950887917 0 0.0058115791171786365 -0.002455914471007807 0 0.0059569027891512869 -0.0023687308325639951 0 0.0059941294576495666 -0.0025310051950887917 0 0.0061665008688857204 -0.0024066184619890613 0 0.0059569027891512869 -0.0023687308325639951 0 0.0059941294576495666 -0.0025310051950887917 0 0.0061665008688857204 -0.0024066184619890613 0 0.0060106982193396672 -0.0022069125709357441 0 0.0059569027891512869 -0.0023687308325639951 0 0.0056311062035409786 -0.0016699695215466781 0 0.0056341112850698599 -0.001865791396745741 0 0.0052451035148088337 -0.0019015894791089018 0 0.005340923711844389 -0.0018541541520982231 0 0.0052760561557412284 -0.0020089486073853057 0 0.0052451035148088337 -0.0019015894791089018 0 0.0052205585996449025 -0.0018258065809330037 0 0.005340923711844389 -0.0018541541520982231 0 0.0053436260700564448 -0.0019462185551744403 0 0.005293486035620347 -0.0021537455850462713 0 0.0054997737981517473 -0.0021691566265575769 0 0.005293486035620347 -0.0021537455850462713 0 0.005603409184777571 -0.0022984925346259174 0 0.0056247579352856842 -0.0024992332579171993 0 0.005293486035620347 -0.0021537455850462713 0 0.0054997737981517473 -0.0021691566265575769 0 0.005603409184777571 -0.0022984925346259174 0 0.0056685606399633579 -0.0021079641032472718 0 0.0054997737981517473 -0.0021691566265575769 0 0.005603409184777571 -0.0022984925346259174 0 0.0056311062035409786 -0.0016699695215466781 0 0.006819134733230453 -0.0014006909637819919 0 0.0053224687504263143 -0.0016586688424752535 0 0.005479196066790629 -0.0019404816063290622 0 0.0056355423464043665 -0.0020147036476799197 0 0.005479196066790629 -0.0019404816063290622 0 0.0056355423464043665 -0.0020147036476799197 0 0.0056356070904562848 -0.0022271055258286181 0 0.005471427027923091 -0.0020243866318177179 0 0.0053874895255300046 -0.0021373688802753602 0 0.0054956580065138334 -0.002158168961608066 0 0.005340923711844389 -0.0018541541520982231 0 0.005471427027923091 -0.0020243866318177179 0 0.0052760561557412284 -0.0020089486073853057 0 0.0052760561557412284 -0.0020089486073853057 0 0.0053874895255300046 -0.0021373688802753602 0 0.005192085118939818 -0.0022127809290988444 0 0.005471427027923091 -0.0020243866318177179 0 0.0052760561557412284 -0.0020089486073853057 0 0.0053874895255300046 -0.0021373688802753602 0 0.0053874895255300046 -0.0021373688802753602 0 0.0055134051244908455 -0.0022947325221307205 0 0.005192085118939818 -0.0022127809290988444 0 0.0091127467472272572 -0.00072296010027581611 0 0.0086727360495431668 -0.0005572200165675147 0 0.0053874895255300046 -0.0021373688802753602 0 0.0054956580065138334 -0.002158168961608066 0 0.0055134051244908455 -0.0022947325221307205 0 0.005471427027923091 -0.0020243866318177179 0 0.0054956580065138334 -0.002158168961608066 0 0.0056356070904562848 -0.0022271055258286181 0 0.0056341112850698599 -0.001865791396745741 0 0.0056626273014951135 -0.0019708892255896095 0 0.0054956580065138334 -0.002158168961608066 0 0.0056356070904562848 -0.0022271055258286181 0 0.0055134051244908455 -0.0022947325221307205 0 0.012791549909517761 0.0011582797103888373 0 0.013024795442396509 0.00077109395818976347 0 0.012691791279164928 0.00059627024902958437 0 0.012791549909517761 0.0011582797103888373 0 0.012372745498608596 0.00088437047830058424 0 0.012184218292480301 0.0012612041683302496 0 0.012791549909517761 0.0011582797103888373 0 0.012372745498608596 0.00088437047830058424 0 0.012691791279164928 0.00059627024902958437 0 0.0061490175627235992 -0.002657170959641107 0 0.0059941294576495666 -0.0025310051950887917 0 0.0059283163996723494 -0.0028075906905246071 0 0.0058115791171786365 -0.002455914471007807 0 0.0059941294576495666 -0.0025310051950887917 0 0.0059283163996723494 -0.0028075906905246071 0 0.006819134733230453 -0.0014006909637819919 0 0.0094169929300685386 -0.0009781044389444609 0 0.0058115791171786365 -0.002455914471007807 0 0.0056247579352856842 -0.0024992332579171993 0 0.0059283163996723494 -0.0028075906905246071 0 0.0056356070904562848 -0.0022271055258286181 0 0.0055134051244908455 -0.0022947325221307205 0 0.0059611035837577103 -0.00237745768357153 0 0.0056355423464043665 -0.0020147036476799197 0 0.0056356070904562848 -0.0022271055258286181 0 0.0059611035837577103 -0.00237745768357153 0 0.0091127467472272572 -0.00072296010027581611 0 0.0094169929300685386 -0.0009781044389444609 0 0.013397803352476518 0.0010668988952757068 0 0.013024795442396509 0.00077109395818976347 0 0.013309070944313389 0.00055319911087840367 0 0.012791549909517761 0.0011582797103888373 0 0.013397803352476518 0.0010668988952757068 0 0.013024795442396509 0.00077109395818976347 0 0.010148611997705866 -0.00099708171734423103 0 0.0094169929300685386 -0.0009781044389444609 0 0.011023587936785269 -0.0010132049276418795 0 0.0094169929300685386 -0.0009781044389444609 0 0.01385586673895085 0.00058985487738677218 0 0.013931529496736528 0.00067319008542564469 0 0.013403587762273723 0.0010768086127557362 0 0.01385586673895085 0.00058985487738677218 0 0.013397803352476518 0.0010668988952757068 0 0.013570986523300249 0.00065120380551394585 0 0.013397803352476518 0.0010668988952757068 0 0.013570986523300249 0.00065120380551394585 0 0.013309070944313389 0.00055319911087840367 0 0.013687751634089737 0.00043791016085033079 0 0.013570986523300249 0.00065120380551394585 0 0.013511095360563862 0.00045318804198854029 0 0.013746535601077792 0.00052461444229127204 0 0.013687751634089737 0.00043791016085033079 0 0.013570986523300249 0.00065120380551394585 0 0.013746535601077792 0.00052461444229127204 0 0.01385586673895085 0.00058985487738677218 0 0.013570986523300249 0.00065120380551394585 0 0.013570986523300249 0.00065120380551394585 0 0.013511095360563862 0.00045318804198854029 0 0.013309070944313389 0.00055319911087840367 0 0.013024795442396509 0.00077109395818976347 0 0.013309070944313389 0.00055319911087840367 0 0.013091333282425699 0.00029776566642312672 0 0.013026701128141822 -1.5189021886607349e-06 0 0.013091333282425699 0.00029776566642312672 0 0.013223069174711843 9.5960874467372438e-05 0 0.013091333282425699 0.00029776566642312672 0 0.013223069174711843 9.5960874467372438e-05 0 0.013386140545694751 0.0002572285516019601 0 0.013396046117049398 2.8683378156254608e-05 0 0.013223069174711843 9.5960874467372438e-05 0 0.013386140545694751 0.0002572285516019601 0 0.013309070944313389 0.00055319911087840367 0 0.013091333282425699 0.00029776566642312672 0 0.013386140545694751 0.0002572285516019601 0 0.013511095360563862 0.00045318804198854029 0 0.013386140545694751 0.0002572285516019601 0 0.013614640977680732 0.00028375995447615357 0 0.013511095360563862 0.00045318804198854029 0 0.013309070944313389 0.00055319911087840367 0 0.013386140545694751 0.0002572285516019601 0 0.013386140545694751 0.0002572285516019601 0 0.013577906422970361 9.6668451276774362e-05 0 0.013614640977680732 0.00028375995447615357 0 0.013396046117049398 2.8683378156254608e-05 0 0.013386140545694751 0.0002572285516019601 0 0.013577906422970361 9.6668451276774362e-05 0 0.013746285279819713 0.00016906472564211521 0 0.013753438275205948 2.8782259926705332e-05 0 0.013577906422970361 9.6668451276774362e-05 0 0.013746285279819713 0.00016906472564211521 0 0.013577906422970361 9.6668451276774362e-05 0 0.013614640977680732 0.00028375995447615357 0 0.013746285279819713 0.00016906472564211521 0 0.013759788954883787 0.00030705721199501704 0 0.013614640977680732 0.00028375995447615357 0 0.013759788954883787 0.00030705721199501704 0 0.013687751634089737 0.00043791016085033079 0 0.013614640977680732 0.00028375995447615357 0 0.013687751634089737 0.00043791016085033079 0 0.013511095360563862 0.00045318804198854029 0 0.013614640977680732 0.00028375995447615357 0 0.012691791279164928 0.00059627024902958437 0 0.012391954654324374 0.00022157054730296627 0 0.012323842534570332 0.00055971976140438244 0 0.012372745498608596 0.00088437047830058424 0 0.012691791279164928 0.00059627024902958437 0 0.012323842534570332 0.00055971976140438244 0 0.013024795442396509 0.00077109395818976347 0 0.013091333282425699 0.00029776566642312672 0 0.012691791279164928 0.00059627024902958437 0 0.013091333282425699 0.00029776566642312672 0 0.012691791279164928 0.00059627024902958437 0 0.012762321473680357 0.00014604881645869091 0 0.013026701128141822 -1.5189021886607349e-06 0 0.013091333282425699 0.00029776566642312672 0 0.012762321473680357 0.00014604881645869091 0 0.012691791279164928 0.00059627024902958437 0 0.012762321473680357 0.00014604881645869091 0 0.012391954654324374 0.00022157054730296627 0 0.012584790541711416 -5.3543700382468376e-05 0 0.012762321473680357 0.00014604881645869091 0 0.012391954654324374 0.00022157054730296627 0 0.012020063588401233 -4.6530494475049262e-05 0 0.0120513020955601 0.00015101551771972227 0 0.012040054705117667 8.2377018027644882e-06 0 0.012391954654324374 0.00022157054730296627 0 0.012092894143423155 0.00047078222680925561 0 0.012391954654324374 0.00022157054730296627 0 0.012323842534570332 0.00055971976140438244 0 0.012092894143423155 0.00047078222680925561 0 0.012323842534570332 0.00055971976140438244 0 0.012092894143423155 0.00047078222680925561 0 0.012074025392139786 0.00063304727179927089 0 0.012092894143423155 0.00047078222680925561 0 0.012074025392139786 0.00063304727179927089 0 0.011850085368459244 0.00053160337041048978 0 0.012372745498608596 0.00088437047830058424 0 0.012323842534570332 0.00055971976140438244 0 0.012074025392139786 0.00063304727179927089 0 0.012074025392139786 0.00063304727179927089 0 0.011850085368459244 0.00053160337041048978 0 0.011856715273659951 0.00094813931858652031 0 0.012092894143423155 0.00047078222680925561 0 0.011850085368459244 0.00053160337041048978 0 0.011854236212538902 0.00031834867843127956 0 0.011850085368459244 0.00053160337041048978 0 0.011854236212538902 0.00031834867843127956 0 0.011596588395364571 0.00048757975636829631 0 0.012013705954342303 2.2626840203456715e-05 0 0.012092894143423155 0.00047078222680925561 0 0.011854236212538902 0.00031834867843127956 0 0.012013705954342303 2.2626840203456715e-05 0 0.011854236212538902 0.00031834867843127956 0 0.011604386189158373 0.00018480434304278648 0 0.011604386189158373 0.00018480434304278648 0 0.011222892582835094 0.00021028963896580895 0 0.011596588395364571 0.00048757975636829631 0 0.011854236212538902 0.00031834867843127956 0 0.011604386189158373 0.00018480434304278648 0 0.011596588395364571 0.00048757975636829631 0 0.010828947932581729 0.00042786831307264179 0 0.011222892582835094 0.00021028963896580895 0 0.011221690556763777 0.00056869855337469944 0 0.011222892582835094 0.00021028963896580895 0 0.011221690556763777 0.00056869855337469944 0 0.011596588395364571 0.00048757975636829631 0 0.011221690556763777 0.00056869855337469944 0 0.011596588395364571 0.00048757975636829631 0 0.011575386781593191 0.00079654470577719184 0 0.011850085368459244 0.00053160337041048978 0 0.011596588395364571 0.00048757975636829631 0 0.011575386781593191 0.00079654470577719184 0 0.011575386781593191 0.00079654470577719184 0 0.011208624923049014 0.00096278534496750418 0 0.011634111269099917 0.0012770423159285738 0 0.010881140862034603 0.00071067243827725517 0 0.011221690556763777 0.00056869855337469944 0 0.011208624923049014 0.00096278534496750418 0 0.011221690556763777 0.00056869855337469944 0 0.011575386781593191 0.00079654470577719184 0 0.011208624923049014 0.00096278534496750418 0 0.0079145269652118166 -0.00016336908073959837 0 0.0081862727919505308 -0.00044076145156963869 0 0.011060887244380308 0.001378852107472158 0 0.011208624923049014 0.00096278534496750418 0 0.011634111269099917 0.0012770423159285738 0 0.005101388647885962 -0.0020531254625807825 0 0.0049266631782947283 -0.0021468770641578957 0 0.005192085118939818 -0.0022127809290988444 0 0.011543248171203356 0.001369279058073751 0 0.012184218292480301 0.0012612041683302496 0 0.011804191571645825 0.00099742739121124998 0 0.0081862727919505308 -0.00044076145156963869 0 0.0086727360495431668 -0.0005572200165675147 0 0.0081862727919505308 -0.00044076145156963869 0 0.0095188938335968639 -0.00027610431801229797 0 0.012372745498608596 0.00088437047830058424 0 0.012184218292480301 0.0012612041683302496 0 0.012104930199192858 0.00093681598899611289 0 0.012184218292480301 0.0012612041683302496 0 0.012104930199192858 0.00093681598899611289 0 0.011804191571645825 0.00099742739121124998 0 0.012074025392139786 0.00063304727179927089 0 0.012104930199192858 0.00093681598899611289 0 0.011804191571645825 0.00099742739121124998 0 0.012372745498608596 0.00088437047830058424 0 0.012074025392139786 0.00063304727179927089 0 0.012104930199192858 0.00093681598899611289 0 0.011850085368459244 0.00053160337041048978 0 0.011575386781593191 0.00079654470577719184 0 0.011856715273659951 0.00094813931858652031 0 0.0099460723408491027 -0.00026353267195845391 0 0.0095188938335968639 -0.00027610431801229797 0 0.011575386781593191 0.00079654470577719184 0 0.011634111269099917 0.0012770423159285738 0 0.011856715273659951 0.00094813931858652031 0 0.012175983154403611 2.2198816502017443e-05 0 0.012625255416631755 0.00017680908273254759 0 0.012425377335199021 4.7538403527535874e-05 0 0.011345589758994542 0.0001506348988506147 0 0.011809227003789988 0.00020405199645845952 0 0.012625255416631755 0.00017680908273254759 0 0.011408224253557307 3.2706095675716966e-06 0 0.011588069654605741 3.9029772755805771e-05 0 0.011345589758994542 0.0001506348988506147 0 0.011809227003789988 0.00020405199645845952 0 0.011304822868874019 5.1903005509489987e-05 0 0.012175983154403611 2.2198816502017443e-05 0 0.01200812495852286 2.7484217766751175e-06 0 0.012425377335199021 4.7538403527535874e-05 0 0.012156520815311453 5.6478703093441724e-08 0 0.01200812495852286 2.7484217766751175e-06 0 0.011337118439310227 3.6778811387009516e-08 0 0.012156520815311453 5.6478703093441724e-08 0 0.01200812495852286 2.7484217766751175e-06 0 0.012425377335199021 4.7538403527535874e-05 0 0.012175983154403611 2.2198816502017443e-05 0 0.01200812495852286 2.7484217766751175e-06 0 0.011745969639687735 1.5630648439526081e-05 0 0.011408224253557307 3.2706095675716966e-06 0 0.011032400900529381 -6.8800357550512911e-05 0 0.01200812495852286 2.7484217766751175e-06 0 0.011745969639687735 1.5630648439526081e-05 0 0.011337118439310227 3.6778811387009516e-08 0 0.012175983154403611 2.2198816502017443e-05 0 0.011745969639687735 1.5630648439526081e-05 0 0.011425877402819468 5.1182538800926834e-05 0 0.011745969639687735 1.5630648439526081e-05 0 0.011337118439310227 3.6778811387009516e-08 0 0.011425877402819468 5.1182538800926834e-05 0 0.011345589758994542 0.0001506348988506147 0 0.011058487467093581 -1.526615286132295e-05 0 0.011185015403886717 3.606232701288931e-05 0 0.011345589758994542 0.0001506348988506147 0 0.011058487467093581 -1.526615286132295e-05 0 0.010874962633316578 -7.5185545764196889e-05 0 0.011185015403886717 3.606232701288931e-05 0 0.011083433937725012 -2.0008768944051115e-05 0 0.011304822868874019 5.1903005509489987e-05 0 0.011345589758994542 0.0001506348988506147 0 0.011185015403886717 3.606232701288931e-05 0 0.011304822868874019 5.1903005509489987e-05 0 0.011058487467093581 -1.526615286132295e-05 0 0.011185015403886717 3.606232701288931e-05 0 0.011083433937725012 -2.0008768944051115e-05 0 0.011083433937725012 -2.0008768944051115e-05 0 0.011143162683059139 3.2041546572478528e-05 0 0.011001209678293487 -3.0311564286591044e-05 0 0.011083433937725012 -2.0008768944051115e-05 0 0.011143162683059139 3.2041546572478528e-05 0 0.011304822868874019 5.1903005509489987e-05 0 0.010992862972625731 4.5263230789144113e-05 0 0.010895948719320366 -3.7113768230842312e-05 0 0.011001209678293487 -3.0311564286591044e-05 0 0.011143162683059139 3.2041546572478528e-05 0 0.010992862972625731 4.5263230789144113e-05 0 0.011001209678293487 -3.0311564286591044e-05 0 0.011143162683059139 3.2041546572478528e-05 0 0.010992862972625731 4.5263230789144113e-05 0 0.011131094426343378 0.00017283115725730432 0 0.011131094426343378 0.00017283115725730432 0 0.011038921333562919 0.00031690505218963112 0 0.010947076555812046 0.00020404704578663361 0 0.010992862972625731 4.5263230789144113e-05 0 0.011131094426343378 0.00017283115725730432 0 0.010947076555812046 0.00020404704578663361 0 0.011131094426343378 0.00017283115725730432 0 0.01133417552573621 0.00014951675993784544 0 0.011147222165063484 0.00049192579571867285 0 0.011809227003789988 0.00020405199645845952 0 0.01133417552573621 0.00014951675993784544 0 0.011147222165063484 0.00049192579571867285 0 0.011143162683059139 3.2041546572478528e-05 0 0.011304822868874019 5.1903005509489987e-05 0 0.01133417552573621 0.00014951675993784544 0 0.011809227003789988 0.00020405199645845952 0 0.011304822868874019 5.1903005509489987e-05 0 0.01133417552573621 0.00014951675993784544 0 0.011143162683059139 3.2041546572478528e-05 0 0.011131094426343378 0.00017283115725730432 0 0.01133417552573621 0.00014951675993784544 0 0.011809227003789988 0.00020405199645845952 0 0.013392731269717715 0.00037527611600126297 0 0.012625255416631755 0.00017680908273254759 0 0.012428709495239131 0.00025949899898598642 0 0.012501266689018339 0.00029716901041262564 0 0.013392731269717715 0.00037527611600126297 0 0.013166362889318781 0.00012475925502685074 0 0.012625255416631755 0.00017680908273254759 0 0.011147222165063484 0.00049192579571867285 0 0.010947965161081262 0.00054425895016008531 0 0.010957390739288888 0.00040209811549480918 0 0.011131094426343378 0.00017283115725730432 0 0.011147222165063484 0.00049192579571867285 0 0.011038921333562919 0.00031690505218963112 0 0.011038921333562919 0.00031690505218963112 0 0.010957390739288888 0.00040209811549480918 0 0.010947076555812046 0.00020404704578663361 0 0.011147222165063484 0.00049192579571867285 0 0.011038921333562919 0.00031690505218963112 0 0.010957390739288888 0.00040209811549480918 0 0.013392731269717715 0.00037527611600126297 0 0.013627530522128171 0.00014610706074058086 0 0.014138132886005501 0.0002561118261116493 0 0.012501266689018339 0.00029716901041262564 0 0.012663612113427706 0.00032775081652422077 0 0.013627530522128171 0.00014610706074058086 0 0.013966569155982586 5.5490363281585545e-05 0 0.014138132886005501 0.0002561118261116493 0 0.013627530522128171 0.00014610706074058086 0 0.013166362889318781 0.00012475925502685074 0 0.013506375243716326 9.9723709384763347e-06 0 0.013166362889318781 0.00012475925502685074 0 0.012964179664291017 6.2366620740757426e-05 0 0.013506375243716326 9.9723709384763347e-06 0 0.013392731269717715 0.00037527611600126297 0 0.013627530522128171 0.00014610706074058086 0 0.013166362889318781 0.00012475925502685074 0 0.013166362889318781 0.00012475925502685074 0 0.012964179664291017 6.2366620740757426e-05 0 0.012625255416631755 0.00017680908273254759 0 0.012964179664291017 6.2366620740757426e-05 0 0.012625255416631755 0.00017680908273254759 0 0.012425377335199021 4.7538403527535874e-05 0 0.012156520815311453 5.6478703093441724e-08 0 0.012425377335199021 4.7538403527535874e-05 0 0.012976364701211418 -4.3836275796216716e-08 0 0.012964179664291017 6.2366620740757426e-05 0 0.012425377335199021 4.7538403527535874e-05 0 0.012976364701211418 -4.3836275796216716e-08 0 0.012964179664291017 6.2366620740757426e-05 0 0.012976364701211418 -4.3836275796216716e-08 0 0.013370304262090984 -6.0695866546358006e-05 0 0.012976364701211418 -4.3836275796216716e-08 0 0.013370304262090984 -6.0695866546358006e-05 0 0.013794003350669087 -5.8102950349372018e-08 0 0.012964179664291017 6.2366620740757426e-05 0 0.013370304262090984 -6.0695866546358006e-05 0 0.013506375243716326 9.9723709384763347e-06 0 0.013370304262090984 -6.0695866546358006e-05 0 0.013569343888043543 -0.00019860574580017089 0 0.013703058890048933 -7.7830458316312885e-05 0 0.013796079563220286 -1.4444238153116184e-07 0 0.014141134937601151 -0.0001202783991627913 0 0.013370304262090984 -6.0695866546358006e-05 0 0.013794003350669087 -5.8102950349372018e-08 0 0.013569343888043543 -0.00019860574580017089 0 0.014999268905584864 -3.3671727484673445e-07 0 0.014760237003784211 -6.7466355579731086e-05 0 0.014998418423717338 -1.9218224056476413e-07 0 0.013797580478457926 4.868411812844697e-07 0 0.014999268905584864 -3.3671727484673445e-07 0 0.014760237003784211 -6.7466355579731086e-05 0 0.014677216385795793 -0.00019212760047858035 0 0.014998418423717338 -1.9218224056476413e-07 0 0.014382708779590482 -0.00029104138834020658 0 0.01499967936311743 -1.8149638956391357e-07 0 0.014832851327541257 -0.00011965030627591085 0 0.014760237003784211 -6.7466355579731086e-05 0 0.014677216385795793 -0.00019212760047858035 0 0.014998418423717338 -1.9218224056476413e-07 0 0.014141134937601151 -0.0001202783991627913 0 0.014289160526752505 -0.00015840409167528302 0 0.013569343888043543 -0.00019860574580017089 0 0.014677216385795793 -0.00019212760047858035 0 0.014221703287582006 -0.00018469631878276528 0 0.014221703287582006 -0.00018469631878276528 0 0.01431481015576865 -0.00015502199805522384 0 0.014382708779590482 -0.00029104138834020658 0 0.014677216385795793 -0.00019212760047858035 0 0.014221703287582006 -0.00018469631878276528 0 0.014382708779590482 -0.00029104138834020658 0 0.014221703287582006 -0.00018469631878276528 0 0.014087122925847325 -9.510854112890465e-05 0 0.01431481015576865 -0.00015502199805522384 0 0.014221703287582006 -0.00018469631878276528 0 0.014087122925847325 -9.510854112890465e-05 0 0.013703058890048933 -7.7830458316312885e-05 0 0.014087122925847325 -9.510854112890465e-05 0 0.014311449185865799 -6.9407674066887634e-06 0 0.01431481015576865 -0.00015502199805522384 0 0.013569343888043543 -0.00019860574580017089 0 0.014221703287582006 -0.00018469631878276528 0 0.013703058890048933 -7.7830458316312885e-05 0 0.014087122925847325 -9.510854112890465e-05 0 0.013703058890048933 -7.7830458316312885e-05 0 0.013506375243716326 9.9723709384763347e-06 0 0.013370304262090984 -6.0695866546358006e-05 0 0.013703058890048933 -7.7830458316312885e-05 0 0.013506375243716326 9.9723709384763347e-06 0 0.013627530522128171 0.00014610706074058086 0 0.013506375243716326 9.9723709384763347e-06 0 0.013966569155982586 5.5490363281585545e-05 0 0.014087122925847325 -9.510854112890465e-05 0 0.013506375243716326 9.9723709384763347e-06 0 0.013966569155982586 5.5490363281585545e-05 0 0.013966569155982586 5.5490363281585545e-05 0 0.014311449185865799 -6.9407674066887634e-06 0 0.014138132886005501 0.0002561118261116493 0 0.014087122925847325 -9.510854112890465e-05 0 0.013966569155982586 5.5490363281585545e-05 0 0.014311449185865799 -6.9407674066887634e-06 0 0.012951401552742711 0.00027494109922845424 0 0.012663612113427706 0.00032775081652422077 0 0.014311449185865799 -6.9407674066887634e-06 0 0.014705344366779893 3.1106416255009272e-05 0 0.014138132886005501 0.0002561118261116493 0 0.014311449185865799 -6.9407674066887634e-06 0 0.014705344366779893 3.1106416255009272e-05 0 0.014665575852451394 -8.6740604324814853e-05 0 0.01082302148123479 0.00062096974688535475 0 0.010785181064069976 0.00054748434429433902 0 0.010947965161081262 0.00054425895016008531 0 0.01082302148123479 0.00062096974688535475 0 0.01076654722557289 0.00061819459606884475 0 0.010785181064069976 0.00054748434429433902 0 0.014705344366779893 3.1106416255009272e-05 0 0.014779018715555156 -7.7954041437370739e-05 0 0.014878785362944395 -7.1721386126868272e-05 0 0.012951401552742711 0.00027494109922845424 0 0.013649449948040678 -6.1904029117566819e-05 0 0.01082302148123479 0.00062096974688535475 0 0.01076654722557289 0.00061819459606884475 0 0.01072907652189964 0.0006959809883593256 0 0.014705344366779893 3.1106416255009272e-05 0 0.014665575852451394 -8.6740604324814853e-05 0 0.014779018715555156 -7.7954041437370739e-05 0 0.014665575852451394 -8.6740604324814853e-05 0 0.014779018715555156 -7.7954041437370739e-05 0 0.014807799469899435 -7.6644993172550108e-05 0 0.014779018715555156 -7.7954041437370739e-05 0 0.014860527652912523 -6.7014448436435032e-05 0 0.014878785362944395 -7.1721386126868272e-05 0 0.014665575852451394 -8.6740604324814853e-05 0 0.014954835374650255 -5.0451962291361987e-05 0 0.014807799469899435 -7.6644993172550108e-05 0 0.014665575852451394 -8.6740604324814853e-05 0 0.01431481015576865 -0.00015502199805522384 0 0.014382708779590482 -0.00029104138834020658 0 0.014808836067221569 -0.00010025138485299974 0 0.014832851327541257 -0.00011965030627591085 0 0.014311449185865799 -6.9407674066887634e-06 0 0.014665575852451394 -8.6740604324814853e-05 0 0.01431481015576865 -0.00015502199805522384 0 0.014954835374650255 -5.0451962291361987e-05 0 0.014860527652912523 -6.7014448436435032e-05 0 0.014953225807658135 -2.4786122135000704e-05 0 0.014954835374650255 -5.0451962291361987e-05 0 0.014807799469899435 -7.6644993172550108e-05 0 0.014860527652912523 -6.7014448436435032e-05 0 0.014779018715555156 -7.7954041437370739e-05 0 0.014807799469899435 -7.6644993172550108e-05 0 0.014860527652912523 -6.7014448436435032e-05 0 0.014860527652912523 -6.7014448436435032e-05 0 0.01494061297688737 -2.7878593816617765e-05 0 0.014911129145156042 -5.0658370493478509e-05 0 0.014860527652912523 -6.7014448436435032e-05 0 0.01494061297688737 -2.7878593816617765e-05 0 0.014953225807658135 -2.4786122135000704e-05 0 0.01494061297688737 -2.7878593816617765e-05 0 0.014999867930973921 -2.5210819241919719e-08 0 0.014999840307302829 -3.6584544861310296e-08 0 0.01494061297688737 -2.7878593816617765e-05 0 0.014999867930973921 -2.5210819241919719e-08 0 0.014953225807658135 -2.4786122135000704e-05 0 0.015000061047161352 4.3828992767439482e-09 0 0.014954835374650255 -5.0451962291361987e-05 0 0.014953225807658135 -2.4786122135000704e-05 0 0.015000061047161352 4.3828992767439482e-09 0 0.014999867930973921 -2.5210819241919719e-08 0 0.014953225807658135 -2.4786122135000704e-05 0 0.014992377063198227 1.8940218433629986e-06 0 0.01499999614356764 1.8251332847620311e-08 0 0.014999963328574699 -2.2121030998385082e-08 0 0.014992377063198227 1.8940218433629986e-06 0 0.014992385558487845 -6.0255445401073203e-06 0 0.014981370899466814 5.0746931865445739e-06 0 0.014998345792476782 -1.3978605545948051e-07 0 0.014396689100920474 -4.6341635749792338e-05 0 0.01494061297688737 -2.7878593816617765e-05 0 0.014999840307302829 -3.6584544861310296e-08 0 0.014911129145156042 -5.0658370493478509e-05 0 0.014992377063198227 1.8940218433629986e-06 0 0.01499999614356764 1.8251332847620311e-08 0 0.014997129670591513 -3.0832121180686267e-06 0 0.014396689100920474 -4.6341635749792338e-05 0 0.013649449948040678 -6.1904029117566819e-05 0 0.014860527652912523 -6.7014448436435032e-05 0 0.014911129145156042 -5.0658370493478509e-05 0 0.014878785362944395 -7.1721386126868272e-05 0 0.014997129670591513 -3.0832121180686267e-06 0 0.014992385558487845 -6.0255445401073203e-06 0 0.014994423373817104 -9.641773351715101e-06 0 0.014215111788338602 -0.00023841676155246923 0 0.013649449948040678 -6.1904029117566819e-05 0 0.014992377063198227 1.8940218433629986e-06 0 0.014997129670591513 -3.0832121180686267e-06 0 0.014992385558487845 -6.0255445401073203e-06 0 0.014877431673203961 4.7123025696814606e-05 0 0.014946322093743251 6.2227726539251571e-05 0 0.014981370899466814 5.0746931865445739e-06 0 0.014215111788338602 -0.00023841676155246923 0 0.014369036479128263 -0.00027430776492997142 0 0.01491499630482164 9.4130652748374566e-05 0 0.014953342154660654 0.00012407957534427605 0 0.014946322093743251 6.2227726539251571e-05 0 0.014877431673203961 4.7123025696814606e-05 0 0.01491499630482164 9.4130652748374566e-05 0 0.014946322093743251 6.2227726539251571e-05 0 0.01491499630482164 9.4130652748374566e-05 0 0.014880416075926285 0.00014120442530055204 0 0.014953342154660654 0.00012407957534427605 0 0.014877431673203961 4.7123025696814606e-05 0 0.01491499630482164 9.4130652748374566e-05 0 0.014880416075926285 0.00014120442530055204 0 0.014877431673203961 4.7123025696814606e-05 0 0.014880416075926285 0.00014120442530055204 0 0.014783100839237907 0.00011554085364916321 0 0.014880416075926285 0.00014120442530055204 0 0.014828779501599238 0.00018745415173869443 0 0.014873001307461569 0.00020541215604728176 0 0.014880416075926285 0.00014120442530055204 0 0.014873001307461569 0.00020541215604728176 0 0.014937955446586819 0.00022294005788264321 0 0.014880416075926285 0.00014120442530055204 0 0.014937955446586819 0.00022294005788264321 0 0.014953342154660654 0.00012407957534427605 0 0.01076654722557289 0.00061819459606884475 0 0.01072907652189964 0.0006959809883593256 0 0.010728935903437598 0.00060220902965060156 0 0.014783100839237907 0.00011554085364916321 0 0.014828779501599238 0.00018745415173869443 0 0.01476895934907327 0.00023756578503373487 0 0.013649449948040678 -6.1904029117566819e-05 0 0.012963637245379208 0.00036314603659534303 0 0.014880416075926285 0.00014120442530055204 0 0.014783100839237907 0.00011554085364916321 0 0.014828779501599238 0.00018745415173869443 0 0.014828779501599238 0.00018745415173869443 0 0.01476895934907327 0.00023756578503373487 0 0.014842954149953033 0.00024454373442848846 0 0.01476895934907327 0.00023756578503373487 0 0.014842954149953033 0.00024454373442848846 0 0.014804535901373801 0.00029821228012848753 0 0.01076654722557289 0.00061819459606884475 0 0.010728935903437598 0.00060220902965060156 0 0.010785181064069976 0.00054748434429433902 0 0.014873001307461569 0.00020541215604728176 0 0.014883586718209531 0.00024430138786869093 0 0.014937955446586819 0.00022294005788264321 0 0.014828779501599238 0.00018745415173869443 0 0.014873001307461569 0.00020541215604728176 0 0.014842954149953033 0.00024454373442848846 0 0.014873001307461569 0.00020541215604728176 0 0.014842954149953033 0.00024454373442848846 0 0.014883586718209531 0.00024430138786869093 0 0.014842954149953033 0.00024454373442848846 0 0.014861442919480985 0.00027733850087874616 0 0.014850785490641462 0.00032381858026115794 0 0.012934372944949498 0.00036242499428503188 0 0.01274419460881159 0.00032210005132111405 0 0.014842954149953033 0.00024454373442848846 0 0.014861442919480985 0.00027733850087874616 0 0.014883586718209531 0.00024430138786869093 0 0.014883586718209531 0.00024430138786869093 0 0.014908641622505112 0.0002771556249177823 0 0.014937955446586819 0.00022294005788264321 0 0.014861442919480985 0.00027733850087874616 0 0.014883586718209531 0.00024430138786869093 0 0.014908641622505112 0.0002771556249177823 0 0.013372864826363412 0.00033564421778496466 0 0.013167286078690431 0.00022120154864940837 0 0.014861442919480985 0.00027733850087874616 0 0.014897309073115837 0.00031378157602338796 0 0.014850785490641462 0.00032381858026115794 0 0.014861442919480985 0.00027733850087874616 0 0.014908641622505112 0.0002771556249177823 0 0.014913682494194952 0.00032469639093613326 0 0.014908641622505112 0.0002771556249177823 0 0.014913682494194952 0.00032469639093613326 0 0.0149427420915367 0.00031938871955357442 0 0.013167286078690431 0.00022120154864940837 0 0.01274419460881159 0.00032210005132111405 0 0.014842954149953033 0.00024454373442848846 0 0.014851120334499621 0.00034710947496755754 0 0.014804535901373801 0.00029821228012848753 0 0.010545650774307191 0.00048708607890302053 0 0.010527364477197525 0.00036337119505989003 0 0.010591784268549453 0.0004167285801329972 0 0.01274419460881159 0.00032210005132111405 0 0.012278626633301459 0.00029409553583861135 0 0.012495520159595654 0.00031805852421107247 0 0.012484332083633379 0.00030625123873785913 0 0.012491129062601211 0.00029149344979188975 0 0.012478675715178291 0.00032085689378351953 0 0.012495520159595654 0.00031805852421107247 0 0.012484332083633379 0.00030625123873785913 0 0.012478675715178291 0.00032085689378351953 0 0.012484332083633379 0.00030625123873785913 0 0.012469310604229795 0.00031232181354683841 0 0.012341208005615199 0.00028085425318489409 0 0.012992214711554666 0.00016504845318108825 0 0.012484332083633379 0.00030625123873785913 0 0.012481574842400613 0.00028135891509698045 0 0.012469310604229795 0.00031232181354683841 0 0.012484332083633379 0.00030625123873785913 0 0.012491129062601211 0.00029149344979188975 0 0.012481574842400613 0.00028135891509698045 0 0.010527364477197525 0.00036337119505989003 0 0.010603467335312615 0.00030169618341462437 0 0.010591784268549453 0.0004167285801329972 0 0.012491129062601211 0.00029149344979188975 0 0.012485597154607198 0.00028048521991507608 0 0.012486273650054263 0.00026541924197435486 0 0.010527364477197525 0.00036337119505989003 0 0.010603467335312615 0.00030169618341462437 0 0.010513157833162598 0.00023855712294925107 0 0.012278626633301459 0.00029409553583861135 0 0.011969318705575894 0.00030112022053534659 0 0.011685326892260296 0.00026105356844107299 0 0.011720627761406753 0.00016247671641001616 0 0.011582798219656987 0.00028378739697745907 0 0.01234264927375869 0.00028061884361894808 0 0.012341208005615199 0.00028085425318489409 0 0.012491129062601211 0.00029149344979188975 0 0.012485597154607198 0.00028048521991507608 0 0.012481574842400613 0.00028135891509698045 0 0.010603467335312615 0.00030169618341462437 0 0.010657740210545309 0.00037625839628984239 0 0.010704227705650719 0.00024912784546186531 0 0.010591784268549453 0.0004167285801329972 0 0.010657740210545309 0.00037625839628984239 0 0.010655375829435968 0.00046721137213536938 0 0.010603467335312615 0.00030169618341462437 0 0.010591784268549453 0.0004167285801329972 0 0.010657740210545309 0.00037625839628984239 0 0.012256094181973466 0.00065523485176093141 0 0.012345979075234376 0.00069613574343270924 0 0.012963637245379208 0.00036314603659534303 0 0.012345979075234376 0.00069613574343270924 0 0.01476895934907327 0.00023756578503373487 0 0.014755393957403136 0.00036365742659624523 0 0.014804535901373801 0.00029821228012848753 0 0.010728935903437598 0.00060220902965060156 0 0.010727927413680454 0.00049840085949925483 0 0.010785181064069976 0.00054748434429433902 0 0.010545650774307191 0.00048708607890302053 0 0.010591784268549453 0.0004167285801329972 0 0.010655375829435968 0.00046721137213536938 0 0.01274419460881159 0.00032210005132111405 0 0.012345979075234376 0.00069613574343270924 0 0.014851120334499621 0.00034710947496755754 0 0.014755393957403136 0.00036365742659624523 0 0.014804535901373801 0.00029821228012848753 0 0.010785181064069976 0.00054748434429433902 0 0.010820087157751405 0.00047016905754277766 0 0.010947965161081262 0.00054425895016008531 0 0.010727927413680454 0.00049840085949925483 0 0.010785181064069976 0.00054748434429433902 0 0.010820087157751405 0.00047016905754277766 0 0.010657740210545309 0.00037625839628984239 0 0.010651486099016156 0.00049348360592307784 0 0.010820087157751405 0.00047016905754277766 0 0.012345979075234376 0.00069613574343270924 0 0.011757922781906441 0.00073855847565713428 0 0.010820087157751405 0.00047016905754277766 0 0.010947965161081262 0.00054425895016008531 0 0.010957390739288888 0.00040209811549480918 0 0.010820087157751405 0.00047016905754277766 0 0.010957390739288888 0.00040209811549480918 0 0.010834618220606801 0.00030650456909050734 0 0.010957390739288888 0.00040209811549480918 0 0.010834618220606801 0.00030650456909050734 0 0.010947076555812046 0.00020404704578663361 0 0.010820087157751405 0.00047016905754277766 0 0.010834618220606801 0.00030650456909050734 0 0.010753993837380569 0.00034899797464503257 0 0.010657740210545309 0.00037625839628984239 0 0.010820087157751405 0.00047016905754277766 0 0.010753993837380569 0.00034899797464503257 0 0.010657740210545309 0.00037625839628984239 0 0.010753993837380569 0.00034899797464503257 0 0.010704227705650719 0.00024912784546186531 0 0.010834618220606801 0.00030650456909050734 0 0.010753993837380569 0.00034899797464503257 0 0.010704227705650719 0.00024912784546186531 0 0.010834618220606801 0.00030650456909050734 0 0.010704227705650719 0.00024912784546186531 0 0.010827136299714404 0.0001578855025234241 0 0.010834618220606801 0.00030650456909050734 0 0.010827136299714404 0.0001578855025234241 0 0.010947076555812046 0.00020404704578663361 0 0.010827136299714404 0.0001578855025234241 0 0.010947076555812046 0.00020404704578663361 0 0.010894958155198808 6.3505106445353612e-05 0 0.010894958155198808 6.3505106445353612e-05 0 0.010776437900275139 1.693221951008675e-05 0 0.010895948719320366 -3.7113768230842312e-05 0 0.010992862972625731 4.5263230789144113e-05 0 0.010894958155198808 6.3505106445353612e-05 0 0.010895948719320366 -3.7113768230842312e-05 0 0.010992862972625731 4.5263230789144113e-05 0 0.010947076555812046 0.00020404704578663361 0 0.010894958155198808 6.3505106445353612e-05 0 0.010704227705650719 0.00024912784546186531 0 0.010827136299714404 0.0001578855025234241 0 0.010776437900275139 1.693221951008675e-05 0 0.010827136299714404 0.0001578855025234241 0 0.010894958155198808 6.3505106445353612e-05 0 0.010776437900275139 1.693221951008675e-05 0 0.010809592079377343 0.00016446586078680566 0 0.010844397354874158 0.00010990362109483803 0 0.010740338107951124 6.2943306982105789e-05 0 0.010577258611418814 7.5406401989191598e-05 0 0.010631948547808663 0.00016901937591789061 0 0.010704227705650719 0.00024912784546186531 0 0.010740338107951124 6.2943306982105789e-05 0 0.010631948547808663 0.00016901937591789061 0 0.011495145786779451 0.00026289936843382585 0 0.011969318705575894 0.00030112022053534659 0 0.011407633646329881 0.00033119234499365247 0 0.011969318705575894 0.00030112022053534659 0 0.011454432054569192 0.00032809740793153123 0 0.011401129527835653 0.00034390219695408324 0 0.0114441352388794 0.00023247224090199595 0 0.010577258611418814 7.5406401989191598e-05 0 0.010513157833162598 0.00023855712294925107 0 0.010631948547808663 0.00016901937591789061 0 0.011694666228741338 -2.7041722736046982e-05 0 0.011720627761406753 0.00016247671641001616 0 0.011557625654219991 7.6708343010192689e-05 0 0.012485597154607198 0.00028048521991507608 0 0.012481285402818305 0.00028141986141832245 0 0.012486273650054263 0.00026541924197435486 0 0.012341208005615199 0.00028085425318489409 0 0.011969318705575894 0.00030112022053534659 0 0.010603467335312615 0.00030169618341462437 0 0.010704227705650719 0.00024912784546186531 0 0.010631948547808663 0.00016901937591789061 0 0.010603467335312615 0.00030169618341462437 0 0.010513157833162598 0.00023855712294925107 0 0.010631948547808663 0.00016901937591789061 0 0.011375539132486919 6.2437916375952143e-05 0 0.011442840053305857 0.00013184072607236999 0 0.011445753426437484 3.684945935034592e-05 0 0.011375539132486919 6.2437916375952143e-05 0 0.011442840053305857 0.00013184072607236999 0 0.011310075733999257 0.00013407772092962313 0 0.011442840053305857 0.00013184072607236999 0 0.011310075733999257 0.00013407772092962313 0 0.011454450072896938 0.00026255976248755692 0 0.011442840053305857 0.00013184072607236999 0 0.011506852513249488 0.00016920973447725085 0 0.011454008327416464 0.00026071819069873963 0 0.012197759918389488 5.1724768402891773e-05 0 0.012519504007405292 0.00019629906938241514 0 0.011506852513249488 0.00016920973447725085 0 0.011550000024958235 5.2292283320502327e-05 0 0.011572772084873719 0.0002341149052741104 0 0.011720627761406753 0.00016247671641001616 0 0.011557625654219991 7.6708343010192689e-05 0 0.011582798219656987 0.00028378739697745907 0 0.011442840053305857 0.00013184072607236999 0 0.011550000024958235 5.2292283320502327e-05 0 0.011445753426437484 3.684945935034592e-05 0 0.011442840053305857 0.00013184072607236999 0 0.011506852513249488 0.00016920973447725085 0 0.011550000024958235 5.2292283320502327e-05 0 0.011550000024958235 5.2292283320502327e-05 0 0.011478386587269535 -4.5584496827317679e-05 0 0.011445753426437484 3.684945935034592e-05 0 0.011550000024958235 5.2292283320502327e-05 0 0.011478386587269535 -4.5584496827317679e-05 0 0.01153249234471007 -0.00013083196581445197 0 0.012197759918389488 5.1724768402891773e-05 0 0.012097748948992241 -2.2351215379216035e-05 0 0.011694666228741338 -2.7041722736046982e-05 0 0.011557625654219991 7.6708343010192689e-05 0 0.01153249234471007 -0.00013083196581445197 0 0.011478386587269535 -4.5584496827317679e-05 0 0.011383630342016298 -2.774924312804432e-05 0 0.011455020480785477 -0.00015082242040473809 0 0.011383630342016298 -2.774924312804432e-05 0 0.011255704585267102 -8.472268380908899e-05 0 0.011455020480785477 -0.00015082242040473809 0 0.011478386587269535 -4.5584496827317679e-05 0 0.011445753426437484 3.684945935034592e-05 0 0.011383630342016298 -2.774924312804432e-05 0 0.011375539132486919 6.2437916375952143e-05 0 0.011445753426437484 3.684945935034592e-05 0 0.011383630342016298 -2.774924312804432e-05 0 0.011375539132486919 6.2437916375952143e-05 0 0.011383630342016298 -2.774924312804432e-05 0 0.011299414896464856 1.8056560611542307e-05 0 0.011383630342016298 -2.774924312804432e-05 0 0.011255704585267102 -8.472268380908899e-05 0 0.011299414896464856 1.8056560611542307e-05 0 0.011255704585267102 -8.472268380908899e-05 0 0.011299414896464856 1.8056560611542307e-05 0 0.011182231362707577 1.6569823358863367e-06 0 0.011067310009172921 0.00011444567267525619 0 0.011094934537737374 8.7276798018445564e-05 0 0.011131032188274711 -6.0422820581672268e-06 0 0.011188987581346045 -2.0581374631157241e-05 0 0.010994150693980284 0.00022057718009206993 0 0.011255704585267102 -8.472268380908899e-05 0 0.011131032188274711 -6.0422820581672268e-06 0 0.011182231362707577 1.6569823358863367e-06 0 0.011131032188274711 -6.0422820581672268e-06 0 0.011177659497185924 -1.6134587245502871e-05 0 0.011188987581346045 -2.0581374631157241e-05 0 0.011131032188274711 -6.0422820581672268e-06 0 0.011182231362707577 1.6569823358863367e-06 0 0.011177659497185924 -1.6134587245502871e-05 0 0.011182231362707577 1.6569823358863367e-06 0 0.011177659497185924 -1.6134587245502871e-05 0 0.011177171319259221 -1.4618012572666259e-05 0 0.011177659497185924 -1.6134587245502871e-05 0 0.011177171319259221 -1.4618012572666259e-05 0 0.011188339135401298 -1.8246838030777373e-05 0 0.011177171319259221 -1.4618012572666259e-05 0 0.011188339135401298 -1.8246838030777373e-05 0 0.011161212244062699 -3.1684340929480261e-05 0 0.011299414896464856 1.8056560611542307e-05 0 0.011182231362707577 1.6569823358863367e-06 0 0.011310075733999257 0.00013407772092962313 0 0.011375539132486919 6.2437916375952143e-05 0 0.011299414896464856 1.8056560611542307e-05 0 0.011310075733999257 0.00013407772092962313 0 0.011182231362707577 1.6569823358863367e-06 0 0.011177171319259221 -1.4618012572666259e-05 0 0.01115166876183055 -1.7729671622256652e-05 0 0.011735468496111054 -0.00022433673200623091 0 0.011939063831947878 -0.00016498405881490809 0 0.011177171319259221 -1.4618012572666259e-05 0 0.01115166876183055 -1.7729671622256652e-05 0 0.011161212244062699 -3.1684340929480261e-05 0 0.011161212244062699 -3.1684340929480261e-05 0 0.011165874389747119 -5.9101276539782761e-05 0 0.011128724163615026 -3.912952711145334e-05 0 0.012897655016416666 6.9113772411361191e-05 0 0.012744176904842816 0.00014323329841629836 0 0.011188339135401298 -1.8246838030777373e-05 0 0.011161212244062699 -3.1684340929480261e-05 0 0.011165874389747119 -5.9101276539782761e-05 0 0.011188339135401298 -1.8246838030777373e-05 0 0.011165874389747119 -5.9101276539782761e-05 0 0.011261823813204831 -0.00010391442566801807 0 0.012897655016416666 6.9113772411361191e-05 0 0.013047504527134261 4.5124386003673544e-06 0 0.014614817346786687 0.00017636686795594083 0 0.014758634885199056 -2.3414373375840726e-05 0 0.014873576072652347 0.00010399152603793718 0 0.014614817346786687 0.00017636686795594083 0 0.014431754993449532 0.00013282398236655072 0 0.014544324069765649 -9.5102357512332159e-06 0 0.014614817346786687 0.00017636686795594083 0 0.014544324069765649 -9.5102357512332159e-06 0 0.014758634885199056 -2.3414373375840726e-05 0 0.014431754993449532 0.00013282398236655072 0 0.014311354232767136 2.5912172019324239e-05 0 0.014544324069765649 -9.5102357512332159e-06 0 0.014431754993449532 0.00013282398236655072 0 0.014347336692499258 0.00024031568553254146 0 0.014311354232767136 2.5912172019324239e-05 0 0.012744176904842816 0.00014323329841629836 0 0.013533353984684957 6.173386648231713e-05 0 0.013533353984684957 6.173386648231713e-05 0 0.014021140396850909 -4.2267933184977628e-06 0 0.01115166876183055 -1.7729671622256652e-05 0 0.011161212244062699 -3.1684340929480261e-05 0 0.011128724163615026 -3.912952711145334e-05 0 0.014614817346786687 0.00017636686795594083 0 0.014431754993449532 0.00013282398236655072 0 0.014347336692499258 0.00024031568553254146 0 0.012648716886425443 0.00013500067195012884 0 0.012744176904842816 0.00014323329841629836 0 0.011939063831947878 -0.00016498405881490809 0 0.012744176904842816 0.00014323329841629836 0 0.012714046257424172 1.9045920687993819e-05 0 0.012826040420986869 -5.5769788634518957e-06 0 0.012841898682258024 0.00013347130317864777 0 0.012519504007405292 0.00019629906938241514 0 0.012992214711554666 0.00016504845318108825 0 0.012753598970960518 0.00019651043143157967 0 0.012736206953273667 0.00020031243166987889 0 0.012740125758267259 0.0002288839181124724 0 0.012341208005615199 0.00028085425318489409 0 0.012519504007405292 0.00019629906938241514 0 0.011506852513249488 0.00016920973447725085 0 0.011454008327416464 0.00026071819069873963 0 0.011572772084873719 0.0002341149052741104 0 0.012744176904842816 0.00014323329841629836 0 0.012519504007405292 0.00019629906938241514 0 0.012744176904842816 0.00014323329841629836 0 0.012992214711554666 0.00016504845318108825 0 0.013031980627961596 9.9908367030976229e-05 0 0.01310979205573135 0.00024181396056635203 0 0.013065529812474953 0.00029310020189859379 0 0.013168415025912681 0.00022158538895356963 0 0.01310979205573135 0.00024181396056635203 0 0.01317149691391209 0.00024863452797529062 0 0.013167286078690431 0.00022120154864940837 0 0.012992214711554666 0.00016504845318108825 0 0.013136021481877912 0.00045920388001234938 0 0.012997196499444544 0.00033484790874786259 0 0.013005579276388393 0.00040946524406999167 0 0.012992214711554666 0.00016504845318108825 0 0.01314530132161644 0.00016015585687328946 0 0.013031980627961596 9.9908367030976229e-05 0 0.013168415025912681 0.00022158538895356963 0 0.01310979205573135 0.00024181396056635203 0 0.013533353984684957 6.173386648231713e-05 0 0.013290626847505907 0.00015139069090413636 0 0.01310979205573135 0.00024181396056635203 0 0.013065529812474953 0.00029310020189859379 0 0.0131744139965303 0.00027434875929335274 0 0.013167286078690431 0.00022120154864940837 0 0.013290626847505907 0.00015139069090413636 0 0.013136021481877912 0.00045920388001234938 0 0.013013544506256905 0.000480295573486815 0 0.013005579276388393 0.00040946524406999167 0 0.013290626847505907 0.00015139069090413636 0 0.01314530132161644 0.00016015585687328946 0 0.01310979205573135 0.00024181396056635203 0 0.0131744139965303 0.00027434875929335274 0 0.01317149691391209 0.00024863452797529062 0 0.014908641622505112 0.0002771556249177823 0 0.0149427420915367 0.00031938871955357442 0 0.014937955446586819 0.00022294005788264321 0 0.013290626847505907 0.00015139069090413636 0 0.013449548839931463 0.00022324498799903436 0 0.014944790267489627 0.00032368425689926361 0 0.014937955446586819 0.00022294005788264321 0 0.015010860820521424 0.00018455332020429221 0 0.013533353984684957 6.173386648231713e-05 0 0.01387025428554438 -7.207773262808146e-05 0 0.013637456768677546 8.9942204144056491e-06 0 0.013660874877185767 5.0230387051683877e-06 0 0.013643235863181197 4.8036120258033768e-05 0 0.013290626847505907 0.00015139069090413636 0 0.01387025428554438 -7.207773262808146e-05 0 0.014339987738178812 2.5494616799639257e-05 0 0.014405795274183517 -7.4609359880629749e-05 0 0.01431767017519482 -0.0001533732199896683 0 0.014405795274183517 -7.4609359880629749e-05 0 0.014456578091940097 -0.00016933402658619414 0 0.014544324069765649 -9.5102357512332159e-06 0 0.014339987738178812 2.5494616799639257e-05 0 0.014405795274183517 -7.4609359880629749e-05 0 0.014544324069765649 -9.5102357512332159e-06 0 0.014405795274183517 -7.4609359880629749e-05 0 0.014456578091940097 -0.00016933402658619414 0 0.01431767017519482 -0.0001533732199896683 0 0.014456578091940097 -0.00016933402658619414 0 0.014361849508226729 -0.00027075263897319583 0 0.01431767017519482 -0.0001533732199896683 0 0.014456578091940097 -0.00016933402658619414 0 0.014361849508226729 -0.00027075263897319583 0 0.014476146862326487 -0.00029518958135062862 0 0.01387025428554438 -7.207773262808146e-05 0 0.014414688201193144 -8.9983339843353947e-05 0 0.014361849508226729 -0.00027075263897319583 0 0.014317443190279762 -0.00015267879012869937 0 0.014294972924560553 -0.00034170466855874777 0 0.015010860820521424 0.00018455332020429221 0 0.014953342154660654 0.00012407957534427605 0 0.014998157891028549 5.4829708167953423e-05 0 0.014937955446586819 0.00022294005788264321 0 0.015010860820521424 0.00018455332020429221 0 0.014953342154660654 0.00012407957534427605 0 0.013922488674550721 -0.00013483661384671101 0 0.01387025428554438 -7.207773262808146e-05 0 0.014953342154660654 0.00012407957534427605 0 0.014946322093743251 6.2227726539251571e-05 0 0.014998157891028549 5.4829708167953423e-05 0 0.014294972924560553 -0.00034170466855874777 0 0.014420740318111698 -0.0003991521761803643 0 0.014271917154697522 -0.00052969877886878012 0 0.014946322093743251 6.2227726539251571e-05 0 0.014998157891028549 5.4829708167953423e-05 0 0.014981370899466814 5.0746931865445739e-06 0 0.014361849508226729 -0.00027075263897319583 0 0.014294972924560553 -0.00034170466855874777 0 0.014420740318111698 -0.0003991521761803643 0 0.014361849508226729 -0.00027075263897319583 0 0.014476146862326487 -0.00029518958135062862 0 0.014420740318111698 -0.0003991521761803643 0 0.014476146862326487 -0.00029518958135062862 0 0.014420740318111698 -0.0003991521761803643 0 0.014557869828988743 -0.00040528763333176393 0 0.014420740318111698 -0.0003991521761803643 0 0.014459253400047894 -0.00055133717170728483 0 0.014557869828988743 -0.00040528763333176393 0 0.014999563065190758 -1.5897495620744949e-06 0 0.014999997421768153 1.2704401641661885e-10 0 0.015000115709743796 -1.4341947588698749e-07 0 0.014420740318111698 -0.0003991521761803643 0 0.014459253400047894 -0.00055133717170728483 0 0.014271917154697522 -0.00052969877886878012 0 0.014786538122135338 -0.00022644637037907322 0 0.014879237144776942 -6.5972618375798969e-05 0 0.014999997421768153 1.2704401641661885e-10 0 0.015000001907878929 -4.6547704100657792e-10 0 0.015000115709743796 -1.4341947588698749e-07 0 0.014998157891028549 5.4829708167953423e-05 0 0.014993044665067738 -6.7720118537279607e-06 0 0.014981370899466814 5.0746931865445739e-06 0 0.014414688201193144 -8.9983339843353947e-05 0 0.014879237144776942 -6.5972618375798969e-05 0 0.014992377063198227 1.8940218433629986e-06 0 0.014999963328574699 -2.2121030998385082e-08 0 0.014993044665067738 -6.7720118537279607e-06 0 0.014998917259271683 -2.4139650278163993e-07 0 0.014879237144776942 -6.5972618375798969e-05 0 0.014992377063198227 1.8940218433629986e-06 0 0.014993044665067738 -6.7720118537279607e-06 0 0.014981370899466814 5.0746931865445739e-06 0 0.014786271553457481 -0.00037736071802379231 0 0.014863821258203305 -0.00021651702812693375 0 0.014647528488074071 -0.00057274169972759356 0 0.014557869828988743 -0.00040528763333176393 0 0.014750133011866624 -0.00038415910204638417 0 0.014999992959577622 9.1322392189073787e-10 0 0.014994630065520391 -3.0605065866527251e-07 0 0.014996325790637897 3.5811395714511673e-07 0 0.014999992959577622 9.1322392189073787e-10 0 0.015000477058012393 -2.4552735563424884e-07 0 0.014994630065520391 -3.0605065866527251e-07 0 0.014999108136682253 -2.9922234907569427e-06 0 0.014786271553457481 -0.00037736071802379231 0 0.014786538122135338 -0.00022644637037907322 0 0.014786271553457481 -0.00037736071802379231 0 0.014459253400047894 -0.00055133717170728483 0 0.014647528488074071 -0.00057274169972759356 0 0.014557869828988743 -0.00040528763333176393 0 0.014999563065190758 -1.5897495620744949e-06 0 0.014999997421768153 1.2704401641661885e-10 0 0.014978701718732956 -3.5489342913683644e-10 0 0.014476146862326487 -0.00029518958135062862 0 0.014557869828988743 -0.00040528763333176393 0 0.014583962968717248 -0.00023106750837551644 0 0.014557869828988743 -0.00040528763333176393 0 0.014750133011866624 -0.00038415910204638417 0 0.014583962968717248 -0.00023106750837551644 0 0.014750133011866624 -0.00038415910204638417 0 0.01471499344760463 -0.00017514017248299477 0 0.014853720598054383 -0.00019328433984724955 0 0.014750133011866624 -0.00038415910204638417 0 0.01471499344760463 -0.00017514017248299477 0 0.014583962968717248 -0.00023106750837551644 0 0.014456578091940097 -0.00016933402658619414 0 0.014476146862326487 -0.00029518958135062862 0 0.014583962968717248 -0.00023106750837551644 0 0.014456578091940097 -0.00016933402658619414 0 0.014583962968717248 -0.00023106750837551644 0 0.014544324069765649 -9.5102357512332159e-06 0 0.01471499344760463 -0.00017514017248299477 0 0.014583962968717248 -0.00023106750837551644 0 0.014544324069765649 -9.5102357512332159e-06 0 0.01471499344760463 -0.00017514017248299477 0 0.014544324069765649 -9.5102357512332159e-06 0 0.014758634885199056 -2.3414373375840726e-05 0 0.01471499344760463 -0.00017514017248299477 0 0.014758634885199056 -2.3414373375840726e-05 0 0.014853720598054383 -0.00019328433984724955 0 0.014933383673731879 -6.8742914448313784e-05 0 0.014911352052289046 -0.00011598638595100391 0 0.014758634885199056 -2.3414373375840726e-05 0 0.014951327202519103 4.2229396445467709e-06 0 0.014853720598054383 -0.00019328433984724955 0 0.014951327202519103 4.2229396445467709e-06 0 0.014986602539830824 7.6697754123041517e-06 0 0.015001048594036556 1.4202301898010979e-05 0 0.014951327202519103 4.2229396445467709e-06 0 0.014981961884514177 2.3753569599956533e-06 0 0.014986602539830824 7.6697754123041517e-06 0 0.014951327202519103 4.2229396445467709e-06 0 0.014981961884514177 2.3753569599956533e-06 0 0.014981111025393175 8.9098340965301558e-07 0 0.014981961884514177 2.3753569599956533e-06 0 0.014981111025393175 8.9098340965301558e-07 0 0.014990589988044763 3.8624245418339577e-07 0 0.014863821258203305 -0.00021651702812693375 0 0.014911352052289046 -0.00011598638595100391 0 0.014994630065520391 -3.0605065866527251e-07 0 0.014990589988044763 3.8624245418339577e-07 0 0.014996325790637897 3.5811395714511673e-07 0 0.014994630065520391 -3.0605065866527251e-07 0 0.014981111025393175 8.9098340965301558e-07 0 0.014990589988044763 3.8624245418339577e-07 0 0.014981961884514177 2.3753569599956533e-06 0 0.014990589988044763 3.8624245418339577e-07 0 0.014992276916086131 7.5340793209734106e-07 0 0.014999989267596093 5.2872204697510901e-10 0 0.014999991179450943 3.5347888118899932e-10 0 0.014992276916086131 7.5340793209734106e-07 0 0.014990589988044763 3.8624245418339577e-07 0 0.014999989267596093 5.2872204697510901e-10 0 0.014992276916086131 7.5340793209734106e-07 0 0.014990589988044763 3.8624245418339577e-07 0 0.014999989267596093 5.2872204697510901e-10 0 0.014996325790637897 3.5811395714511673e-07 0 0.014999992959577622 9.1322392189073787e-10 0 0.014999989267596093 5.2872204697510901e-10 0 0.014996325790637897 3.5811395714511673e-07 0 0.014997498688176238 1.1384031931992275e-06 0 0.014999993193157504 -1.7234866559066103e-09 0 0.014996030176310555 4.9103589461424142e-07 0 0.014999993193157504 -1.7234866559066103e-09 0 0.014996030176310555 4.9103589461424142e-07 0 0.014999991179450943 3.5347888118899932e-10 0 0.014996030176310555 4.9103589461424142e-07 0 0.014999991179450943 3.5347888118899932e-10 0 0.014992276916086131 7.5340793209734106e-07 0 0.014996030176310555 4.9103589461424142e-07 0 0.014992276916086131 7.5340793209734106e-07 0 0.014990368228117343 3.2386471271653706e-06 0 0.014981961884514177 2.3753569599956533e-06 0 0.014992276916086131 7.5340793209734106e-07 0 0.014990368228117343 3.2386471271653706e-06 0 0.014997498688176238 1.1384031931992275e-06 0 0.014996030176310555 4.9103589461424142e-07 0 0.014990368228117343 3.2386471271653706e-06 0 0.014997111465942436 8.6586325735551546e-06 0 0.014990368228117343 3.2386471271653706e-06 0 0.014981043627472955 1.4703493796708275e-05 0 0.014981961884514177 2.3753569599956533e-06 0 0.014990368228117343 3.2386471271653706e-06 0 0.014981043627472955 1.4703493796708275e-05 0 0.014981961884514177 2.3753569599956533e-06 0 0.014986602539830824 7.6697754123041517e-06 0 0.014981043627472955 1.4703493796708275e-05 0 0.014986602539830824 7.6697754123041517e-06 0 0.014981043627472955 1.4703493796708275e-05 0 0.015001048594036556 1.4202301898010979e-05 0 0.014890634407702909 3.0086444157900674e-05 0 0.014932082734775134 2.0556501084364981e-05 0 0.014981043627472955 1.4703493796708275e-05 0 0.014931971566291044 -2.7676003455565766e-05 0 0.015001048594036556 1.4202301898010979e-05 0 0.014828949999739785 9.3331213789563477e-05 0 0.014981043627472955 1.4703493796708275e-05 0 0.014931971566291044 -2.7676003455565766e-05 0 0.011570102381760837 -0.0001896106371273995 0 0.011553342284879026 -3.2012664429618134e-05 0 0.011468446157050543 -7.588045502245255e-05 0 0.011553342284879026 -3.2012664429618134e-05 0 0.011468446157050543 -7.588045502245255e-05 0 0.011431579849930028 5.7115655268022532e-05 0 0.011468446157050543 -7.588045502245255e-05 0 0.01138317983996426 -6.5605560504286884e-05 0 0.011431579849930028 5.7115655268022532e-05 0 0.011468446157050543 -7.588045502245255e-05 0 0.01140645376621522 -0.0001484257113628752 0 0.01138317983996426 -6.5605560504286884e-05 0 0.013224794408748748 -8.9939080534743866e-05 0 0.01316364047761158 -5.0797834777851948e-05 0 0.011570102381760837 -0.0001896106371273995 0 0.011468446157050543 -7.588045502245255e-05 0 0.01140645376621522 -0.0001484257113628752 0 0.014951327202519103 4.2229396445467709e-06 0 0.015001048594036556 1.4202301898010979e-05 0 0.014873576072652347 0.00010399152603793718 0 0.01140645376621522 -0.0001484257113628752 0 0.011261823813204831 -0.00010391442566801807 0 0.01138317983996426 -6.5605560504286884e-05 0 0.01316364047761158 -5.0797834777851948e-05 0 0.013047504527134261 4.5124386003673544e-06 0 0.014758634885199056 -2.3414373375840726e-05 0 0.014951327202519103 4.2229396445467709e-06 0 0.014873576072652347 0.00010399152603793718 0 0.011188339135401298 -1.8246838030777373e-05 0 0.011261823813204831 -0.00010391442566801807 0 0.011311445874957474 1.2453281753589802e-05 0 0.01091025552016044 -2.836600599521062e-05 0 0.010709432316796394 0.00012323655580612786 0 0.011261823813204831 -0.00010391442566801807 0 0.01138317983996426 -6.5605560504286884e-05 0 0.011311445874957474 1.2453281753589802e-05 0 0.01138317983996426 -6.5605560504286884e-05 0 0.011299419973439685 3.3978520706557169e-05 0 0.011431579849930028 5.7115655268022532e-05 0 0.0095594038641402899 4.4878179629469129e-05 0 0.0095889597584226001 0.00023172300519307595 0 0.0097821175112457887 8.1966832696575844e-05 0 0.010709432316796394 0.00012323655580612786 0 0.010665068912325357 0.00010972831022977248 0 0.011177659497185924 -1.6134587245502871e-05 0 0.011188339135401298 -1.8246838030777373e-05 0 0.011177689392214493 -1.6569544018578399e-05 0 0.010709432316796394 0.00012323655580612786 0 0.010430573556529646 0.00024090526527721014 0 0.011001147078316094 0.00012594943428248786 0 0.010709432316796394 0.00012323655580612786 0 0.011177659497185924 -1.6134587245502871e-05 0 0.011177689392214493 -1.6569544018578399e-05 0 0.011188987581346045 -2.0581374631157241e-05 0 0.0094049908506901869 0.00024249614247808638 0 0.0095889597584226001 0.00023172300519307595 0 0.0094177830468268903 0.00040740702047598629 0 0.0095594038641402899 4.4878179629469129e-05 0 0.0094049908506901869 0.00024249614247808638 0 0.0095889597584226001 0.00023172300519307595 0 0.0095889597584226001 0.00023172300519307595 0 0.0097323430149476604 0.00023026671997024314 0 0.0097821175112457887 8.1966832696575844e-05 0 0.0095889597584226001 0.00023172300519307595 0 0.0097323430149476604 0.00023026671997024314 0 0.0097121239816082856 0.00037516244636885584 0 0.0097323430149476604 0.00023026671997024314 0 0.0098465613952611712 0.00023139627119186473 0 0.0097121239816082856 0.00037516244636885584 0 0.0098465613952611712 0.00023139627119186473 0 0.010014345109409791 0.00033046706966950864 0 0.0097121239816082856 0.00037516244636885584 0 0.0097323430149476604 0.00023026671997024314 0 0.0098465613952611712 0.00023139627119186473 0 0.0097821175112457887 8.1966832696575844e-05 0 0.0098465613952611712 0.00023139627119186473 0 0.01000988834066463 0.00012051012050782195 0 0.010014345109409791 0.00033046706966950864 0 0.010735276728402819 0.00012830209035814328 0 0.010665068912325357 0.00010972831022977248 0 0.011553342284879026 -3.2012664429618134e-05 0 0.011561406892602434 8.0156938435793724e-05 0 0.011431579849930028 5.7115655268022532e-05 0 0.0098465613952611712 0.00023139627119186473 0 0.01000988834066463 0.00012051012050782195 0 0.0097821175112457887 8.1966832696575844e-05 0 0.0095817605370213943 0.00045634217440713971 0 0.0095587427363423502 0.00052878360997881454 0 0.0095196274145688438 0.00049810689082426885 0 0.0095817605370213943 0.00045634217440713971 0 0.0095587427363423502 0.00052878360997881454 0 0.0096272654679147741 0.00051619049526034199 0 0.0096272654679147741 0.00051619049526034199 0 0.0096889415611599826 0.0004760420291508609 0 0.0096700556238065935 0.00054759801608943994 0 0.0097580518721799552 0.00056442118843522972 0 0.0096889415611599826 0.0004760420291508609 0 0.0096700556238065935 0.00054759801608943994 0 0.0095817605370213943 0.00045634217440713971 0 0.0096272654679147741 0.00051619049526034199 0 0.0096889415611599826 0.0004760420291508609 0 0.0097573136150329344 0.00046728421941228337 0 0.0099135447861531095 0.00039691770957203497 0 0.0095817605370213943 0.00045634217440713971 0 0.0096889415611599826 0.0004760420291508609 0 0.0097003260968082025 0.00036573991220619281 0 0.0099135447861531095 0.00039691770957203497 0 0.0096688471471429258 0.00040676519981492373 0 0.0095817605370213943 0.00045634217440713971 0 0.0096963851404547607 0.00037133852467470372 0 0.0095527047972285145 0.00039448498923387446 0 0.0096688471471429258 0.00040676519981492373 0 0.009550510852241869 0.00041661532969817106 0 0.0095889597584226001 0.00023172300519307595 0 0.0097121239816082856 0.00037516244636885584 0 0.0094177830468268903 0.00040740702047598629 0 0.0095817605370213943 0.00045634217440713971 0 0.0095527047972285145 0.00039448498923387446 0 0.0095002506782571518 0.00044954075042965999 0 0.0095527047972285145 0.00039448498923387446 0 0.0094177830468268903 0.00040740702047598629 0 0.0095002506782571518 0.00044954075042965999 0 0.0094177830468268903 0.00040740702047598629 0 0.0094448980526333666 0.00046366913880516067 0 0.0095002506782571518 0.00044954075042965999 0 0.0094177830468268903 0.00040740702047598629 0 0.0094448980526333666 0.00046366913880516067 0 0.0093717808480462735 0.00045728268862188108 0 0.0094448980526333666 0.00046366913880516067 0 0.0093894163985751063 0.00050108095999470666 0 0.0093717808480462735 0.00045728268862188108 0 0.0094448980526333666 0.00046366913880516067 0 0.0094333306106724659 0.00051362814160176267 0 0.0094799343459275476 0.00048436161553481473 0 0.0094333306106724659 0.00051362814160176267 0 0.0094816581263882753 0.00052167384564731677 0 0.0094612232390808414 0.00056046302535871944 0 0.0094333306106724659 0.00051362814160176267 0 0.0094799343459275476 0.00048436161553481473 0 0.0094816581263882753 0.00052167384564731677 0 0.0094333306106724659 0.00051362814160176267 0 0.0094055441284069292 0.0005292865730706709 0 0.0094206015560092272 0.00055809127426658777 0 0.0094448980526333666 0.00046366913880516067 0 0.0094333306106724659 0.00051362814160176267 0 0.0093894163985751063 0.00050108095999470666 0 0.0094333306106724659 0.00051362814160176267 0 0.0094055441284069292 0.0005292865730706709 0 0.0093894163985751063 0.00050108095999470666 0 0.0094055441284069292 0.0005292865730706709 0 0.0093894163985751063 0.00050108095999470666 0 0.009378645046456106 0.00054408976950976612 0 0.0095817605370213943 0.00045634217440713971 0 0.0095002506782571518 0.00044954075042965999 0 0.0095196274145688438 0.00049810689082426885 0 0.0094448980526333666 0.00046366913880516067 0 0.0095002506782571518 0.00044954075042965999 0 0.0094799343459275476 0.00048436161553481473 0 0.0095002506782571518 0.00044954075042965999 0 0.0094799343459275476 0.00048436161553481473 0 0.0095196274145688438 0.00049810689082426885 0 0.0094799343459275476 0.00048436161553481473 0 0.0094816581263882753 0.00052167384564731677 0 0.0095196274145688438 0.00049810689082426885 0 0.0094816581263882753 0.00052167384564731677 0 0.0095196274145688438 0.00049810689082426885 0 0.009511752420035045 0.00055096908149754515 0 0.0095587427363423502 0.00052878360997881454 0 0.0095196274145688438 0.00049810689082426885 0 0.009511752420035045 0.00055096908149754515 0 0.0095587427363423502 0.00052878360997881454 0 0.009511752420035045 0.00055096908149754515 0 0.0095614504809577901 0.00059569526116587986 0 0.009511752420035045 0.00055096908149754515 0 0.0094850990460381909 0.00059863154583863121 0 0.0094612232390808414 0.00056046302535871944 0 0.0094816581263882753 0.00052167384564731677 0 0.009511752420035045 0.00055096908149754515 0 0.0094612232390808414 0.00056046302535871944 0 0.0094850990460381909 0.00059863154583863121 0 0.0095231660030676967 0.00064270485203552006 0 0.0095614504809577901 0.00059569526116587986 0 0.009511752420035045 0.00055096908149754515 0 0.0094850990460381909 0.00059863154583863121 0 0.0095614504809577901 0.00059569526116587986 0 0.0093969425004075124 0.0005744007194128395 0 0.009378645046456106 0.00054408976950976612 0 0.0093602729098898226 0.00058951338148619024 0 0.0093969425004075124 0.0005744007194128395 0 0.009378645046456106 0.00054408976950976612 0 0.0094206015560092272 0.00055809127426658777 0 0.0094055441284069292 0.0005292865730706709 0 0.009378645046456106 0.00054408976950976612 0 0.0094206015560092272 0.00055809127426658777 0 0.0093969425004075124 0.0005744007194128395 0 0.0094206015560092272 0.00055809127426658777 0 0.0094148832374128851 0.00059138425364413372 0 0.0094206015560092272 0.00055809127426658777 0 0.0094612232390808414 0.00056046302535871944 0 0.0094148832374128851 0.00059138425364413372 0 0.0094333306106724659 0.00051362814160176267 0 0.0094206015560092272 0.00055809127426658777 0 0.0094612232390808414 0.00056046302535871944 0 0.0094850990460381909 0.00059863154583863121 0 0.0094148832374128851 0.00059138425364413372 0 0.0094269220517908935 0.000652241626082934 0 0.0094850990460381909 0.00059863154583863121 0 0.0094612232390808414 0.00056046302535871944 0 0.0094148832374128851 0.00059138425364413372 0 0.0093969425004075124 0.0005744007194128395 0 0.0094148832374128851 0.00059138425364413372 0 0.0093602729098898226 0.00058951338148619024 0 0.0094148832374128851 0.00059138425364413372 0 0.0094269220517908935 0.000652241626082934 0 0.009348833342787348 0.00060334673077975143 0 0.0067466611174432671 0.00056106367503369744 0 0.0068376181943158596 0.00050657303163355067 0 0.0068467228277698314 0.00062923889205535434 0 0.0067466611174432671 0.00056106367503369744 0 0.0066518668912506594 0.00049449819117372486 0 0.0067560093071096436 0.00043357668238073972 0 0.0067466611174432671 0.00056106367503369744 0 0.0067560093071096436 0.00043357668238073972 0 0.0068376181943158596 0.00050657303163355067 0 0.0081470452717325118 0.0006544999115756804 0 0.0085766644754919127 0.00067777090449106544 0 0.0094850990460381909 0.00059863154583863121 0 0.0094269220517908935 0.000652241626082934 0 0.0095231660030676967 0.00064270485203552006 0 0.0094269220517908935 0.000652241626082934 0 0.0095231660030676967 0.00064270485203552006 0 0.0095015585961351137 0.00070259808545433883 0 0.0081470452717325118 0.0006544999115756804 0 0.0077876966101264556 0.00068086355353710632 0 0.0077876966101264556 0.00068086355353710632 0 0.0082077614525932641 0.00067689201693995791 0 0.0095231660030676967 0.00064270485203552006 0 0.0095015585961351137 0.00070259808545433883 0 0.0095791799916713997 0.00066008511914196347 0 0.0075479496579267218 0.00071655787781334528 0 0.0074028518709822978 0.00079617576014977026 0 0.0074452233337165656 0.00062816895158579575 0 0.0095791799916713997 0.00066008511914196347 0 0.0095614504809577901 0.00059569526116587986 0 0.0096551995843350315 0.00061780490257817714 0 0.0076931639863647063 0.00063760248055886877 0 0.0075479496579267218 0.00071655787781334528 0 0.0075617390936981504 0.00054741588658556634 0 0.0082077614525932641 0.00067689201693995791 0 0.0083417328405813781 0.00078378175951374627 0 0.0095231660030676967 0.00064270485203552006 0 0.0095791799916713997 0.00066008511914196347 0 0.0095614504809577901 0.00059569526116587986 0 0.0095614504809577901 0.00059569526116587986 0 0.009619831610243568 0.00056286968209707383 0 0.0096551995843350315 0.00061780490257817714 0 0.0095587427363423502 0.00052878360997881454 0 0.0096272654679147741 0.00051619049526034199 0 0.009619831610243568 0.00056286968209707383 0 0.0095587427363423502 0.00052878360997881454 0 0.0095614504809577901 0.00059569526116587986 0 0.009619831610243568 0.00056286968209707383 0 0.0097580518721799552 0.00056442118843522972 0 0.0096700556238065935 0.00054759801608943994 0 0.0096566896983347385 0.00061875364872043175 0 0.0090694257220044188 0.00066146889896133649 0 0.0083417328405813781 0.00078378175951374627 0 0.0096272654679147741 0.00051619049526034199 0 0.009619831610243568 0.00056286968209707383 0 0.0096700556238065935 0.00054759801608943994 0 0.009619831610243568 0.00056286968209707383 0 0.0096700556238065935 0.00054759801608943994 0 0.0096566896983347385 0.00061875364872043175 0 0.0084659755312480618 0.00084223645167193174 0 0.0083417328405813781 0.00078378175951374627 0 0.0076621663082285345 0.00075962265262477502 0 0.0083417328405813781 0.00078378175951374627 0 0.0072832781555752686 0.00062352622973490493 0 0.0074028518709822978 0.00079617576014977026 0 0.0074452233337165656 0.00062816895158579575 0 0.0085386827552033171 0.0010567756750350442 0 0.0084189019928015228 0.0013524704789072365 0 0.0081562403339934045 0.00096740648760884737 0 0.0072832781555752686 0.00062352622973490493 0 0.0074452233337165656 0.00062816895158579575 0 0.0074299121437214821 0.00045667969662967607 0 0.0065361725023396888 0.00043260011545676367 0 0.0064432121463718853 0.00036855845436846706 0 0.0066126485463566635 0.00037155266130027608 0 0.0074452233337165656 0.00062816895158579575 0 0.0075617390936981504 0.00054741588658556634 0 0.0074299121437214821 0.00045667969662967607 0 0.0075479496579267218 0.00071655787781334528 0 0.0074452233337165656 0.00062816895158579575 0 0.0075617390936981504 0.00054741588658556634 0 0.0070699922181294847 0.00053444169447430085 0 0.0063803577349583456 0.00041322806193481011 0 0.0036347916228208696 0.00028007751955292184 0 0.0036941746326988583 0.00017588924295227712 0 0.0037703876964163322 0.00026368715386723603 0 0.0063803577349583456 0.00041322806193481011 0 0.0064746630398807388 0.00040635134922567919 0 0.0064125533817022207 0.00036858966292500483 0 0.0066126485463566635 0.00037155266130027608 0 0.0065724620189065918 0.00028754527210046613 0 0.0063444101407237122 0.00032139179825277662 0 0.0064125533817022207 0.00036858966292500483 0 0.0065724620189065918 0.00028754527210046613 0 0.0055491087688727308 0.00022228209583131033 0 0.0052566855531761738 0.00029226815356321714 0 0.0066869355394098395 0.00032065153564532023 0 0.0063803577349583456 0.00041322806193481011 0 0.0065351315802575837 0.00025087805792466306 0 0.00601054053186462 0.00039278990155220572 0 0.0057832109050519687 0.00023867391134796252 0 0.0055491087688727308 0.00022228209583131033 0 0.0063803577349583456 0.00041322806193481011 0 0.0036347916228208696 0.00028007751955292184 0 0.0036164265351602879 0.00019331850974177038 0 0.0036941746326988583 0.00017588924295227712 0 0.0036164265351602879 0.00019331850974177038 0 0.0036941746326988583 0.00017588924295227712 0 0.0036144637704810098 0.00011783824306312439 0 0.0036941746326988583 0.00017588924295227712 0 0.0038127446228876593 0.00014500770773293438 0 0.0037703876964163322 0.00026368715386723603 0 0.0042419753309086688 -2.452469001119629e-05 0 0.0039003802790175388 -7.1719058031931632e-05 0 0.0036941746326988583 0.00017588924295227712 0 0.0038127446228876593 0.00014500770773293438 0 0.0037079248498049547 5.5080456309528284e-05 0 0.0036941746326988583 0.00017588924295227712 0 0.0036144637704810098 0.00011783824306312439 0 0.0037079248498049547 5.5080456309528284e-05 0 0.0037107772079159776 0.00015467418429239194 0 0.0038354489967432092 0.00013465010589160857 0 0.0037510563417783656 4.1072492468330773e-05 0 0.0038127446228876593 0.00014500770773293438 0 0.0039168560641764938 0.00024223005895701762 0 0.0037703876964163322 0.00026368715386723603 0 0.0042419753309086688 -2.452469001119629e-05 0 0.0052770749726560786 0.00032933650089536225 0 0.0037107772079159776 0.00015467418429239194 0 0.0037962632770123009 0.00024165732139654194 0 0.0038354489967432092 0.00013465010589160857 0 0.0067786137368860116 0.00025989369400777765 0 0.0066126485463566635 0.00037155266130027608 0 0.0067560093071096436 0.00043357668238073972 0 0.0067786137368860116 0.00025989369400777765 0 0.0066126485463566635 0.00037155266130027608 0 0.0065724620189065918 0.00028754527210046613 0 0.0052770749726560786 0.00032933650089536225 0 0.0052566855531761738 0.00029226815356321714 0 0.0066324170848482255 0.0005001860367509325 0 0.0066126485463566635 0.00037155266130027608 0 0.0067560093071096436 0.00043357668238073972 0 0.0066324170848482255 0.0005001860367509325 0 0.0065361725023396888 0.00043260011545676367 0 0.0066126485463566635 0.00037155266130027608 0 0.0077876966101264556 0.00068086355353710632 0 0.0070699922181294847 0.00053444169447430085 0 0.0077876966101264556 0.00068086355353710632 0 0.0074567646454053744 0.00076132832273172212 0 0.0067560093071096436 0.00043357668238073972 0 0.006913751871761715 0.00039944064986314505 0 0.0068376181943158596 0.00050657303163355067 0 0.006913751871761715 0.00039944064986314505 0 0.0069466026791908343 0.00050271799447275075 0 0.0068376181943158596 0.00050657303163355067 0 0.010608156524835861 0.0010833961745074869 0 0.010598919553734347 0.00087506303996862133 0 0.010782852737689173 0.00086776507996770471 0 0.0083461287069030495 0.00048999805665071413 0 0.0085757646997099701 0.00055499357559524838 0 0.006913751871761715 0.00039944064986314505 0 0.0070487826589397144 0.00037470061294117638 0 0.0069466026791908343 0.00050271799447275075 0 0.006913751871761715 0.00039944064986314505 0 0.0069514223404166719 0.00023795439774284977 0 0.0070487826589397144 0.00037470061294117638 0 0.0069514223404166719 0.00023795439774284977 0 0.0070487826589397144 0.00037470061294117638 0 0.0070644646352809645 0.00027588041423535527 0 0.0067786137368860116 0.00025989369400777765 0 0.0067560093071096436 0.00043357668238073972 0 0.006913751871761715 0.00039944064986314505 0 0.0052770749726560786 0.00032933650089536225 0 0.005980327250075114 0.00066023352131730452 0 0.006770990795215222 0.00026629969716185554 0 0.006913751871761715 0.00039944064986314505 0 0.0069514223404166719 0.00023795439774284977 0 0.0037962632770123009 0.00024165732139654194 0 0.0039108105425814804 0.00022575311082015135 0 0.0038354489967432092 0.00013465010589160857 0 0.0052770749726560786 0.00032933650089536225 0 0.005726300818857318 0.00033329730205455143 0 0.0039108105425814804 0.00022575311082015135 0 0.0038354489967432092 0.00013465010589160857 0 0.0039620524657096286 0.00011721086558213843 0 0.0044462979105394989 0.00072059363384814037 0 0.0045960905052154066 0.00064133860660489346 0 0.0045377681744718738 0.0007842467679810975 0 0.0044462979105394989 0.00072059363384814037 0 0.0045960905052154066 0.00064133860660489346 0 0.004446809893301637 0.00056752305239650359 0 0.0053257131219146461 -6.642969344066456e-05 0 0.0069686843704412473 0.00028321825264629094 0 0.0044462979105394989 0.00072059363384814037 0 0.0042329122417480739 0.00063034335215734105 0 0.004446809893301637 0.00056752305239650359 0 0.0044462979105394989 0.00072059363384814037 0 0.0042329122417480739 0.00063034335215734105 0 0.0043955362536326004 0.00085209874701419369 0 0.005726300818857318 0.00033329730205455143 0 0.0069686843704412473 0.00028321825264629094 0 0.0069514223404166719 0.00023795439774284977 0 0.0071255535482836327 0.00021113651955579881 0 0.0070644646352809645 0.00027588041423535527 0 0.0039108105425814804 0.00022575311082015135 0 0.0039620524657096286 0.00011721086558213843 0 0.0040333389449337433 0.00020822675963794813 0 0.0071255535482836327 0.00021113651955579881 0 0.0071504017589985964 0.00024665653709959222 0 0.0070644646352809645 0.00027588041423535527 0 0.0069686843704412473 0.00028321825264629094 0 0.007751202566004688 0.00049036066539956478 0 0.0080635661250176675 0.00049313114428033036 0 0.0080599419749611267 0.00049697989363242548 0 0.0080596126017798246 0.00048645177802994721 0 0.0076496281825217099 0.00033120981699578472 0 0.0085205434171762347 0.00076254522016447942 0 0.010490817233866483 0.00013954799853279213 0 0.010511903024949127 0.00026313497294185847 0 0.010556502887041503 0.00020466079376673033 0 0.0085376042857546949 0.00071602539493328845 0 0.0079852354320352117 -8.4129041672355705e-05 0 0.0071622487327570282 0.00094946712278421873 0 0.007751202566004688 0.00049036066539956478 0 0.0076496281825217099 0.00033120981699578472 0 0.0044462979105394989 0.00072059363384814037 0 0.0043955362536326004 0.00085209874701419369 0 0.0044984305982567674 0.00083414635327717002 0 0.0044462979105394989 0.00072059363384814037 0 0.0044984305982567674 0.00083414635327717002 0 0.0045377681744718738 0.0007842467679810975 0 0.0069686843704412473 0.00028321825264629094 0 0.0076496281825217099 0.00033120981699578472 0 0.0076496281825217099 0.00033120981699578472 0 0.007565395385043569 0.0003972115630017191 0 0.010490817233866483 0.00013954799853279213 0 0.010556502887041503 0.00020466079376673033 0 0.010582024303525821 0.00017677937421703161 0 0.010511903024949127 0.00026313497294185847 0 0.010563572067732436 0.00024517885315834869 0 0.010556502887041503 0.00020466079376673033 0 0.007751202566004688 0.00049036066539956478 0 0.0085205434171762347 0.00076254522016447942 0 0.010542516897188577 0.00030608412945414692 0 0.010511903024949127 0.00026313497294185847 0 0.010563572067732436 0.00024517885315834869 0 0.0085900279736561679 0.00079038100775104291 0 0.0085205434171762347 0.00076254522016447942 0 0.007751202566004688 0.00049036066539956478 0 0.0083461287069030495 0.00048999805665071413 0 0.0071504017589985964 0.00024665653709959222 0 0.0070487826589397144 0.00037470061294117638 0 0.0070644646352809645 0.00027588041423535527 0 0.010340175713629505 0.0011574650043361611 0 0.010608156524835861 0.0010833961745074869 0 0.010441900500524503 0.00099945329502434412 0 0.010432806257456236 0.0012950919233602769 0 0.010340175713629505 0.0011574650043361611 0 0.010608156524835861 0.0010833961745074869 0 0.010608156524835861 0.0010833961745074869 0 0.010441900500524503 0.00099945329502434412 0 0.010598919553734347 0.00087506303996862133 0 0.0085205434171762347 0.00076254522016447942 0 0.0096508837097143956 0.00070766698717899439 0 0.010340175713629505 0.0011574650043361611 0 0.010441900500524503 0.00099945329502434412 0 0.010308656364343948 0.00087056129077898439 0 0.010542516897188577 0.00030608412945414692 0 0.010508860065058067 0.00026090657323246007 0 0.01053848384165809 0.00044455835884290397 0 0.010441900500524503 0.00099945329502434412 0 0.010308656364343948 0.00087056129077898439 0 0.010479279026722316 0.00074523282987382252 0 0.010308656364343948 0.00087056129077898439 0 0.010479279026722316 0.00074523282987382252 0 0.01026900615844851 0.00057831545408484452 0 0.0096508837097143956 0.00070766698717899439 0 0.010352782693760514 0.00057481324715029998 0 0.010444662578475533 0.0005699589193870929 0 0.010479279026722316 0.00074523282987382252 0 0.01026900615844851 0.00057831545408484452 0 0.010444662578475533 0.0005699589193870929 0 0.010388666193389021 0.00043848743162380396 0 0.01026900615844851 0.00057831545408484452 0 0.010569395677957399 0.00058696870467278637 0 0.010479279026722316 0.00074523282987382252 0 0.010682389388457112 0.00067963212515252788 0 0.010569395677957399 0.00058696870467278637 0 0.010682389388457112 0.00067963212515252788 0 0.010663871762683727 0.00053761035609246649 0 0.010569395677957399 0.00058696870467278637 0 0.010519989132951111 0.00048912252318990582 0 0.01060454741762365 0.00049912968183286248 0 0.010569395677957399 0.00058696870467278637 0 0.010663871762683727 0.00053761035609246649 0 0.01060454741762365 0.00049912968183286248 0 0.010444662578475533 0.0005699589193870929 0 0.010569395677957399 0.00058696870467278637 0 0.010519989132951111 0.00048912252318990582 0 0.010444662578475533 0.0005699589193870929 0 0.010569395677957399 0.00058696870467278637 0 0.010479279026722316 0.00074523282987382252 0 0.010598919553734347 0.00087506303996862133 0 0.010479279026722316 0.00074523282987382252 0 0.010682389388457112 0.00067963212515252788 0 0.010441900500524503 0.00099945329502434412 0 0.010598919553734347 0.00087506303996862133 0 0.010479279026722316 0.00074523282987382252 0 0.010782852737689173 0.00086776507996770471 0 0.010946455164858407 0.00065715465787315359 0 0.010682389388457112 0.00067963212515252788 0 0.010598919553734347 0.00087506303996862133 0 0.010782852737689173 0.00086776507996770471 0 0.010682389388457112 0.00067963212515252788 0 0.0085757646997099701 0.00055499357559524838 0 0.0085766644754919127 0.00067777090449106544 0 0.0069466026791908343 0.00050271799447275075 0 0.0068376181943158596 0.00050657303163355067 0 0.0068467228277698314 0.00062923889205535434 0 0.0093602729098898226 0.00058951338148619024 0 0.0093477989748157117 0.00060502327202583263 0 0.0093256801707600583 0.00051497522976683217 0 0.0093477989748157117 0.00060502327202583263 0 0.0092165431051751071 0.00051986874063057774 0 0.0093256801707600583 0.00051497522976683217 0 0.0094148832374128851 0.00059138425364413372 0 0.0093602729098898226 0.00058951338148619024 0 0.009348833342787348 0.00060334673077975143 0 0.008584457915551855 0.00067187125589349779 0 0.0085766644754919127 0.00067777090449106544 0 0.009378645046456106 0.00054408976950976612 0 0.0093602729098898226 0.00058951338148619024 0 0.0093256801707600583 0.00051497522976683217 0 0.0085766644754919127 0.00067777090449106544 0 0.010021263539722528 0.00065966035171464326 0 0.010946455164858407 0.00065715465787315359 0 0.010682389388457112 0.00067963212515252788 0 0.010704463709347611 0.00048447789598144581 0 0.010682389388457112 0.00067963212515252788 0 0.010663871762683727 0.00053761035609246649 0 0.010704463709347611 0.00048447789598144581 0 0.0092165431051751071 0.00051986874063057774 0 0.0093256801707600583 0.00051497522976683217 0 0.0092969187635845094 0.00040940803417746527 0 0.010663871762683727 0.00053761035609246649 0 0.010678597231076942 0.00044721707188298331 0 0.010720332824165164 0.00048067523573248227 0 0.010745727655499124 0.00049400198683355442 0 0.010757700945560257 0.00032303742756059048 0 0.010994150693980284 0.00022057718009206993 0 0.010021263539722528 0.00065966035171464326 0 0.010224732811384177 0.00040642435747844876 0 0.01004570423379956 0.00063968686880297833 0 0.010021263539722528 0.00065966035171464326 0 0.010037931448719223 0.00066471330297006618 0 0.010021263539722528 0.00065966035171464326 0 0.010678597231076942 0.00044721707188298331 0 0.010757700945560257 0.00032303742756059048 0 0.010629672804476981 0.00034356788191113464 0 0.010678597231076942 0.00044721707188298331 0 0.010745727655499124 0.00049400198683355442 0 0.010757700945560257 0.00032303742756059048 0 0.0093256801707600583 0.00051497522976683217 0 0.0093717808480462735 0.00045728268862188108 0 0.0092969187635845094 0.00040940803417746527 0 0.0093894163985751063 0.00050108095999470666 0 0.009378645046456106 0.00054408976950976612 0 0.0093256801707600583 0.00051497522976683217 0 0.0093894163985751063 0.00050108095999470666 0 0.0093256801707600583 0.00051497522976683217 0 0.0093717808480462735 0.00045728268862188108 0 0.0094049908506901869 0.00024249614247808638 0 0.0094177830468268903 0.00040740702047598629 0 0.0092969187635845094 0.00040940803417746527 0 0.0094177830468268903 0.00040740702047598629 0 0.0093717808480462735 0.00045728268862188108 0 0.0092969187635845094 0.00040940803417746527 0 0.010806331344502942 6.4334395022067002e-05 0 0.011131032188274711 -6.0422820581672268e-06 0 0.010994150693980284 0.00022057718009206993 0 0.010430573556529646 0.00024090526527721014 0 0.010224732811384177 0.00040642435747844876 0 0.010757700945560257 0.00032303742756059048 0 0.010827285172003855 0.00020688177555256757 0 0.010679427643427329 0.00022980614900850897 0 0.010757700945560257 0.00032303742756059048 0 0.010679427643427329 0.00022980614900850897 0 0.010629672804476981 0.00034356788191113464 0 0.010757700945560257 0.00032303742756059048 0 0.010994150693980284 0.00022057718009206993 0 0.010827285172003855 0.00020688177555256757 0 0.010806331344502942 6.4334395022067002e-05 0 0.010994150693980284 0.00022057718009206993 0 0.010827285172003855 0.00020688177555256757 0 0.010806331344502942 6.4334395022067002e-05 0 0.010827285172003855 0.00020688177555256757 0 0.010679427643427329 0.00022980614900850897 0 0.010806331344502942 6.4334395022067002e-05 0 0.010679427643427329 0.00022980614900850897 0 0.010491571725265604 0.00016769285772419648 0 0.011067310009172921 0.00011444567267525619 0 0.011033037173087385 0.00019586520549872709 0 0.010679427643427329 0.00022980614900850897 0 0.010554304823669893 0.00027401590711898926 0 0.010629672804476981 0.00034356788191113464 0 0.010679427643427329 0.00022980614900850897 0 0.010554304823669893 0.00027401590711898926 0 0.010491571725265604 0.00016769285772419648 0 0.010479716161651708 0.00027035597346492825 0 0.010554304823669893 0.00027401590711898926 0 0.010507956160281384 0.0003608858418362688 0 0.010479716161651708 0.00027035597346492825 0 0.010554304823669893 0.00027401590711898926 0 0.010491571725265604 0.00016769285772419648 0 0.011033037173087385 0.00019586520549872709 0 0.011011622343784591 0.00035593671528767897 0 0.011455020480785477 -0.00015082242040473809 0 0.01153249234471007 -0.00013083196581445197 0 0.01166750913589186 -0.00021431437276803346 0 0.010491571725265604 0.00016769285772419648 0 0.01038600517886421 0.00028816038965011207 0 0.010220937348638246 0.00026082259580935451 0 0.011694666228741338 -2.7041722736046982e-05 0 0.01153249234471007 -0.00013083196581445197 0 0.01166750913589186 -0.00021431437276803346 0 0.011478386587269535 -4.5584496827317679e-05 0 0.011455020480785477 -0.00015082242040473809 0 0.01153249234471007 -0.00013083196581445197 0 0.010479716161651708 0.00027035597346492825 0 0.01038600517886421 0.00028816038965011207 0 0.010507956160281384 0.0003608858418362688 0 0.010479716161651708 0.00027035597346492825 0 0.010491571725265604 0.00016769285772419648 0 0.01038600517886421 0.00028816038965011207 0 0.01038600517886421 0.00028816038965011207 0 0.010388666193389021 0.00043848743162380396 0 0.010507956160281384 0.0003608858418362688 0 0.010388666193389021 0.00043848743162380396 0 0.010220937348638246 0.00026082259580935451 0 0.01026900615844851 0.00057831545408484452 0 0.01038600517886421 0.00028816038965011207 0 0.010388666193389021 0.00043848743162380396 0 0.010220937348638246 0.00026082259580935451 0 0.010444662578475533 0.0005699589193870929 0 0.010388666193389021 0.00043848743162380396 0 0.010519989132951111 0.00048912252318990582 0 0.010388666193389021 0.00043848743162380396 0 0.010519989132951111 0.00048912252318990582 0 0.010507956160281384 0.0003608858418362688 0 0.010519989132951111 0.00048912252318990582 0 0.010591230665834273 0.00042757728796030507 0 0.010507956160281384 0.0003608858418362688 0 0.010519989132951111 0.00048912252318990582 0 0.01060454741762365 0.00049912968183286248 0 0.010591230665834273 0.00042757728796030507 0 0.010663871762683727 0.00053761035609246649 0 0.010678597231076942 0.00044721707188298331 0 0.01060454741762365 0.00049912968183286248 0 0.010678597231076942 0.00044721707188298331 0 0.01060454741762365 0.00049912968183286248 0 0.010591230665834273 0.00042757728796030507 0 0.010591230665834273 0.00042757728796030507 0 0.010629672804476981 0.00034356788191113464 0 0.010507956160281384 0.0003608858418362688 0 0.010678597231076942 0.00044721707188298331 0 0.010591230665834273 0.00042757728796030507 0 0.010629672804476981 0.00034356788191113464 0 0.010554304823669893 0.00027401590711898926 0 0.010629672804476981 0.00034356788191113464 0 0.010507956160281384 0.0003608858418362688 0 0.011044870200191202 0.00035971953898388529 0 0.01096536450436744 0.00040784323892963749 0 0.010735464251660934 0.00076337403552028738 0 0.010588894766613741 0.0008064319600555531 0 0.010564647874082182 0.00062622313212745424 0 0.011011622343784591 0.00035593671528767897 0 0.010352782693760514 0.00057481324715029998 0 0.011454432054569192 0.00032809740793153123 0 0.011401129527835653 0.00034390219695408324 0 0.011465538943926754 0.00042416681229652048 0 0.011401129527835653 0.00034390219695408324 0 0.011359010032149952 0.00045586130420607391 0 0.011465538943926754 0.00042416681229652048 0 0.011044870200191202 0.00035971953898388529 0 0.011011622343784591 0.00035593671528767897 0 0.011495145786779451 0.00026289936843382585 0 0.011011622343784591 0.00035593671528767897 0 0.010740338107951124 6.2943306982105789e-05 0 0.010577258611418814 7.5406401989191598e-05 0 0.010636154056752285 -7.9871446199023782e-05 0 0.011407633646329881 0.00033119234499365247 0 0.011044870200191202 0.00035971953898388529 0 0.010776437900275139 1.693221951008675e-05 0 0.010895948719320366 -3.7113768230842312e-05 0 0.010846710426446608 -7.3386641002299747e-05 0 0.010740338107951124 6.2943306982105789e-05 0 0.010636154056752285 -7.9871446199023782e-05 0 0.010777912591898956 -0.0001215809291813587 0 0.010844397354874158 0.00010990362109483803 0 0.010913328986538616 0.00015967697685307581 0 0.010895948719320366 -3.7113768230842312e-05 0 0.010846710426446608 -7.3386641002299747e-05 0 0.010889993281498955 -4.2351203974389775e-05 0 0.010913328986538616 0.00015967697685307581 0 0.010930932085411906 9.6383322141642099e-05 0 0.010972095254112038 0.00023627236688274561 0 0.010962229544652358 0.00023886602211913762 0 0.010968329666222075 0.00024658559978550806 0 0.011044870200191202 0.00035971953898388529 0 0.010913328986538616 0.00015967697685307581 0 0.010962229544652358 0.00023886602211913762 0 0.010959604356576646 0.0002496447595663221 0 0.010968329666222075 0.00024658559978550806 0 0.010913328986538616 0.00015967697685307581 0 0.010942243949418794 0.00016087027799599043 0 0.010959604356576646 0.0002496447595663221 0 0.010964853086477312 0.00025855014608422536 0 0.010968329666222075 0.00024658559978550806 0 0.011081821884586751 -8.1721488426395329e-05 0 0.011048103142548905 7.7115191918881418e-05 0 0.010889993281498955 -4.2351203974389775e-05 0 0.011048103142548905 7.7115191918881418e-05 0 0.010918833037920139 0.00014709560615634232 0 0.010889993281498955 -4.2351203974389775e-05 0 0.011048103142548905 7.7115191918881418e-05 0 0.01095513445277083 0.00026291989552075685 0 0.010918833037920139 0.00014709560615634232 0 0.010942243949418794 0.00016087027799599043 0 0.01094445373017437 0.0001844041376575711 0 0.01095513445277083 0.00026291989552075685 0 0.010911040463311055 0.00028634169469419281 0 0.010918833037920139 0.00014709560615634232 0 0.010850124718714479 0.00046120073851445195 0 0.010753487807010388 0.00050046732022755855 0 0.010791180870962315 0.0006135191832785232 0 0.010959604356576646 0.0002496447595663221 0 0.010964853086477312 0.00025855014608422536 0 0.01095513445277083 0.00026291989552075685 0 0.010948351541928214 0.00037098431207856274 0 0.01096536450436744 0.00040784323892963749 0 0.010850124718714479 0.00046120073851445195 0 0.010753487807010388 0.00050046732022755855 0 0.010763807874514001 0.00039664468126792774 0 0.010682025510110466 0.00045669718935638219 0 0.010753487807010388 0.00050046732022755855 0 0.010763807874514001 0.00039664468126792774 0 0.010682025510110466 0.00045669718935638219 0 0.010753487807010388 0.00050046732022755855 0 0.01068094754123592 0.00057123240963356521 0 0.010735464251660934 0.00076337403552028738 0 0.01068094754123592 0.00057123240963356521 0 0.010791180870962315 0.0006135191832785232 0 0.010753487807010388 0.00050046732022755855 0 0.01068094754123592 0.00057123240963356521 0 0.010791180870962315 0.0006135191832785232 0 0.010735464251660934 0.00076337403552028738 0 0.01068094754123592 0.00057123240963356521 0 0.010564647874082182 0.00062622313212745424 0 0.01053848384165809 0.00044455835884290397 0 0.01068094754123592 0.00057123240963356521 0 0.010564647874082182 0.00062622313212745424 0 0.01053848384165809 0.00044455835884290397 0 0.010682025510110466 0.00045669718935638219 0 0.01068094754123592 0.00057123240963356521 0 0.010542516897188577 0.00030608412945414692 0 0.01053848384165809 0.00044455835884290397 0 0.010610208010878872 0.00038167438520329974 0 0.01053848384165809 0.00044455835884290397 0 0.010682025510110466 0.00045669718935638219 0 0.010610208010878872 0.00038167438520329974 0 0.010682025510110466 0.00045669718935638219 0 0.010610208010878872 0.00038167438520329974 0 0.010689895749547842 0.00038306985294473311 0 0.010610208010878872 0.00038167438520329974 0 0.010646211122204643 0.00031976297466095055 0 0.010689895749547842 0.00038306985294473311 0 0.010542516897188577 0.00030608412945414692 0 0.010610208010878872 0.00038167438520329974 0 0.010646211122204643 0.00031976297466095055 0 0.010682025510110466 0.00045669718935638219 0 0.010763807874514001 0.00039664468126792774 0 0.010689895749547842 0.00038306985294473311 0 0.010763807874514001 0.00039664468126792774 0 0.010689895749547842 0.00038306985294473311 0 0.010754491371269954 0.00030839360258919996 0 0.010646211122204643 0.00031976297466095055 0 0.010689895749547842 0.00038306985294473311 0 0.010754491371269954 0.00030839360258919996 0 0.010763807874514001 0.00039664468126792774 0 0.010754491371269954 0.00030839360258919996 0 0.010820607810777488 0.0003196733561824579 0 0.010754491371269954 0.00030839360258919996 0 0.01079338379362639 0.00026658042394895899 0 0.010748465980729977 0.00023919992262526368 0 0.010754491371269954 0.00030839360258919996 0 0.01079338379362639 0.00026658042394895899 0 0.010820607810777488 0.0003196733561824579 0 0.010754491371269954 0.00030839360258919996 0 0.01071392518890517 0.00027108776110969056 0 0.010748465980729977 0.00023919992262526368 0 0.010646211122204643 0.00031976297466095055 0 0.010754491371269954 0.00030839360258919996 0 0.01071392518890517 0.00027108776110969056 0 0.01071392518890517 0.00027108776110969056 0 0.010702279592035022 0.00022235386664545565 0 0.010748465980729977 0.00023919992262526368 0 0.01079338379362639 0.00026658042394895899 0 0.010748465980729977 0.00023919992262526368 0 0.01080207237401362 0.00021556071621652004 0 0.010646211122204643 0.00031976297466095055 0 0.01071392518890517 0.00027108776110969056 0 0.010702279592035022 0.00022235386664545565 0 0.010646211122204643 0.00031976297466095055 0 0.010658642311241083 0.00021062650831411508 0 0.010608295262516765 0.0002541895404504937 0 0.0087755921900555794 -6.9945885655205532e-06 0 0.0085460277847983386 4.0336868099130992e-05 0 0.010542516897188577 0.00030608412945414692 0 0.010646211122204643 0.00031976297466095055 0 0.010608295262516765 0.0002541895404504937 0 0.010542516897188577 0.00030608412945414692 0 0.010608295262516765 0.0002541895404504937 0 0.010563572067732436 0.00024517885315834869 0 0.010658642311241083 0.00021062650831411508 0 0.01060741327989944 0.00020960624522200547 0 0.010608295262516765 0.0002541895404504937 0 0.01060741327989944 0.00020960624522200547 0 0.010608295262516765 0.0002541895404504937 0 0.010563572067732436 0.00024517885315834869 0 0.01060741327989944 0.00020960624522200547 0 0.010563572067732436 0.00024517885315834869 0 0.010556502887041503 0.00020466079376673033 0 0.0076496281825217099 0.00033120981699578472 0 0.0077632220140566666 0.00034327834851342735 0 0.010490817233866483 0.00013954799853279213 0 0.010582024303525821 0.00017677937421703161 0 0.010613647826827251 0.00014875480731286586 0 0.010490817233866483 0.00013954799853279213 0 0.010613647826827251 0.00014875480731286586 0 0.010683632291623864 0.00010936101443614881 0 0.0045001377136569456 0.00083268141967980951 0 0.0045377681744718738 0.0007842467679810975 0 0.0048386445694367647 0.00077462081424542299 0 0.01060741327989944 0.00020960624522200547 0 0.010556502887041503 0.00020466079376673033 0 0.010582024303525821 0.00017677937421703161 0 0.010613647826827251 0.00014875480731286586 0 0.01063320451581979 0.00017579898608548373 0 0.010683632291623864 0.00010936101443614881 0 0.010658642311241083 0.00021062650831411508 0 0.01060741327989944 0.00020960624522200547 0 0.01063320451581979 0.00017579898608548373 0 0.010582024303525821 0.00017677937421703161 0 0.010613647826827251 0.00014875480731286586 0 0.01063320451581979 0.00017579898608548373 0 0.01060741327989944 0.00020960624522200547 0 0.010582024303525821 0.00017677937421703161 0 0.01063320451581979 0.00017579898608548373 0 0.010658642311241083 0.00021062650831411508 0 0.01063320451581979 0.00017579898608548373 0 0.010683632291623864 0.00010936101443614881 0 0.010702279592035022 0.00022235386664545565 0 0.010720270829975748 0.00020593143380078448 0 0.010718951863779644 0.00017798902610001416 0 0.010702279592035022 0.00022235386664545565 0 0.010748465980729977 0.00023919992262526368 0 0.010720270829975748 0.00020593143380078448 0 0.0085460277847983386 4.0336868099130992e-05 0 0.0077632220140566666 0.00034327834851342735 0 0.010748465980729977 0.00023919992262526368 0 0.010720270829975748 0.00020593143380078448 0 0.010768071945387772 0.00020403310938528097 0 0.010748465980729977 0.00023919992262526368 0 0.010768071945387772 0.00020403310938528097 0 0.01080207237401362 0.00021556071621652004 0 0.010768071945387772 0.00020403310938528097 0 0.01080170709542899 0.0001562315782164389 0 0.01080207237401362 0.00021556071621652004 0 0.010720270829975748 0.00020593143380078448 0 0.010768071945387772 0.00020403310938528097 0 0.01080170709542899 0.0001562315782164389 0 0.010720270829975748 0.00020593143380078448 0 0.010718951863779644 0.00017798902610001416 0 0.010739597894047015 0.00017460870347488602 0 0.0087737892849754761 -6.4981257439499724e-05 0 0.008151481922205845 0.00028345409282222797 0 0.0048386445694367647 0.00077462081424542299 0 0.00472758630878171 0.00056397203978109545 0 0.004906230029925393 0.00051899587630620573 0 0.004922153883908929 0.00060595274265221597 0 0.0050133711880783888 0.00050339793565050688 0 0.0049574074577272299 0.00044853585236292337 0 0.0077632220140566666 0.00034327834851342735 0 0.0065641647336496332 0.00068502114603961114 0 0.0077632220140566666 0.00034327834851342735 0 0.008151481922205845 0.00028345409282222797 0 0.004922153883908929 0.00060595274265221597 0 0.0050133711880783888 0.00050339793565050688 0 0.005001550508226706 0.00059261616425960127 0 0.0045960905052154066 0.00064133860660489346 0 0.0048386445694367647 0.00077462081424542299 0 0.00472758630878171 0.00056397203978109545 0 0.0045960905052154066 0.00064133860660489346 0 0.0045377681744718738 0.0007842467679810975 0 0.0048386445694367647 0.00077462081424542299 0 0.0087075820934851035 0.00022879889927421757 0 0.0083588716641633878 0.00030443133200690398 0 0.01087741694452884 0.00016937564355818616 0 0.01090592552360427 0.00020796419230073712 0 0.010922098865537 0.00017739179896190477 0 0.0079349058179000228 0.00021464252617582348 0 0.0078313973310744373 0.00023329233108027327 0 0.0079173647606245855 0.00032025046387155744 0 0.0083588716641633878 0.00030443133200690398 0 0.0072720524152455352 0.00017044563123729315 0 0.0087075820934851035 0.00022879889927421757 0 0.008151481922205845 0.00028345409282222797 0 0.0079349058179000228 0.00021464252617582348 0 0.0080389017214574573 0.00019618554909266661 0 0.0079173647606245855 0.00032025046387155744 0 0.008151481922205845 0.00028345409282222797 0 0.0072720524152455352 0.00017044563123729315 0 0.0050133711880783888 0.00050339793565050688 0 0.005001550508226706 0.00059261616425960127 0 0.0051575758385482917 0.00044080303137185176 0 0.01087741694452884 0.00016937564355818616 0 0.01080170709542899 0.0001562315782164389 0 0.010859653709552167 0.00020503646167191946 0 0.01080170709542899 0.0001562315782164389 0 0.01080207237401362 0.00021556071621652004 0 0.010859653709552167 0.00020503646167191946 0 0.01080207237401362 0.00021556071621652004 0 0.010859653709552167 0.00020503646167191946 0 0.01085358547184913 0.00025008193532161479 0 0.010859653709552167 0.00020503646167191946 0 0.01090592552360427 0.00020796419230073712 0 0.010894568370228359 0.00024462582628674893 0 0.01087741694452884 0.00016937564355818616 0 0.010859653709552167 0.00020503646167191946 0 0.01090592552360427 0.00020796419230073712 0 0.01090592552360427 0.00020796419230073712 0 0.010894568370228359 0.00024462582628674893 0 0.010918745344485432 0.00024581628925581482 0 0.010894568370228359 0.00024462582628674893 0 0.0109139989898692 0.00027817846512084068 0 0.010918745344485432 0.00024581628925581482 0 0.010894568370228359 0.00024462582628674893 0 0.0109139989898692 0.00027817846512084068 0 0.010908592836329979 0.0002869148155183791 0 0.01079338379362639 0.00026658042394895899 0 0.01080207237401362 0.00021556071621652004 0 0.01085358547184913 0.00025008193532161479 0 0.010859653709552167 0.00020503646167191946 0 0.010894568370228359 0.00024462582628674893 0 0.01085358547184913 0.00025008193532161479 0 0.010894568370228359 0.00024462582628674893 0 0.01085358547184913 0.00025008193532161479 0 0.010908592836329979 0.0002869148155183791 0 0.01085358547184913 0.00025008193532161479 0 0.010908592836329979 0.0002869148155183791 0 0.010820607810777488 0.0003196733561824579 0 0.01079338379362639 0.00026658042394895899 0 0.01085358547184913 0.00025008193532161479 0 0.010820607810777488 0.0003196733561824579 0 0.010850124718714479 0.00046120073851445195 0 0.010908592836329979 0.0002869148155183791 0 0.010820607810777488 0.0003196733561824579 0 0.010964853086477312 0.00025855014608422536 0 0.010908592836329979 0.0002869148155183791 0 0.01095513445277083 0.00026291989552075685 0 0.010948351541928214 0.00037098431207856274 0 0.010948364643321057 0.00034246087453840182 0 0.010850124718714479 0.00046120073851445195 0 0.010763807874514001 0.00039664468126792774 0 0.010820607810777488 0.0003196733561824579 0 0.0109139989898692 0.00027817846512084068 0 0.01095513445277083 0.00026291989552075685 0 0.010911040463311055 0.00028634169469419281 0 0.0109139989898692 0.00027817846512084068 0 0.010908592836329979 0.0002869148155183791 0 0.01095513445277083 0.00026291989552075685 0 0.0109139989898692 0.00027817846512084068 0 0.010911040463311055 0.00028634169469419281 0 0.010934765316408706 0.00026427689675832675 0 0.010676561989893793 0.00016424248973255517 0 0.010451938151449703 0.00013832155034497346 0 0.010911040463311055 0.00028634169469419281 0 0.010953364995389491 0.00027909346687249965 0 0.010934765316408706 0.00026427689675832675 0 0.010911040463311055 0.00028634169469419281 0 0.010647272769509896 0.00039132132872777647 0 0.010766184684184402 0.00012646866414565833 0 0.010953364995389491 0.00027909346687249965 0 0.010934765316408706 0.00026427689675832675 0 0.010965836029176479 0.00025399947271116674 0 0.010934765316408706 0.00026427689675832675 0 0.010948873974845326 0.00022206298051648596 0 0.010965836029176479 0.00025399947271116674 0 0.010934765316408706 0.00026427689675832675 0 0.010918745344485432 0.00024581628925581482 0 0.010948873974845326 0.00022206298051648596 0 0.0109139989898692 0.00027817846512084068 0 0.010934765316408706 0.00026427689675832675 0 0.010918745344485432 0.00024581628925581482 0 0.01090592552360427 0.00020796419230073712 0 0.010918745344485432 0.00024581628925581482 0 0.010948873974845326 0.00022206298051648596 0 0.01090592552360427 0.00020796419230073712 0 0.010948873974845326 0.00022206298051648596 0 0.010922098865537 0.00017739179896190477 0 0.0089039138236998196 0.00024887451715077685 0 0.0083588716641633878 0.00030443133200690398 0 0.0089039138236998196 0.00024887451715077685 0 0.0092409318464406007 0.00016826088938419757 0 0.0074381194463280509 -2.90514727092812e-05 0 0.0073777114015125171 -0.00013631122457041632 0 0.0073373727772877125 -0.00010571467448079273 0 0.0074381194463280509 -2.90514727092812e-05 0 0.0073777114015125171 -0.00013631122457041632 0 0.0077561546005229711 -8.7965546390799971e-05 0 0.0078884516580547143 0.00028398770919503411 0 0.0083588716641633878 0.00030443133200690398 0 0.0073777114015125171 -0.00013631122457041632 0 0.0072185274699463134 -0.00010578337821496433 0 0.0072282983039741559 -0.00016044475832102504 0 0.0075239254990817246 -1.7573333228962168e-07 0 0.0077561546005229711 -8.7965546390799971e-05 0 0.0073422012559168021 -0.00011499181185892809 0 0.0075239254990817246 -1.7573333228962168e-07 0 0.0077561546005229711 -8.7965546390799971e-05 0 0.0083116078225672612 -3.4953059039663668e-07 0 0.0073777114015125171 -0.00013631122457041632 0 0.0077561546005229711 -8.7965546390799971e-05 0 0.0073422012559168021 -0.00011499181185892809 0 0.0074381194463280509 -2.90514727092812e-05 0 0.0077561546005229711 -8.7965546390799971e-05 0 0.0078293554598921275 0.00010428620479107181 0 0.0077561546005229711 -8.7965546390799971e-05 0 0.0083116078225672612 -3.4953059039663668e-07 0 0.0082915541631251623 2.831744003825868e-05 0 0.0083116078225672612 -3.4953059039663668e-07 0 0.0082915541631251623 2.831744003825868e-05 0 0.0090982888749902516 1.0266861343856318e-06 0 0.0077561546005229711 -8.7965546390799971e-05 0 0.0082915541631251623 2.831744003825868e-05 0 0.0078293554598921275 0.00010428620479107181 0 0.0082915541631251623 2.831744003825868e-05 0 0.0078293554598921275 0.00010428620479107181 0 0.0084791141104010575 0.00026554807526735566 0 0.0092409318464406007 0.00016826088938419757 0 0.0094675030399449557 4.2822727543976369e-05 0 0.010451938151449703 0.00013832155034497346 0 0.0094675030399449557 4.2822727543976369e-05 0 0.010647272769509896 0.00039132132872777647 0 0.010006742642444113 0.00052011691517319205 0 0.010116052597043512 0.00013135981112036174 0 0.010953364995389491 0.00027909346687249965 0 0.010965836029176479 0.00025399947271116674 0 0.010980236763309207 0.0002749213592896696 0 0.0091001511516247153 2.4781840216076239e-07 0 0.0094675030399449557 4.2822727543976369e-05 0 0.0082915541631251623 2.831744003825868e-05 0 0.0090982888749902516 1.0266861343856318e-06 0 0.0084791141104010575 0.00026554807526735566 0 0.010006742642444113 0.00052011691517319205 0 0.0094495598183295445 1.1215214399181555e-06 0 0.010116052597043512 0.00013135981112036174 0 0.0091004536603582452 -1.371509022716219e-10 0 0.0091180678569556042 -2.1416880845890406e-07 0 0.0094472928795582313 -3.6833247079947823e-10 0 0.0094675030399449557 4.2822727543976369e-05 0 0.0094482699188688096 7.9459610133921573e-08 0 0.010116052597043512 0.00013135981112036174 0 0.0099828014297377119 -4.1228154692397115e-07 0 0.010426046023033169 5.2024334252106193e-05 0 0.0094495598183295445 1.1215214399181555e-06 0 0.010116052597043512 0.00013135981112036174 0 0.0099828014297377119 -4.1228154692397115e-07 0 0.0099828014297377119 -4.1228154692397115e-07 0 0.010501244901844311 -5.2712555427625997e-05 0 0.010426046023033169 5.2024334252106193e-05 0 0.0099828014297377119 -4.1228154692397115e-07 0 0.010501244901844311 -5.2712555427625997e-05 0 0.010516781751299413 -9.427210301574686e-08 0 0.010501244901844311 -5.2712555427625997e-05 0 0.010426046023033169 5.2024334252106193e-05 0 0.010661290884917018 -5.9078495442114844e-06 0 0.010501244901844311 -5.2712555427625997e-05 0 0.010661290884917018 -5.9078495442114844e-06 0 0.010789298429045474 -6.4514879906881894e-05 0 0.010647272769509896 0.00039132132872777647 0 0.010116052597043512 0.00013135981112036174 0 0.010426046023033169 5.2024334252106193e-05 0 0.010647272769509896 0.00039132132872777647 0 0.010426046023033169 5.2024334252106193e-05 0 0.010766184684184402 0.00012646866414565833 0 0.010911040463311055 0.00028634169469419281 0 0.010766184684184402 0.00012646866414565833 0 0.010918833037920139 0.00014709560615634232 0 0.010766184684184402 0.00012646866414565833 0 0.010918833037920139 0.00014709560615634232 0 0.010889993281498955 -4.2351203974389775e-05 0 0.010766184684184402 0.00012646866414565833 0 0.010889993281498955 -4.2351203974389775e-05 0 0.010661290884917018 -5.9078495442114844e-06 0 0.010426046023033169 5.2024334252106193e-05 0 0.010766184684184402 0.00012646866414565833 0 0.010661290884917018 -5.9078495442114844e-06 0 0.010789298429045474 -6.4514879906881894e-05 0 0.010926502958245645 -5.9606825206870208e-05 0 0.010943662196053484 -5.7108404428576663e-05 0 0.010889993281498955 -4.2351203974389775e-05 0 0.010789298429045474 -6.4514879906881894e-05 0 0.010926502958245645 -5.9606825206870208e-05 0 0.010889993281498955 -4.2351203974389775e-05 0 0.010661290884917018 -5.9078495442114844e-06 0 0.010789298429045474 -6.4514879906881894e-05 0 0.010895948719320366 -3.7113768230842312e-05 0 0.010889993281498955 -4.2351203974389775e-05 0 0.010926502958245645 -5.9606825206870208e-05 0 0.010895948719320366 -3.7113768230842312e-05 0 0.010926502958245645 -5.9606825206870208e-05 0 0.011001209678293487 -3.0311564286591044e-05 0 0.011083433937725012 -2.0008768944051115e-05 0 0.011001209678293487 -3.0311564286591044e-05 0 0.010943662196053484 -5.7108404428576663e-05 0 0.010926502958245645 -5.9606825206870208e-05 0 0.011001209678293487 -3.0311564286591044e-05 0 0.010943662196053484 -5.7108404428576663e-05 0 0.010893422398606727 -5.4713701322564268e-05 0 0.010874962633316578 -7.5185545764196889e-05 0 0.010697984563897981 -4.0536768607140715e-05 0 0.011083433937725012 -2.0008768944051115e-05 0 0.010943662196053484 -5.7108404428576663e-05 0 0.010893422398606727 -5.4713701322564268e-05 0 0.011058487467093581 -1.526615286132295e-05 0 0.011083433937725012 -2.0008768944051115e-05 0 0.010893422398606727 -5.4713701322564268e-05 0 0.010789298429045474 -6.4514879906881894e-05 0 0.010943662196053484 -5.7108404428576663e-05 0 0.010893422398606727 -5.4713701322564268e-05 0 0.011058487467093581 -1.526615286132295e-05 0 0.010893422398606727 -5.4713701322564268e-05 0 0.010874962633316578 -7.5185545764196889e-05 0 0.010874962633316578 -7.5185545764196889e-05 0 0.010516781751299413 -9.427210301574686e-08 0 0.010697984563897981 -4.0536768607140715e-05 0 0.011337118439310227 3.6778811387009516e-08 0 0.011425877402819468 5.1182538800926834e-05 0 0.010517596912986059 2.1940877140796396e-07 0 0.011032400900529381 -6.8800357550512911e-05 0 0.010518229032925777 4.2716757099608777e-09 0 0.010501244901844311 -5.2712555427625997e-05 0 0.010516781751299413 -9.427210301574686e-08 0 0.010697984563897981 -4.0536768607140715e-05 0 0.010501244901844311 -5.2712555427625997e-05 0 0.010789298429045474 -6.4514879906881894e-05 0 0.010697984563897981 -4.0536768607140715e-05 0 0.010789298429045474 -6.4514879906881894e-05 0 0.010893422398606727 -5.4713701322564268e-05 0 0.010697984563897981 -4.0536768607140715e-05 0 0.0038008555750291906 4.9316904853721133e-05 0 0.0036780852088595913 0.00011815054711656779 0 0.0035266787097145915 5.0898886768354533e-05 0 0.0038008555750291906 4.9316904853721133e-05 0 0.0036780852088595913 0.00011815054711656779 0 0.0040984493399336261 8.6829561591036022e-05 0 0.0036780852088595913 0.00011815054711656779 0 0.0035266787097145915 5.0898886768354533e-05 0 0.0034221443910210825 0.00013605950574830641 0 0.0036780852088595913 0.00011815054711656779 0 0.0034221443910210825 0.00013605950574830641 0 0.0036662308603711124 0.00030690306573805055 0 0.0036780852088595913 0.00011815054711656779 0 0.0040984493399336261 8.6829561591036022e-05 0 0.0036662308603711124 0.00030690306573805055 0 0.0038008555750291906 4.9316904853721133e-05 0 0.0040984493399336261 8.6829561591036022e-05 0 0.0041410507979401188 -3.2210412593601719e-07 0 0.0040984493399336261 8.6829561591036022e-05 0 0.0041410507979401188 -3.2210412593601719e-07 0 0.0049880417226551739 1.1931521796914672e-06 0 0.0038008555750291906 4.9316904853721133e-05 0 0.0041410507979401188 -3.2210412593601719e-07 0 0.0034870913849500045 -8.5017222849523706e-07 0 0.0041410507979401188 -3.2210412593601719e-07 0 0.0034870913849500045 -8.5017222849523706e-07 0 0.0033271441688452739 -1.9144748227589788e-06 0 0.0038008555750291906 4.9316904853721133e-05 0 0.0034870913849500045 -8.5017222849523706e-07 0 0.0035266787097145915 5.0898886768354533e-05 0 0.0034870913849500045 -8.5017222849523706e-07 0 0.0035266787097145915 5.0898886768354533e-05 0 0.0033475515022111354 3.8703238273302197e-05 0 0.0034870913849500045 -8.5017222849523706e-07 0 0.0033475515022111354 3.8703238273302197e-05 0 0.0032558633224883567 7.1255377249741004e-06 0 0.0033475515022111354 3.8703238273302197e-05 0 0.003229341503636018 0.00010569441104367598 0 0.0032116075488075732 4.0011387554251454e-05 0 0.0033475515022111354 3.8703238273302197e-05 0 0.003229341503636018 0.00010569441104367598 0 0.0034221443910210825 0.00013605950574830641 0 0.0035266787097145915 5.0898886768354533e-05 0 0.0033475515022111354 3.8703238273302197e-05 0 0.0034221443910210825 0.00013605950574830641 0 0.003229341503636018 0.00010569441104367598 0 0.0030645521850102245 0.00016557273624442473 0 0.0030756737873878647 0.00010133663393295738 0 0.003229341503636018 0.00010569441104367598 0 0.0030756737873878647 0.00010133663393295738 0 0.0032116075488075732 4.0011387554251454e-05 0 0.0044661982511836748 -0.00012868046052063345 0 0.0041222440423070604 -0.0003318144411448735 0 0.003229341503636018 0.00010569441104367598 0 0.0033071382208524824 0.0002306410161451982 0 0.0030645521850102245 0.00016557273624442473 0 0.0045778599365435806 -0.00024547143706777155 0 0.0045320643658945904 -0.00026765678596842339 0 0.004542919852442988 -0.00032053347404309792 0 0.0046200887120721153 -0.00027969428153708974 0 0.0045778599365435806 -0.00024547143706777155 0 0.004542919852442988 -0.00032053347404309792 0 0.0044661982511836748 -0.00012868046052063345 0 0.0047377804560294204 -0.00018718829976343697 0 0.0043683492845097158 -6.6613715031923056e-05 0 0.0044661982511836748 -0.00012868046052063345 0 0.003229341503636018 0.00010569441104367598 0 0.0034221443910210825 0.00013605950574830641 0 0.0033071382208524824 0.0002306410161451982 0 0.0034221443910210825 0.00013605950574830641 0 0.0033132843064853528 0.00022596122032076459 0 0.0036662308603711124 0.00030690306573805055 0 0.0053846718972041544 4.038855558523308e-05 0 0.0053682743067130206 2.4651772240804545e-05 0 0.0053489425770154673 2.7374905989089034e-05 0 0.0044661982511836748 -0.00012868046052063345 0 0.0046723854573442556 -6.4102966796328708e-05 0 0.0053802771315290343 2.0653236516097415e-05 0 0.0054017006297284349 1.3214882119563193e-05 0 0.0053581527477873665 6.6871066333024786e-06 0 0.0054017006297284349 1.3214882119563193e-05 0 0.0054215499212002761 2.5919910018763429e-05 0 0.0054436913065479186 2.549455085752809e-05 0 0.0053089035621809054 1.5069297866967138e-06 0 0.0052482588479735694 -1.0885451513070584e-06 0 0.0053682743067130206 2.4651772240804545e-05 0 0.0053802771315290343 2.0653236516097415e-05 0 0.0053581527477873665 6.6871066333024786e-06 0 0.0053846718972041544 4.038855558523308e-05 0 0.0053682743067130206 2.4651772240804545e-05 0 0.0053802771315290343 2.0653236516097415e-05 0 0.0053846718972041544 4.038855558523308e-05 0 0.0053802771315290343 2.0653236516097415e-05 0 0.0054042517466420985 1.7679946920046682e-05 0 0.0054042517466420985 1.7679946920046682e-05 0 0.0054017006297284349 1.3214882119563193e-05 0 0.0053959431132251439 1.5197853613154164e-05 0 0.0053802771315290343 2.0653236516097415e-05 0 0.0054042517466420985 1.7679946920046682e-05 0 0.0054017006297284349 1.3214882119563193e-05 0 0.0047377804560294204 -0.00018718829976343697 0 0.0048825478741722876 -0.00019830925534141742 0 0.0054017006297284349 1.3214882119563193e-05 0 0.0053863261704105827 2.7330194654863667e-05 0 0.0053959431132251439 1.5197853613154164e-05 0 0.0051264802248466891 -2.5154847706182234e-08 0 0.0048825478741722876 -0.00019830925534141742 0 0.0053863261704105827 2.7330194654863667e-05 0 0.0052307134070358596 -4.7703446525823234e-05 0 0.0052195992807472563 -0.00022449689526284698 0 0.0054017006297284349 1.3214882119563193e-05 0 0.0054215499212002761 2.5919910018763429e-05 0 0.0053863261704105827 2.7330194654863667e-05 0 0.0054215499212002761 2.5919910018763429e-05 0 0.0054446160927316082 3.361263562869876e-05 0 0.0054436913065479186 2.549455085752809e-05 0 0.0054215499212002761 2.5919910018763429e-05 0 0.0054333310019470914 3.797319383176786e-05 0 0.0053863261704105827 2.7330194654863667e-05 0 0.0054215499212002761 2.5919910018763429e-05 0 0.0054446160927316082 3.361263562869876e-05 0 0.0054333310019470914 3.797319383176786e-05 0 0.0054446160927316082 3.361263562869876e-05 0 0.0054642268329402289 3.5378066296027166e-05 0 0.0054333310019470914 3.797319383176786e-05 0 0.0054528792688903829 4.4309455194432127e-05 0 0.0054446160927316082 3.361263562869876e-05 0 0.0054642268329402289 3.5378066296027166e-05 0 0.0054528792688903829 4.4309455194432127e-05 0 0.0054446160927316082 3.361263562869876e-05 0 0.0054436913065479186 2.549455085752809e-05 0 0.0052482588479735694 -1.0885451513070584e-06 0 0.0049988175934959599 -1.2546668094608483e-05 0 0.0053581527477873665 6.6871066333024786e-06 0 0.0053489425770154673 2.7374905989089034e-05 0 0.0053037157613616288 5.9418154566795277e-06 0 0.0054528792688903829 4.4309455194432127e-05 0 0.0054436913065479186 2.549455085752809e-05 0 0.00545696035825779 9.5002460536956575e-05 0 0.0040984493399336261 8.6829561591036022e-05 0 0.0036662308603711124 0.00030690306573805055 0 0.0043045623401275802 0.00033530836423856155 0 0.0046723854573442556 -6.4102966796328708e-05 0 0.0049988175934959599 -1.2546668094608483e-05 0 0.0053682743067130206 2.4651772240804545e-05 0 0.0053581527477873665 6.6871066333024786e-06 0 0.0053489425770154673 2.7374905989089034e-05 0 0.0040984493399336261 8.6829561591036022e-05 0 0.0043045623401275802 0.00033530836423856155 0 0.0049880417226551739 1.1931521796914672e-06 0 0.0049988175934959599 -1.2546668094608483e-05 0 0.0051605415547422481 8.3522623397720623e-08 0 0.0049855561178498032 -2.9613173030967437e-07 0 0.0049903553011861734 2.9643927044282837e-10 0 0.0051598944067238707 -5.9081816143862488e-10 0 0.0049988175934959599 -1.2546668094608483e-05 0 0.0049892240207408678 -4.3190601196684704e-08 0 0.00545696035825779 9.5002460536956575e-05 0 0.0053965026224936166 3.184345840925376e-05 0 0.0051621184492558992 6.6043997528532741e-07 0 0.0053965026224936166 3.184345840925376e-05 0 0.0051621184492558992 6.6043997528532741e-07 0 0.0059486880444953854 -1.0746948220686435e-07 0 0.0054528792688903829 4.4309455194432127e-05 0 0.0053965026224936166 3.184345840925376e-05 0 0.0054642268329402289 3.5378066296027166e-05 0 0.0060044090450901578 0.00010547147353836882 0 0.0061268677626566612 0.00010259351938076147 0 0.0054528792688903829 4.4309455194432127e-05 0 0.00545696035825779 9.5002460536956575e-05 0 0.0053965026224936166 3.184345840925376e-05 0 0.0053965026224936166 3.184345840925376e-05 0 0.0059486880444953854 -1.0746948220686435e-07 0 0.0064031000791214335 0.00013958079349879474 0 0.0059486880444953854 -1.0746948220686435e-07 0 0.0064031000791214335 0.00013958079349879474 0 0.0066833271902677462 -5.7133450371626552e-05 0 0.0061268677626566612 0.00010259351938076147 0 0.0063304698035236287 0.0001488420993307606 0 0.0064031000791214335 0.00013958079349879474 0 0.0066833271902677462 -5.7133450371626552e-05 0 0.0070084915176419158 1.6860380766632943e-05 0 0.0059486880444953854 -1.0746948220686435e-07 0 0.0066833271902677462 -5.7133450371626552e-05 0 0.0067365078728767935 -2.256167215108209e-07 0 0.0067365078728767935 -2.256167215108209e-07 0 0.0070249337599861223 -0.00010581820099214451 0 0.0073422012559168021 -0.00011499181185892809 0 0.0066833271902677462 -5.7133450371626552e-05 0 0.0067365078728767935 -2.256167215108209e-07 0 0.0070249337599861223 -0.00010581820099214451 0 0.0066833271902677462 -5.7133450371626552e-05 0 0.0070249337599861223 -0.00010581820099214451 0 0.0070861129621291883 -0.00011066669626589698 0 0.0073777114015125171 -0.00013631122457041632 0 0.0073422012559168021 -0.00011499181185892809 0 0.0072011795105512092 -0.0001619301427666017 0 0.0070249337599861223 -0.00010581820099214451 0 0.0073422012559168021 -0.00011499181185892809 0 0.0072011795105512092 -0.0001619301427666017 0 0.0075239254990817246 -1.7573333228962168e-07 0 0.0067365078728767935 -2.256167215108209e-07 0 0.0073422012559168021 -0.00011499181185892809 0 0.0072282983039741559 -0.00016044475832102504 0 0.0072234544834257159 -0.00013607205322557555 0 0.0072087029800935974 -0.00015467053963188744 0 0.0072282983039741559 -0.00016044475832102504 0 0.0072011795105512092 -0.0001619301427666017 0 0.0072234544834257159 -0.00013607205322557555 0 0.0072185274699463134 -0.00010578337821496433 0 0.0072282983039741559 -0.00016044475832102504 0 0.0072087029800935974 -0.00015467053963188744 0 0.0073777114015125171 -0.00013631122457041632 0 0.0072282983039741559 -0.00016044475832102504 0 0.0072011795105512092 -0.0001619301427666017 0 0.0070249337599861223 -0.00010581820099214451 0 0.0072011795105512092 -0.0001619301427666017 0 0.0070861129621291883 -0.00011066669626589698 0 0.0072011795105512092 -0.0001619301427666017 0 0.0070861129621291883 -0.00011066669626589698 0 0.0072234544834257159 -0.00013607205322557555 0 0.0070861129621291883 -0.00011066669626589698 0 0.0072234544834257159 -0.00013607205322557555 0 0.0070084915176419158 1.6860380766632943e-05 0 0.0053204663737821982 0.00028812885067801372 0 0.0053247959588784101 0.00013649674215902247 0 0.0052392533944538751 0.00019322629991243143 0 0.0053204663737821982 0.00028812885067801372 0 0.0053247959588784101 0.00013649674215902247 0 0.0054393704797556838 0.0001255277135400237 0 0.0066048332899744993 0.00023390710417314022 0 0.0063304698035236287 0.0001488420993307606 0 0.0066833271902677462 -5.7133450371626552e-05 0 0.0070861129621291883 -0.00011066669626589698 0 0.0070084915176419158 1.6860380766632943e-05 0 0.0054642268329402289 3.5378066296027166e-05 0 0.0054393704797556838 0.0001255277135400237 0 0.0054333310019470914 3.797319383176786e-05 0 0.0054393704797556838 0.0001255277135400237 0 0.0054333310019470914 3.797319383176786e-05 0 0.0053863261704105827 2.7330194654863667e-05 0 0.0053247959588784101 0.00013649674215902247 0 0.0053863261704105827 2.7330194654863667e-05 0 0.0052307134070358596 -4.7703446525823234e-05 0 0.0053247959588784101 0.00013649674215902247 0 0.0054393704797556838 0.0001255277135400237 0 0.0053863261704105827 2.7330194654863667e-05 0 0.0051335802249107077 -1.3445037644637168e-05 0 0.0051708729406087896 0.00010142392199794114 0 0.0052307134070358596 -4.7703446525823234e-05 0 0.0053247959588784101 0.00013649674215902247 0 0.0051708729406087896 0.00010142392199794114 0 0.0052307134070358596 -4.7703446525823234e-05 0 0.0051335802249107077 -1.3445037644637168e-05 0 0.0050598935303951126 2.5181458017608966e-05 0 0.0051708729406087896 0.00010142392199794114 0 0.0050598935303951126 2.5181458017608966e-05 0 0.0049053285139318897 -9.3249851451418622e-06 0 0.0050688442366532034 -0.00010693890776870729 0 0.0049287406234395838 -0.00014695656433649887 0 0.0049491337460279561 -0.00018359648197094076 0 0.0051335802249107077 -1.3445037644637168e-05 0 0.0050598935303951126 2.5181458017608966e-05 0 0.0050688442366532034 -0.00010693890776870729 0 0.0050598935303951126 2.5181458017608966e-05 0 0.0050532460067218418 0.00012796618631419511 0 0.0051708729406087896 0.00010142392199794114 0 0.0050598935303951126 2.5181458017608966e-05 0 0.0050532460067218418 0.00012796618631419511 0 0.0049053285139318897 -9.3249851451418622e-06 0 0.0050532460067218418 0.00012796618631419511 0 0.0051379287531057027 0.00024428890189660428 0 0.0049752618584338864 0.00026898357518497244 0 0.0050532460067218418 0.00012796618631419511 0 0.0049752618584338864 0.00026898357518497244 0 0.0049053285139318897 -9.3249851451418622e-06 0 0.0053247959588784101 0.00013649674215902247 0 0.0051708729406087896 0.00010142392199794114 0 0.0052392533944538751 0.00019322629991243143 0 0.0050532460067218418 0.00012796618631419511 0 0.0051708729406087896 0.00010142392199794114 0 0.0051379287531057027 0.00024428890189660428 0 0.0051708729406087896 0.00010142392199794114 0 0.0052392533944538751 0.00019322629991243143 0 0.0051379287531057027 0.00024428890189660428 0 0.0066048332899744993 0.00023390710417314022 0 0.0072720524152455352 0.00017044563123729315 0 0.0053204663737821982 0.00028812885067801372 0 0.0051644292628481242 0.00034578678446084887 0 0.0051658776683562351 0.00044831135214685677 0 0.0053204663737821982 0.00028812885067801372 0 0.0052392533944538751 0.00019322629991243143 0 0.0051379287531057027 0.00024428890189660428 0 0.0053204663737821982 0.00028812885067801372 0 0.0051644292628481242 0.00034578678446084887 0 0.0051379287531057027 0.00024428890189660428 0 0.0051644292628481242 0.00034578678446084887 0 0.0051379287531057027 0.00024428890189660428 0 0.0050711137805141962 0.00033871305445304047 0 0.0051644292628481242 0.00034578678446084887 0 0.0050711137805141962 0.00033871305445304047 0 0.0051289535532069224 0.00041190155876199257 0 0.0051379287531057027 0.00024428890189660428 0 0.0049752618584338864 0.00026898357518497244 0 0.0050711137805141962 0.00033871305445304047 0 0.0049752618584338864 0.00026898357518497244 0 0.0050711137805141962 0.00033871305445304047 0 0.0050389466994909199 0.00042694905368166624 0 0.0050133711880783888 0.00050339793565050688 0 0.0050389466994909199 0.00042694905368166624 0 0.0051575758385482917 0.00044080303137185176 0 0.0050389466994909199 0.00042694905368166624 0 0.0051575758385482917 0.00044080303137185176 0 0.0051289535532069224 0.00041190155876199257 0 0.0049752618584338864 0.00026898357518497244 0 0.0050389466994909199 0.00042694905368166624 0 0.0049574074577272299 0.00044853585236292337 0 0.0050711137805141962 0.00033871305445304047 0 0.0050389466994909199 0.00042694905368166624 0 0.0051289535532069224 0.00041190155876199257 0 0.0050133711880783888 0.00050339793565050688 0 0.0050389466994909199 0.00042694905368166624 0 0.0049574074577272299 0.00044853585236292337 0 0.0051644292628481242 0.00034578678446084887 0 0.0051658776683562351 0.00044831135214685677 0 0.0051289535532069224 0.00041190155876199257 0 0.0072720524152455352 0.00017044563123729315 0 0.0072163247577998113 0.00014194007320950913 0 0.0045960905052154066 0.00064133860660489346 0 0.00472758630878171 0.00056397203978109545 0 0.0045789497299672565 0.00044242024736577555 0 0.0047519664054910642 0.00043476271785597355 0 0.00472758630878171 0.00056397203978109545 0 0.0045789497299672565 0.00044242024736577555 0 0.0047519664054910642 0.00043476271785597355 0 0.00472758630878171 0.00056397203978109545 0 0.004906230029925393 0.00051899587630620573 0 0.0062535453477147824 0.00065428885356404274 0 0.0065641647336496332 0.00068502114603961114 0 0.0049752618584338864 0.00026898357518497244 0 0.0047519664054910642 0.00043476271785597355 0 0.0046602218748684945 0.00027526396888640214 0 0.0049752618584338864 0.00026898357518497244 0 0.0047519664054910642 0.00043476271785597355 0 0.004906230029925393 0.00051899587630620573 0 0.0047519664054910642 0.00043476271785597355 0 0.0046602218748684945 0.00027526396888640214 0 0.0045789497299672565 0.00044242024736577555 0 0.0046602218748684945 0.00027526396888640214 0 0.0047373066582785863 9.9923441575010524e-05 0 0.0044957189282547813 3.8620519121488641e-05 0 0.0049752618584338864 0.00026898357518497244 0 0.0046602218748684945 0.00027526396888640214 0 0.0047373066582785863 9.9923441575010524e-05 0 0.0049752618584338864 0.00026898357518497244 0 0.0047373066582785863 9.9923441575010524e-05 0 0.0049053285139318897 -9.3249851451418622e-06 0 0.0047373066582785863 9.9923441575010524e-05 0 0.0049053285139318897 -9.3249851451418622e-06 0 0.0046803941967917314 -9.5914071356457747e-05 0 0.0047373066582785863 9.9923441575010524e-05 0 0.0046803941967917314 -9.5914071356457747e-05 0 0.0044957189282547813 3.8620519121488641e-05 0 0.0046803941967917314 -9.5914071356457747e-05 0 0.0046889601401923966 -0.00037672857395722469 0 0.0048353287854699632 -0.00021789392269870521 0 0.0046803941967917314 -9.5914071356457747e-05 0 0.0046889601401923966 -0.00037672857395722469 0 0.0045321530040953106 -0.0002450885016108939 0 0.0046889601401923966 -0.00037672857395722469 0 0.0048996614286239571 -0.00036587842058763615 0 0.0047901642730647986 -0.00058167833025404587 0 0.0046889601401923966 -0.00037672857395722469 0 0.0048996614286239571 -0.00036587842058763615 0 0.0048353287854699632 -0.00021789392269870521 0 0.0049053285139318897 -9.3249851451418622e-06 0 0.0048353287854699632 -0.00021789392269870521 0 0.0049547808916452687 -0.00020197932222145281 0 0.0049053285139318897 -9.3249851451418622e-06 0 0.0046803941967917314 -9.5914071356457747e-05 0 0.0048353287854699632 -0.00021789392269870521 0 0.0048996614286239571 -0.00036587842058763615 0 0.0048353287854699632 -0.00021789392269870521 0 0.0049547808916452687 -0.00020197932222145281 0 0.0049053285139318897 -9.3249851451418622e-06 0 0.005066624670775401 -0.00015396732943728171 0 0.0049547808916452687 -0.00020197932222145281 0 0.005066624670775401 -0.00015396732943728171 0 0.0050653207108331925 -0.00026179453950083136 0 0.0049547808916452687 -0.00020197932222145281 0 0.0051335802249107077 -1.3445037644637168e-05 0 0.0050688442366532034 -0.00010693890776870729 0 0.0052307134070358596 -4.7703446525823234e-05 0 0.0050688442366532034 -0.00010693890776870729 0 0.0052307134070358596 -4.7703446525823234e-05 0 0.0052195992807472563 -0.00022449689526284698 0 0.0049491337460279561 -0.00018359648197094076 0 0.0048825478741722876 -0.00019830925534141742 0 0.005066624670775401 -0.00015396732943728171 0 0.0050653207108331925 -0.00026179453950083136 0 0.0052307439611583746 -0.00029036054115406338 0 0.0045778599365435806 -0.00024547143706777155 0 0.0045355953910329568 -0.00021092975502586114 0 0.0045320643658945904 -0.00026765678596842339 0 0.0045355953910329568 -0.00021092975502586114 0 0.0044717663998647692 -0.00029375395899892444 0 0.0045320643658945904 -0.00026765678596842339 0 0.0048825478741722876 -0.00019830925534141742 0 0.0046803192353212465 -0.00044321111350959197 0 0.0050653207108331925 -0.00026179453950083136 0 0.0052307439611583746 -0.00029036054115406338 0 0.0050381113319418244 -0.00053969992216054751 0 0.004770587678179619 -0.00037558882274434156 0 0.0046803192353212465 -0.00044321111350959197 0 0.0048996614286239571 -0.00036587842058763615 0 0.0050653207108331925 -0.00026179453950083136 0 0.0050338876659432423 -0.00055729296036042869 0 0.0048996614286239571 -0.00036587842058763615 0 0.0050653207108331925 -0.00026179453950083136 0 0.0049547808916452687 -0.00020197932222145281 0 0.0044717663998647692 -0.00029375395899892444 0 0.0045320643658945904 -0.00026765678596842339 0 0.004542919852442988 -0.00032053347404309792 0 0.0041222440423070604 -0.0003318144411448735 0 0.0042821172382897883 -0.00049209497545539386 0 0.0044717663998647692 -0.00029375395899892444 0 0.004542919852442988 -0.00032053347404309792 0 0.0044651010845669463 -0.00036154382076844006 0 0.0030645521850102245 0.00016557273624442473 0 0.0029542421093644378 0.00012903668816753705 0 0.0030756737873878647 0.00010133663393295738 0 0.0050299402609538368 -0.00054811930119793998 0 0.0050104838655256221 -0.00077214798010093123 0 0.0048495784552206227 -0.00078491841288288783 0 0.0046803192353212465 -0.00044321111350959197 0 0.0047146459089605275 -0.00052149166236323708 0 0.0046803192353212465 -0.00044321111350959197 0 0.0042821172382897883 -0.00049209497545539386 0 0.0050338876659432423 -0.00055729296036042869 0 0.0048495784552206227 -0.00078491841288288783 0 0.0047901642730647986 -0.00058167833025404587 0 0.0048495784552206227 -0.00078491841288288783 0 0.0046862539717684362 -0.00076473108636742097 0 0.0047901642730647986 -0.00058167833025404587 0 0.0045800753968994129 -0.00063359813301707292 0 0.0046862539717684362 -0.00076473108636742097 0 0.0045067025939014528 -0.00085939105973419929 0 0.0045800753968994129 -0.00063359813301707292 0 0.0046862539717684362 -0.00076473108636742097 0 0.0047901642730647986 -0.00058167833025404587 0 0.0046889601401923966 -0.00037672857395722469 0 0.0045800753968994129 -0.00063359813301707292 0 0.0044430992949248882 -0.00043922892168246592 0 0.0046889601401923966 -0.00037672857395722469 0 0.0045800753968994129 -0.00063359813301707292 0 0.0047901642730647986 -0.00058167833025404587 0 0.0048996614286239571 -0.00036587842058763615 0 0.0050338876659432423 -0.00055729296036042869 0 0.0047901642730647986 -0.00058167833025404587 0 0.0043731969146440725 -0.00066993206584805773 0 0.0041552883941008006 -0.00070272181309514949 0 0.0041554233272728634 -0.00048671386787267835 0 0.0043731969146440725 -0.00066993206584805773 0 0.0041554233272728634 -0.00048671386787267835 0 0.0044430992949248882 -0.00043922892168246592 0 0.0045800753968994129 -0.00063359813301707292 0 0.0043731969146440725 -0.00066993206584805773 0 0.0044430992949248882 -0.00043922892168246592 0 0.0045800753968994129 -0.00063359813301707292 0 0.0043731969146440725 -0.00066993206584805773 0 0.0045067025939014528 -0.00085939105973419929 0 0.0043731969146440725 -0.00066993206584805773 0 0.0041552883941008006 -0.00070272181309514949 0 0.004286665243201036 -0.00088552879201299404 0 0.0041552883941008006 -0.00070272181309514949 0 0.003953506831462777 -0.00078422142652040091 0 0.0041066976179733612 -0.00088123234601355301 0 0.0041552883941008006 -0.00070272181309514949 0 0.003953506831462777 -0.00078422142652040091 0 0.0038963356661264768 -0.00051774151166797367 0 0.003953506831462777 -0.00078422142652040091 0 0.0038963356661264768 -0.00051774151166797367 0 0.0037772145234401286 -0.00072243732398435208 0 0.0041552883941008006 -0.00070272181309514949 0 0.0038963356661264768 -0.00051774151166797367 0 0.0041554233272728634 -0.00048671386787267835 0 0.0041554233272728634 -0.00048671386787267835 0 0.003991270663657457 -0.00030548550785559442 0 0.0043043658684393336 -0.00026132070799133987 0 0.0038963356661264768 -0.00051774151166797367 0 0.003991270663657457 -0.00030548550785559442 0 0.0037139403793525075 -0.00031291329083088846 0 0.0038963356661264768 -0.00051774151166797367 0 0.0041554233272728634 -0.00048671386787267835 0 0.003991270663657457 -0.00030548550785559442 0 0.003991270663657457 -0.00030548550785559442 0 0.0040678980999191991 -9.6952573815080984e-05 0 0.0037725326290204706 -8.5243551216645201e-05 0 0.003991270663657457 -0.00030548550785559442 0 0.0043043658684393336 -0.00026132070799133987 0 0.0040678980999191991 -9.6952573815080984e-05 0 0.0041554233272728634 -0.00048671386787267835 0 0.0043232379450112374 -0.0002189248756366288 0 0.0044430992949248882 -0.00043922892168246592 0 0.0042585389083181031 -0.00034145357085125437 0 0.004336547529510495 -0.00021678496702683811 0 0.0043232379450112374 -0.0002189248756366288 0 0.0044430992949248882 -0.00043922892168246592 0 0.0045321530040953106 -0.0002450885016108939 0 0.0046889601401923966 -0.00037672857395722469 0 0.0044430992949248882 -0.00043922892168246592 0 0.0045321530040953106 -0.0002450885016108939 0 0.0046803941967917314 -9.5914071356457747e-05 0 0.0045321530040953106 -0.0002450885016108939 0 0.0044957189282547813 3.8620519121488641e-05 0 0.0043232379450112374 -0.0002189248756366288 0 0.0045321530040953106 -0.0002450885016108939 0 0.0044957189282547813 3.8620519121488641e-05 0 0.004336547529510495 -0.00021678496702683811 0 0.0044701191843002841 -5.6265131249779012e-06 0 0.0043043658684393336 -0.00026132070799133987 0 0.0042687001084048201 7.4644175770723609e-06 0 0.0040678980999191991 -9.6952573815080984e-05 0 0.0043043658684393336 -0.00026132070799133987 0 0.0044830775609640714 -1.1235299587895499e-05 0 0.0042687001084048201 7.4644175770723609e-06 0 0.0044830775609640714 -1.1235299587895499e-05 0 0.0042687001084048201 7.4644175770723609e-06 0 0.0043542136020597536 0.00028914373584213864 0 0.0042687001084048201 7.4644175770723609e-06 0 0.0043542136020597536 0.00028914373584213864 0 0.0041349229120913869 0.00014253853693612956 0 0.0045501731688711291 0.00012196626807423075 0 0.0044701191843002841 -5.6265131249779012e-06 0 0.0046602218748684945 0.00027526396888640214 0 0.0044830775609640714 -1.1235299587895499e-05 0 0.0043542136020597536 0.00028914373584213864 0 0.0046602218748684945 0.00027526396888640214 0 0.0043542136020597536 0.00028914373584213864 0 0.0045789497299672565 0.00044242024736577555 0 0.0042329122417480739 0.00063034335215734105 0 0.0043542136020597536 0.00028914373584213864 0 0.004446809893301637 0.00056752305239650359 0 0.0043542136020597536 0.00028914373584213864 0 0.004446809893301637 0.00056752305239650359 0 0.0045789497299672565 0.00044242024736577555 0 0.0045960905052154066 0.00064133860660489346 0 0.004446809893301637 0.00056752305239650359 0 0.0045789497299672565 0.00044242024736577555 0 0.0038354489967432092 0.00013465010589160857 0 0.0038907199762069694 3.3713565990914205e-05 0 0.0037510563417783656 4.1072492468330773e-05 0 0.0042329122417480739 0.00063034335215734105 0 0.0043542136020597536 0.00028914373584213864 0 0.0040699216569170587 0.00040272358808346242 0 0.0053257131219146461 -6.642969344066456e-05 0 0.0046007813546695298 -9.4022220183619535e-05 0 0.0038354489967432092 0.00013465010589160857 0 0.0039620524657096286 0.00011721086558213843 0 0.0038907199762069694 3.3713565990914205e-05 0 0.0040699216569170587 0.00040272358808346242 0 0.003915799010590683 0.00016612741238971129 0 0.0041349229120913869 0.00014253853693612956 0 0.0043542136020597536 0.00028914373584213864 0 0.0040699216569170587 0.00040272358808346242 0 0.0041349229120913869 0.00014253853693612956 0 0.0038907199762069694 3.3713565990914205e-05 0 0.0038225414397983137 -3.8506768659356827e-05 0 0.0037510563417783656 4.1072492468330773e-05 0 0.0046007813546695298 -9.4022220183619535e-05 0 0.0042540085016165418 -0.0001230383183349327 0 0.003915799010590683 0.00016612741238971129 0 0.0041349229120913869 0.00014253853693612956 0 0.0040678980999191991 -9.6952573815080984e-05 0 0.0042687001084048201 7.4644175770723609e-06 0 0.0041349229120913869 0.00014253853693612956 0 0.0040678980999191991 -9.6952573815080984e-05 0 0.003915799010590683 0.00016612741238971129 0 0.0040678980999191991 -9.6952573815080984e-05 0 0.0037725326290204706 -8.5243551216645201e-05 0 0.0037725326290204706 -8.5243551216645201e-05 0 0.003619707430148732 -9.3514192924711782e-05 0 0.0036411319482248872 -0.00018679198825552324 0 0.0037725326290204706 -8.5243551216645201e-05 0 0.0037242183198919168 -3.5115259727871404e-05 0 0.003619707430148732 -9.3514192924711782e-05 0 0.0038225414397983137 -3.8506768659356827e-05 0 0.0037725326290204706 -8.5243551216645201e-05 0 0.0037242183198919168 -3.5115259727871404e-05 0 0.0042540085016165418 -0.0001230383183349327 0 0.0041372065477644163 -0.00015564461331968917 0 0.0038225414397983137 -3.8506768659356827e-05 0 0.0037242183198919168 -3.5115259727871404e-05 0 0.0037510563417783656 4.1072492468330773e-05 0 0.0037242183198919168 -3.5115259727871404e-05 0 0.0037510563417783656 4.1072492468330773e-05 0 0.0036370668500184176 -1.8818991456634157e-05 0 0.0037107772079159776 0.00015467418429239194 0 0.0037510563417783656 4.1072492468330773e-05 0 0.0036312621824548916 6.5107184093087818e-05 0 0.0037510563417783656 4.1072492468330773e-05 0 0.0036312621824548916 6.5107184093087818e-05 0 0.0036370668500184176 -1.8818991456634157e-05 0 0.0036144637704810098 0.00011783824306312439 0 0.0036006889797943562 4.315440718386841e-05 0 0.0037079248498049547 5.5080456309528284e-05 0 0.0036006889797943562 4.315440718386841e-05 0 0.0037079248498049547 5.5080456309528284e-05 0 0.0035910798969539409 -1.8379209712895952e-05 0 0.0039003802790175388 -7.1719058031931632e-05 0 0.0038019986450789577 -8.7915015015648543e-05 0 0.0036312621824548916 6.5107184093087818e-05 0 0.0036370668500184176 -1.8818991456634157e-05 0 0.0035910798969539409 -1.8379209712895952e-05 0 0.0036370668500184176 -1.8818991456634157e-05 0 0.0035910798969539409 -1.8379209712895952e-05 0 0.0035746654240297842 -6.5258836355829025e-05 0 0.003619707430148732 -9.3514192924711782e-05 0 0.0035209510826020541 -0.00017242445294555459 0 0.0034936611338703101 -0.00010881741166989373 0 0.0035775970292957044 -9.9183330901332785e-05 0 0.0035320000012206598 -8.8877400187413057e-05 0 0.0036370668500184176 -1.8818991456634157e-05 0 0.003619707430148732 -9.3514192924711782e-05 0 0.0035746654240297842 -6.5258836355829025e-05 0 0.0037242183198919168 -3.5115259727871404e-05 0 0.0036370668500184176 -1.8818991456634157e-05 0 0.003619707430148732 -9.3514192924711782e-05 0 0.003619707430148732 -9.3514192924711782e-05 0 0.0035209510826020541 -0.00017242445294555459 0 0.0036411319482248872 -0.00018679198825552324 0 0.0035209510826020541 -0.00017242445294555459 0 0.0035212536388695551 -0.00028362377968654405 0 0.0034403331531293359 -0.0002121914572126041 0 0.0035209510826020541 -0.00017242445294555459 0 0.0035212536388695551 -0.00028362377968654405 0 0.0036411319482248872 -0.00018679198825552324 0 0.0035212536388695551 -0.00028362377968654405 0 0.0037139403793525075 -0.00031291329083088846 0 0.0035977590310929718 -0.00037957707005249958 0 0.0035212536388695551 -0.00028362377968654405 0 0.0036411319482248872 -0.00018679198825552324 0 0.0037139403793525075 -0.00031291329083088846 0 0.0037725326290204706 -8.5243551216645201e-05 0 0.0036411319482248872 -0.00018679198825552324 0 0.0037139403793525075 -0.00031291329083088846 0 0.003991270663657457 -0.00030548550785559442 0 0.0037725326290204706 -8.5243551216645201e-05 0 0.0037139403793525075 -0.00031291329083088846 0 0.0034861427520926709 -0.00033674219109835926 0 0.0033461980082360558 -0.00045292840956810584 0 0.0038963356661264768 -0.00051774151166797367 0 0.0037139403793525075 -0.00031291329083088846 0 0.0035481315740308328 -0.0006126481200699835 0 0.0038963356661264768 -0.00051774151166797367 0 0.0035481315740308328 -0.0006126481200699835 0 0.0037772145234401286 -0.00072243732398435208 0 0.003953506831462777 -0.00078422142652040091 0 0.0037772145234401286 -0.00072243732398435208 0 0.0038179372529806364 -0.00088346072907630657 0 0.0035481315740308328 -0.0006126481200699835 0 0.0037772145234401286 -0.00072243732398435208 0 0.0036538396249982167 -0.00085070410098306033 0 0.0035481315740308328 -0.0006126481200699835 0 0.0035262786618336442 -0.00085750980260587987 0 0.0036538396249982167 -0.00085070410098306033 0 0.0035481315740308328 -0.0006126481200699835 0 0.003389608923650706 -0.00090381610587637526 0 0.0035262786618336442 -0.00085750980260587987 0 0.0033461980082360558 -0.00045292840956810584 0 0.0028648433907886668 -0.00084053214430487822 0 0.0034329803900555681 -0.0004036717219085016 0 0.0035040219250490612 -0.00036619313472485747 0 0.0035015916872097892 -0.00047825384982642748 0 0.0035977590310929718 -0.00037957707005249958 0 0.0035040219250490612 -0.00036619313472485747 0 0.0035015916872097892 -0.00047825384982642748 0 0.0034329803900555681 -0.0004036717219085016 0 0.0034424176332679452 -0.00035250893351533618 0 0.0035040219250490612 -0.00036619313472485747 0 0.0034329803900555681 -0.0004036717219085016 0 0.0034424176332679452 -0.00035250893351533618 0 0.003394832794633974 -0.00038614271072550987 0 0.0035212536388695551 -0.00028362377968654405 0 0.0034424176332679452 -0.00035250893351533618 0 0.0035040219250490612 -0.00036619313472485747 0 0.0035212536388695551 -0.00028362377968654405 0 0.0035977590310929718 -0.00037957707005249958 0 0.0035040219250490612 -0.00036619313472485747 0 0.0026004817316437477 -0.0010168940964037894 0 0.0026449332214812508 -0.00097284063904228457 0 0.0026007270754541739 -0.00082094375328903269 0 0.0026819855913484004 -0.00091339634853942477 0 0.0026573486108591006 -0.0010338143648934591 0 0.0028248043407624449 -0.00082572265907323163 0 0.0026747274271047088 -0.0011025170151252989 0 0.0026573486108591006 -0.0010338143648934591 0 0.0028248043407624449 -0.00082572265907323163 0 0.0026819855913484004 -0.00091339634853942477 0 0.0026007270754541739 -0.00082094375328903269 0 0.0028248043407624449 -0.00082572265907323163 0 0.0026449332214812508 -0.00097284063904228457 0 0.0026819855913484004 -0.00091339634853942477 0 0.0026573486108591006 -0.0010338143648934591 0 0.0025884403777876779 -0.0010280158537242174 0 0.0025902143272881432 -0.0010284071497744865 0 0.0026004817316437477 -0.0010168940964037894 0 0.0026449332214812508 -0.00097284063904228457 0 0.0026573486108591006 -0.0010338143648934591 0 0.0026449332214812508 -0.00097284063904228457 0 0.0026819855913484004 -0.00091339634853942477 0 0.0026007270754541739 -0.00082094375328903269 0 0.0028648433907886668 -0.00084053214430487822 0 0.0030301250102059739 -0.00058323015847471925 0 0.003373991607160069 -0.00037426717216079654 0 0.0033727710909728591 -0.0003820478022986103 0 0.0033354501450746374 -0.00035309548513101744 0 0.003373991607160069 -0.00037426717216079654 0 0.0033996915321250114 -0.00038898074294536965 0 0.0033727710909728591 -0.0003820478022986103 0 0.0034329803900555681 -0.0004036717219085016 0 0.0033996915321250114 -0.00038898074294536965 0 0.003394832794633974 -0.00038614271072550987 0 0.003373991607160069 -0.00037426717216079654 0 0.0033996915321250114 -0.00038898074294536965 0 0.003394832794633974 -0.00038614271072550987 0 0.0034329803900555681 -0.0004036717219085016 0 0.0033996915321250114 -0.00038898074294536965 0 0.0033727710909728591 -0.0003820478022986103 0 0.0029334369142975827 -0.00079836123117769801 0 0.0028648433907886668 -0.00084053214430487822 0 0.0034595770278886971 -0.00098488031245228458 0 0.003389608923650706 -0.00090381610587637526 0 0.0035262786618336442 -0.00085750980260587987 0 0.0026009288834755151 -0.0010166189570179247 0 0.0026747274271047088 -0.0011025170151252989 0 0.0026573486108591006 -0.0010338143648934591 0 0.0025884403777876779 -0.0010280158537242174 0 0.0028648433907886668 -0.00084053214430487822 0 0.0034595770278886971 -0.00098488031245228458 0 0.0036538396249982167 -0.00085070410098306033 0 0.0037574081913475917 -0.0010740698646731419 0 0.0034595770278886971 -0.00098488031245228458 0 0.0035262786618336442 -0.00085750980260587987 0 0.0036538396249982167 -0.00085070410098306033 0 0.0036538396249982167 -0.00085070410098306033 0 0.0038179372529806364 -0.00088346072907630657 0 0.0037574081913475917 -0.0010740698646731419 0 0.0037772145234401286 -0.00072243732398435208 0 0.0036538396249982167 -0.00085070410098306033 0 0.0038179372529806364 -0.00088346072907630657 0 0.0038179372529806364 -0.00088346072907630657 0 0.0037574081913475917 -0.0010740698646731419 0 0.0039469555304094467 -0.00098580995001908882 0 0.0026004817316437477 -0.0010168940964037894 0 0.0023916576513607541 -0.00077574540736330985 0 0.0026007270754541739 -0.00082094375328903269 0 0.0012883783368711364 -0.0014723048694481183 0 0.00097608827828079669 -0.0013775572047805451 0 0.0010806822508001388 -0.0012405780887485285 0 0.0025884403777876779 -0.0010280158537242174 0 0.0024345647664115754 -0.0010991736016968642 0 0.0025884403777876779 -0.0010280158537242174 0 0.0018898277142810436 -0.00091213684626803993 0 0.0023916576513607541 -0.00077574540736330985 0 0.0025077934058062826 -0.00066751902538096707 0 0.0026007270754541739 -0.00082094375328903269 0 0.0023916576513607541 -0.00077574540736330985 0 0.0023367156686379454 -0.00058451999794861494 0 0.0024044139064427509 -0.0006465966697369336 0 0.0023916576513607541 -0.00077574540736330985 0 0.0025077934058062826 -0.00066751902538096707 0 0.0024044139064427509 -0.0006465966697369336 0 0.0010806822508001388 -0.0012405780887485285 0 0.00088176130841681737 -0.0012337155724985883 0 0.00090525066735690359 -0.0011669360722932442 0 0.0018898277142810436 -0.00091213684626803993 0 0.0013288933542271227 -0.00078620536288102568 0 0.00097608827828079669 -0.0013775572047805451 0 0.0010806822508001388 -0.0012405780887485285 0 0.00088176130841681737 -0.0012337155724985883 0 0.0010806822508001388 -0.0012405780887485285 0 0.00090525066735690359 -0.0011669360722932442 0 0.00087950540232580162 -0.0010485638101867321 0 0.0010806822508001388 -0.0012405780887485285 0 0.00088015828747966412 -0.0010322469157048359 0 0.00087950540232580162 -0.0010485638101867321 0 0.0023916576513607541 -0.00077574540736330985 0 0.0023367156686379454 -0.00058451999794861494 0 0.0021844006605907604 -0.00053463956869506852 0 0.0023367156686379454 -0.00058451999794861494 0 0.0023580297235630938 -0.00048493170410961303 0 0.002282913175264069 -0.00048245122798291174 0 0.0023367156686379454 -0.00058451999794861494 0 0.002282913175264069 -0.00048245122798291174 0 0.0021844006605907604 -0.00053463956869506852 0 0.0013288933542271227 -0.00078620536288102568 0 0.0013284192032522446 -0.00078725005614905543 0 0.0025077934058062826 -0.00066751902538096707 0 0.0024214774268454466 -0.00056088228801707792 0 0.0025557751250237818 -0.00052405767151481606 0 0.0025077934058062826 -0.00066751902538096707 0 0.0024044139064427509 -0.0006465966697369336 0 0.0024214774268454466 -0.00056088228801707792 0 0.0023367156686379454 -0.00058451999794861494 0 0.0024044139064427509 -0.0006465966697369336 0 0.0024214774268454466 -0.00056088228801707792 0 0.0023580297235630938 -0.00048493170410961303 0 0.0024214774268454466 -0.00056088228801707792 0 0.0024404077861898956 -0.00043212101244443469 0 0.0023367156686379454 -0.00058451999794861494 0 0.0023580297235630938 -0.00048493170410961303 0 0.0024214774268454466 -0.00056088228801707792 0 0.0024214774268454466 -0.00056088228801707792 0 0.0025557751250237818 -0.00052405767151481606 0 0.0024404077861898956 -0.00043212101244443469 0 0.0025077934058062826 -0.00066751902538096707 0 0.0026970001965225662 -0.00064146586224461796 0 0.0025557751250237818 -0.00052405767151481606 0 0.0026970001965225662 -0.00064146586224461796 0 0.0025557751250237818 -0.00052405767151481606 0 0.0027235156494451744 -0.0004353777023114343 0 0.0025077934058062826 -0.00066751902538096707 0 0.0026970001965225662 -0.00064146586224461796 0 0.0026007270754541739 -0.00082094375328903269 0 0.0026970001965225662 -0.00064146586224461796 0 0.0026007270754541739 -0.00082094375328903269 0 0.0028248043407624449 -0.00082572265907323163 0 0.0030301250102059739 -0.00058323015847471925 0 0.003114677311264804 -0.00041984580770752371 0 0.0026970001965225662 -0.00064146586224461796 0 0.0028248043407624449 -0.00082572265907323163 0 0.0029796428032564746 -0.00054938445860253993 0 0.0026970001965225662 -0.00064146586224461796 0 0.0027235156494451744 -0.0004353777023114343 0 0.0029796428032564746 -0.00054938445860253993 0 0.0028719077677320389 -0.0002810495335149074 0 0.0027235156494451744 -0.0004353777023114343 0 0.0029796428032564746 -0.00054938445860253993 0 0.0028719077677320389 -0.0002810495335149074 0 0.0027235156494451744 -0.0004353777023114343 0 0.0026667167776943789 -0.00021484331291897937 0 0.0025705182750923382 -0.00037837798821696041 0 0.0027235156494451744 -0.0004353777023114343 0 0.0026667167776943789 -0.00021484331291897937 0 0.0025705182750923382 -0.00037837798821696041 0 0.0026667167776943789 -0.00021484331291897937 0 0.0024451228623925294 -0.00024790417295385601 0 0.0025557751250237818 -0.00052405767151481606 0 0.0025705182750923382 -0.00037837798821696041 0 0.0027235156494451744 -0.0004353777023114343 0 0.0026667167776943789 -0.00021484331291897937 0 0.0028281670210447436 -5.9288339134474103e-05 0 0.0026661254655913095 -2.5750077928082037e-05 0 0.0026667167776943789 -0.00021484331291897937 0 0.0026661254655913095 -2.5750077928082037e-05 0 0.0025371651727750856 -9.0018099433837362e-05 0 0.0028719077677320389 -0.0002810495335149074 0 0.0026667167776943789 -0.00021484331291897937 0 0.0028281670210447436 -5.9288339134474103e-05 0 0.0028719077677320389 -0.0002810495335149074 0 0.0028281670210447436 -5.9288339134474103e-05 0 0.0029836511319609954 -0.0001165681877644492 0 0.0028281670210447436 -5.9288339134474103e-05 0 0.0027978462215633285 1.7539248516594574e-05 0 0.00291905153017655 7.1627919236599114e-06 0 0.0023221981062799633 -0.00014473382469141655 0 0.0025466579732676513 -0.00013700827574184601 0 0.0028281670210447436 -5.9288339134474103e-05 0 0.0026661254655913095 -2.5750077928082037e-05 0 0.0027680290413571304 9.8925469055008246e-05 0 0.0023621059311165456 -0.00014538385736233213 0 0.0023221981062799633 -0.00014473382469141655 0 0.0026661254655913095 -2.5750077928082037e-05 0 0.0024992487628985628 0.00013396250520170775 0 0.0025371651727750856 -9.0018099433837362e-05 0 0.0026661254655913095 -2.5750077928082037e-05 0 0.0027680290413571304 9.8925469055008246e-05 0 0.0024992487628985628 0.00013396250520170775 0 0.0019530205319365219 -0.00042795821596553385 0 0.0022043961011740587 -0.00067079769377475086 0 0.0018068721465309809 -0.00062109249754751605 0 0.0023221981062799633 -0.00014473382469141655 0 0.0020367065434430207 -0.00018655737978111287 0 0.0023490237796615007 0.0003165729854830909 0 0.002331931578528546 6.7196395831568544e-05 0 0.002200255862503441 0.00045538246356873689 0 0.0019530205319365219 -0.00042795821596553385 0 0.0022043961011740587 -0.00067079769377475086 0 0.0020365862643961104 -0.00021287834600631234 0 0.0023221981062799633 -0.00014473382469141655 0 0.002128289802122135 0.00017304261268561501 0 0.0026192939011399625 0.00018290515897660152 0 0.002331931578528546 6.7196395831568544e-05 0 0.00291905153017655 7.1627919236599114e-06 0 0.0023490237796615007 0.0003165729854830909 0 0.0026192939011399625 0.00018290515897660152 0 0.0023999247967378431 0.00040593206186869058 0 0.0023490237796615007 0.0003165729854830909 0 0.0026192939011399625 0.00018290515897660152 0 0.002331931578528546 6.7196395831568544e-05 0 0.0014028281215115943 -0.00056822604493362953 0 0.0018068721465309809 -0.00062109249754751605 0 0.0016044705791321836 -0.000334418122301034 0 0.0014817853595503248 -0.00017520331817511112 0 0.0020367065434430207 -0.00018655737978111287 0 0.0018068721465309809 -0.00062109249754751605 0 0.0018004867025621244 -0.00036094254127436317 0 0.0016044705791321836 -0.000334418122301034 0 0.0019530205319365219 -0.00042795821596553385 0 0.0018068721465309809 -0.00062109249754751605 0 0.0018004867025621244 -0.00036094254127436317 0 0.0022315305320130181 0.00016803985271839054 0 0.0024992487628985628 0.00013396250520170775 0 0.0023844075205384117 -4.3629913615227571e-05 0 0.0024992487628985628 0.00013396250520170775 0 0.0025371651727750856 -9.0018099433837362e-05 0 0.0023844075205384117 -4.3629913615227571e-05 0 0.0022315305320130181 0.00016803985271839054 0 0.0023844075205384117 -4.3629913615227571e-05 0 0.0022090424291380246 -0.00018225935791193044 0 0.0014817853595503248 -0.00017520331817511112 0 0.0014542141343035127 -0.00046369136009056887 0 0.0023844075205384117 -4.3629913615227571e-05 0 0.0022090424291380246 -0.00018225935791193044 0 0.0024451228623925294 -0.00024790417295385601 0 0.0022090424291380246 -0.00018225935791193044 0 0.0024451228623925294 -0.00024790417295385601 0 0.0023088431814565981 -0.00036529317913906311 0 0.0025371651727750856 -9.0018099433837362e-05 0 0.0023844075205384117 -4.3629913615227571e-05 0 0.0024451228623925294 -0.00024790417295385601 0 0.0026667167776943789 -0.00021484331291897937 0 0.0025371651727750856 -9.0018099433837362e-05 0 0.0024451228623925294 -0.00024790417295385601 0 0.0025705182750923382 -0.00037837798821696041 0 0.0024451228623925294 -0.00024790417295385601 0 0.0024404077861898956 -0.00043212101244443469 0 0.0024451228623925294 -0.00024790417295385601 0 0.0024404077861898956 -0.00043212101244443469 0 0.0023088431814565981 -0.00036529317913906311 0 0.0023580297235630938 -0.00048493170410961303 0 0.0024404077861898956 -0.00043212101244443469 0 0.0023088431814565981 -0.00036529317913906311 0 0.0025557751250237818 -0.00052405767151481606 0 0.0025705182750923382 -0.00037837798821696041 0 0.0024404077861898956 -0.00043212101244443469 0 0.0013288933542271227 -0.00078620536288102568 0 0.0014542141343035127 -0.00046369136009056887 0 0.0021844006605907604 -0.00053463956869506852 0 0.0022090424291380246 -0.00018225935791193044 0 0.0023088431814565981 -0.00036529317913906311 0 0.0023580297235630938 -0.00048493170410961303 0 0.002282913175264069 -0.00048245122798291174 0 0.0023088431814565981 -0.00036529317913906311 0 0.002282913175264069 -0.00048245122798291174 0 0.0021844006605907604 -0.00053463956869506852 0 0.0023088431814565981 -0.00036529317913906311 0 0.00091621223625343361 -0.0011046110422887098 0 0.00093977371904056502 -0.00074732622864364393 0 0.00076445993052003591 -0.00093023466975751523 0 0.0013288933542271227 -0.00078620536288102568 0 0.0010786968991103583 -0.00073772728717116411 0 0.00060371305076613747 -0.00095099571842208511 0 0.00052585880331593247 -0.00096066394487291911 0 0.00054504485370443501 -0.0010390098501598501 0 0.00074744022430214927 -0.00089705990085523835 0 0.00060371305076613747 -0.00095099571842208511 0 0.0007302698971125859 -0.0010368223214670424 0 0.00074744022430214927 -0.00089705990085523835 0 0.00060371305076613747 -0.00095099571842208511 0 0.00058582683759546565 -0.00085907156751405061 0 0.00074744022430214927 -0.00089705990085523835 0 0.00058582683759546565 -0.00085907156751405061 0 0.00061149900727939556 -0.00075359258997507539 0 0.00060371305076613747 -0.00095099571842208511 0 0.00058582683759546565 -0.00085907156751405061 0 0.00050721207357875382 -0.00089210491520507861 0 0.00058582683759546565 -0.00085907156751405061 0 0.00061149900727939556 -0.00075359258997507539 0 0.00048001668218992775 -0.00082310326875263717 0 0.00076445993052003591 -0.00093023466975751523 0 0.00061149900727939556 -0.00075359258997507539 0 0.00076610250214914741 -0.00075384058706101133 0 0.0010786968991103583 -0.00073772728717116411 0 0.00098254030097671844 -0.00069980543227318921 0 0.00061149900727939556 -0.00075359258997507539 0 0.00076610250214914741 -0.00075384058706101133 0 0.00059592289316288624 -0.00058513971818910198 0 0.00061149900727939556 -0.00075359258997507539 0 0.00059592289316288624 -0.00058513971818910198 0 0.00049394441153295698 -0.00069884382831076025 0 0.00093977371904056502 -0.00074732622864364393 0 0.00076445993052003591 -0.00093023466975751523 0 0.00076610250214914741 -0.00075384058706101133 0 0.00093977371904056502 -0.00074732622864364393 0 0.00076610250214914741 -0.00075384058706101133 0 0.00078359054218613748 -0.00056639207426882881 0 0.00096749375167275446 -0.00037998785039453114 0 0.00093977371904056502 -0.00074732622864364393 0 0.00078359054218613748 -0.00056639207426882881 0 0.00078359054218613748 -0.00056639207426882881 0 0.00059592289316288624 -0.00058513971818910198 0 0.00062512385501125418 -0.00033344299198722932 0 0.00076610250214914741 -0.00075384058706101133 0 0.00078359054218613748 -0.00056639207426882881 0 0.00059592289316288624 -0.00058513971818910198 0 0.00062512385501125418 -0.00033344299198722932 0 0.00045414976900122765 -0.00036010401560097042 0 0.00049090574584641244 -0.00012216911853521578 0 0.00059592289316288624 -0.00058513971818910198 0 0.00062512385501125418 -0.00033344299198722932 0 0.00045414976900122765 -0.00036010401560097042 0 0.0010470465709442849 -0.0003890753700983535 0 0.00062512385501125418 -0.00033344299198722932 0 0.00080342656792477968 -9.9277116866172127e-05 0 0.0014817853595503248 -0.00017520331817511112 0 0.0010130512469540525 -0.00018126618028870223 0 0.00096749375167275446 -0.00037998785039453114 0 0.00078359054218613748 -0.00056639207426882881 0 0.00062512385501125418 -0.00033344299198722932 0 0.00012507690695896757 -0.00034549620411671522 0 -7.5728827838927079e-05 -0.00041795729818233142 0 0.00015673695934064049 -0.0001297844485352231 0 0.00012507690695896757 -0.00034549620411671522 0 0.00029631145578223769 -0.00060608773871505706 0 -7.5728827838927079e-05 -0.00041795729818233142 0 0.00014232917187082669 -0.00042818441130394226 0 0.00017049019216666496 -0.00034470839746272175 0 0.00045414976900122765 -0.00036010401560097042 0 0.00036255485184999577 -0.00051788400964961675 0 0.00029410343721564003 -0.00019704492956341784 0 0.00035968126960689127 -0.0005794760776535998 0 0.00034646242116886814 -0.0004243081798536871 0 0.00012507690695896757 -0.00034549620411671522 0 0.00029631145578223769 -0.00060608773871505706 0 0.00029410343721564003 -0.00019704492956341784 0 0.00059592289316288624 -0.00058513971818910198 0 0.00036255485184999577 -0.00051788400964961675 0 0.00049394441153295698 -0.00069884382831076025 0 0.00059592289316288624 -0.00058513971818910198 0 0.00045414976900122765 -0.00036010401560097042 0 0.00036255485184999577 -0.00051788400964961675 0 0.00029631145578223769 -0.00060608773871505706 0 -3.1171945558867429e-06 -0.00085209450811517707 0 -7.5728827838927079e-05 -0.00041795729818233142 0 0.00029631145578223769 -0.00060608773871505706 0 -3.1171945558867429e-06 -0.00085209450811517707 0 0.00030689646051361772 -0.0010043907830726609 0 0.00051361090862543472 -0.001138544397169065 0 0.00049235690533780342 -0.0010821883267737196 0 0.00055686547160536004 -0.001050109189085336 0 0.00032854228183975843 -0.00073246455002959137 0 0.00039008661344455659 -0.00082658119128065446 0 0.00051361090862543472 -0.001138544397169065 0 0.00044082264990630916 -0.0010921410386431905 0 0.00049235690533780342 -0.0010821883267737196 0 0.00035968126960689127 -0.0005794760776535998 0 0.00039008661344455659 -0.00082658119128065446 0 0.00036255485184999577 -0.00051788400964961675 0 0.00049394441153295698 -0.00069884382831076025 0 0.00040776826827603309 -0.00079461646880910866 0 0.00039008661344455659 -0.00082658119128065446 0 0.00039288829229217021 -0.00082727123095458507 0 0.00061149900727939556 -0.00075359258997507539 0 0.00049394441153295698 -0.00069884382831076025 0 0.00048001668218992775 -0.00082310326875263717 0 0.00049394441153295698 -0.00069884382831076025 0 0.00040776826827603309 -0.00079461646880910866 0 0.00048001668218992775 -0.00082310326875263717 0 0.00042815673827158754 -0.00079663544704848424 0 0.00050721207357875382 -0.00089210491520507861 0 0.00044925551674717215 -0.0009601386081298758 0 0.00044082264990630916 -0.0010921410386431905 0 0.00046091463656912829 -0.0010432241654728749 0 0.00046155224367754093 -0.0010629046645620024 0 0.00039008661344455659 -0.00082658119128065446 0 0.00040952473740711815 -0.00094486814895347756 0 0.00042815673827158754 -0.00079663544704848424 0 0.00048001668218992775 -0.00082310326875263717 0 0.00050721207357875382 -0.00089210491520507861 0 0.00058582683759546565 -0.00085907156751405061 0 0.00048001668218992775 -0.00082310326875263717 0 0.00050721207357875382 -0.00089210491520507861 0 0.00046091463656912829 -0.0010432241654728749 0 0.00046155224367754093 -0.0010629046645620024 0 0.00045471321260085238 -0.0010421252642774431 0 0.00060371305076613747 -0.00095099571842208511 0 0.00050721207357875382 -0.00089210491520507861 0 0.00052585880331593247 -0.00096066394487291911 0 0.00050721207357875382 -0.00089210491520507861 0 0.00044925551674717215 -0.0009601386081298758 0 0.00052585880331593247 -0.00096066394487291911 0 0.00049235690533780342 -0.0010821883267737196 0 0.00048008275031503976 -0.0010555083704621535 0 0.00050908660393716293 -0.0010373443027828786 0 0.00049235690533780342 -0.0010821883267737196 0 0.00050908660393716293 -0.0010373443027828786 0 0.00055686547160536004 -0.001050109189085336 0 0.00044082264990630916 -0.0010921410386431905 0 0.00049235690533780342 -0.0010821883267737196 0 0.00046155224367754093 -0.0010629046645620024 0 0.00049235690533780342 -0.0010821883267737196 0 0.00046155224367754093 -0.0010629046645620024 0 0.00048008275031503976 -0.0010555083704621535 0 0.00048008275031503976 -0.0010555083704621535 0 0.00045471321260085238 -0.0010421252642774431 0 0.00050908660393716293 -0.0010373443027828786 0 0.00046155224367754093 -0.0010629046645620024 0 0.00048008275031503976 -0.0010555083704621535 0 0.00045471321260085238 -0.0010421252642774431 0 0.00045471321260085238 -0.0010421252642774431 0 0.00050908660393716293 -0.0010373443027828786 0 0.00056428876811654284 -0.00094764368998384531 0 0.00045471321260085238 -0.0010421252642774431 0 0.00044030152624091059 -0.0010947202697607497 0 0.000342261881570374 -0.001115769122147039 0 0.00044030152624091059 -0.0010947202697607497 0 0.00045702327522241959 -0.0011709128503046746 0 0.000342261881570374 -0.001115769122147039 0 0.0011236498694980406 -0.0012256299545507204 0 0.0020678136864738668 -0.00076928368288329283 0 0.0043475147270889674 -0.0012465129648424 0 0.0045729598506330576 -0.0011874483772345585 0 0.0046331483149339341 -0.0013275092725731005 0 0.0023836910095207343 -0.0010396504539311093 0 0.0020678136864738668 -0.00076928368288329283 0 0.0044408564669576375 -0.0011457665898055745 0 0.0043475147270889674 -0.0012465129648424 0 0.0045729598506330576 -0.0011874483772345585 0 0.00045702327522241959 -0.0011709128503046746 0 0.00047593193833179147 -0.0011206230167218421 0 0.00059950907197518668 -0.0011587310091673302 0 0.0043475147270889674 -0.0012465129648424 0 0.0040534075212664208 -0.0011617975960333943 0 0.0042833983812778156 -0.0011287484714722796 0 0.0044408564669576375 -0.0011457665898055745 0 0.0043475147270889674 -0.0012465129648424 0 0.0042833983812778156 -0.0011287484714722796 0 0.00046091463656912829 -0.0010432241654728749 0 0.00044030152624091059 -0.0010947202697607497 0 0.00047593193833179147 -0.0011206230167218421 0 0.00047593193833179147 -0.0011206230167218421 0 0.00054504485370443501 -0.0010390098501598501 0 0.00059950907197518668 -0.0011587310091673302 0 0.00044925551674717215 -0.0009601386081298758 0 0.00047593193833179147 -0.0011206230167218421 0 0.00054504485370443501 -0.0010390098501598501 0 0.00040952473740711815 -0.00094486814895347756 0 0.00041667789422106933 -0.00099140633569082433 0 0.00044030152624091059 -0.0010947202697607497 0 0.00045702327522241959 -0.0011709128503046746 0 0.00047593193833179147 -0.0011206230167218421 0 0.00046091463656912829 -0.0010432241654728749 0 0.00045471321260085238 -0.0010421252642774431 0 0.00044030152624091059 -0.0010947202697607497 0 0.00044925551674717215 -0.0009601386081298758 0 0.00052585880331593247 -0.00096066394487291911 0 0.00054504485370443501 -0.0010390098501598501 0 0.0007302698971125859 -0.0010368223214670424 0 0.00078326537903550123 -0.0011448194069262579 0 0.00059950907197518668 -0.0011587310091673302 0 0.00054504485370443501 -0.0010390098501598501 0 0.0007302698971125859 -0.0010368223214670424 0 0.00059950907197518668 -0.0011587310091673302 0 0.00060371305076613747 -0.00095099571842208511 0 0.00054504485370443501 -0.0010390098501598501 0 0.0007302698971125859 -0.0010368223214670424 0 0.00087995634848609208 -0.001033867212961424 0 0.00087950540232580162 -0.0010485638101867321 0 0.0007302698971125859 -0.0010368223214670424 0 0.00087995634848609208 -0.001033867212961424 0 0.00074744022430214927 -0.00089705990085523835 0 0.0007302698971125859 -0.0010368223214670424 0 0.00090525066735690359 -0.0011669360722932442 0 0.00087950540232580162 -0.0010485638101867321 0 0.00078326537903550123 -0.0011448194069262579 0 0.00087950540232580162 -0.0010485638101867321 0 0.0007302698971125859 -0.0010368223214670424 0 0.00078326537903550123 -0.0011448194069262579 0 0.00088176130841681737 -0.0012337155724985883 0 0.00078326537903550123 -0.0011448194069262579 0 0.00068930048851347393 -0.00127656441667571 0 0.00097608827828079669 -0.0013775572047805451 0 0.00088176130841681737 -0.0012337155724985883 0 0.00068930048851347393 -0.00127656441667571 0 0.00088176130841681737 -0.0012337155724985883 0 0.00090525066735690359 -0.0011669360722932442 0 0.00078326537903550123 -0.0011448194069262579 0 0.0023836910095207343 -0.0010396504539311093 0 0.0024081762859691548 -0.0011095781705184955 0 0.00078326537903550123 -0.0011448194069262579 0 0.00068930048851347393 -0.00127656441667571 0 0.00059950907197518668 -0.0011587310091673302 0 0.00045702327522241959 -0.0011709128503046746 0 0.00068930048851347393 -0.00127656441667571 0 0.00059950907197518668 -0.0011587310091673302 0 0.0040534075212664208 -0.0011617975960333943 0 0.0041809236200646503 -0.0010238815966782052 0 0.0042833983812778156 -0.0011287484714722796 0 0.0040534075212664208 -0.0011617975960333943 0 0.0041809236200646503 -0.0010238815966782052 0 0.0039469555304094467 -0.00098580995001908882 0 0.0024345647664115754 -0.0010991736016968642 0 0.0024081762859691548 -0.0011095781705184955 0 0.0037574081913475917 -0.0010740698646731419 0 0.0040534075212664208 -0.0011617975960333943 0 0.0039469555304094467 -0.00098580995001908882 0 0.003953506831462777 -0.00078422142652040091 0 0.0038179372529806364 -0.00088346072907630657 0 0.0039469555304094467 -0.00098580995001908882 0 0.003953506831462777 -0.00078422142652040091 0 0.0039469555304094467 -0.00098580995001908882 0 0.0041066976179733612 -0.00088123234601355301 0 0.0041552883941008006 -0.00070272181309514949 0 0.0041066976179733612 -0.00088123234601355301 0 0.004286665243201036 -0.00088552879201299404 0 0.0041809236200646503 -0.0010238815966782052 0 0.0039469555304094467 -0.00098580995001908882 0 0.0041066976179733612 -0.00088123234601355301 0 0.0041809236200646503 -0.0010238815966782052 0 0.0041066976179733612 -0.00088123234601355301 0 0.004286665243201036 -0.00088552879201299404 0 0.004286665243201036 -0.00088552879201299404 0 0.0045067025939014528 -0.00085939105973419929 0 0.0043823113580421262 -0.0010421007205397082 0 0.0043731969146440725 -0.00066993206584805773 0 0.004286665243201036 -0.00088552879201299404 0 0.0045067025939014528 -0.00085939105973419929 0 0.0045067025939014528 -0.00085939105973419929 0 0.0043823113580421262 -0.0010421007205397082 0 0.0045458308318823692 -0.0010722601419818935 0 0.0044408564669576375 -0.0011457665898055745 0 0.0045458308318823692 -0.0010722601419818935 0 0.0045729598506330576 -0.0011874483772345585 0 0.0044408564669576375 -0.0011457665898055745 0 0.0043823113580421262 -0.0010421007205397082 0 0.0045458308318823692 -0.0010722601419818935 0 0.0041809236200646503 -0.0010238815966782052 0 0.0043823113580421262 -0.0010421007205397082 0 0.0042833983812778156 -0.0011287484714722796 0 0.0044408564669576375 -0.0011457665898055745 0 0.0043823113580421262 -0.0010421007205397082 0 0.0042833983812778156 -0.0011287484714722796 0 0.0041809236200646503 -0.0010238815966782052 0 0.004286665243201036 -0.00088552879201299404 0 0.0043823113580421262 -0.0010421007205397082 0 0.0047905236706432012 -0.0010601410668014276 0 0.0046905662795243145 -0.0009288211086800949 0 0.0048551734653115991 -0.00094222303839438257 0 0.0047905236706432012 -0.0010601410668014276 0 0.0046799061171651944 -0.001123780551291334 0 0.0046905662795243145 -0.0009288211086800949 0 0.0047905236706432012 -0.0010601410668014276 0 0.0048551734653115991 -0.00094222303839438257 0 0.0049299553792755942 -0.0010926220613545355 0 0.0047905236706432012 -0.0010601410668014276 0 0.0049299553792755942 -0.0010926220613545355 0 0.0047849922768495321 -0.0012092996202504292 0 0.0047905236706432012 -0.0010601410668014276 0 0.0046799061171651944 -0.001123780551291334 0 0.0047849922768495321 -0.0012092996202504292 0 0.0045458308318823692 -0.0010722601419818935 0 0.0046799061171651944 -0.001123780551291334 0 0.0046905662795243145 -0.0009288211086800949 0 0.0045458308318823692 -0.0010722601419818935 0 0.0046799061171651944 -0.001123780551291334 0 0.0045729598506330576 -0.0011874483772345585 0 0.0045067025939014528 -0.00085939105973419929 0 0.0045458308318823692 -0.0010722601419818935 0 0.0046905662795243145 -0.0009288211086800949 0 0.0046862539717684362 -0.00076473108636742097 0 0.0045067025939014528 -0.00085939105973419929 0 0.0046905662795243145 -0.0009288211086800949 0 0.0048495784552206227 -0.00078491841288288783 0 0.0046862539717684362 -0.00076473108636742097 0 0.0046905662795243145 -0.0009288211086800949 0 0.0042821172382897883 -0.00049209497545539386 0 0.0045380902485539238 -0.00054902457651058488 0 0.0050104838655256221 -0.00077214798010093123 0 0.0048495784552206227 -0.00078491841288288783 0 0.0046905662795243145 -0.0009288211086800949 0 0.0049549770848204043 -0.00079052774768959466 0 0.0046905662795243145 -0.0009288211086800949 0 0.0048551734653115991 -0.00094222303839438257 0 0.0049549770848204043 -0.00079052774768959466 0 0.0048551734653115991 -0.00094222303839438257 0 0.0049299553792755942 -0.0010926220613545355 0 0.0029542421093644378 0.00012903668816753705 0 0.0029802804287606772 0.00010571748226255878 0 0.0029506907513576664 8.0831738765703952e-05 0 0.0042821172382897883 -0.00049209497545539386 0 0.0032541111835311227 -0.00024911798212354241 0 0.0029542421093644378 0.00012903668816753705 0 0.0029802804287606772 0.00010571748226255878 0 0.0030756737873878647 0.00010133663393295738 0 0.0029802804287606772 0.00010571748226255878 0 0.0027097480011625185 -4.6846126186922096e-05 0 0.0029642765764298839 -5.1163669965197758e-05 0 0.0029802804287606772 0.00010571748226255878 0 0.0029642765764298839 -5.1163669965197758e-05 0 0.0030630877935530062 1.3808561560910795e-05 0 0.0031183027517684802 -0.00022557129585384035 0 0.0032541111835311227 -0.00024911798212354241 0 0.0029802804287606772 0.00010571748226255878 0 0.0027097480011625185 -4.6846126186922096e-05 0 0.0024223998503705084 1.9507646536486581e-05 0 0.0027097480011625185 -4.6846126186922096e-05 0 0.0024223998503705084 1.9507646536486581e-05 0 0.0023516078049379183 -0.00011082701934902202 0 0.0032541111835311227 -0.00024911798212354241 0 0.0032360345221416728 -0.00024340561833715698 0 0.0027097480011625185 -4.6846126186922096e-05 0 0.0023516078049379183 -0.00011082701934902202 0 0.0027712396154223459 -0.00028800234003586333 0 0.0023516078049379183 -0.00011082701934902202 0 0.0022861929439155237 -0.00019865838258751995 0 0.0027712396154223459 -0.00028800234003586333 0 0.002074372281652971 -0.00014021856506815411 0 0.0021022832934362509 -0.00014824134493450443 0 0.0022861929439155237 -0.00019865838258751995 0 0.0027712396154223459 -0.00028800234003586333 0 0.0020512094855306803 -0.00025457217426256711 0 0.0023641361010821125 3.6969594271611919e-05 0 0.0023516078049379183 -0.00011082701934902202 0 0.0020918304200052578 -0.00021088183489975909 0 0.0027097480011625185 -4.6846126186922096e-05 0 0.0029642765764298839 -5.1163669965197758e-05 0 0.0027712396154223459 -0.00028800234003586333 0 0.00089336650327955869 -0.00028531865071238367 0 0.00088899626608729507 -9.7026147707693152e-05 0 0.0008811287160488964 -7.5182288305198101e-05 0 0.00089336650327955869 -0.00028531865071238367 0 0.00088899626608729507 -9.7026147707693152e-05 0 0.00098068216652099282 -7.9042289165790874e-05 0 0.00088899626608729507 -9.7026147707693152e-05 0 0.0008811287160488964 -7.5182288305198101e-05 0 0.00081497404554958504 -2.3813736686645562e-05 0 0.00089336650327955869 -0.00028531865071238367 0 0.0008811287160488964 -7.5182288305198101e-05 0 0.0010555524805552199 -0.00010645220555085256 0 0.00089336650327955869 -0.00028531865071238367 0 0.0010555524805552199 -0.00010645220555085256 0 0.0014240303185440561 -0.00012962374976430757 0 0.0008811287160488964 -7.5182288305198101e-05 0 0.00098487289190936659 -2.4911311713459494e-05 0 0.00085273494720975991 6.9829351116486538e-05 0 0.0008811287160488964 -7.5182288305198101e-05 0 0.0010555524805552199 -0.00010645220555085256 0 0.00098487289190936659 -2.4911311713459494e-05 0 0.0010555524805552199 -0.00010645220555085256 0 0.00098487289190936659 -2.4911311713459494e-05 0 0.0012050034499611142 2.354483588702318e-05 0 0.0010094705093028297 8.0562907211452587e-05 0 0.0010116480752051292 0.00030977059439409672 0 0.0012050034499611142 2.354483588702318e-05 0 0.00098487289190936659 -2.4911311713459494e-05 0 0.0010094705093028297 8.0562907211452587e-05 0 0.00085273494720975991 6.9829351116486538e-05 0 0.00098487289190936659 -2.4911311713459494e-05 0 0.0010094705093028297 8.0562907211452587e-05 0 0.0012050034499611142 2.354483588702318e-05 0 0.0010094705093028297 8.0562907211452587e-05 0 0.0010116480752051292 0.00030977059439409672 0 0.00085273494720975991 6.9829351116486538e-05 0 0.00093354249096612668 -0.00054227789759177876 0 0.00093957662367539509 -0.00053030553793689426 0 0.00085273494720975991 6.9829351116486538e-05 0 0.00078762347014336791 2.4113723642079525e-05 0 0.00070767105835896653 3.8015832617833479e-05 0 0.00083000391073821146 7.0880155626619365e-05 0 0.00085273494720975991 6.9829351116486538e-05 0 0.00070767105835896653 3.8015832617833479e-05 0 0.00093354249096612668 -0.00054227789759177876 0 0.00092331859138690658 -0.00053360085407465547 0 0.0008811287160488964 -7.5182288305198101e-05 0 0.00085273494720975991 6.9829351116486538e-05 0 0.00078762347014336791 2.4113723642079525e-05 0 0.0008811287160488964 -7.5182288305198101e-05 0 0.00078762347014336791 2.4113723642079525e-05 0 0.00081497404554958504 -2.3813736686645562e-05 0 0.00078762347014336791 2.4113723642079525e-05 0 0.00074985406232964253 1.0946764727789519e-06 0 0.00070767105835896653 3.8015832617833479e-05 0 0.00078762347014336791 2.4113723642079525e-05 0 0.00074985406232964253 1.0946764727789519e-06 0 0.00081497404554958504 -2.3813736686645562e-05 0 0.0010116480752051292 0.00030977059439409672 0 0.0012050034499611142 2.354483588702318e-05 0 0.0020194825623588803 -9.8790942886992273e-05 0 0.0014240303185440561 -0.00012962374976430757 0 0.0012050034499611142 2.354483588702318e-05 0 0.0020194825623588803 -9.8790942886992273e-05 0 0.00075319188748636777 -0.0010026999685805069 0 0.00065813588854851549 -0.0009751459324680912 0 0.00067726310841099155 -0.0010268774820428126 0 0.00093354249096612668 -0.00054227789759177876 0 0.0013678655345523364 -0.00060400785000283845 0 0.00089336650327955869 -0.00028531865071238367 0 0.0014240303185440561 -0.00012962374976430757 0 0.0020512094855306803 -0.00025457217426256711 0 0.0014240303185440561 -0.00012962374976430757 0 0.0020194825623588803 -9.8790942886992273e-05 0 0.0020512094855306803 -0.00025457217426256711 0 0.0010555524805552199 -0.00010645220555085256 0 0.0014240303185440561 -0.00012962374976430757 0 0.0012050034499611142 2.354483588702318e-05 0 0.00065813588854851549 -0.0009751459324680912 0 0.00060076380009205525 -0.001002214608449021 0 0.00056428876811654284 -0.00094764368998384531 0 0.0020194825623588803 -9.8790942886992273e-05 0 0.0020512094855306803 -0.00025457217426256711 0 0.0021974557957788912 -0.00024637467650761457 0 0.0013678655345523364 -0.00060400785000283845 0 0.0020678136864738668 -0.00076928368288329283 0 0.00065813588854851549 -0.0009751459324680912 0 0.00060076380009205525 -0.001002214608449021 0 0.00062321795880802128 -0.0010362168564173068 0 0.0020512094855306803 -0.00025457217426256711 0 0.0020918304200052578 -0.00021088183489975909 0 0.0021974557957788912 -0.00024637467650761457 0 0.0022861929439155237 -0.00019865838258751995 0 0.0020512094855306803 -0.00025457217426256711 0 0.0020918304200052578 -0.00021088183489975909 0 0.0032541111835311227 -0.00024911798212354241 0 0.0028706487116708546 -0.0004417262806621845 0 0.0023516078049379183 -0.00011082701934902202 0 0.0022861929439155237 -0.00019865838258751995 0 0.0020918304200052578 -0.00021088183489975909 0 0.0047849922768495321 -0.0012092996202504292 0 0.0045729598506330576 -0.0011874483772345585 0 0.0046331483149339341 -0.0013275092725731005 0 0.0046799061171651944 -0.001123780551291334 0 0.0047849922768495321 -0.0012092996202504292 0 0.0045729598506330576 -0.0011874483772345585 0 0.0028706487116708546 -0.0004417262806621845 0 0.0020678136864738668 -0.00076928368288329283 0 0.00060076380009205525 -0.001002214608449021 0 0.00056428876811654284 -0.00094764368998384531 0 0.00055686547160536004 -0.001050109189085336 0 0.00050908660393716293 -0.0010373443027828786 0 0.00056428876811654284 -0.00094764368998384531 0 0.00055686547160536004 -0.001050109189085336 0 0.00060076380009205525 -0.001002214608449021 0 0.00055686547160536004 -0.001050109189085336 0 0.00062321795880802128 -0.0010362168564173068 0 0.00055686547160536004 -0.001050109189085336 0 0.00062321795880802128 -0.0010362168564173068 0 0.00059633116229275613 -0.0011029861805471417 0 0.00062321795880802128 -0.0010362168564173068 0 0.00059633116229275613 -0.0011029861805471417 0 0.00067447791008755093 -0.0010932487123959391 0 0.00065813588854851549 -0.0009751459324680912 0 0.00062321795880802128 -0.0010362168564173068 0 0.00067726310841099155 -0.0010268774820428126 0 0.00062321795880802128 -0.0010362168564173068 0 0.00067447791008755093 -0.0010932487123959391 0 0.00067726310841099155 -0.0010268774820428126 0 0.00022864900084717778 -0.00051575116763549604 0 0.0005389741114052159 -0.00057895379029245029 0 0.00059633116229275613 -0.0011029861805471417 0 0.00059646670621674755 -0.0011804836269737736 0 0.00067447791008755093 -0.0010932487123959391 0 0.00051361090862543472 -0.001138544397169065 0 0.00055686547160536004 -0.001050109189085336 0 0.00059633116229275613 -0.0011029861805471417 0 0.00051361090862543472 -0.001138544397169065 0 0.00059633116229275613 -0.0011029861805471417 0 0.00059646670621674755 -0.0011804836269737736 0 0.00032854228183975843 -0.00073246455002959137 0 0.00022864900084717778 -0.00051575116763549604 0 -3.1171945558867429e-06 -0.00085209450811517707 0 -0.00031340624089034854 -0.00069849920266179793 0 -7.5728827838927079e-05 -0.00041795729818233142 0 0.00022864900084717778 -0.00051575116763549604 0 0.00014232917187082669 -0.00042818441130394226 0 0.00022864900084717778 -0.00051575116763549604 0 7.8263127819560999e-05 -0.00035032260489255453 0 0.00030043504327510978 -0.00017478823293561299 0 0.00030986042601813913 -0.00018282204381089138 0 0.00032178609815611774 -0.00015817222036970387 0 -0.00021258242208322848 -0.00022386788777089338 0 -0.00022554490429608392 -0.00018318190380069981 0 -0.00024705899751797412 -0.00021804526118376864 0 -0.00019460623412556074 -0.00028439604540403304 0 -0.00021258242208322848 -0.00022386788777089338 0 -0.00022554490429608392 -0.00018318190380069981 0 -0.00019460623412556074 -0.00028439604540403304 0 -0.00021258242208322848 -0.00022386788777089338 0 -8.2045056039483565e-05 -0.00025793415534601424 0 -0.00021258242208322848 -0.00022386788777089338 0 -8.2045056039483565e-05 -0.00025793415534601424 0 -5.5280275889773564e-05 -0.00014830008781079344 0 5.084608765617684e-05 -0.00031108199270178189 0 7.8263127819560999e-05 -0.00035032260489255453 0 -1.0771848197271036e-05 -0.00017918024056186058 0 0.00030986042601813913 -0.00018282204381089138 0 0.0003057607506701625 -0.0002022990240738554 0 -1.0771848197271036e-05 -0.00017918024056186058 0 -0.00022554490429608392 -0.00018318190380069981 0 -0.00024705899751797412 -0.00021804526118376864 0 0.00030986042601813913 -0.00018282204381089138 0 0.0003057607506701625 -0.0002022990240738554 0 0.00032178609815611774 -0.00015817222036970387 0 -1.0771848197271036e-05 -0.00017918024056186058 0 0.0003057607506701625 -0.0002022990240738554 0 0.00031882253140500612 -0.00017940573215097957 0 0.0003057607506701625 -0.0002022990240738554 0 0.00044879771639339097 -0.00015062809614155854 0 0.00031882253140500612 -0.00017940573215097957 0 0.00044879771639339097 -0.00015062809614155854 0 0.00059545646063008243 -9.5338273587999058e-05 0 0.00050472416174057819 -0.0001349795403894264 0 0.0003057607506701625 -0.0002022990240738554 0 0.00044879771639339097 -0.00015062809614155854 0 0.00032178609815611774 -0.00015817222036970387 0 0.00044879771639339097 -0.00015062809614155854 0 0.00032178609815611774 -0.00015817222036970387 0 0.0004986060557368076 -7.7740216341633855e-05 0 0.00075319188748636777 -0.0010026999685805069 0 0.00067447791008755093 -0.0010932487123959391 0 0.00067726310841099155 -0.0010268774820428126 0 0.00055819620222959847 6.7781258845877506e-05 0 0.00032178609815611774 -0.00015817222036970387 0 0.0004986060557368076 -7.7740216341633855e-05 0 0.00093354249096612668 -0.00054227789759177876 0 0.0005389741114052159 -0.00057895379029245029 0 0.00061675750453848868 -5.5853554391277957e-05 0 0.00071983934883011053 -4.3816443306692735e-05 0 0.00059545646063008243 -9.5338273587999058e-05 0 0.00044879771639339097 -0.00015062809614155854 0 0.00061675750453848868 -5.5853554391277957e-05 0 0.00059545646063008243 -9.5338273587999058e-05 0 0.00044879771639339097 -0.00015062809614155854 0 0.00061675750453848868 -5.5853554391277957e-05 0 0.0004986060557368076 -7.7740216341633855e-05 0 0.00061675750453848868 -5.5853554391277957e-05 0 0.0004986060557368076 -7.7740216341633855e-05 0 0.00070767105835896653 3.8015832617833479e-05 0 0.00055819620222959847 6.7781258845877506e-05 0 0.0004986060557368076 -7.7740216341633855e-05 0 0.00070767105835896653 3.8015832617833479e-05 0 0.00074985406232964253 1.0946764727789519e-06 0 0.00061675750453848868 -5.5853554391277957e-05 0 0.00070767105835896653 3.8015832617833479e-05 0 0.00074985406232964253 1.0946764727789519e-06 0 0.00061675750453848868 -5.5853554391277957e-05 0 0.00071983934883011053 -4.3816443306692735e-05 0 0.00074985406232964253 1.0946764727789519e-06 0 0.00071983934883011053 -4.3816443306692735e-05 0 0.00080656695214700782 -2.6987120213996714e-05 0 0.00071983934883011053 -4.3816443306692735e-05 0 0.00082889911339198658 -3.9415293338544503e-05 0 0.00080656695214700782 -2.6987120213996714e-05 0 0.00071983934883011053 -4.3816443306692735e-05 0 0.00082889911339198658 -3.9415293338544503e-05 0 0.00067950487664994853 -8.5852159024360267e-05 0 0.00071983934883011053 -4.3816443306692735e-05 0 0.00067950487664994853 -8.5852159024360267e-05 0 0.00059545646063008243 -9.5338273587999058e-05 0 0.00082889911339198658 -3.9415293338544503e-05 0 0.00080825183975221694 -8.3154670316528247e-05 0 0.0010061173456354393 -3.5214441606346243e-05 0 0.00082889911339198658 -3.9415293338544503e-05 0 0.00067950487664994853 -8.5852159024360267e-05 0 0.00080825183975221694 -8.3154670316528247e-05 0 0.00080825183975221694 -8.3154670316528247e-05 0 0.00055768559600196201 -0.00013920687297267915 0 0.00097508477834270016 -9.996543662834475e-05 0 0.00067950487664994853 -8.5852159024360267e-05 0 0.00080825183975221694 -8.3154670316528247e-05 0 0.00055768559600196201 -0.00013920687297267915 0 0.00055768559600196201 -0.00013920687297267915 0 0.00050472416174057819 -0.0001349795403894264 0 0.00031882253140500612 -0.00017940573215097957 0 0.00067950487664994853 -8.5852159024360267e-05 0 0.00059545646063008243 -9.5338273587999058e-05 0 0.00050472416174057819 -0.0001349795403894264 0 0.00067950487664994853 -8.5852159024360267e-05 0 0.00055768559600196201 -0.00013920687297267915 0 0.00050472416174057819 -0.0001349795403894264 0 0.00044879771639339097 -0.00015062809614155854 0 0.00050472416174057819 -0.0001349795403894264 0 0.00031882253140500612 -0.00017940573215097957 0 0.00055768559600196201 -0.00013920687297267915 0 0.00031882253140500612 -0.00017940573215097957 0 0.00023001022253244869 -0.00016871796450257159 0 -1.0771848197271036e-05 -0.00017918024056186058 0 0.00031882253140500612 -0.00017940573215097957 0 0.00023001022253244869 -0.00016871796450257159 0 0.00055768559600196201 -0.00013920687297267915 0 0.00023001022253244869 -0.00016871796450257159 0 0.00048022444064697693 -0.00010198589701208684 0 0.00023001022253244869 -0.00016871796450257159 0 6.9807169192862361e-05 -0.00017078057056273143 0 -0.000149280373569503 -0.00020214176546257126 0 0.00023001022253244869 -0.00016871796450257159 0 6.9807169192862361e-05 -0.00017078057056273143 0 0.00048022444064697693 -0.00010198589701208684 0 -1.0771848197271036e-05 -0.00017918024056186058 0 0.00023001022253244869 -0.00016871796450257159 0 -0.000149280373569503 -0.00020214176546257126 0 6.9807169192862361e-05 -0.00017078057056273143 0 0.00048022444064697693 -0.00010198589701208684 0 -0.0002638774217137487 -0.00014475770310275388 0 0.00048022444064697693 -0.00010198589701208684 0 0.00064264557588689759 -1.946097184985151e-07 0 -0.0002638774217137487 -0.00014475770310275388 0 0.00064264557588689759 -1.946097184985151e-07 0 -0.0002638774217137487 -0.00014475770310275388 0 -0.00025808427355122568 -1.8925124844155103e-07 0 0.00048022444064697693 -0.00010198589701208684 0 0.00064264557588689759 -1.946097184985151e-07 0 0.00097508477834270016 -9.996543662834475e-05 0 0.00064264557588689759 -1.946097184985151e-07 0 0.00097508477834270016 -9.996543662834475e-05 0 0.0015437226020480002 -5.017068190804071e-07 0 0.00055768559600196201 -0.00013920687297267915 0 0.00048022444064697693 -0.00010198589701208684 0 0.00097508477834270016 -9.996543662834475e-05 0 0.00097508477834270016 -9.996543662834475e-05 0 0.0014407446501195956 -4.8049961798441631e-05 0 0.0010061173456354393 -3.5214441606346243e-05 0 0.00080825183975221694 -8.3154670316528247e-05 0 0.00097508477834270016 -9.996543662834475e-05 0 0.0010061173456354393 -3.5214441606346243e-05 0 0.00097508477834270016 -9.996543662834475e-05 0 0.0015437226020480002 -5.017068190804071e-07 0 0.0014407446501195956 -4.8049961798441631e-05 0 0.0015437226020480002 -5.017068190804071e-07 0 0.0024430445004605772 1.0444857085038101e-06 0 0.0014407446501195956 -4.8049961798441631e-05 0 0.0024430445004605772 1.0444857085038101e-06 0 0.0012532013068848038 0.00027807798824393487 0 0.0014407446501195956 -4.8049961798441631e-05 0 0.0024461511730822071 -3.3814384135395263e-08 0 0.0029457991214562546 -0.00026493402866320693 0 0.0030559490849801046 -4.5613550747173532e-05 0 0.0024443245270390941 -2.6302534002358114e-08 0 0.0020691659133358475 1.8461823239176554e-05 0 0.0012532013068848038 0.00027807798824393487 0 0.0011455049496439751 8.2925101928034694e-05 0 0.0014407446501195956 -4.8049961798441631e-05 0 0.0011455049496439751 8.2925101928034694e-05 0 0.0014407446501195956 -4.8049961798441631e-05 0 0.0010061173456354393 -3.5214441606346243e-05 0 0.0010061173456354393 -3.5214441606346243e-05 0 0.0010550150639607951 1.9771440076455258e-05 0 0.00094390119105409846 -1.9214328031192327e-05 0 0.00082889911339198658 -3.9415293338544503e-05 0 0.0010061173456354393 -3.5214441606346243e-05 0 0.00094390119105409846 -1.9214328031192327e-05 0 0.0010550150639607951 1.9771440076455258e-05 0 0.00094390119105409846 -1.9214328031192327e-05 0 0.0010478294481039009 -3.7138802752548092e-05 0 0.0011455049496439751 8.2925101928034694e-05 0 0.0010061173456354393 -3.5214441606346243e-05 0 0.0010550150639607951 1.9771440076455258e-05 0 0.0011455049496439751 8.2925101928034694e-05 0 0.0010550150639607951 1.9771440076455258e-05 0 0.001157484016879054 4.6771326669511655e-05 0 0.00081497404554958504 -2.3813736686645562e-05 0 0.00080656695214700782 -2.6987120213996714e-05 0 0.00089849606120737536 -4.2855239382012655e-05 0 0.00074985406232964253 1.0946764727789519e-06 0 0.00081497404554958504 -2.3813736686645562e-05 0 0.00080656695214700782 -2.6987120213996714e-05 0 0.00082889911339198658 -3.9415293338544503e-05 0 0.00080656695214700782 -2.6987120213996714e-05 0 0.00089849606120737536 -4.2855239382012655e-05 0 0.00082889911339198658 -3.9415293338544503e-05 0 0.00094390119105409846 -1.9214328031192327e-05 0 0.00089849606120737536 -4.2855239382012655e-05 0 0.00094390119105409846 -1.9214328031192327e-05 0 0.00089849606120737536 -4.2855239382012655e-05 0 0.0010478294481039009 -3.7138802752548092e-05 0 0.00089849606120737536 -4.2855239382012655e-05 0 0.00095247687773785381 -6.6733670381944468e-05 0 0.0010478294481039009 -3.7138802752548092e-05 0 0.00088899626608729507 -9.7026147707693152e-05 0 0.00081497404554958504 -2.3813736686645562e-05 0 0.00089849606120737536 -4.2855239382012655e-05 0 0.00088899626608729507 -9.7026147707693152e-05 0 0.00089849606120737536 -4.2855239382012655e-05 0 0.00095247687773785381 -6.6733670381944468e-05 0 0.0029642765764298839 -5.1163669965197758e-05 0 0.0027712396154223459 -0.00028800234003586333 0 0.0032011488854350031 -3.4320209122263387e-05 0 0.002074372281652971 -0.00014021856506815411 0 0.0022023396451721047 -5.7214150854438592e-05 0 0.00089336650327955869 -0.00028531865071238367 0 0.00098068216652099282 -7.9042289165790874e-05 0 0.0011020169277698145 0.00018203115865046156 0 0.00098068216652099282 -7.9042289165790874e-05 0 0.00095247687773785381 -6.6733670381944468e-05 0 0.0010478294481039009 -3.7138802752548092e-05 0 0.00088899626608729507 -9.7026147707693152e-05 0 0.00098068216652099282 -7.9042289165790874e-05 0 0.00095247687773785381 -6.6733670381944468e-05 0 0.00098068216652099282 -7.9042289165790874e-05 0 0.0010478294481039009 -3.7138802752548092e-05 0 0.0010889027968945919 -2.5902148623931281e-05 0 0.0010478294481039009 -3.7138802752548092e-05 0 0.0011397950575296344 -3.8306627274875843e-05 0 0.0010889027968945919 -2.5902148623931281e-05 0 0.00098068216652099282 -7.9042289165790874e-05 0 0.0010889027968945919 -2.5902148623931281e-05 0 0.0011020169277698145 0.00018203115865046156 0 0.0011397950575296344 -3.8306627274875843e-05 0 0.0010889027968945919 -2.5902148623931281e-05 0 0.0012553105122722263 -8.5513631041983919e-05 0 0.0010889027968945919 -2.5902148623931281e-05 0 0.0012553105122722263 -8.5513631041983919e-05 0 0.0011020169277698145 0.00018203115865046156 0 0.0012532013068848038 0.00027807798824393487 0 0.0011455049496439751 8.2925101928034694e-05 0 0.001157484016879054 4.6771326669511655e-05 0 0.0020691659133358475 1.8461823239176554e-05 0 0.0018142625401915233 3.2736545740944799e-05 0 0.0029457991214562546 -0.00026493402866320693 0 0.0012553105122722263 -8.5513631041983919e-05 0 0.0021468862547741694 -1.0220385558718856e-05 0 0.0012532013068848038 0.00027807798824393487 0 0.001157484016879054 4.6771326669511655e-05 0 0.0012553105122722263 -8.5513631041983919e-05 0 0.0010478294481039009 -3.7138802752548092e-05 0 0.0011397950575296344 -3.8306627274875843e-05 0 0.001157484016879054 4.6771326669511655e-05 0 0.0010550150639607951 1.9771440076455258e-05 0 0.0010478294481039009 -3.7138802752548092e-05 0 0.001157484016879054 4.6771326669511655e-05 0 0.0012553105122722263 -8.5513631041983919e-05 0 0.0021468862547741694 -1.0220385558718856e-05 0 0.0011020169277698145 0.00018203115865046156 0 0.0011397950575296344 -3.8306627274875843e-05 0 0.001157484016879054 4.6771326669511655e-05 0 0.0012553105122722263 -8.5513631041983919e-05 0 0.0021468862547741694 -1.0220385558718856e-05 0 0.0011020169277698145 0.00018203115865046156 0 0.0030290013155875517 0.0001492423768179464 0 0.0022023396451721047 -5.7214150854438592e-05 0 0.0023922755859385521 1.2166938115021136e-05 0 0.00319328677779957 2.8598625651395346e-05 0 0.0032011488854350031 -3.4320209122263387e-05 0 0.0030290013155875517 0.0001492423768179464 0 0.0029802804287606772 0.00010571748226255878 0 0.0031296971601177176 3.9503401441414335e-05 0 0.0030630877935530062 1.3808561560910795e-05 0 0.0029642765764298839 -5.1163669965197758e-05 0 0.0032011488854350031 -3.4320209122263387e-05 0 0.0030630877935530062 1.3808561560910795e-05 0 0.00319328677779957 2.8598625651395346e-05 0 0.0032011488854350031 -3.4320209122263387e-05 0 0.0031296971601177176 3.9503401441414335e-05 0 0.0032011488854350031 -3.4320209122263387e-05 0 0.0031296971601177176 3.9503401441414335e-05 0 0.0030630877935530062 1.3808561560910795e-05 0 0.0029802804287606772 0.00010571748226255878 0 0.0031296971601177176 3.9503401441414335e-05 0 0.0030756737873878647 0.00010133663393295738 0 0.0031296971601177176 3.9503401441414335e-05 0 0.0030756737873878647 0.00010133663393295738 0 0.0032116075488075732 4.0011387554251454e-05 0 0.00319328677779957 2.8598625651395346e-05 0 0.0032558633224883567 7.1255377249741004e-06 0 0.0030290013155875517 0.0001492423768179464 0 0.00319328677779957 2.8598625651395346e-05 0 0.0032116075488075732 4.0011387554251454e-05 0 0.0032558633224883567 7.1255377249741004e-06 0 0.00319328677779957 2.8598625651395346e-05 0 0.0031296971601177176 3.9503401441414335e-05 0 0.0032116075488075732 4.0011387554251454e-05 0 0.0033475515022111354 3.8703238273302197e-05 0 0.0032116075488075732 4.0011387554251454e-05 0 0.0032558633224883567 7.1255377249741004e-06 0 0.0034870913849500045 -8.5017222849523706e-07 0 0.0032558633224883567 7.1255377249741004e-06 0 0.0033271441688452739 -1.9144748227589788e-06 0 0.0032558633224883567 7.1255377249741004e-06 0 0.0033271441688452739 -1.9144748227589788e-06 0 0.0030290013155875517 0.0001492423768179464 0 0.0041410507979401188 -3.2210412593601719e-07 0 0.0032926132656906355 -6.1875040625896563e-08 0 0.0033271441688452739 -1.9144748227589788e-06 0 0.0032926132656906355 -6.1875040625896563e-08 0 0.0033271441688452739 -1.9144748227589788e-06 0 0.0030559490849801046 -4.5613550747173532e-05 0 0.0024461511730822071 -3.3814384135395263e-08 0 0.0032926132656906355 -6.1875040625896563e-08 0 0.0030559490849801046 -4.5613550747173532e-05 0 0.0029457991214562546 -0.00026493402866320693 0 0.0021468862547741694 -1.0220385558718856e-05 0 0.0030290013155875517 0.0001492423768179464 0 0.0029457991214562546 -0.00026493402866320693 0 0.0030559490849801046 -4.5613550747173532e-05 0 0.0030290013155875517 0.0001492423768179464 0 0.0033271441688452739 -1.9144748227589788e-06 0 0.0030559490849801046 -4.5613550747173532e-05 0 0.0030290013155875517 0.0001492423768179464 0 0.0049175180789650273 -0.00071596387364964147 0 0.0049059075916176144 -0.00092077243905635186 0 0.0047736236156809874 -0.00069298505305041976 0 0.0048093812030091786 -0.0008623200440515071 0 0.004960403354561751 -0.00094720396791956761 0 0.004823855472848605 -0.00068724123540046247 0 0.0048994692218766829 -0.00089707633861693529 0 0.0047964239862871112 -0.00069347030848648924 0 0.0049175180789650273 -0.00071596387364964147 0 0.004989973641960313 -0.00081835590027001717 0 0.0049059075916176144 -0.00092077243905635186 0 0.0049175180789650273 -0.00071596387364964147 0 0.0050400761294423641 -0.00070512497479102102 0 0.004989973641960313 -0.00081835590027001717 0 0.004989973641960313 -0.00081835590027001717 0 0.00503770573980045 -0.00095062870834973761 0 0.0049059075916176144 -0.00092077243905635186 0 0.004989973641960313 -0.00081835590027001717 0 0.00503770573980045 -0.00095062870834973761 0 0.0052009245838720809 -0.00095866227122559395 0 0.00503770573980045 -0.00095062870834973761 0 0.0049059075916176144 -0.00092077243905635186 0 0.0050656664598394381 -0.0011638535906731515 0 0.00503770573980045 -0.00095062870834973761 0 0.0052009245838720809 -0.00095866227122559395 0 0.005125434350436644 -0.0010238187662140784 0 0.0048093812030091786 -0.0008623200440515071 0 0.0049577369774641234 -0.0010111182389759361 0 0.0046383923160423744 -0.00091446644869829386 0 0.0048093812030091786 -0.0008623200440515071 0 0.0049577369774641234 -0.0010111182389759361 0 0.004960403354561751 -0.00094720396791956761 0 0.0049577369774641234 -0.0010111182389759361 0 0.0046383923160423744 -0.00091446644869829386 0 0.0046341324211478995 -0.0011676216004835353 0 0.0046383923160423744 -0.00091446644869829386 0 0.0044390950483737309 -0.00077912063167353488 0 0.0043942773609423318 -0.00094747138405597894 0 0.0046383923160423744 -0.00091446644869829386 0 0.0046341324211478995 -0.0011676216004835353 0 0.0043942773609423318 -0.00094747138405597894 0 0.0044390950483737309 -0.00077912063167353488 0 0.0046694356119335459 -0.00074919704270788915 0 0.0045301818871463151 -0.00066026711191876286 0 0.0046383923160423744 -0.00091446644869829386 0 0.0044390950483737309 -0.00077912063167353488 0 0.0046694356119335459 -0.00074919704270788915 0 0.0048093812030091786 -0.0008623200440515071 0 0.0046383923160423744 -0.00091446644869829386 0 0.0046694356119335459 -0.00074919704270788915 0 0.0048093812030091786 -0.0008623200440515071 0 0.0046694356119335459 -0.00074919704270788915 0 0.004823855472848605 -0.00068724123540046247 0 0.0046694356119335459 -0.00074919704270788915 0 0.0046872927768124 -0.00044654300316339835 0 0.004823855472848605 -0.00068724123540046247 0 0.0046694356119335459 -0.00074919704270788915 0 0.0045301818871463151 -0.00066026711191876286 0 0.0046872927768124 -0.00044654300316339835 0 0.0046937081672324939 -0.00049441428413392644 0 0.0047964239862871112 -0.00069347030848648924 0 0.0045301818871463151 -0.00066026711191876286 0 0.0045259917553606855 -0.00051094951878709479 0 0.0042703485255015383 -0.00067289493165747746 0 0.0045301818871463151 -0.00066026711191876286 0 0.0045259917553606855 -0.00051094951878709479 0 0.0046872927768124 -0.00044654300316339835 0 0.0045259917553606855 -0.00051094951878709479 0 0.0045163783827727282 -0.00037427650731484084 0 0.0044263227861380643 -0.00040476464438418837 0 0.0045259917553606855 -0.00051094951878709479 0 0.0045163783827727282 -0.00037427650731484084 0 0.0046872927768124 -0.00044654300316339835 0 0.0046430948451826257 -0.00046867994505344062 0 0.0047659734901790134 -0.0003987815854176329 0 0.0048345470668326503 -0.00053987138878514116 0 0.0047659734901790134 -0.0003987815854176329 0 0.0048345470668326503 -0.00053987138878514116 0 0.0048888181412595141 -0.00039485338451997621 0 0.0049175180789650273 -0.00071596387364964147 0 0.0048345470668326503 -0.00053987138878514116 0 0.0047736236156809874 -0.00069298505305041976 0 0.0046430948451826257 -0.00046867994505344062 0 0.0048345470668326503 -0.00053987138878514116 0 0.0047736236156809874 -0.00069298505305041976 0 0.0049175180789650273 -0.00071596387364964147 0 0.0048345470668326503 -0.00053987138878514116 0 0.0049609191480416643 -0.00060766018107772475 0 0.0050400761294423641 -0.00070512497479102102 0 0.0049609191480416643 -0.00060766018107772475 0 0.0050865647857500917 -0.00060232396840132494 0 0.0049175180789650273 -0.00071596387364964147 0 0.0050400761294423641 -0.00070512497479102102 0 0.0049609191480416643 -0.00060766018107772475 0 0.0048345470668326503 -0.00053987138878514116 0 0.0049609191480416643 -0.00060766018107772475 0 0.0049741258914640894 -0.00049381179169315529 0 0.0049609191480416643 -0.00060766018107772475 0 0.0049741258914640894 -0.00049381179169315529 0 0.0050865647857500917 -0.00060232396840132494 0 0.0048345470668326503 -0.00053987138878514116 0 0.0049741258914640894 -0.00049381179169315529 0 0.0048888181412595141 -0.00039485338451997621 0 0.0049741258914640894 -0.00049381179169315529 0 0.0048888181412595141 -0.00039485338451997621 0 0.0050123515525698345 -0.00036755794557277537 0 0.0049741258914640894 -0.00049381179169315529 0 0.0050123515525698345 -0.00036755794557277537 0 0.0051020727282653066 -0.00044315119637281073 0 0.0051020727282653066 -0.00044315119637281073 0 0.0050972109456129339 -0.00030545244076385483 0 0.005177195899540553 -0.00035501438783838674 0 0.0050123515525698345 -0.00036755794557277537 0 0.0051020727282653066 -0.00044315119637281073 0 0.0050972109456129339 -0.00030545244076385483 0 0.0049741258914640894 -0.00049381179169315529 0 0.0051020727282653066 -0.00044315119637281073 0 0.0050865647857500917 -0.00060232396840132494 0 0.0051020727282653066 -0.00044315119637281073 0 0.0052534789127755676 -0.00042552307056974723 0 0.0052083944351576398 -0.00056053002447463917 0 0.0051020727282653066 -0.00044315119637281073 0 0.0052534789127755676 -0.00042552307056974723 0 0.005177195899540553 -0.00035501438783838674 0 0.0052534789127755676 -0.00042552307056974723 0 0.0053407524400382114 -0.00054085763348997906 0 0.005424663707823566 -0.00033789337108196558 0 0.0052534789127755676 -0.00042552307056974723 0 0.005424663707823566 -0.00033789337108196558 0 0.0052748140109827191 -0.00031098631940968216 0 0.0052534789127755676 -0.00042552307056974723 0 0.0052748140109827191 -0.00031098631940968216 0 0.005177195899540553 -0.00035501438783838674 0 0.0052534789127755676 -0.00042552307056974723 0 0.0053407524400382114 -0.00054085763348997906 0 0.0052083944351576398 -0.00056053002447463917 0 0.0053407524400382114 -0.00054085763348997906 0 0.0054561471488630475 -0.00064524173005028993 0 0.0052326198371945177 -0.00077328595247059184 0 0.0053407524400382114 -0.00054085763348997906 0 0.0052083944351576398 -0.00056053002447463917 0 0.0052326198371945177 -0.00077328595247059184 0 0.0050400761294423641 -0.00070512497479102102 0 0.0050865647857500917 -0.00060232396840132494 0 0.0052326198371945177 -0.00077328595247059184 0 0.0050865647857500917 -0.00060232396840132494 0 0.0052083944351576398 -0.00056053002447463917 0 0.0052326198371945177 -0.00077328595247059184 0 0.0051020727282653066 -0.00044315119637281073 0 0.0050865647857500917 -0.00060232396840132494 0 0.0052083944351576398 -0.00056053002447463917 0 0.0057651366538350518 -0.00030965623894215437 0 0.0055517182855582296 -0.00040815965249789459 0 0.005424663707823566 -0.00033789337108196558 0 0.0057651366538350518 -0.00030965623894215437 0 0.0056692830283423517 -0.00042325001144475889 0 0.0055517182855582296 -0.00040815965249789459 0 0.0057630637295028094 -0.0004802183704220127 0 0.0056692830283423517 -0.00042325001144475889 0 0.0055991455701689128 -0.00049504586086380066 0 0.0057651366538350518 -0.00030965623894215437 0 0.0057630637295028094 -0.0004802183704220127 0 0.0056692830283423517 -0.00042325001144475889 0 0.0056692830283423517 -0.00042325001144475889 0 0.0055991455701689128 -0.00049504586086380066 0 0.0055517182855582296 -0.00040815965249789459 0 0.0053407524400382114 -0.00054085763348997906 0 0.0054730004294058655 -0.00051019526021095442 0 0.005424663707823566 -0.00033789337108196558 0 0.0055991455701689128 -0.00049504586086380066 0 0.0054730004294058655 -0.00051019526021095442 0 0.0055517182855582296 -0.00040815965249789459 0 0.0054730004294058655 -0.00051019526021095442 0 0.0055517182855582296 -0.00040815965249789459 0 0.005424663707823566 -0.00033789337108196558 0 0.0053407524400382114 -0.00054085763348997906 0 0.0054730004294058655 -0.00051019526021095442 0 0.0054561471488630475 -0.00064524173005028993 0 0.0054561471488630475 -0.00064524173005028993 0 0.00553757665874882 -0.00065389603973878393 0 0.0055510963671657459 -0.00059130891967554451 0 0.0054561471488630475 -0.00064524173005028993 0 0.0055328969073666781 -0.00072844781644011898 0 0.0055363733487118665 -0.00071141424988816176 0 0.0054561471488630475 -0.00064524173005028993 0 0.00553757665874882 -0.00065389603973878393 0 0.0055363733487118665 -0.00071141424988816176 0 0.0055638139967234511 -0.00068314146812964449 0 0.00553757665874882 -0.00065389603973878393 0 0.0055363733487118665 -0.00071141424988816176 0 0.0055991455701689128 -0.00049504586086380066 0 0.0054730004294058655 -0.00051019526021095442 0 0.0055510963671657459 -0.00059130891967554451 0 0.0054730004294058655 -0.00051019526021095442 0 0.0054561471488630475 -0.00064524173005028993 0 0.0055510963671657459 -0.00059130891967554451 0 0.0058251974848577597 -0.0006889908819933308 0 0.0057630637295028094 -0.0004802183704220127 0 0.0056655619809685993 -0.00058422420939181167 0 0.0058525981506741178 -0.00071508830794218532 0 0.0056206836382024358 -0.00076768870206387208 0 0.0058251974848577597 -0.0006889908819933308 0 0.0056117557669167267 -0.0006547724011337063 0 0.005532636857040316 -0.00073143399002821206 0 0.0058251974848577597 -0.0006889908819933308 0 0.0056117557669167267 -0.0006547724011337063 0 0.0056655619809685993 -0.00058422420939181167 0 0.0055991455701689128 -0.00049504586086380066 0 0.0055510963671657459 -0.00059130891967554451 0 0.0056655619809685993 -0.00058422420939181167 0 0.0055510963671657459 -0.00059130891967554451 0 0.0056117557669167267 -0.0006547724011337063 0 0.0056655619809685993 -0.00058422420939181167 0 0.00553757665874882 -0.00065389603973878393 0 0.0055510963671657459 -0.00059130891967554451 0 0.0056117557669167267 -0.0006547724011337063 0 0.0055638139967234511 -0.00068314146812964449 0 0.0056117557669167267 -0.0006547724011337063 0 0.005532636857040316 -0.00073143399002821206 0 0.0055638139967234511 -0.00068314146812964449 0 0.00553757665874882 -0.00065389603973878393 0 0.0056117557669167267 -0.0006547724011337063 0 0.0057630637295028094 -0.0004802183704220127 0 0.0055991455701689128 -0.00049504586086380066 0 0.0056655619809685993 -0.00058422420939181167 0 0.0059194957317656016 -0.00072814236533613329 0 0.0058251592842355031 -0.00086506843078770464 0 0.0057578503077228491 -0.0007973624041232348 0 0.0058251592842355031 -0.00086506843078770464 0 0.0057578503077228491 -0.0007973624041232348 0 0.0057811432843850935 -0.00087592257957867423 0 0.005628574631351916 -0.0006945429268271951 0 0.005493471016214291 -0.00083237721656006136 0 0.0055748794703819361 -0.00097989638203885981 0 0.005628574631351916 -0.0006945429268271951 0 0.005493471016214291 -0.00083237721656006136 0 0.0053307835970309346 -0.0007494685484302939 0 0.0054561471488630475 -0.00064524173005028993 0 0.0055328969073666781 -0.00072844781644011898 0 0.0052326198371945177 -0.00077328595247059184 0 0.0056206836382024358 -0.00076768870206387208 0 0.0056289320158639539 -0.00096759588212823018 0 0.0055638139967234511 -0.00068314146812964449 0 0.005532636857040316 -0.00073143399002821206 0 0.0055363733487118665 -0.00071141424988816176 0 0.0056206836382024358 -0.00076768870206387208 0 0.0056206138890725109 -0.00076752641961890379 0 0.0057578503077228491 -0.0007973624041232348 0 0.0057594716014705994 -0.00092998950215359224 0 0.0057811432843850935 -0.00087592257957867423 0 0.005493471016214291 -0.00083237721656006136 0 0.0055748794703819361 -0.00097989638203885981 0 0.0054122771938376656 -0.0009515864059722759 0 0.0057594716014705994 -0.00092998950215359224 0 0.0057871564114520711 -0.0009059590101603241 0 0.0058122549677363427 -0.00093567956064772174 0 0.0057594716014705994 -0.00092998950215359224 0 0.0057811432843850935 -0.00087592257957867423 0 0.0057871564114520711 -0.0009059590101603241 0 0.0059428656583440679 -0.0009895891185481944 0 0.0058251592842355031 -0.00086506843078770464 0 0.0058478516523861523 -0.0011680993719797752 0 0.0059794395001278276 -0.0010029527479244345 0 0.0060431664353198297 -0.0011210844579810913 0 0.0058251592842355031 -0.00086506843078770464 0 0.0058122549677363427 -0.00093567956064772174 0 0.0058672349987330024 -0.00096511007435451943 0 0.0058251592842355031 -0.00086506843078770464 0 0.0057871564114520711 -0.0009059590101603241 0 0.0058122549677363427 -0.00093567956064772174 0 0.0058251592842355031 -0.00086506843078770464 0 0.0057811432843850935 -0.00087592257957867423 0 0.0057871564114520711 -0.0009059590101603241 0 0.004989973641960313 -0.00081835590027001717 0 0.0053307835970309346 -0.0007494685484302939 0 0.0052009245838720809 -0.00095866227122559395 0 0.0050400761294423641 -0.00070512497479102102 0 0.004989973641960313 -0.00081835590027001717 0 0.0052326198371945177 -0.00077328595247059184 0 0.0051699164303502911 -0.0008124569873071446 0 0.0053252487989010186 -0.00079148295713389767 0 0.0056206836382024358 -0.00076768870206387208 0 0.0053252487989010186 -0.00079148295713389767 0 0.005493471016214291 -0.00083237721656006136 0 0.0053307835970309346 -0.0007494685484302939 0 0.0054122771938376656 -0.0009515864059722759 0 0.0054122771938376656 -0.0009515864059722759 0 0.0052009245838720809 -0.00095866227122559395 0 0.0053252848077142839 -0.0010965362829989307 0 0.0053307835970309346 -0.0007494685484302939 0 0.0054122771938376656 -0.0009515864059722759 0 0.0052009245838720809 -0.00095866227122559395 0 0.0055748794703819361 -0.00097989638203885981 0 0.0054122771938376656 -0.0009515864059722759 0 0.0054430292071189724 -0.0010987280820033984 0 0.0051851773628600944 -0.0011108930925835129 0 0.0052340228770842391 -0.0012360156561054044 0 0.0050656664598394381 -0.0011638535906731515 0 0.0052009245838720809 -0.00095866227122559395 0 0.0051851773628600944 -0.0011108930925835129 0 0.005125434350436644 -0.0010238187662140784 0 0.0051851773628600944 -0.0011108930925835129 0 0.0053252848077142839 -0.0010965362829989307 0 0.0052340228770842391 -0.0012360156561054044 0 0.0052009245838720809 -0.00095866227122559395 0 0.0051851773628600944 -0.0011108930925835129 0 0.0053252848077142839 -0.0010965362829989307 0 0.0054122771938376656 -0.0009515864059722759 0 0.0053252848077142839 -0.0010965362829989307 0 0.0054430292071189724 -0.0010987280820033984 0 0.0053252848077142839 -0.0010965362829989307 0 0.0054430292071189724 -0.0010987280820033984 0 0.0053801350726221144 -0.0012115179394739295 0 0.0053801350726221144 -0.0012115179394739295 0 0.0055218108216269256 -0.0012466708685842575 0 0.0053600788959579362 -0.0013496151540584994 0 0.0054430292071189724 -0.0010987280820033984 0 0.0053801350726221144 -0.0012115179394739295 0 0.0055218108216269256 -0.0012466708685842575 0 0.0053801350726221144 -0.0012115179394739295 0 0.0052340228770842391 -0.0012360156561054044 0 0.0053600788959579362 -0.0013496151540584994 0 0.0052340228770842391 -0.0012360156561054044 0 0.0052077977590156699 -0.0014047628602679432 0 0.0050746933525743082 -0.0013206844287755306 0 0.0053252848077142839 -0.0010965362829989307 0 0.0053801350726221144 -0.0012115179394739295 0 0.0052340228770842391 -0.0012360156561054044 0 0.0060418290936107098 -0.0011784527780680292 0 0.0058462981544893516 -0.0010841490426687923 0 0.0059857719358740518 -0.001005269283514573 0 0.0058122549677363427 -0.00093567956064772174 0 0.0058462981544893516 -0.0010841490426687923 0 0.0059857719358740518 -0.001005269283514573 0 0.0059722177227087827 -0.0010764688337622052 0 0.0060431664353198297 -0.0011210844579810913 0 0.0056289320158639539 -0.00096759588212823018 0 0.005607526747213337 -0.0012185285781676262 0 0.0057594716014705994 -0.00092998950215359224 0 0.0058122549677363427 -0.00093567956064772174 0 0.0058462981544893516 -0.0010841490426687923 0 0.0057594716014705994 -0.00092998950215359224 0 0.0058462981544893516 -0.0010841490426687923 0 0.0057225186519418462 -0.001169002555302254 0 0.0055748794703819361 -0.00097989638203885981 0 0.0054430292071189724 -0.0010987280820033984 0 0.0055218108216269256 -0.0012466708685842575 0 0.0058462981544893516 -0.0010841490426687923 0 0.0057225186519418462 -0.001169002555302254 0 0.0059260512477983668 -0.0012355830897230276 0 0.0060418290936107098 -0.0011784527780680292 0 0.0058462981544893516 -0.0010841490426687923 0 0.0059260512477983668 -0.0012355830897230276 0 0.0060885210888634023 -0.0013479395810929652 0 0.0059260512477983668 -0.0012355830897230276 0 0.0059154132337308797 -0.0013903631638022029 0 0.0062091178667702624 -0.0014547975041381031 0 0.0061247864110995113 -0.0014550682040312842 0 0.0057225186519418462 -0.001169002555302254 0 0.0059260512477983668 -0.0012355830897230276 0 0.0059154132337308797 -0.0013903631638022029 0 0.005607526747213337 -0.0012185285781676262 0 0.0055730375293554218 -0.0014976031256355264 0 0.0057225186519418462 -0.001169002555302254 0 0.0059154132337308797 -0.0013903631638022029 0 0.0056611557190648807 -0.0014597322365609842 0 0.0059154132337308797 -0.0013903631638022029 0 0.0058069592492274889 -0.0016341384754851047 0 0.0056611557190648807 -0.0014597322365609842 0 0.0055865149360685212 -0.0018128733333699146 0 0.0058069592492274889 -0.0016341384754851047 0 0.0056611557190648807 -0.0014597322365609842 0 0.0059154132337308797 -0.0013903631638022029 0 0.0058069592492274889 -0.0016341384754851047 0 0.0060421764294117707 -0.0016034250888040014 0 0.0062098316564364138 -0.001321544002914978 0 0.0059154132337308797 -0.0013903631638022029 0 0.0060421764294117707 -0.0016034250888040014 0 0.0052340228770842391 -0.0012360156561054044 0 0.0052077977590156699 -0.0014047628602679432 0 0.0053600788959579362 -0.0013496151540584994 0 0.0052077977590156699 -0.0014047628602679432 0 0.0053600788959579362 -0.0013496151540584994 0 0.0053347130674858993 -0.0015272780291455859 0 0.0053600788959579362 -0.0013496151540584994 0 0.0054956382587548576 -0.0014929138477361812 0 0.0053347130674858993 -0.0015272780291455859 0 0.0055218108216269256 -0.0012466708685842575 0 0.0053600788959579362 -0.0013496151540584994 0 0.0054956382587548576 -0.0014929138477361812 0 0.0055340300192674675 -0.0017871501243411584 0 0.0055730375293554218 -0.0014976031256355264 0 0.0054992926277004856 -0.001774321640956275 0 0.0054956382587548576 -0.0014929138477361812 0 0.0053347130674858993 -0.0015272780291455859 0 0.0052712700935818166 -0.0016517739908034547 0 0.0053347130674858993 -0.0015272780291455859 0 0.0051950756543282517 -0.0015339028923181286 0 0.0052077977590156699 -0.0014047628602679432 0 0.0053347130674858993 -0.0015272780291455859 0 0.0051950756543282517 -0.0015339028923181286 0 0.0052712700935818166 -0.0016517739908034547 0 0.0051950756543282517 -0.0015339028923181286 0 0.0051479707254851017 -0.0016098245639460584 0 0.0052077977590156699 -0.0014047628602679432 0 0.0051950756543282517 -0.0015339028923181286 0 0.0050552244935693188 -0.0015070483538398103 0 0.0051950756543282517 -0.0015339028923181286 0 0.0051479707254851017 -0.0016098245639460584 0 0.0050552244935693188 -0.0015070483538398103 0 0.0050622737550925787 -0.0016192988735965962 0 0.0050552244935693188 -0.0015070483538398103 0 0.0050087939229306504 -0.0015915429725089653 0 0.0050622737550925787 -0.0016192988735965962 0 0.0051479707254851017 -0.0016098245639460584 0 0.0050552244935693188 -0.0015070483538398103 0 0.0050552244935693188 -0.0015070483538398103 0 0.0049325606751950534 -0.0015430792752951115 0 0.0049661029639806219 -0.0014042940931604461 0 0.0049557938122839701 -0.0016203019941019318 0 0.0049325606751950534 -0.0015430792752951115 0 0.0050087939229306504 -0.0015915429725089653 0 0.0050552244935693188 -0.0015070483538398103 0 0.0049325606751950534 -0.0015430792752951115 0 0.0050087939229306504 -0.0015915429725089653 0 0.0052077977590156699 -0.0014047628602679432 0 0.0050552244935693188 -0.0015070483538398103 0 0.0050746933525743082 -0.0013206844287755306 0 0.0050552244935693188 -0.0015070483538398103 0 0.0049661029639806219 -0.0014042940931604461 0 0.0050746933525743082 -0.0013206844287755306 0 0.0052340228770842391 -0.0012360156561054044 0 0.0050746933525743082 -0.0013206844287755306 0 0.0050656664598394381 -0.0011638535906731515 0 0.0050746933525743082 -0.0013206844287755306 0 0.0049401040323342757 -0.0012043431626718611 0 0.0050656664598394381 -0.0011638535906731515 0 0.0049661029639806219 -0.0014042940931604461 0 0.0050746933525743082 -0.0013206844287755306 0 0.0049401040323342757 -0.0012043431626718611 0 0.0049661029639806219 -0.0014042940931604461 0 0.0049401040323342757 -0.0012043431626718611 0 0.0048346873860794486 -0.0013080481594894414 0 0.0049577369774641234 -0.0010111182389759361 0 0.0049401040323342757 -0.0012043431626718611 0 0.0050656664598394381 -0.0011638535906731515 0 0.0049577369774641234 -0.0010111182389759361 0 0.0049401040323342757 -0.0012043431626718611 0 0.0047654637781959427 -0.0011451445542212918 0 0.0048994692218766829 -0.00089707633861693529 0 0.0049539119285633114 -0.0010070474660679211 0 0.0049577369774641234 -0.0010111182389759361 0 0.004960403354561751 -0.00094720396791956761 0 0.0050656664598394381 -0.0011638535906731515 0 0.00503770573980045 -0.00095062870834973761 0 0.005125434350436644 -0.0010238187662140784 0 0.0050656664598394381 -0.0011638535906731515 0 0.0051851773628600944 -0.0011108930925835129 0 0.005125434350436644 -0.0010238187662140784 0 0.0050656664598394381 -0.0011638535906731515 0 0.0047654637781959427 -0.0011451445542212918 0 0.0048346873860794486 -0.0013080481594894414 0 0.0044871833891010678 -0.0012731003863431011 0 0.0046341324211478995 -0.0011676216004835353 0 0.004419289817433671 -0.0011351827228906412 0 0.0043942773609423318 -0.00094747138405597894 0 0.0048251142950278738 -0.0010783503930872826 0 0.0046802017752054104 -0.0011580694472728182 0 0.0049401040323342757 -0.0012043431626718611 0 0.0047654637781959427 -0.0011451445542212918 0 0.0048346873860794486 -0.0013080481594894414 0 0.0046802017752054104 -0.0011580694472728182 0 0.0044349566770708233 -0.0012905889703141789 0 0.0046341324211478995 -0.0011676216004835353 0 0.004419289817433671 -0.0011351827228906412 0 0.0043633789231277099 -0.0013025602812527636 0 0.0048346873860794486 -0.0013080481594894414 0 0.0047798837733613545 -0.0014750814894723739 0 0.0044871833891010678 -0.0012731003863431011 0 0.0049325606751950534 -0.0015430792752951115 0 0.0049661029639806219 -0.0014042940931604461 0 0.0047798837733613545 -0.0014750814894723739 0 0.0049661029639806219 -0.0014042940931604461 0 0.0048346873860794486 -0.0013080481594894414 0 0.0047798837733613545 -0.0014750814894723739 0 0.0048462302136314875 -0.0016283284858071533 0 0.0049325606751950534 -0.0015430792752951115 0 0.0047798837733613545 -0.0014750814894723739 0 0.0048462302136314875 -0.0016283284858071533 0 0.0047798837733613545 -0.0014750814894723739 0 0.0047347973614365836 -0.0015805078764104359 0 0.0047798837733613545 -0.0014750814894723739 0 0.0047347973614365836 -0.0015805078764104359 0 0.0046691582648601057 -0.0015380251722443821 0 0.0046644640499724933 -0.001369145852771156 0 0.0046211483681636734 -0.0013247502068261998 0 0.0046668702539503087 -0.0015994950569782251 0 0.0047347973614365836 -0.0015805078764104359 0 0.0046691582648601057 -0.0015380251722443821 0 0.0047798837733613545 -0.0014750814894723739 0 0.0044301182760926941 -0.0015723004811412367 0 0.0044871833891010678 -0.0012731003863431011 0 0.0044301182760926941 -0.0015723004811412367 0 0.0041263790828297668 -0.0014523965498593305 0 0.0044871833891010678 -0.0012731003863431011 0 0.0042788433722861646 -0.0013762743828746784 0 0.0044349566770708233 -0.0012905889703141789 0 0.0046344260579229751 -0.0015941229935931673 0 0.0046691582648601057 -0.0015380251722443821 0 0.0045903287277437206 -0.0015645232877454663 0 0.0044301182760926941 -0.0015723004811412367 0 0.0040495138976071546 -0.0016480670005100532 0 0.0041263790828297668 -0.0014523965498593305 0 0.0046344260579229751 -0.0015941229935931673 0 0.0046668702539503087 -0.0015994950569782251 0 0.0046691582648601057 -0.0015380251722443821 0 0.0046211483681636734 -0.0013247502068261998 0 0.0050950109114054083 -0.0010076515443551294 0 0.0045818434694999818 -0.0005843030810195667 0 0.0046858996681947212 -0.00064818473948974201 0 0.0046108227194047221 -0.0007235862769833009 0 0.0045818434694999818 -0.0005843030810195667 0 0.0047295821340952874 -0.0005506880960449975 0 0.0046858996681947212 -0.00064818473948974201 0 0.0050950109114054083 -0.0010076515443551294 0 0.0053611156568380254 -0.00056872613206446383 0 0.0046858996681947212 -0.00064818473948974201 0 0.0047192084962548279 -0.0007486000036470747 0 0.0046108227194047221 -0.0007235862769833009 0 0.0040495138976071546 -0.0016480670005100532 0 0.004005690365217876 -0.0013922990069414425 0 0.0041263790828297668 -0.0014523965498593305 0 0.004005690365217876 -0.0013922990069414425 0 0.0041263790828297668 -0.0014523965498593305 0 0.0041426587157586542 -0.0012562445854931341 0 0.0050950109114054083 -0.0010076515443551294 0 0.0046095994034311052 -0.00094700257401385886 0 0.004005690365217876 -0.0013922990069414425 0 0.0039579793671830751 -0.0011852309315533583 0 0.0041426587157586542 -0.0012562445854931341 0 0.0039579793671830751 -0.0011852309315533583 0 0.0041426587157586542 -0.0012562445854931341 0 0.0041137031053328664 -0.00093754860917738287 0 0.0046095994034311052 -0.00094700257401385886 0 0.0042249035686125766 -0.00076536492185833645 0 0.0047192084962548279 -0.0007486000036470747 0 0.0046108227194047221 -0.0007235862769833009 0 0.0046396617628971888 -0.00086306134377935951 0 0.0043160803551775765 -0.00060674663589419312 0 0.0042249035686125766 -0.00076536492185833645 0 0.0032832372833568016 -8.925029956541299e-05 0 0.0032290976263815237 -0.00017087068483031813 0 0.0033159686082983755 -0.0001564872984419365 0 0.0042249035686125766 -0.00076536492185833645 0 0.0036918797318299798 -0.00050152253007282744 0 0.0032290976263815237 -0.00017087068483031813 0 0.0033271255187830463 -0.00023526527408713316 0 0.0032583575999330845 -0.0003048450973315573 0 0.0032290976263815237 -0.00017087068483031813 0 0.0033159686082983755 -0.0001564872984419365 0 0.0033271255187830463 -0.00023526527408713316 0 0.0042249035686125766 -0.00076536492185833645 0 0.0041761182330823689 -0.00081176849838238726 0 0.0042885324652610669 -0.0011180351942407579 0 0.0041426587157586542 -0.0012562445854931341 0 0.0041137031053328664 -0.00093754860917738287 0 0.004419289817433671 -0.0011351827228906412 0 0.0042885324652610669 -0.0011180351942407579 0 0.0043942773609423318 -0.00094747138405597894 0 0.004419289817433671 -0.0011351827228906412 0 0.0042885324652610669 -0.0011180351942407579 0 0.0043633789231277099 -0.0013025602812527636 0 0.0041263790828297668 -0.0014523965498593305 0 0.0043633789231277099 -0.0013025602812527636 0 0.0041426587157586542 -0.0012562445854931341 0 0.0042885324652610669 -0.0011180351942407579 0 0.0043633789231277099 -0.0013025602812527636 0 0.0041426587157586542 -0.0012562445854931341 0 0.0035425512931497286 1.9786025436041141e-06 0 0.0034828154190506637 -5.6447904887317566e-05 0 0.0035746654240297842 -6.5258836355829025e-05 0 0.0035910798969539409 -1.8379209712895952e-05 0 0.0035425512931497286 1.9786025436041141e-06 0 0.0035746654240297842 -6.5258836355829025e-05 0 0.0036006889797943562 4.315440718386841e-05 0 0.0035910798969539409 -1.8379209712895952e-05 0 0.0035425512931497286 1.9786025436041141e-06 0 0.0036006889797943562 4.315440718386841e-05 0 0.0035425512931497286 1.9786025436041141e-06 0 0.0035622090356095524 6.7786656762186903e-05 0 0.0036144637704810098 0.00011783824306312439 0 0.0036006889797943562 4.315440718386841e-05 0 0.0035622090356095524 6.7786656762186903e-05 0 0.0035289942412205472 8.7041178043414466e-05 0 0.0035622090356095524 6.7786656762186903e-05 0 0.0035222819284313417 5.3207442746921516e-05 0 0.0035425512931497286 1.9786025436041141e-06 0 0.0035622090356095524 6.7786656762186903e-05 0 0.0035222819284313417 5.3207442746921516e-05 0 0.0035425512931497286 1.9786025436041141e-06 0 0.0035222819284313417 5.3207442746921516e-05 0 0.0034813910263799728 2.8973599718327613e-05 0 0.0035222819284313417 5.3207442746921516e-05 0 0.0034960367980718414 7.9134181725738642e-05 0 0.0034813910263799728 2.8973599718327613e-05 0 0.0035289942412205472 8.7041178043414466e-05 0 0.0035222819284313417 5.3207442746921516e-05 0 0.0034960367980718414 7.9134181725738642e-05 0 0.0034960367980718414 7.9134181725738642e-05 0 0.0034618675378790429 7.4170366510712313e-05 0 0.0034813910263799728 2.8973599718327613e-05 0 0.0034618675378790429 7.4170366510712313e-05 0 0.0034813910263799728 2.8973599718327613e-05 0 0.0034209527161648892 4.423166466803165e-05 0 0.0034813910263799728 2.8973599718327613e-05 0 0.0034828154190506637 -5.6447904887317566e-05 0 0.0034270683912996699 -6.1893177980388625e-06 0 0.0035425512931497286 1.9786025436041141e-06 0 0.0034813910263799728 2.8973599718327613e-05 0 0.0034828154190506637 -5.6447904887317566e-05 0 0.0034292302194923728 -0.0001020038745452196 0 0.0033493585526398737 -4.8003821355826127e-05 0 0.0033710107775454068 -0.00013540687208202007 0 0.0034828154190506637 -5.6447904887317566e-05 0 0.0034270683912996699 -6.1893177980388625e-06 0 0.0033493585526398737 -4.8003821355826127e-05 0 0.0034529982540172071 -7.0225390865252016e-05 0 0.0034018446394602922 -5.6657128732135035e-05 0 0.0034270683912996699 -6.1893177980388625e-06 0 0.0033836458213210466 -3.1438467586942348e-06 0 0.0033493585526398737 -4.8003821355826127e-05 0 0.0050213623543745676 -0.00031398615822932015 0 0.0045380202230037815 -0.00049385833914169131 0 0.0034813910263799728 2.8973599718327613e-05 0 0.0034270683912996699 -6.1893177980388625e-06 0 0.0034209527161648892 4.423166466803165e-05 0 0.003407841075311125 0.00010051594598529109 0 0.0034209527161648892 4.423166466803165e-05 0 0.0033434037715163382 7.8460136000879942e-06 0 0.0034378410094738645 0.0001063150523527842 0 0.0034618675378790429 7.4170366510712313e-05 0 0.0034209527161648892 4.423166466803165e-05 0 0.0034209527161648892 4.423166466803165e-05 0 0.0033836458213210466 -3.1438467586942348e-06 0 0.0033434037715163382 7.8460136000879942e-06 0 0.0034270683912996699 -6.1893177980388625e-06 0 0.0034209527161648892 4.423166466803165e-05 0 0.0033836458213210466 -3.1438467586942348e-06 0 0.0048786074082484629 -0.00051678518588735669 0 0.0047295821340952874 -0.0005506880960449975 0 0.0047989248905199932 -0.00063342236331094157 0 0.0047295821340952874 -0.0005506880960449975 0 0.0046858996681947212 -0.00064818473948974201 0 0.0047989248905199932 -0.00063342236331094157 0 0.0043160803551775765 -0.00060674663589419312 0 0.0045380202230037815 -0.00049385833914169131 0 0.0032832372833568016 -8.925029956541299e-05 0 0.0033434037715163382 7.8460136000879942e-06 0 0.0033493585526398737 -4.8003821355826127e-05 0 0.0046858996681947212 -0.00064818473948974201 0 0.0047192084962548279 -0.0007486000036470747 0 0.0047989248905199932 -0.00063342236331094157 0 0.0033836458213210466 -3.1438467586942348e-06 0 0.0033434037715163382 7.8460136000879942e-06 0 0.0033493585526398737 -4.8003821355826127e-05 0 0.0032832372833568016 -8.925029956541299e-05 0 0.0033493585526398737 -4.8003821355826127e-05 0 0.0033301324937986686 -0.00010824953677199746 0 0.0033493585526398737 -4.8003821355826127e-05 0 0.0033301324937986686 -0.00010824953677199746 0 0.0033710107775454068 -0.00013540687208202007 0 0.0032832372833568016 -8.925029956541299e-05 0 0.0033301324937986686 -0.00010824953677199746 0 0.0033159686082983755 -0.0001564872984419365 0 0.0033301324937986686 -0.00010824953677199746 0 0.0033159686082983755 -0.0001564872984419365 0 0.0033710107775454068 -0.00013540687208202007 0 0.0033159686082983755 -0.0001564872984419365 0 0.0033657535101161615 -0.00019018753862058181 0 0.0033710107775454068 -0.00013540687208202007 0 0.0033159686082983755 -0.0001564872984419365 0 0.0033271255187830463 -0.00023526527408713316 0 0.0033657535101161615 -0.00019018753862058181 0 0.0033271255187830463 -0.00023526527408713316 0 0.0033657535101161615 -0.00019018753862058181 0 0.0033859609168086623 -0.00024579656536020202 0 0.0033657535101161615 -0.00019018753862058181 0 0.0034092010004154127 -0.00018366371173633231 0 0.0033710107775454068 -0.00013540687208202007 0 0.0033657535101161615 -0.00019018753862058181 0 0.0034092010004154127 -0.00018366371173633231 0 0.0033859609168086623 -0.00024579656536020202 0 0.0034092010004154127 -0.00018366371173633231 0 0.0034054479661414813 -0.00023748364133298377 0 0.0033859609168086623 -0.00024579656536020202 0 0.0034292302194923728 -0.0001020038745452196 0 0.0034092010004154127 -0.00018366371173633231 0 0.0033710107775454068 -0.00013540687208202007 0 0.0034292302194923728 -0.0001020038745452196 0 0.0034092010004154127 -0.00018366371173633231 0 0.0034517655221200632 -0.00015154443283550123 0 0.0034092010004154127 -0.00018366371173633231 0 0.0034403331531293359 -0.0002121914572126041 0 0.0034054479661414813 -0.00023748364133298377 0 0.0034092010004154127 -0.00018366371173633231 0 0.0034517655221200632 -0.00015154443283550123 0 0.0034403331531293359 -0.0002121914572126041 0 0.0035209510826020541 -0.00017242445294555459 0 0.0034517655221200632 -0.00015154443283550123 0 0.0034403331531293359 -0.0002121914572126041 0 0.0035209510826020541 -0.00017242445294555459 0 0.0034517655221200632 -0.00015154443283550123 0 0.0034936611338703101 -0.00010881741166989373 0 0.0034529982540172071 -7.0225390865252016e-05 0 0.0035320000012206598 -8.8877400187413057e-05 0 0.0034292302194923728 -0.0001020038745452196 0 0.0034517655221200632 -0.00015154443283550123 0 0.0034936611338703101 -0.00010881741166989373 0 0.0035212536388695551 -0.00028362377968654405 0 0.0034403331531293359 -0.0002121914572126041 0 0.0034048193187714488 -0.0003037533920909382 0 0.0035212536388695551 -0.00028362377968654405 0 0.0034424176332679452 -0.00035250893351533618 0 0.0034048193187714488 -0.0003037533920909382 0 0.0034156201236022082 -0.00026496225566735929 0 0.0034088160247282956 -0.00029757519132403215 0 0.0034403331531293359 -0.0002121914572126041 0 0.0034054479661414813 -0.00023748364133298377 0 0.003427016691290335 -0.00029295729864557246 0 0.003427016691290335 -0.00029295729864557246 0 0.0033908503554986856 -0.00027828114055979884 0 0.0033811397241259962 -0.00032639318170158224 0 0.0034054479661414813 -0.00023748364133298377 0 0.003427016691290335 -0.00029295729864557246 0 0.0033908503554986856 -0.00027828114055979884 0 0.0033908503554986856 -0.00027828114055979884 0 0.0033594234490729328 -0.00030231977004418028 0 0.0033811397241259962 -0.00032639318170158224 0 0.0033908503554986856 -0.00027828114055979884 0 0.0033859609168086623 -0.00024579656536020202 0 0.0033594234490729328 -0.00030231977004418028 0 0.0034054479661414813 -0.00023748364133298377 0 0.0033908503554986856 -0.00027828114055979884 0 0.0033859609168086623 -0.00024579656536020202 0 0.0033859609168086623 -0.00024579656536020202 0 0.003337950313385356 -0.00035865154358440717 0 0.0033696776511396836 -0.00049935933242397366 0 0.0033271255187830463 -0.00023526527408713316 0 0.0033859609168086623 -0.00024579656536020202 0 0.003337950313385356 -0.00035865154358440717 0 0.0033271255187830463 -0.00023526527408713316 0 0.003337950313385356 -0.00035865154358440717 0 0.0032454078206420088 -0.00035927160419964516 0 0.003337950313385356 -0.00035865154358440717 0 0.00333687768602022 -0.00044228933818839196 0 0.0032454078206420088 -0.00035927160419964516 0 0.003378975887766129 -0.00032571966626589486 0 0.0033717030980659956 -0.00036829948389187301 0 0.003337950313385356 -0.00035865154358440717 0 0.00333687768602022 -0.00044228933818839196 0 0.0033696776511396836 -0.00049935933242397366 0 0.00333687768602022 -0.00044228933818839196 0 0.0033696776511396836 -0.00049935933242397366 0 0.0033539364534359698 -0.00051331259148459376 0 0.0033696776511396836 -0.00049935933242397366 0 0.0033554031392107274 -0.00043855394732893275 0 0.0033539364534359698 -0.00051331259148459376 0 0.0033594234490729328 -0.00030231977004418028 0 0.0033645430016156067 -0.00035686251427264275 0 0.0033811397241259962 -0.00032639318170158224 0 0.0033717030980659956 -0.00036829948389187301 0 0.0033766191870961151 -0.00036900361696380694 0 0.0033645430016156067 -0.00035686251427264275 0 0.0033811397241259962 -0.00032639318170158224 0 0.003371660817881407 -0.00035441253698584622 0 0.003427016691290335 -0.00029295729864557246 0 0.0033811397241259962 -0.00032639318170158224 0 0.0033995708486889778 -0.000342459909509629 0 0.0034088160247282956 -0.00029757519132403215 0 0.0033972731497534806 -0.00033886843929429981 0 0.0033811397241259962 -0.00032639318170158224 0 0.0033995708486889778 -0.000342459909509629 0 0.003371660817881407 -0.00035441253698584622 0 0.0034424176332679452 -0.00035250893351533618 0 0.0033853538605153675 -0.00037376357129616483 0 0.003394832794633974 -0.00038614271072550987 0 0.0034424176332679452 -0.00035250893351533618 0 0.0034048193187714488 -0.0003037533920909382 0 0.0033853538605153675 -0.00037376357129616483 0 0.0041656040645558778 -0.00076971114194946636 0 0.0041447057899755349 -0.00061191784383196873 0 0.0042901075797337467 -0.00059471823694781753 0 0.0043942773609423318 -0.00094747138405597894 0 0.0041137031053328664 -0.00093754860917738287 0 0.0042703485255015383 -0.00067289493165747746 0 0.0041761182330823689 -0.00081176849838238726 0 0.0042828938651477836 -0.00064077860783320222 0 0.0044390950483737309 -0.00077912063167353488 0 0.0045301818871463151 -0.00066026711191876286 0 0.0042703485255015383 -0.00067289493165747746 0 0.0044390950483737309 -0.00077912063167353488 0 0.0043942773609423318 -0.00094747138405597894 0 0.0042703485255015383 -0.00067289493165747746 0 0.0042885324652610669 -0.0011180351942407579 0 0.0043942773609423318 -0.00094747138405597894 0 0.0041137031053328664 -0.00093754860917738287 0 0.004048089294971198 -0.00094047199549062701 0 0.0041656040645558778 -0.00076971114194946636 0 0.0040059668021487447 -0.00075059125297140359 0 0.0036145385727348826 -0.00048902557035477451 0 0.0036918797318299798 -0.00050152253007282744 0 0.00333687768602022 -0.00044228933818839196 0 0.0032454078206420088 -0.00035927160419964516 0 0.0033539364534359698 -0.00051331259148459376 0 0.0036918797318299798 -0.00050152253007282744 0 0.0036350534557674243 -0.00047185481631689457 0 0.0033781387064644071 -0.00062746792309217468 0 0.0033539364534359698 -0.00051331259148459376 0 0.0034887308369061431 -0.00054774440631803756 0 0.0041656040645558778 -0.00076971114194946636 0 0.0040059668021487447 -0.00075059125297140359 0 0.0041447057899755349 -0.00061191784383196873 0 0.0036918797318299798 -0.00050152253007282744 0 0.0038116485516805198 -0.00052140560756353687 0 0.0034887308369061431 -0.00054774440631803756 0 0.0034296479419317354 -0.00048222382326921907 0 0.0035101150152748875 -0.00048463001533733763 0 0.0033539364534359698 -0.00051331259148459376 0 0.0034887308369061431 -0.00054774440631803756 0 0.0034296479419317354 -0.00048222382326921907 0 0.0033554031392107274 -0.00043855394732893275 0 0.0033539364534359698 -0.00051331259148459376 0 0.0034296479419317354 -0.00048222382326921907 0 0.0033554031392107274 -0.00043855394732893275 0 0.0034296479419317354 -0.00048222382326921907 0 0.00345846972140551 -0.0004157030342317089 0 0.0034296479419317354 -0.00048222382326921907 0 0.0035101150152748875 -0.00048463001533733763 0 0.00345846972140551 -0.0004157030342317089 0 0.0035101150152748875 -0.00048463001533733763 0 0.0035423082716160223 -0.000421777433374623 0 0.00345846972140551 -0.0004157030342317089 0 0.0035101150152748875 -0.00048463001533733763 0 0.0036284962530512208 -0.00052356689244563513 0 0.0035423082716160223 -0.000421777433374623 0 0.0038116485516805198 -0.00052140560756353687 0 0.0039854768963230027 -0.00043933332590154818 0 0.0041447057899755349 -0.00061191784383196873 0 0.0042913885431096737 -0.00046382129292998691 0 0.0042901075797337467 -0.00059471823694781753 0 0.0034887308369061431 -0.00054774440631803756 0 0.0035101150152748875 -0.00048463001533733763 0 0.0036284962530512208 -0.00052356689244563513 0 0.0043588077151376428 -0.00052377721275462935 0 0.0042828938651477836 -0.00064077860783320222 0 0.0045259917553606855 -0.00051094951878709479 0 0.0044263227861380643 -0.00040476464438418837 0 0.0042703485255015383 -0.00067289493165747746 0 0.0039854768963230027 -0.00043933332590154818 0 0.0041945532288989633 -0.00029631353620284854 0 0.0044263227861380643 -0.00040476464438418837 0 0.0042913885431096737 -0.00046382129292998691 0 0.0044498438553272944 -0.0003037050499717001 0 0.0044263227861380643 -0.00040476464438418837 0 0.0042913885431096737 -0.00046382129292998691 0 0.0042901075797337467 -0.00059471823694781753 0 0.0036284962530512208 -0.00052356689244563513 0 0.0037668707693539021 -0.00039021112795072674 0 0.0036257588138084488 -0.00035918432177937774 0 0.0036284962530512208 -0.00052356689244563513 0 0.0037668707693539021 -0.00039021112795072674 0 0.0039209250547798486 -0.00045349751077769474 0 0.0037668707693539021 -0.00039021112795072674 0 0.0037902138089290572 -0.0002519454585387842 0 0.0036257588138084488 -0.00035918432177937774 0 0.0037668707693539021 -0.00039021112795072674 0 0.0037902138089290572 -0.0002519454585387842 0 0.0039387934734772022 -0.00026554524478119066 0 0.0037902138089290572 -0.0002519454585387842 0 0.0035816312110642586 -0.00017951360778661337 0 0.0040511440573162971 -4.3991463537057231e-06 0 0.0037902138089290572 -0.0002519454585387842 0 0.0036257588138084488 -0.00035918432177937774 0 0.0035816312110642586 -0.00017951360778661337 0 0.003508985109823171 -0.00031630544905157122 0 0.0034979101612419238 -0.00023850628945135929 0 0.0035816312110642586 -0.00017951360778661337 0 0.0036257588138084488 -0.00035918432177937774 0 0.003508985109823171 -0.00031630544905157122 0 0.0035816312110642586 -0.00017951360778661337 0 0.0036284962530512208 -0.00052356689244563513 0 0.0036257588138084488 -0.00035918432177937774 0 0.0035423082716160223 -0.000421777433374623 0 0.0036257588138084488 -0.00035918432177937774 0 0.0035423082716160223 -0.000421777433374623 0 0.003508985109823171 -0.00031630544905157122 0 0.00345846972140551 -0.0004157030342317089 0 0.0034031214534218945 -0.00028298207048684448 0 0.003508985109823171 -0.00031630544905157122 0 0.0035423082716160223 -0.000421777433374623 0 0.00345846972140551 -0.0004157030342317089 0 0.003508985109823171 -0.00031630544905157122 0 0.0033554031392107274 -0.00043855394732893275 0 0.00345846972140551 -0.0004157030342317089 0 0.0034031214534218945 -0.00028298207048684448 0 0.0034031214534218945 -0.00028298207048684448 0 0.003508985109823171 -0.00031630544905157122 0 0.0034979101612419238 -0.00023850628945135929 0 0.0034979101612419238 -0.00023850628945135929 0 0.0034473027186680055 -0.00023780936291151837 0 0.0035111583805439942 -0.0002188241570233291 0 0.0034031214534218945 -0.00028298207048684448 0 0.0034979101612419238 -0.00023850628945135929 0 0.0034473027186680055 -0.00023780936291151837 0 0.0033981895266370953 -0.00031703910057380555 0 0.0034135554571912202 -0.00027784369181567571 0 0.0034473027186680055 -0.00023780936291151837 0 0.0035111583805439942 -0.0002188241570233291 0 0.0034946508756403707 -0.0001979795583333552 0 0.0035111583805439942 -0.0002188241570233291 0 0.0035249378772911834 -0.00020953273847998589 0 0.0034946508756403707 -0.0001979795583333552 0 0.0035111583805439942 -0.0002188241570233291 0 0.0035249378772911834 -0.00020953273847998589 0 0.003534974869675721 -0.00021457557880475559 0 0.0035111583805439942 -0.0002188241570233291 0 0.003534974869675721 -0.00021457557880475559 0 0.0035405741345805519 -0.0002111575994730759 0 0.003534974869675721 -0.00021457557880475559 0 0.0035391324815879986 -0.00021803745003269329 0 0.0035418199668502503 -0.00021052151570739129 0 0.0035249378772911834 -0.00020953273847998589 0 0.003534974869675721 -0.00021457557880475559 0 0.0035391324815879986 -0.00021803745003269329 0 0.0035249378772911834 -0.00020953273847998589 0 0.0035391324815879986 -0.00021803745003269329 0 0.003516646246741867 -0.00019207932416747309 0 0.0016656171896732342 -0.0010062860758881709 0 0.0020358610189573096 -0.00086696409105389339 0 0.0035021185031477628 -0.00029123317839122774 0 0.0034975713204312285 -0.00020064102019665264 0 0.0034734289771182736 -0.00025638248849417934 0 0.0035021185031477628 -0.00029123317839122774 0 0.0034848743849784161 -0.00030301032431275605 0 0.0034734289771182736 -0.00025638248849417934 0 0.0034975713204312285 -0.00020064102019665264 0 0.0035816312110642586 -0.00017951360778661337 0 0.0034501582526114787 -0.00017385331685142863 0 0.0035391324815879986 -0.00021803745003269329 0 0.0035418199668502503 -0.00021052151570739129 0 0.0034975713204312285 -0.00020064102019665264 0 0.0036225541124161186 -0.00027266483196670982 0 0.0035370639250966937 -0.00030341968435298393 0 0.0035418199668502503 -0.00021052151570739129 0 0.0034975713204312285 -0.00020064102019665264 0 0.0035816312110642586 -0.00017951360778661337 0 0.0034979101612419238 -0.00023850628945135929 0 0.0035816312110642586 -0.00017951360778661337 0 0.0035405741345805519 -0.0002111575994730759 0 0.0034979101612419238 -0.00023850628945135929 0 0.0035111583805439942 -0.0002188241570233291 0 0.0035405741345805519 -0.0002111575994730759 0 0.003534974869675721 -0.00021457557880475559 0 0.0035418199668502503 -0.00021052151570739129 0 0.0035405741345805519 -0.0002111575994730759 0 0.0035418199668502503 -0.00021052151570739129 0 0.0035816312110642586 -0.00017951360778661337 0 0.0035405741345805519 -0.0002111575994730759 0 0.003373991607160069 -0.00037426717216079654 0 0.0033615883934298828 -0.00036561594345437605 0 0.0033255204848464275 -0.00034634409840599223 0 0.003373991607160069 -0.00037426717216079654 0 0.0033354501450746374 -0.00035309548513101744 0 0.0033255204848464275 -0.00034634409840599223 0 0.0033853538605153675 -0.00037376357129616483 0 0.003394832794633974 -0.00038614271072550987 0 0.0033615883934298828 -0.00036561594345437605 0 0.003373991607160069 -0.00037426717216079654 0 0.003394832794633974 -0.00038614271072550987 0 0.0033615883934298828 -0.00036561594345437605 0 0.0033972731497534806 -0.00033886843929429981 0 0.0033908837932595717 -0.00035289205530526031 0 0.0033995708486889778 -0.000342459909509629 0 0.0033615883934298828 -0.00036561594345437605 0 0.003371660817881407 -0.00035441253698584622 0 0.0033615883934298828 -0.00036561594345437605 0 0.0033608885341418482 -0.00035466801838199622 0 0.0033255204848464275 -0.00034634409840599223 0 0.0033615883934298828 -0.00036561594345437605 0 0.0033608885341418482 -0.00035466801838199622 0 0.003371660817881407 -0.00035441253698584622 0 0.0033645430016156067 -0.00035686251427264275 0 0.0033608885341418482 -0.00035466801838199622 0 0.003371660817881407 -0.00035441253698584622 0 0.0033766191870961151 -0.00036900361696380694 0 0.0033981895266370953 -0.00031703910057380555 0 0.0033645430016156067 -0.00035686251427264275 0 0.0034001226386182462 -0.00034856419811224681 0 0.0033608885341418482 -0.00035466801838199622 0 0.0034001226386182462 -0.00034856419811224681 0 0.0034473027186680055 -0.00023780936291151837 0 0.003334644532845875 -0.00030815758318667081 0 0.0034473027186680055 -0.00023780936291151837 0 0.003334644532845875 -0.00030815758318667081 0 0.0033966892555298334 -0.00022084687568981942 0 0.0034001226386182462 -0.00034856419811224681 0 0.0033608885341418482 -0.00035466801838199622 0 0.003334644532845875 -0.00030815758318667081 0 0.003334644532845875 -0.00030815758318667081 0 0.0032791288141363981 -0.00025600240663929376 0 0.0033966892555298334 -0.00022084687568981942 0 0.0033608885341418482 -0.00035466801838199622 0 0.003334644532845875 -0.00030815758318667081 0 0.0033255204848464275 -0.00034634409840599223 0 0.003334644532845875 -0.00030815758318667081 0 0.0032595326542143705 -0.00031093106929714671 0 0.0033255204848464275 -0.00034634409840599223 0 0.003334644532845875 -0.00030815758318667081 0 0.0032595326542143705 -0.00031093106929714671 0 0.0032791288141363981 -0.00025600240663929376 0 0.0033354501450746374 -0.00035309548513101744 0 0.0032595326542143705 -0.00031093106929714671 0 0.0033255204848464275 -0.00034634409840599223 0 0.0029836511319609954 -0.0001165681877644492 0 0.0031589305453035631 -0.00023734689059877687 0 0.0031364091282229355 -6.0635409151158922e-05 0 0.0028719077677320389 -0.0002810495335149074 0 0.0029836511319609954 -0.0001165681877644492 0 0.0031589305453035631 -0.00023734689059877687 0 0.0028719077677320389 -0.0002810495335149074 0 0.0029796428032564746 -0.00054938445860253993 0 0.0031589305453035631 -0.00023734689059877687 0 0.003114677311264804 -0.00041984580770752371 0 0.003154169596603341 -0.00033211683937863857 0 0.0032595326542143705 -0.00031093106929714671 0 0.0031589305453035631 -0.00023734689059877687 0 0.0032791288141363981 -0.00025600240663929376 0 0.0031589305453035631 -0.00023734689059877687 0 0.0032770892789123129 -0.00014851915637418634 0 0.0031364091282229355 -6.0635409151158922e-05 0 0.0031589305453035631 -0.00023734689059877687 0 0.0032770892789123129 -0.00014851915637418634 0 0.0032791288141363981 -0.00025600240663929376 0 0.0032770892789123129 -0.00014851915637418634 0 0.0032791288141363981 -0.00025600240663929376 0 0.0033543706460244086 -0.00017724881891581737 0 0.0032770892789123129 -0.00014851915637418634 0 0.0033543706460244086 -0.00017724881891581737 0 0.0033761164226016097 -0.00010820849918544606 0 0.0032791288141363981 -0.00025600240663929376 0 0.0033966892555298334 -0.00022084687568981942 0 0.0033543706460244086 -0.00017724881891581737 0 0.0033966892555298334 -0.00022084687568981942 0 0.0034199241808200694 -0.00015048520997344543 0 0.0033543706460244086 -0.00017724881891581737 0 0.0034199241808200694 -0.00015048520997344543 0 0.0033761164226016097 -0.00010820849918544606 0 0.0034460420310079821 -9.4880133570305342e-05 0 0.0034199241808200694 -0.00015048520997344543 0 0.0033543706460244086 -0.00017724881891581737 0 0.0033761164226016097 -0.00010820849918544606 0 0.0024467799288584672 -0.00020033023186275911 0 0.0020808478020588128 -0.00065997182427042804 0 0.0033761164226016097 -0.00010820849918544606 0 0.0033382003516980374 1.1604842834449213e-05 0 0.0034460420310079821 -9.4880133570305342e-05 0 0.0020321854663926083 0.00036915412155449483 0 0.0019980991509351933 0.00039304850281668137 0 0.0020258300054066306 0.00036053305749656763 0 0.0020321854663926083 0.00036915412155449483 0 0.0020745847039101441 0.00036021541923358908 0 0.0020131725474277257 0.00035445596131634943 0 0.0020321854663926083 0.00036915412155449483 0 0.0020745847039101441 0.00036021541923358908 0 0.0019946142945271128 0.00038183868694079923 0 0.0020745847039101441 0.00036021541923358908 0 0.0019946142945271128 0.00038183868694079923 0 0.0019075789707848618 0.00043420430750145425 0 0.0020321854663926083 0.00036915412155449483 0 0.0019946142945271128 0.00038183868694079923 0 0.0019980991509351933 0.00039304850281668137 0 0.0020117781035896569 0.00041356054376494913 0 0.0019980991509351933 0.00039304850281668137 0 0.0021369743057613757 0.0004625973567145736 0 0.0019946142945271128 0.00038183868694079923 0 0.0020117781035896569 0.00041356054376494913 0 0.0019980991509351933 0.00039304850281668137 0 0.0019946142945271128 0.00038183868694079923 0 0.0020117781035896569 0.00041356054376494913 0 0.0019075789707848618 0.00043420430750145425 0 0.0032770892789123129 -0.00014851915637418634 0 0.0033382003516980374 1.1604842834449213e-05 0 0.0031364091282229355 -6.0635409151158922e-05 0 0.0032770892789123129 -0.00014851915637418634 0 0.0033761164226016097 -0.00010820849918544606 0 0.0033382003516980374 1.1604842834449213e-05 0 0.0033382003516980374 1.1604842834449213e-05 0 0.0031364091282229355 -6.0635409151158922e-05 0 0.0030842958288441083 0.00019729914024598088 0 0.0024467799288584672 -0.00020033023186275911 0 0.0024916308339507404 5.7030253457659951e-05 0 0.0020117781035896569 0.00041356054376494913 0 0.0021369743057613757 0.0004625973567145736 0 0.0020694273404103492 0.00038541505989750981 0 0.0021369743057613757 0.0004625973567145736 0 0.00230096539991802 0.00039614527864769323 0 0.0023999247967378431 0.00040593206186869058 0 0.0024916308339507404 5.7030253457659951e-05 0 0.0024469363271641411 0.00015218126293499765 0 0.0026192939011399625 0.00018290515897660152 0 0.0030842958288441083 0.00019729914024598088 0 0.00291905153017655 7.1627919236599114e-06 0 0.0026192939011399625 0.00018290515897660152 0 0.0030842958288441083 0.00019729914024598088 0 0.0023999247967378431 0.00040593206186869058 0 0.0031364091282229355 -6.0635409151158922e-05 0 0.0030842958288441083 0.00019729914024598088 0 0.00291905153017655 7.1627919236599114e-06 0 0.0028281670210447436 -5.9288339134474103e-05 0 0.0029836511319609954 -0.0001165681877644492 0 0.00291905153017655 7.1627919236599114e-06 0 0.0029836511319609954 -0.0001165681877644492 0 0.0031364091282229355 -6.0635409151158922e-05 0 0.00291905153017655 7.1627919236599114e-06 0 -0.0027995355902028047 -0.0051166310867184275 0 -0.0028202084369961227 -0.0041666609329493818 0 -0.0021209394620271206 -0.0035611498930802872 0 -0.0027995355902028047 -0.0051166310867184275 0 -0.0028202084369961227 -0.0041666609329493818 0 -0.003344137438701494 -0.0039894109702324661 0 -0.0027407231436753546 -0.0052790780558565108 0 -0.0031490144109567499 -0.0048291730435653267 0 -0.0033267601631466596 -0.0040779302331195753 0 -6.608639383723022e-05 -0.0010074187297819891 0 1.6653032619932408e-05 -0.00097696638249818494 0 3.5334417496448746e-05 -0.00077221923110924674 0 0.00016423052228436931 -0.0013657587261820391 0 -0.00078585137861568368 -0.0023141302140885439 0 0.00016423052228436931 -0.0013657587261820391 0 -0.0016361223792046901 -0.0018557909993417701 0 0.00016423052228436931 -0.0013657587261820391 0 0.00037336508542589771 -0.0012872419379853499 0 0.0035268918072606957 -0.0001671521939391738 0 0.0035043183406796375 -0.00017242154260796715 0 0.0035074950435146188 -0.00014509872201275281 0 -0.0027407231436753546 -0.0052790780558565108 0 -0.0031490144109567499 -0.0048291730435653267 0 -0.0034342961323626953 -0.0047199546727803949 0 -0.0031490144109567499 -0.0048291730435653267 0 -0.0034368344442328824 -0.0047232464652437025 0 -0.0033267601631466596 -0.0040779302331195753 0 0.00030652116355402999 -0.0012961628210289998 0 0.00037336508542589771 -0.0012872419379853499 0 0.00010644574057079707 -0.0009359293289840922 0 1.6653032619932408e-05 -0.00097696638249818494 0 3.5334417496448746e-05 -0.00077221923110924674 0 0.00010644574057079707 -0.0009359293289840922 0 0.00013243143868613453 -0.00084537695787640017 0 0.00017800817359925661 -0.0009063984015751285 0 0.00010644574057079707 -0.0009359293289840922 0 8.9769381556720464e-05 -0.0010401070901671472 0 0.00022106715984327444 -0.001031932327645293 0 0.00010644574057079707 -0.0009359293289840922 0 1.6653032619932408e-05 -0.00097696638249818494 0 8.9769381556720464e-05 -0.0010401070901671472 0 -6.608639383723022e-05 -0.0010074187297819891 0 1.6653032619932408e-05 -0.00097696638249818494 0 8.9769381556720464e-05 -0.0010401070901671472 0 0.0035021185031477628 -0.00029123317839122774 0 0.0035015642098458976 -0.0003366727466725989 0 0.0034848743849784161 -0.00030301032431275605 0 0.00016423052228436931 -0.0013657587261820391 0 0.00133689596975941 -0.0010472017791320807 0 -6.608639383723022e-05 -0.0010074187297819891 0 8.9769381556720464e-05 -0.0010401070901671472 0 0.00012910555849397437 -0.0011900326824544605 0 8.9769381556720464e-05 -0.0010401070901671472 0 0.00012910555849397437 -0.0011900326824544605 0 0.00022106715984327444 -0.001031932327645293 0 0.0035391324815879986 -0.00021803745003269329 0 0.0035199413754194741 -0.00017772076434757652 0 0.003516646246741867 -0.00019207932416747309 0 0.0016656171896732342 -0.0010062860758881709 0 0.00016423052228436931 -0.0013657587261820391 0 0.00016423052228436931 -0.0013657587261820391 0 0.0004353251869998245 -0.0010414579200541535 0 0.0035268918072606957 -0.0001671521939391738 0 0.003516646246741867 -0.00019207932416747309 0 0.0035043183406796375 -0.00017242154260796715 0 0.0035249378772911834 -0.00020953273847998589 0 0.003516646246741867 -0.00019207932416747309 0 0.0034946508756403707 -0.0001979795583333552 0 0.0034946508756403707 -0.0001979795583333552 0 0.0034516575375740169 -0.00018532493476354148 0 0.0034844566464705025 -0.00016760790085937441 0 0.003516646246741867 -0.00019207932416747309 0 0.0034946508756403707 -0.0001979795583333552 0 0.0035043183406796375 -0.00017242154260796715 0 0.0034946508756403707 -0.0001979795583333552 0 0.0035043183406796375 -0.00017242154260796715 0 0.0034844566464705025 -0.00016760790085937441 0 0.0034473027186680055 -0.00023780936291151837 0 0.0033966892555298334 -0.00022084687568981942 0 0.0034516575375740169 -0.00018532493476354148 0 0.0034473027186680055 -0.00023780936291151837 0 0.0034946508756403707 -0.0001979795583333552 0 0.0034516575375740169 -0.00018532493476354148 0 0.0033966892555298334 -0.00022084687568981942 0 0.0034199241808200694 -0.00015048520997344543 0 0.0034516575375740169 -0.00018532493476354148 0 0.0034199241808200694 -0.00015048520997344543 0 0.0034516575375740169 -0.00018532493476354148 0 0.0034643802870535428 -0.00014800528990521262 0 0.0034516575375740169 -0.00018532493476354148 0 0.0034643802870535428 -0.00014800528990521262 0 0.0034844566464705025 -0.00016760790085937441 0 0.0034199241808200694 -0.00015048520997344543 0 0.0034643802870535428 -0.00014800528990521262 0 0.0034460420310079821 -9.4880133570305342e-05 0 0.0034643802870535428 -0.00014800528990521262 0 0.0035074950435146188 -0.00014509872201275281 0 0.0034460420310079821 -9.4880133570305342e-05 0 0.00037336508542589771 -0.0012872419379853499 0 0.0020808478020588128 -0.00065997182427042804 0 0.0034643802870535428 -0.00014800528990521262 0 0.0034844566464705025 -0.00016760790085937441 0 0.0035074950435146188 -0.00014509872201275281 0 0.0035043183406796375 -0.00017242154260796715 0 0.0034844566464705025 -0.00016760790085937441 0 0.0035074950435146188 -0.00014509872201275281 0 -0.0048911324706828055 -0.0034580031424144633 0 -0.0039209428958780932 -0.0028576000063738152 0 -0.0033267601631466596 -0.0040779302331195753 0 -0.0012066135692199308 -0.0023267041096162945 0 -0.00078585137861568368 -0.0023141302140885439 0 0.00037336508542589771 -0.0012872419379853499 0 -0.0010014748917834453 -0.0010720383877771487 0 -0.0034368344442328824 -0.0047232464652437025 0 -0.0048911324706828055 -0.0034580031424144633 0 -0.0033267601631466596 -0.0040779302331195753 0 0.0020321854663926083 0.00036915412155449483 0 0.0020131725474277257 0.00035445596131634943 0 0.0020258300054066306 0.00036053305749656763 0 0.0019718507066253071 0.00036524453875127734 0 0.0020131725474277257 0.00035445596131634943 0 0.0020258300054066306 0.00036053305749656763 0 -0.0048911324706828055 -0.0034580031424144633 0 -0.0039209428958780932 -0.0028576000063738152 0 -0.0049941195412895141 -0.0020362227859664355 0 -0.0063804682259654246 -0.0021909693883698273 0 -0.0048911324706828055 -0.0034580031424144633 0 -0.0049941195412895141 -0.0020362227859664355 0 -0.0020473844697408493 -0.0006184503373479073 0 -0.0010014748917834453 -0.0010720383877771487 0 -0.0039209428958780932 -0.0028576000063738152 0 -0.0033809132223302407 -0.0019508657656418875 0 -0.0049941195412895141 -0.0020362227859664355 0 -0.0029534123131516052 -0.0031585619470757601 0 -0.0019434465771535799 -0.0031822044602592301 0 -0.0033809132223302407 -0.0019508657656418875 0 -0.0041509770908130265 -0.0025342514471106375 0 -0.0051935058915889608 -0.0016611780569860545 0 -0.0044730145491391794 -0.0011610999849475676 0 -0.0039209428958780932 -0.0028576000063738152 0 -0.0029534123131516052 -0.0031585619470757601 0 -0.0033809132223302407 -0.0019508657656418875 0 -0.0018434300217287692 -0.001718531905903717 0 -0.0038067066838610207 -0.0012525539660020618 0 -0.0029534123131516052 -0.0031585619470757601 0 -0.0028691578557109038 -0.003684344283662985 0 -0.003344137438701494 -0.0039894109702324661 0 -0.0039209428958780932 -0.0028576000063738152 0 -0.0029534123131516052 -0.0031585619470757601 0 -0.003344137438701494 -0.0039894109702324661 0 -0.0029534123131516052 -0.0031585619470757601 0 -0.0028691578557109038 -0.003684344283662985 0 -0.0021150057051663551 -0.0035663203282662774 0 -0.0029534123131516052 -0.0031585619470757601 0 -0.0021150057051663551 -0.0035663203282662774 0 -0.0019434465771535799 -0.0031822044602592301 0 -0.0019839086554134366 -0.0022481837920636867 0 -0.0016361223792046901 -0.0018557909993417701 0 -0.0028691578557109038 -0.003684344283662985 0 -0.0028202084369961227 -0.0041666609329493818 0 -0.0021150057051663551 -0.0035663203282662774 0 -0.0028691578557109038 -0.003684344283662985 0 -0.0028202084369961227 -0.0041666609329493818 0 -0.003344137438701494 -0.0039894109702324661 0 0.00013243143868613453 -0.00084537695787640017 0 8.0735452467566729e-05 -0.00073294472340631502 0 0.00026153715922061954 -0.00087974023702467609 0 0.00010644574057079707 -0.0009359293289840922 0 0.00013243143868613453 -0.00084537695787640017 0 3.5334417496448746e-05 -0.00077221923110924674 0 -0.0016522479016757108 -0.0014726085792233002 0 -0.0019235180241265614 -0.0020945024414502729 0 -0.002149663065201199 -0.0019035214605126771 0 -0.0016361223792046901 -0.0018557909993417701 0 -0.0018434300217287692 -0.001718531905903717 0 -0.0016361223792046901 -0.0018557909993417701 0 -0.0016151626306211535 -0.0016838034984555973 0 -0.0018434300217287692 -0.001718531905903717 0 -0.0016151626306211535 -0.0016838034984555973 0 0.00013243143868613453 -0.00084537695787640017 0 3.5334417496448746e-05 -0.00077221923110924674 0 8.0735452467566729e-05 -0.00073294472340631502 0 -0.0015795937343362767 -0.00094089760937439676 0 -0.0015817431032582924 -0.00093902359347474459 0 -0.0015957314946484879 -0.00095085566589243355 0 -0.0015795937343362767 -0.00094089760937439676 0 -0.0015957314946484879 -0.00095085566589243355 0 -0.0015894682228533112 -0.0009648493150940363 0 -0.0016151626306211535 -0.0016838034984555973 0 -0.0010671892910313525 -0.00049749298451273554 0 -0.0018434300217287692 -0.001718531905903717 0 -0.0017825490890903408 -0.0009510103632201269 0 0.0013195391520190902 0.001220334059049813 0 0.0014645256390198366 0.0012336660334406082 0 0.0014073921695390422 0.00097780098664376433 0 6.8207373294775983e-05 -0.00072513881397226975 0 0.00022243954351048787 -0.00059142760271028798 0 0.00021455486405632605 -0.00074346433384563147 0 0.0014645256390198366 0.0012336660334406082 0 0.001550646697854693 0.0011230262059299368 0 0.0016912708099914452 0.0013173477108832947 0 0.0013195391520190902 0.001220334059049813 0 0.0014645256390198366 0.0012336660334406082 0 0.0014933780202764872 0.0013569071232572996 0 0.0014645256390198366 0.0012336660334406082 0 0.001550646697854693 0.0011230262059299368 0 0.0014073921695390422 0.00097780098664376433 0 0.001550646697854693 0.0011230262059299368 0 0.0015827788634181568 0.00097380530950293869 0 0.0014073921695390422 0.00097780098664376433 0 0.00022243954351048787 -0.00059142760271028798 0 0.00033021875595964077 -0.00083151007826312584 0 0.00021455486405632605 -0.00074346433384563147 0 6.8207373294775983e-05 -0.00072513881397226975 0 0.00021455486405632605 -0.00074346433384563147 0 0.00026153715922061954 -0.00087974023702467609 0 0.00033021875595964077 -0.00083151007826312584 0 0.00021455486405632605 -0.00074346433384563147 0 0.00026153715922061954 -0.00087974023702467609 0 -0.0010671892910313525 -0.00049749298451273554 0 6.3204876741183397e-05 -0.0003042399285697887 0 -0.0016151626306211535 -0.0016838034984555973 0 -0.001063176349760539 -0.0017178360924412187 0 0.0019897550467802639 0.0012777232037182711 0 0.0017808352703725884 0.0011807540312149087 0 0.0019661452577371908 0.0010900965747420632 0 0.0019897550467802639 0.0012777232037182711 0 0.0017808352703725884 0.0011807540312149087 0 0.0017968924135868614 0.0013526900011236757 0 0.001550646697854693 0.0011230262059299368 0 0.0017808352703725884 0.0011807540312149087 0 0.0017961330429139407 0.001415074118259109 0 0.0010858892149593945 0.0013416498850899689 0 0.00070943693114764589 0.0011263677333879709 0 0.00081875579741973582 0.0011835842646246626 0 0.00070943693114764589 0.0011263677333879709 0 0.0015827788634181568 0.00097380530950293869 0 0.0017808352703725884 0.0011807540312149087 0 0.0017624365586405926 0.00091425834337593287 0 0.001550646697854693 0.0011230262059299368 0 0.0015827788634181568 0.00097380530950293869 0 0.0017808352703725884 0.0011807540312149087 0 0.0019661452577371908 0.0010900965747420632 0 0.0019529574943860642 0.00093104264507342413 0 0.0021164387486740338 0.0009862125173535467 0 0.0019661452577371908 0.0010900965747420632 0 0.0019529574943860642 0.00093104264507342413 0 0.0017624365586405926 0.00091425834337593287 0 0.0017808352703725884 0.0011807540312149087 0 0.0019661452577371908 0.0010900965747420632 0 0.0017624365586405926 0.00091425834337593287 0 0.002024475370558919 0.00074803204396538215 0 0.0017624365586405926 0.00091425834337593287 0 0.0017726156507130147 0.00054858016467188345 0 0.002024475370558919 0.00074803204396538215 0 0.0019529574943860642 0.00093104264507342413 0 0.0021164387486740338 0.0009862125173535467 0 0.002024475370558919 0.00074803204396538215 0 0.0019529574943860642 0.00093104264507342413 0 0.0017624365586405926 0.00091425834337593287 0 0.0015827788634181568 0.00097380530950293869 0 0.0017624365586405926 0.00091425834337593287 0 0.0015053768485930789 0.00065023115037998042 0 0.0017624365586405926 0.00091425834337593287 0 0.0017726156507130147 0.00054858016467188345 0 0.0015053768485930789 0.00065023115037998042 0 0.0017726156507130147 0.00054858016467188345 0 0.0015053768485930789 0.00065023115037998042 0 0.0016395155853432958 0.00022564477853336825 0 0.002024475370558919 0.00074803204396538215 0 0.0017726156507130147 0.00054858016467188345 0 0.0020867893184055124 0.00040672884960016125 0 0.00026153715922061954 -0.00087974023702467609 0 0.00043963848043986303 -0.0010626545314401767 0 0.00022106715984327444 -0.001031932327645293 0 0.00010644574057079707 -0.0009359293289840922 0 0.00017800817359925661 -0.0009063984015751285 0 0.00022106715984327444 -0.001031932327645293 0 0.00013243143868613453 -0.00084537695787640017 0 0.00017800817359925661 -0.0009063984015751285 0 0.00026153715922061954 -0.00087974023702467609 0 0.00017800817359925661 -0.0009063984015751285 0 0.00026153715922061954 -0.00087974023702467609 0 0.00022106715984327444 -0.001031932327645293 0 0.0015827788634181568 0.00097380530950293869 0 0.0014073921695390422 0.00097780098664376433 0 0.0015053768485930789 0.00065023115037998042 0 6.3204876741183397e-05 -0.0003042399285697887 0 0.00078489469219572149 -0.00032253709780994593 0 0.00033021875595964077 -0.00083151007826312584 0 0.00026153715922061954 -0.00087974023702467609 0 0.00043963848043986303 -0.0010626545314401767 0 0.00078489469219572149 -0.00032253709780994593 0 0.0014142023200870992 -0.00041123347792120971 0 0.00043963848043986303 -0.0010626545314401767 0 0.00032851363162576905 -0.0011905412949464943 0 0.00055120569756498487 -0.0012976809261788273 0 0.00012910555849397437 -0.0011900326824544605 0 0.00032851363162576905 -0.0011905412949464943 0 0.00022106715984327444 -0.001031932327645293 0 0.00043963848043986303 -0.0010626545314401767 0 0.00032851363162576905 -0.0011905412949464943 0 0.00022106715984327444 -0.001031932327645293 0 0.00012910555849397437 -0.0011900326824544605 0 0.00032851363162576905 -0.0011905412949464943 0 0.0003226517824945123 -0.0013616376013902882 0 0.00133689596975941 -0.0010472017791320807 0 0.0019808067496257737 -0.0007292238057919401 0 0.0034848743849784161 -0.00030301032431275605 0 0.0034734289771182736 -0.00025638248849417934 0 0.0034192150169857034 -0.00024960207469279901 0 0.0034975713204312285 -0.00020064102019665264 0 0.0034734289771182736 -0.00025638248849417934 0 0.0034592603229018793 -0.0002237809019544324 0 0.0034592603229018793 -0.0002237809019544324 0 0.0034192150169857034 -0.00024960207469279901 0 0.0034501582526114787 -0.00017385331685142863 0 0.0034734289771182736 -0.00025638248849417934 0 0.0034592603229018793 -0.0002237809019544324 0 0.0034192150169857034 -0.00024960207469279901 0 0.0034975713204312285 -0.00020064102019665264 0 0.0034592603229018793 -0.0002237809019544324 0 0.0034501582526114787 -0.00017385331685142863 0 0.0003226517824945123 -0.0013616376013902882 0 0.00055120569756498487 -0.0012976809261788273 0 0.00052052464270349488 -0.00153585932564339 0 0.0034192150169857034 -0.00024960207469279901 0 0.0033279067872389488 -0.00017245689308310243 0 0.0034501582526114787 -0.00017385331685142863 0 0.0019808067496257737 -0.0007292238057919401 0 0.0027392607446308651 -0.00042547498677927083 0 0.00032851363162576905 -0.0011905412949464943 0 0.0003226517824945123 -0.0013616376013902882 0 0.00055120569756498487 -0.0012976809261788273 0 0.0017726156507130147 0.00054858016467188345 0 0.0016395155853432958 0.00022564477853336825 0 0.0020867893184055124 0.00040672884960016125 0 0.0016395155853432958 0.00022564477853336825 0 0.0020867893184055124 0.00040672884960016125 0 0.0020185570686962477 6.9352562906626743e-05 0 0.0020867893184055124 0.00040672884960016125 0 0.0020185570686962477 6.9352562906626743e-05 0 0.0023788179047181655 0.00019950352935272693 0 0.0020185570686962477 6.9352562906626743e-05 0 0.0018287930684479088 -0.00023806233590709084 0 0.0021734269090978543 -0.00024832577087093613 0 0.0016395155853432958 0.00022564477853336825 0 0.0020185570686962477 6.9352562906626743e-05 0 0.0018287930684479088 -0.00023806233590709084 0 0.00055120569756498487 -0.0012976809261788273 0 0.00052052464270349488 -0.00153585932564339 0 0.00066228358025223813 -0.0015383720271778052 0 0.0014142023200870992 -0.00041123347792120971 0 0.0022021697353803095 -0.00042443555974964645 0 0.0027155344858408714 -0.00029429203638658535 0 0.0027450047358347184 -0.00031540803258205249 0 0.0027509537823997205 -0.0003266562390653723 0 0.0027155344858408714 -0.00029429203638658535 0 0.0027361776919529474 -0.00029482705130430841 0 0.0027450047358347184 -0.00031540803258205249 0 0.0027392607446308651 -0.00042547498677927083 0 0.0022021697353803095 -0.00042443555974964645 0 0.0046963597608055347 -2.3910719877924611e-05 0 0.0049440024294663473 -0.00026746281923625928 0 0.0047003120855113809 -0.00023929967335314007 0 0.0027392607446308651 -0.00042547498677927083 0 0.0032785829431327082 -0.00034956180468104334 0 0.0022021697353803095 -0.00042443555974964645 0 0.0030944135761903535 -5.4486479270799206e-06 0 0.002736584253087971 -0.00029752904248540283 0 0.0027626290585814847 -0.00029746552001373993 0 0.0027450047358347184 -0.00031540803258205249 0 0.0050381950589017521 -4.0140842585932021e-05 0 0.0049509846365009746 -0.00024665906131839447 0 0.0050714269335755549 -0.00017730960926399156 0 0.0027626290585814847 -0.00029746552001373993 0 0.0027450047358347184 -0.00031540803258205249 0 0.0027509537823997205 -0.0003266562390653723 0 0.0030944135761903535 -5.4486479270799206e-06 0 0.0032785829431327082 -0.00034956180468104334 0 0.0022021697353803095 -0.00042443555974964645 0 0.0022477796396575146 -0.00043381624756247427 0 0.0050406310499096834 -0.00023410475880576281 0 0.0049753278551153725 -0.00026855468873805639 0 0.0049509846365009746 -0.00024665906131839447 0 0.0050406310499096834 -0.00023410475880576281 0 0.0049509846365009746 -0.00024665906131839447 0 0.0050714269335755549 -0.00017730960926399156 0 0.0050406310499096834 -0.00023410475880576281 0 0.0049753278551153725 -0.00026855468873805639 0 0.0050315747592381286 -0.00029369840509838843 0 0.0032941650286062102 -0.00035782311523319089 0 0.0032785829431327082 -0.00034956180468104334 0 0.0034397449961061253 -0.00024437369679706762 0 0.0032785829431327082 -0.00034956180468104334 0 0.0048888181412595141 -0.00039485338451997621 0 0.0049440024294663473 -0.00026746281923625928 0 0.0048216865820441364 -0.00032707911294486985 0 0.0048888181412595141 -0.00039485338451997621 0 0.0049753278551153725 -0.00026855468873805639 0 0.0049485514911142368 -0.00024474687630709222 0 0.0048888181412595141 -0.00039485338451997621 0 0.0050123515525698345 -0.00036755794557277537 0 0.0049753278551153725 -0.00026855468873805639 0 0.0050123515525698345 -0.00036755794557277537 0 0.0049753278551153725 -0.00026855468873805639 0 0.0050315747592381286 -0.00029369840509838843 0 0.0046430948451826257 -0.00046867994505344062 0 0.0047659734901790134 -0.0003987815854176329 0 0.0047003120855113809 -0.00023929967335314007 0 0.0049440024294663473 -0.00026746281923625928 0 0.0047003120855113809 -0.00023929967335314007 0 0.0048216865820441364 -0.00032707911294486985 0 0.0047659734901790134 -0.0003987815854176329 0 0.0047003120855113809 -0.00023929967335314007 0 0.0048216865820441364 -0.00032707911294486985 0 0.0047659734901790134 -0.0003987815854176329 0 0.0048888181412595141 -0.00039485338451997621 0 0.0048216865820441364 -0.00032707911294486985 0 0.0045163783827727282 -0.00037427650731484084 0 0.0046872927768124 -0.00044654300316339835 0 0.004511680316965987 -0.00023776199946627292 0 0.0046430948451826257 -0.00046867994505344062 0 0.0047003120855113809 -0.00023929967335314007 0 0.004511680316965987 -0.00023776199946627292 0 0.0046937081672324939 -0.00049441428413392644 0 0.0046384097541535231 -0.00038807190524044074 0 0.0047003120855113809 -0.00023929967335314007 0 0.004511680316965987 -0.00023776199946627292 0 0.0045825148141203425 -0.00018567685250213235 0 0.0045163783827727282 -0.00037427650731484084 0 0.004511680316965987 -0.00023776199946627292 0 0.0044498438553272944 -0.0003037050499717001 0 0.0045163783827727282 -0.00037427650731484084 0 0.0044263227861380643 -0.00040476464438418837 0 0.0044498438553272944 -0.0003037050499717001 0 0.0037668707693539021 -0.00039021112795072674 0 0.0039209250547798486 -0.00045349751077769474 0 0.0039387934734772022 -0.00026554524478119066 0 0.0041027676842656036 -0.00020868776524839239 0 0.0040511440573162971 -4.3991463537057231e-06 0 0.0045003481721048099 -9.0228276659020499e-05 0 0.004511680316965987 -0.00023776199946627292 0 0.0044498438553272944 -0.0003037050499717001 0 0.0045003481721048099 -9.0228276659020499e-05 0 0.0039209250547798486 -0.00045349751077769474 0 0.0041027676842656036 -0.00020868776524839239 0 0.0045003481721048099 -9.0228276659020499e-05 0 0.0041945532288989633 -0.00029631353620284854 0 0.0043408845531049981 -0.00017446572169481689 0 0.0039209250547798486 -0.00045349751077769474 0 0.0041027676842656036 -0.00020868776524839239 0 0.0039387934734772022 -0.00026554524478119066 0 0.0037902138089290572 -0.0002519454585387842 0 0.0039387934734772022 -0.00026554524478119066 0 0.0040511440573162971 -4.3991463537057231e-06 0 0.0041027676842656036 -0.00020868776524839239 0 0.0039387934734772022 -0.00026554524478119066 0 0.0040511440573162971 -4.3991463537057231e-06 0 0.0046963597608055347 -2.3910719877924611e-05 0 0.0047003120855113809 -0.00023929967335314007 0 0.0045825148141203425 -0.00018567685250213235 0 0.0027392607446308651 -0.00042547498677927083 0 0.0035370639250966937 -0.00030341968435298393 0 0.0046963597608055347 -2.3910719877924611e-05 0 0.0040511440573162971 -4.3991463537057231e-06 0 0.0045003481721048099 -9.0228276659020499e-05 0 0.0046963597608055347 -2.3910719877924611e-05 0 0.0045003481721048099 -9.0228276659020499e-05 0 0.0045825148141203425 -0.00018567685250213235 0 0.004511680316965987 -0.00023776199946627292 0 0.0045003481721048099 -9.0228276659020499e-05 0 0.0045825148141203425 -0.00018567685250213235 0 0.0030956620624221229 0.00045140753153063041 0 0.003245139978758201 0.0005544590660920294 0 0.0031425002420991514 0.00018744396219857963 0 0.0030956620624221229 0.00045140753153063041 0 0.0031425002420991514 0.00018744396219857963 0 0.0029552113551598574 0.0004506409823093094 0 0.0055244991711710109 -0.00022862654253116919 0 0.0053401466034663173 -0.00023814561886309298 0 0.0053574044798212006 -0.00010775446741630114 0 0.0045319955814631186 -5.3543969228595093e-05 0 0.0040986486761486387 6.6566048496340108e-05 0 0.0030956620624221229 0.00045140753153063041 0 0.0029552113551598574 0.0004506409823093094 0 0.0030621922171334311 0.00059030162733255537 0 0.0030956620624221229 0.00045140753153063041 0 0.003245139978758201 0.0005544590660920294 0 0.0030621922171334311 0.00059030162733255537 0 0.0035093851143658829 0.00046816609561922494 0 0.003245139978758201 0.0005544590660920294 0 0.0034182214256682211 0.00066445165535256891 0 0.0035093851143658829 0.00046816609561922494 0 0.003245139978758201 0.0005544590660920294 0 0.0031425002420991514 0.00018744396219857963 0 0.0051323689809401494 -0.00025106781444257908 0 0.0053985954807073524 -0.00027293456209765088 0 0.0056785966889657058 -0.00033733941020063835 0 0.0055244991711710109 -0.00022862654253116919 0 0.005424663707823566 -0.00033789337108196558 0 0.0051323689809401494 -0.00025106781444257908 0 0.0045319955814631186 -5.3543969228595093e-05 0 0.0036707916983517515 -0.00036852187814192568 0 0.0035093851143658829 0.00046816609561922494 0 0.0031425002420991514 0.00018744396219857963 0 0.0055244991711710109 -0.00022862654253116919 0 0.005424663707823566 -0.00033789337108196558 0 0.0053401466034663173 -0.00023814561886309298 0 0.005424663707823566 -0.00033789337108196558 0 0.0052748140109827191 -0.00031098631940968216 0 0.0053401466034663173 -0.00023814561886309298 0 0.0052748140109827191 -0.00031098631940968216 0 0.005177195899540553 -0.00035501438783838674 0 0.0051994858222662787 -0.00025387654730137278 0 0.0053401466034663173 -0.00023814561886309298 0 0.0051994858222662787 -0.00025387654730137278 0 0.0052727534572600326 -0.00016024247664632509 0 0.0052748140109827191 -0.00031098631940968216 0 0.0053401466034663173 -0.00023814561886309298 0 0.0051994858222662787 -0.00025387654730137278 0 0.0050123515525698345 -0.00036755794557277537 0 0.0050315747592381286 -0.00029369840509838843 0 0.0050972109456129339 -0.00030545244076385483 0 0.0050972109456129339 -0.00030545244076385483 0 0.005177195899540553 -0.00035501438783838674 0 0.0051994858222662787 -0.00025387654730137278 0 0.0051994858222662787 -0.00025387654730137278 0 0.0051261705607457868 -0.00022653563852446405 0 0.0051736387405412745 -0.00014774080835662498 0 0.0050972109456129339 -0.00030545244076385483 0 0.0051994858222662787 -0.00025387654730137278 0 0.0051261705607457868 -0.00022653563852446405 0 0.0050406310499096834 -0.00023410475880576281 0 0.0050972109456129339 -0.00030545244076385483 0 0.0051261705607457868 -0.00022653563852446405 0 0.0050406310499096834 -0.00023410475880576281 0 0.0051261705607457868 -0.00022653563852446405 0 0.0050714269335755549 -0.00017730960926399156 0 0.0050406310499096834 -0.00023410475880576281 0 0.0050315747592381286 -0.00029369840509838843 0 0.0050972109456129339 -0.00030545244076385483 0 0.0050381950589017521 -4.0140842585932021e-05 0 0.0051736387405412745 -0.00014774080835662498 0 0.0052673057199765236 -4.3514028333907673e-05 0 0.0030944135761903535 -5.4486479270799206e-06 0 0.0038782182194629779 0.00011465200153480084 0 0.0051261705607457868 -0.00022653563852446405 0 0.0050714269335755549 -0.00017730960926399156 0 0.0051736387405412745 -0.00014774080835662498 0 0.0050381950589017521 -4.0140842585932021e-05 0 0.0050714269335755549 -0.00017730960926399156 0 0.0051736387405412745 -0.00014774080835662498 0 0.0053401466034663173 -0.00023814561886309298 0 0.0052727534572600326 -0.00016024247664632509 0 0.0053574044798212006 -0.00010775446741630114 0 0.0051736387405412745 -0.00014774080835662498 0 0.0052727534572600326 -0.00016024247664632509 0 0.0052673057199765236 -4.3514028333907673e-05 0 0.0051994858222662787 -0.00025387654730137278 0 0.0051736387405412745 -0.00014774080835662498 0 0.0052727534572600326 -0.00016024247664632509 0 0.0028694964778117824 0.0005335360436244319 0 0.0029552113551598574 0.0004506409823093094 0 0.0029268596226998383 0.00061734657663047152 0 0.0052727534572600326 -0.00016024247664632509 0 0.0052673057199765236 -4.3514028333907673e-05 0 0.0053574044798212006 -0.00010775446741630114 0 0.0038782182194629779 0.00011465200153480084 0 0.0040986486761486387 6.6566048496340108e-05 0 0.0029552113551598574 0.0004506409823093094 0 0.0029268596226998383 0.00061734657663047152 0 0.0030621922171334311 0.00059030162733255537 0 0.0029268596226998383 0.00061734657663047152 0 0.0029905331353998134 0.0007083616901562669 0 0.0030621922171334311 0.00059030162733255537 0 0.0029268596226998383 0.00061734657663047152 0 0.0028550963180425494 0.00072239646417970177 0 0.0027798154190930529 0.00060392845035815159 0 0.0028694964778117824 0.0005335360436244319 0 0.0029268596226998383 0.00061734657663047152 0 0.0027798154190930529 0.00060392845035815159 0 0.0038782182194629779 0.00011465200153480084 0 0.0037374414168224036 0.00020153155897953762 0 0.0029268596226998383 0.00061734657663047152 0 0.0028550963180425494 0.00072239646417970177 0 0.0029905331353998134 0.0007083616901562669 0 0.0026259692236570088 0.00053819810567546679 0 0.0027798154190930529 0.00060392845035815159 0 0.002741287720895763 0.00080775982094718319 0 0.0026259692236570088 0.00053819810567546679 0 0.0028784875799280551 0.00053602165427954821 0 0.0027798154190930529 0.00060392845035815159 0 0.0030944135761903535 -5.4486479270799206e-06 0 0.0029023193766819079 0.00039443260802731074 0 0.0020185570686962477 6.9352562906626743e-05 0 0.0021734269090978543 -0.00024832577087093613 0 0.0023788179047181655 0.00019950352935272693 0 0.0028550963180425494 0.00072239646417970177 0 0.0027798154190930529 0.00060392845035815159 0 0.002741287720895763 0.00080775982094718319 0 0.0028550963180425494 0.00072239646417970177 0 0.002741287720895763 0.00080775982094718319 0 0.0029329482592229845 0.00088580875868602511 0 0.002741287720895763 0.00080775982094718319 0 0.0029329482592229845 0.00088580875868602511 0 0.0028544631985517326 0.0010678129858445538 0 0.0028550963180425494 0.00072239646417970177 0 0.0029905331353998134 0.0007083616901562669 0 0.0029329482592229845 0.00088580875868602511 0 0.0029905331353998134 0.0007083616901562669 0 0.0029329482592229845 0.00088580875868602511 0 0.0030646768494935212 0.00084510227482856737 0 0.0030646768494935212 0.00084510227482856737 0 0.0032135279098639211 0.00077550138243809243 0 0.0031213394820223889 0.001000974933106507 0 0.0029329482592229845 0.00088580875868602511 0 0.0030646768494935212 0.00084510227482856737 0 0.0031213394820223889 0.001000974933106507 0 0.0029905331353998134 0.0007083616901562669 0 0.0030646768494935212 0.00084510227482856737 0 0.0032135279098639211 0.00077550138243809243 0 0.0029905331353998134 0.0007083616901562669 0 0.0030621922171334311 0.00059030162733255537 0 0.0032135279098639211 0.00077550138243809243 0 0.003245139978758201 0.0005544590660920294 0 0.0030621922171334311 0.00059030162733255537 0 0.0032135279098639211 0.00077550138243809243 0 0.003245139978758201 0.0005544590660920294 0 0.0034182214256682211 0.00066445165535256891 0 0.0032135279098639211 0.00077550138243809243 0 0.0032135279098639211 0.00077550138243809243 0 0.0033849776316139304 0.0008920150487330738 0 0.0031213394820223889 0.001000974933106507 0 0.0034182214256682211 0.00066445165535256891 0 0.0032135279098639211 0.00077550138243809243 0 0.0033849776316139304 0.0008920150487330738 0 0.0033831552815648093 0.0011218047612849722 0 0.0033849776316139304 0.0008920150487330738 0 0.0031213394820223889 0.001000974933106507 0 0.0031213394820223889 0.001000974933106507 0 0.0030120443395314197 0.0011536380351750543 0 0.0028544631985517326 0.0010678129858445538 0 0.0031213394820223889 0.001000974933106507 0 0.0031743618102201853 0.0012563638769047545 0 0.0030120443395314197 0.0011536380351750543 0 0.0031743618102201853 0.0012563638769047545 0 0.0030120443395314197 0.0011536380351750543 0 0.0029156422690673257 0.0012965720356582437 0 0.0033831552815648093 0.0011218047612849722 0 0.0031213394820223889 0.001000974933106507 0 0.0031743618102201853 0.0012563638769047545 0 0.0033831552815648093 0.0011218047612849722 0 0.0034682777785771642 0.0013317139101547794 0 0.0031743618102201853 0.0012563638769047545 0 0.0020867893184055124 0.00040672884960016125 0 0.0023788179047181655 0.00019950352935272693 0 0.002639821786568821 0.00069055602811652164 0 0.002024475370558919 0.00074803204396538215 0 0.0020867893184055124 0.00040672884960016125 0 0.002639821786568821 0.00069055602811652164 0 0.0029023193766819079 0.00039443260802731074 0 0.0029072691280272542 0.00077544746316196675 0 0.0029329482592229845 0.00088580875868602511 0 0.0031213394820223889 0.001000974933106507 0 0.0028544631985517326 0.0010678129858445538 0 0.0029072691280272542 0.00077544746316196675 0 0.0029496467923393463 0.00098013636901612662 0 0.0030120443395314197 0.0011536380351750543 0 0.0028544631985517326 0.0010678129858445538 0 0.0029156422690673257 0.0012965720356582437 0 0.002639821786568821 0.00069055602811652164 0 0.0024277402083273795 0.0012442204022863339 0 0.0029156422690673257 0.0012965720356582437 0 0.0021966502463948343 0.00096367249757707692 0 0.002312479135509958 0.0011024963801429019 0 0.002024475370558919 0.00074803204396538215 0 0.002639821786568821 0.00069055602811652164 0 0.0024277402083273795 0.0012442204022863339 0 0.0021164387486740338 0.0009862125173535467 0 0.0022254704042310655 0.0011762894418202296 0 0.0020987768334176549 0.0011838129114699271 0 0.0019661452577371908 0.0010900965747420632 0 0.0021164387486740338 0.0009862125173535467 0 0.0020987768334176549 0.0011838129114699271 0 0.002312479135509958 0.0011024963801429019 0 0.002522266983171653 0.0013363886396919949 0 0.0029156422690673257 0.0012965720356582437 0 0.0028251403701162036 0.0015914119325131132 0 0.0030822394234722656 0.001405107346718427 0 0.0024277402083273795 0.0012442204022863339 0 0.0029156422690673257 0.0012965720356582437 0 0.0028251403701162036 0.0015914119325131132 0 0.002522266983171653 0.0013363886396919949 0 0.002738724098521167 0.0015581080855249741 0 0.0022254704042310655 0.0011762894418202296 0 0.0021667888669223393 0.0012484368707828136 0 0.0022402259564207631 0.0013350322472365441 0 0.0022254704042310655 0.0011762894418202296 0 0.0021667888669223393 0.0012484368707828136 0 0.0020987768334176549 0.0011838129114699271 0 0.0019897550467802639 0.0012777232037182711 0 0.0019661452577371908 0.0010900965747420632 0 0.0020987768334176549 0.0011838129114699271 0 0.0021667888669223393 0.0012484368707828136 0 0.0020987768334176549 0.0011838129114699271 0 0.0021044241388445978 0.0013001338542000104 0 0.0019897550467802639 0.0012777232037182711 0 0.0020987768334176549 0.0011838129114699271 0 0.0021044241388445978 0.0013001338542000104 0 0.0034682777785771642 0.0013317139101547794 0 0.0031743618102201853 0.0012563638769047545 0 0.0032380987233404965 0.0014781953985587265 0 0.0031743618102201853 0.0012563638769047545 0 0.0029156422690673257 0.0012965720356582437 0 0.0030822394234722656 0.001405107346718427 0 0.0031743618102201853 0.0012563638769047545 0 0.0032380987233404965 0.0014781953985587265 0 0.0030822394234722656 0.001405107346718427 0 0.0028251403701162036 0.0015914119325131132 0 0.0030822394234722656 0.001405107346718427 0 0.0030677554166638429 0.0015985995207204705 0 0.0032380987233404965 0.0014781953985587265 0 0.0030822394234722656 0.001405107346718427 0 0.0030677554166638429 0.0015985995207204705 0 0.0028251403701162036 0.0015914119325131132 0 0.0030677554166638429 0.0015985995207204705 0 0.0030488468960860608 0.0017964937695752004 0 0.0034076512057757582 0.0015589648229839476 0 0.0032380987233404965 0.0014781953985587265 0 0.00323890313309015 0.0017042310164392513 0 0.0034076512057757582 0.0015589648229839476 0 0.00323890313309015 0.0017042310164392513 0 0.0034361713894509715 0.0017744506189881549 0 0.0032380987233404965 0.0014781953985587265 0 0.0030677554166638429 0.0015985995207204705 0 0.00323890313309015 0.0017042310164392513 0 0.00323890313309015 0.0017042310164392513 0 0.0030488468960860608 0.0017964937695752004 0 0.0032392647027215068 0.0020245899436996447 0 0.00323890313309015 0.0017042310164392513 0 0.0032392647027215068 0.0020245899436996447 0 0.0034361713894509715 0.0017744506189881549 0 0.0030677554166638429 0.0015985995207204705 0 0.00323890313309015 0.0017042310164392513 0 0.0030488468960860608 0.0017964937695752004 0 0.0023946621065048931 0.0013731590924234492 0 0.00236590110014503 0.001639171191316642 0 0.0022432960312536491 0.0015018707345446501 0 0.00236590110014503 0.001639171191316642 0 0.0026338004390927161 0.0016565535920129643 0 0.0024727727995336101 0.0018608562009335429 0 0.0023946621065048931 0.0013731590924234492 0 0.00236590110014503 0.001639171191316642 0 0.0026338004390927161 0.0016565535920129643 0 0.002738724098521167 0.0015581080855249741 0 0.0029452441984196796 0.0017430636872192457 0 0.0029452441984196796 0.0017430636872192457 0 0.0032204257869135619 0.0016239105035206832 0 0.0010293856763091539 0.00099285002954492768 0 0.001644245877970927 0.00095500854322204854 0 0.0019897550467802639 0.0012777232037182711 0 0.002010520708855679 0.0014168671436662619 0 0.0021044241388445978 0.0013001338542000104 0 0.002010520708855679 0.0014168671436662619 0 0.0021044241388445978 0.0013001338542000104 0 0.0022402259564207631 0.0013350322472365441 0 0.0017998637269904299 0.0014774080085938723 0 0.0022402259564207631 0.0013350322472365441 0 0.0020719752425361767 0.0015149361105311961 0 0.0022254704042310655 0.0011762894418202296 0 0.0023946621065048931 0.0013731590924234492 0 0.0022402259564207631 0.0013350322472365441 0 0.0021667888669223393 0.0012484368707828136 0 0.0021044241388445978 0.0013001338542000104 0 0.0022402259564207631 0.0013350322472365441 0 0.0022402259564207631 0.0013350322472365441 0 0.0022432960312536491 0.0015018707345446501 0 0.0020719752425361767 0.0015149361105311961 0 0.0023946621065048931 0.0013731590924234492 0 0.0022402259564207631 0.0013350322472365441 0 0.0022432960312536491 0.0015018707345446501 0 0.00236590110014503 0.001639171191316642 0 0.0022432960312536491 0.0015018707345446501 0 0.0021612585136186226 0.0016613115878208456 0 0.00236590110014503 0.001639171191316642 0 0.0021612585136186226 0.0016613115878208456 0 0.0022214512898312629 0.0018591048703554551 0 0.0022432960312536491 0.0015018707345446501 0 0.0021612585136186226 0.0016613115878208456 0 0.0020719752425361767 0.0015149361105311961 0 0.0021612585136186226 0.0016613115878208456 0 0.0020719752425361767 0.0015149361105311961 0 0.0019204156462866091 0.0015959104870114666 0 0.0017998637269904299 0.0014774080085938723 0 0.0020719752425361767 0.0015149361105311961 0 0.0019204156462866091 0.0015959104870114666 0 0.0017998637269904299 0.0014774080085938723 0 0.0019204156462866091 0.0015959104870114666 0 0.0018359379985874497 0.0017356483297012828 0 0.0010293856763091539 0.00099285002954492768 0 0.00079465797120691539 0.0010734657468944718 0 0.0019204156462866091 0.0015959104870114666 0 0.0018359379985874497 0.0017356483297012828 0 0.0020352724297308428 0.0017712303167168951 0 0.0021612585136186226 0.0016613115878208456 0 0.0019204156462866091 0.0015959104870114666 0 0.0020352724297308428 0.0017712303167168951 0 0.0018359379985874497 0.0017356483297012828 0 0.0020352724297308428 0.0017712303167168951 0 0.0020398462428172269 0.002003640838078284 0 0.00079465797120691539 0.0010734657468944718 0 0.00034725213540970882 0.000966161770871853 0 0.00040979696993141213 0.00084714076911544833 0 0.00040225211023138589 0.00078675997416493356 0 0.00044195809110739664 0.00085677275496699799 0 -0.00015571307033391757 -0.00031149627530179723 0 0.00065678075888489409 0.00066431153078065858 0 -2.2954503288592887e-05 0.00071021212148866504 0 0.00079465797120691539 0.0010734657468944718 0 0.0012625860079106398 0.0014802073467041347 0 0.0022214512898312629 0.0018591048703554551 0 0.0020398462428172269 0.002003640838078284 0 0.0023016817504881134 0.0020734901963669716 0 0.0020352724297308428 0.0017712303167168951 0 0.0022214512898312629 0.0018591048703554551 0 0.0020398462428172269 0.002003640838078284 0 0.0021612585136186226 0.0016613115878208456 0 0.0020352724297308428 0.0017712303167168951 0 0.0022214512898312629 0.0018591048703554551 0 0.00096390218857726761 0.0015716804364736933 0 0.00065678075888489409 0.00066431153078065858 0 0.0015078896016384562 0.0016732692803338571 0 0.0012625860079106398 0.0014802073467041347 0 0.0017306470104145736 0.0019862722006126904 0 0.0020398462428172269 0.002003640838078284 0 0.0023016817504881134 0.0020734901963669716 0 0.0022427535982208649 0.0023304749380360502 0 0.00093649819228692468 0.0015547608631334088 0 -0.0001000107606706858 0.00065753022153394768 0 9.8759961255646961e-05 0.0021849855888489353 0 0.00034725213540970882 0.000966161770871853 0 0.00027179308761419188 0.001961473467558897 0 0.00090143811414848793 0.0014781487224695344 0 0.00034725213540970882 0.000966161770871853 0 0.00096390218857726761 0.0015716804364736933 0 0.00065678075888489409 0.00066431153078065858 0 -2.2954503288592887e-05 0.00071021212148866504 0 -0.00032311208273451132 0.00040707282834088918 0 -0.00010082898108894001 0.0019452360558127686 0 -0.00087822209680131361 0.0012176962761297682 0 0.0028184152311986526 0.0018559780603819955 0 0.0025415873948517625 0.0017869776916608312 0 0.0025901489965499493 0.0020860326469651926 0 0.0028184152311986526 0.0018559780603819955 0 0.0030022559186621968 0.0019869729451885468 0 0.0031224019181253348 0.0018791165949381473 0 0.0029452441984196796 0.0017430636872192457 0 0.0029804342734813484 0.0017744155418015011 0 0.0028008532918218647 0.0014573279493685653 0 0.0028184152311986526 0.0018559780603819955 0 0.0031224019181253348 0.0018791165949381473 0 0.0028008532918218647 0.0014573279493685653 0 0.0028184152311986526 0.0018559780603819955 0 0.0025415873948517625 0.0017869776916608312 0 0.0029452441984196796 0.0017430636872192457 0 0.0027513632760587437 0.0018719014623101572 0 0.00236590110014503 0.001639171191316642 0 0.0022214512898312629 0.0018591048703554551 0 0.0024727727995336101 0.0018608562009335429 0 0.0027513632760587437 0.0018719014623101572 0 0.0026653323775593027 0.0019439005090276617 0 0.0022214512898312629 0.0018591048703554551 0 0.0024727727995336101 0.0018608562009335429 0 0.0023016817504881134 0.0020734901963669716 0 0.0025415873948517625 0.0017869776916608312 0 0.0025901489965499493 0.0020860326469651926 0 0.0023016817504881134 0.0020734901963669716 0 0.0023016817504881134 0.0020734901963669716 0 0.002430140098007023 0.0022991268931549323 0 0.0022427535982208649 0.0023304749380360502 0 0.0025901489965499493 0.0020860326469651926 0 0.002430140098007023 0.0022991268931549323 0 0.0026261248805680665 0.002353949982269002 0 0.0025901489965499493 0.0020860326469651926 0 0.0023016817504881134 0.0020734901963669716 0 0.002430140098007023 0.0022991268931549323 0 0.0028582860392843286 0.0021594180814637071 0 0.0029416100059588396 0.0025988908954187543 0 0.0031792999753429687 0.0020379990006095042 0 0.0025901489965499493 0.0020860326469651926 0 0.0028582860392843286 0.0021594180814637071 0 0.0026261248805680665 0.002353949982269002 0 0.0028184152311986526 0.0018559780603819955 0 0.0025901489965499493 0.0020860326469651926 0 0.0028582860392843286 0.0021594180814637071 0 0.0030022559186621968 0.0019869729451885468 0 0.0028582860392843286 0.0021594180814637071 0 0.0031792999753429687 0.0020379990006095042 0 0.0028184152311986526 0.0018559780603819955 0 0.0030022559186621968 0.0019869729451885468 0 0.0028582860392843286 0.0021594180814637071 0 0.0029416100059588396 0.0025988908954187543 0 0.0026261248805680665 0.002353949982269002 0 0.0023850578574429954 0.0027953491915173813 0 0.0028582860392843286 0.0021594180814637071 0 0.0029416100059588396 0.0025988908954187543 0 0.0026261248805680665 0.002353949982269002 0 0.0023138302000488388 0.0023941343132316668 0 0.0014051941888571027 0.0028976213220752484 0 0.0029830275317049688 0.0023423790411627784 0 0.0027897024026003032 0.0026833251268900786 0 0.0031013769447895273 0.0026412764458260268 0 0.0029416100059588396 0.0025988908954187543 0 0.0023850578574429954 0.0027953491915173813 0 0.0024771816080139458 0.0039021329100832405 0 0.0017937017557480362 0.0031778724334180618 0 0.0023850578574429954 0.0027953491915173813 0 0.0024771816080139458 0.0039021329100832405 0 0.0017937017557480362 0.0031778724334180618 0 0.0023850578574429954 0.0027953491915173813 0 0.0020046912611403332 0.0025153297565006514 0 0.0017937017557480362 0.0031778724334180618 0 0.0020046912611403332 0.0025153297565006514 0 0.001461364069889184 0.0028168168553387466 0 0.0023850578574429954 0.0027953491915173813 0 0.0020046912611403332 0.0025153297565006514 0 0.0015078896016384562 0.0016732692803338571 0 0.002430140098007023 0.0022991268931549323 0 0.0026261248805680665 0.002353949982269002 0 0.0023850578574429954 0.0027953491915173813 0 0.0019804438498578574 0.00228208099705788 0 0.0017306470104145736 0.0019862722006126904 0 0.002430140098007023 0.0022991268931549323 0 0.0023850578574429954 0.0027953491915173813 0 0.0022427535982208649 0.0023304749380360502 0 0.00090143811414848793 0.0014781487224695344 0 0.0012967358312990507 0.0018323484766391627 0 0.00093649819228692468 0.0015547608631334088 0 0.0020046912611403332 0.0025153297565006514 0 0.0010831505340716597 0.0024461991786880349 0 0.00096390218857726761 0.0015716804364736933 0 0.0020046912611403332 0.0025153297565006514 0 0.0015078896016384562 0.0016732692803338571 0 0.00093649819228692468 0.0015547608631334088 0 0.0010831505340716597 0.0024461991786880349 0 9.8759961255646961e-05 0.0021849855888489353 0 9.8759961255646961e-05 0.0021849855888489353 0 0.00095828503349745147 0.0031332147421455356 0 0.00023139901849386697 0.003645683316076823 0 0.00027179308761419188 0.001961473467558897 0 0.00030638189998258785 0.002654527421114244 0 -0.00010082898108894001 0.0019452360558127686 0 0.00023139901849386697 0.003645683316076823 0 -0.0010102405919363536 0.0030737714874981637 0 0.0010831505340716597 0.0024461991786880349 0 9.8759961255646961e-05 0.0021849855888489353 0 0.00095828503349745147 0.0031332147421455356 0 0.0010831505340716597 0.0024461991786880349 0 0.001461364069889184 0.0028168168553387466 0 0.00095828503349745147 0.0031332147421455356 0 0.0020046912611403332 0.0025153297565006514 0 0.0010831505340716597 0.0024461991786880349 0 0.001461364069889184 0.0028168168553387466 0 0.0017937017557480362 0.0031778724334180618 0 0.00095828503349745147 0.0031332147421455356 0 0.0014652234153864059 0.0037760560374304249 0 0.0017937017557480362 0.0031778724334180618 0 0.001461364069889184 0.0028168168553387466 0 0.00095828503349745147 0.0031332147421455356 0 0.0014652234153864059 0.0037760560374304249 0 0.00084923196787636249 0.0037907020162337361 0 0.0010476833961108266 0.0042943264797288263 0 0.00095828503349745147 0.0031332147421455356 0 0.0014652234153864059 0.0037760560374304249 0 0.00084923196787636249 0.0037907020162337361 0 0.00095828503349745147 0.0031332147421455356 0 0.00084923196787636249 0.0037907020162337361 0 0.00023139901849386697 0.003645683316076823 0 0.00084923196787636249 0.0037907020162337361 0 0.00052555914465214236 0.0041223582269593745 0 0.00023139901849386697 0.003645683316076823 0 0.00052555914465214236 0.0041223582269593745 0 0.00059791517322456086 0.0044842834786351883 0 0.0010476833961108266 0.0042943264797288263 0 0.00084923196787636249 0.0037907020162337361 0 0.00052555914465214236 0.0041223582269593745 0 0.0010476833961108266 0.0042943264797288263 0 0.0014652234153864059 0.0037760560374304249 0 0.0010476833961108266 0.0042943264797288263 0 0.0016482897511040481 0.0043862770293653956 0 0.0010476833961108266 0.0042943264797288263 0 0.0011778442092659519 0.0047642182314986316 0 0.0016482897511040481 0.0043862770293653956 0 -0.00019524089712237257 0.003961245852207587 0 -0.00040000088720859952 0.0044509313242623635 0 -0.0010102405919363536 0.0030737714874981637 0 -0.00019524089712237257 0.003961245852207587 0 0.00023139901849386697 0.003645683316076823 0 -0.0010102405919363536 0.0030737714874981637 0 -0.00019524089712237257 0.003961245852207587 0 0.00023139901849386697 0.003645683316076823 0 0.00014384140739110443 0.004144834744054816 0 0.00052555914465214236 0.0041223582269593745 0 0.00023139901849386697 0.003645683316076823 0 0.00014384140739110443 0.004144834744054816 0 0.00052555914465214236 0.0041223582269593745 0 0.00034669707941059673 0.0044325968888429277 0 0.00014384140739110443 0.004144834744054816 0 0.00052555914465214236 0.0041223582269593745 0 0.00059791517322456086 0.0044842834786351883 0 0.00034669707941059673 0.0044325968888429277 0 0.00034669707941059673 0.0044325968888429277 0 0.00014384140739110443 0.004144834744054816 0 -6.5956859539053922e-05 0.0044702299719020103 0 -0.00019524089712237257 0.003961245852207587 0 0.00014384140739110443 0.004144834744054816 0 -6.5956859539053922e-05 0.0044702299719020103 0 -0.00019524089712237257 0.003961245852207587 0 -6.5956859539053922e-05 0.0044702299719020103 0 -0.00040000088720859952 0.0044509313242623635 0 -0.0014528295982357687 0.0041351489448964241 0 -0.0019870316482645833 0.0038595999133713152 0 -6.5956859539053922e-05 0.0044702299719020103 0 -0.00040000088720859952 0.0044509313242623635 0 0.00012345291246400493 0.0056891955317021972 0 -0.00072007819964247407 0.004027375899987703 0 -0.00095245682751012571 0.0046875264646912499 0 -0.00037130339021867006 0.004964547288181873 0 -6.5956859539053922e-05 0.0044702299719020103 0 0.0006123326621181749 0.004927981494799733 0 0.00012345291246400493 0.0056891955317021972 0 -0.0011002759858131223 0.0041763712539173957 0 -0.0013908865223878424 0.0040064623354883581 0 0.00034669707941059673 0.0044325968888429277 0 -6.5956859539053922e-05 0.0044702299719020103 0 0.00065026070453981424 0.0048993798670352844 0 -0.0013908865223878424 0.0040064623354883581 0 -0.0019870316482645833 0.0038595999133713152 0 -0.0034829028745083589 0.002608586689280806 0 -0.0032036885990816225 0.0027938816187358601 0 -0.0034131311623032952 0.0028533279303422565 0 0.0011778442092659519 0.0047642182314986316 0 0.00064984998235273754 0.0048846491460619642 0 0.0017287580572085328 0.0055987031746096158 0 0.0011778442092659519 0.0047642182314986316 0 0.0016482897511040481 0.0043862770293653956 0 0.0017287580572085328 0.0055987031746096158 0 -0.0013908865223878424 0.0040064623354883581 0 -0.00049937804008458103 0.0033988956036848602 0 0.00059791517322456086 0.0044842834786351883 0 0.0010476833961108266 0.0042943264797288263 0 0.00074635655568348208 0.0047422744397109876 0 0.0011778442092659519 0.0047642182314986316 0 0.00074635655568348208 0.0047422744397109876 0 0.00064984998235273754 0.0048846491460619642 0 0.0010476833961108266 0.0042943264797288263 0 0.0011778442092659519 0.0047642182314986316 0 0.00074635655568348208 0.0047422744397109876 0 0.00059791517322456086 0.0044842834786351883 0 0.00034669707941059673 0.0044325968888429277 0 0.00065026070453981424 0.0048993798670352844 0 0.00059791517322456086 0.0044842834786351883 0 0.00074635655568348208 0.0047422744397109876 0 0.00065026070453981424 0.0048993798670352844 0 -0.0013825143167051901 0.0040054313634780422 0 -0.0013908865223878424 0.0040064623354883581 0 -0.0034829028745083589 0.002608586689280806 0 -0.0034131311623032952 0.0028533279303422565 0 -0.0036086332784805767 0.0027984480789615927 0 0.0029127645736902793 0.0029262081228159631 0 0.0027897024026003032 0.0026833251268900786 0 0.0026123801749546225 0.0030360309466153155 0 0.0014051941888571027 0.0028976213220752484 0 -0.00049937804008458103 0.0033988956036848602 0 0.0024771816080139458 0.0039021329100832405 0 0.0016482897511040481 0.0043862770293653956 0 0.0017287580572085328 0.0055987031746096158 0 0.0029127645736902793 0.0029262081228159631 0 0.0027897024026003032 0.0026833251268900786 0 0.0031013769447895273 0.0026412764458260268 0 0.0017937017557480362 0.0031778724334180618 0 0.0014652234153864059 0.0037760560374304249 0 0.0024771816080139458 0.0039021329100832405 0 0.0014652234153864059 0.0037760560374304249 0 0.0024771816080139458 0.0039021329100832405 0 0.0016482897511040481 0.0043862770293653956 0 -0.0032909495766681729 0.0036699127118959237 0 -0.0026174084610150168 0.0045468960078575366 0 -0.0025066396317911296 0.0034318876268363747 0 -0.0032960298269276928 0.003548042792732172 0 -0.0039647169492950289 0.0031375901252568734 0 -0.0043578787652261679 0.0041222150052914464 0 -0.0038093637247925221 0.0047786644966485749 0 -0.0043578787652261679 0.0041222150052914464 0 -0.0042044947873738315 0.0056673069108283819 0 -0.0032960298269276928 0.003548042792732172 0 -0.0038093637247925221 0.0047786644966485749 0 -0.0043578787652261679 0.0041222150052914464 0 -0.0032228749404969556 0.0034230014893833248 0 -0.0034556860829012817 0.0039576107705567151 0 -0.0032909495766681729 0.0036699127118959237 0 -0.0038093637247925221 0.0047786644966485749 0 -0.0026174084610150168 0.0045468960078575366 0 -0.0026174084610150168 0.0045468960078575366 0 -0.0018560460325004469 0.0039869729526981054 0 -0.0015149701613531436 0.0049739006332038278 0 -0.0012190497923939086 0.0042540159894284861 0 -0.0018560460325004469 0.0039869729526981054 0 -0.0015149701613531436 0.0049739006332038278 0 -0.00095245682751012571 0.0046875264646912499 0 -0.0012190497923939086 0.0042540159894284861 0 -0.0015149701613531436 0.0049739006332038278 0 -0.00072007819964247407 0.004027375899987703 0 -0.00095245682751012571 0.0046875264646912499 0 -0.0012190497923939086 0.0042540159894284861 0 -0.0014528295982357687 0.0041351489448964241 0 -0.0014195345608180381 0.0039069889344677576 0 -0.001239239635500509 0.0036783079552912402 0 -0.0018560460325004469 0.0039869729526981054 0 -0.0018584740816657667 0.0030428572049561015 0 -0.00072007819964247407 0.004027375899987703 0 -0.001239239635500509 0.0036783079552912402 0 -0.0010102405919363536 0.0030737714874981637 0 -0.00072007819964247407 0.004027375899987703 0 -0.0012190497923939086 0.0042540159894284861 0 -0.001239239635500509 0.0036783079552912402 0 -0.0012190497923939086 0.0042540159894284861 0 -0.001239239635500509 0.0036783079552912402 0 -0.0018560460325004469 0.0039869729526981054 0 -0.0026174084610150168 0.0045468960078575366 0 -0.0025066396317911296 0.0034318876268363747 0 -0.0018560460325004469 0.0039869729526981054 0 -0.0025066396317911296 0.0034318876268363747 0 -0.0018560460325004469 0.0039869729526981054 0 -0.0018584740816657667 0.0030428572049561015 0 -0.0025066396317911296 0.0034318876268363747 0 -0.0018584740816657667 0.0030428572049561015 0 -0.0028053736371120015 0.0025006237718531426 0 -0.0018584740816657667 0.0030428572049561015 0 -0.0015120726156601168 0.0019576521505832614 0 -0.0028053736371120015 0.0025006237718531426 0 -0.0018584740816657667 0.0030428572049561015 0 -0.0010102405919363536 0.0030737714874981637 0 -0.0015120726156601168 0.0019576521505832614 0 -0.001239239635500509 0.0036783079552912402 0 -0.0018584740816657667 0.0030428572049561015 0 -0.0010102405919363536 0.0030737714874981637 0 -0.00010082898108894001 0.0019452360558127686 0 -0.0010102405919363536 0.0030737714874981637 0 -0.0015120726156601168 0.0019576521505832614 0 -0.00010082898108894001 0.0019452360558127686 0 -0.0015120726156601168 0.0019576521505832614 0 -0.00087822209680131361 0.0012176962761297682 0 -0.0015120726156601168 0.0019576521505832614 0 -0.0028053736371120015 0.0025006237718531426 0 -0.0022741246498120481 0.0012806264116394367 0 -0.0032334760151988082 0.0017614701369378402 0 -0.0030061160304243745 0.0012053494120258601 0 -0.0022881961440862834 0.0012135006712513602 0 -0.0027931468859205911 0.0024329751411689845 0 -0.0023668871077722501 0.0014568724620240951 0 -0.0032334760151988082 0.0017614701369378402 0 -0.0027962334483736112 0.0023530247776471112 0 -0.0037147740859409524 0.0023933804415419259 0 -0.0032334760151988082 0.0017614701369378402 0 -0.0027962334483736112 0.0023530247776471112 0 -0.0022881961440862834 0.0012135006712513602 0 -0.0032334760151988082 0.0017614701369378402 0 -0.0034161616977271925 0.0014629073893344681 0 -0.0030061160304243745 0.0012053494120258601 0 -0.0032960298269276928 0.003548042792732172 0 -0.0027962334483736112 0.0023530247776471112 0 -0.0037147740859409524 0.0023933804415419259 0 -0.0032228749404969556 0.0034230014893833248 0 -0.0027931468859205911 0.0024329751411689845 0 -0.0032909495766681729 0.0036699127118959237 0 -0.0025066396317911296 0.0034318876268363747 0 -0.0028053736371120015 0.0025006237718531426 0 -0.0032960298269276928 0.003548042792732172 0 -0.0039647169492950289 0.0031375901252568734 0 -0.0037147740859409524 0.0023933804415419259 0 -0.0039647169492950289 0.0031375901252568734 0 -0.0037147740859409524 0.0023933804415419259 0 -0.0045061554505826185 0.0024969249543512757 0 -0.0037147740859409524 0.0023933804415419259 0 -0.0041660219528606521 0.0018662211604994125 0 -0.0045061554505826185 0.0024969249543512757 0 -0.0037147740859409524 0.0023933804415419259 0 -0.0041660219528606521 0.0018662211604994125 0 -0.0036996175907729099 0.0016887857284700299 0 -0.0032334760151988082 0.0017614701369378402 0 -0.0037147740859409524 0.0023933804415419259 0 -0.0036996175907729099 0.0016887857284700299 0 -0.0036996175907729099 0.0016887857284700299 0 -0.0034161616977271925 0.0014629073893344681 0 -0.0037291255125376822 0.0011956083242453358 0 -0.0032334760151988082 0.0017614701369378402 0 -0.0036996175907729099 0.0016887857284700299 0 -0.0034161616977271925 0.0014629073893344681 0 -0.0041660219528606521 0.0018662211604994125 0 -0.0036996175907729099 0.0016887857284700299 0 -0.0037291255125376822 0.0011956083242453358 0 -0.0037095674577985868 0.0010013760719753823 0 -0.002942678158166988 0.00058813439682205398 0 -0.0033952504966845518 0.0005017852523305546 0 -0.0039474267090672801 0.001082056766727782 0 -0.0036130726491523787 0.0012378780723667545 0 -0.0025688863555615722 0.00059373061076465109 0 -0.0037095674577985868 0.0010013760719753823 0 -0.0037548159054742233 0.00062922299898605634 0 -0.0033952504966845518 0.0005017852523305546 0 -0.0039413980333511452 0.0010977392387563484 0 -0.003276258727159807 0.00086021924026374679 0 -0.0037095674577985868 0.0010013760719753823 0 -0.0025688863555615722 0.00059373061076465109 0 -0.002942678158166988 0.00058813439682205398 0 -0.0037291255125376822 0.0011956083242453358 0 -0.0030061160304243745 0.0012053494120258601 0 -0.0024597274262051151 0.00065101699163246389 0 -0.0034161616977271925 0.0014629073893344681 0 -0.0037291255125376822 0.0011956083242453358 0 -0.0030061160304243745 0.0012053494120258601 0 -0.0036130726491523787 0.0012378780723667545 0 -0.0025688863555615722 0.00059373061076465109 0 -0.0024597274262051151 0.00065101699163246389 0 -0.0038114520173798917 0.0013015982984313876 0 -0.0032511988796064188 0.0010237759436425974 0 -0.0030061160304243745 0.0012053494120258601 0 -0.0022881961440862834 0.0012135006712513602 0 -0.0024597274262051151 0.00065101699163246389 0 -0.002942678158166988 0.00058813439682205398 0 -0.0030645118757596772 -7.9921338028281496e-05 0 -0.0033952504966845518 0.0005017852523305546 0 -0.002942678158166988 0.00058813439682205398 0 -0.0027315218876621033 0.00025569998181568433 0 -0.0030645118757596772 -7.9921338028281496e-05 0 -0.0025688863555615722 0.00059373061076465109 0 -0.002942678158166988 0.00058813439682205398 0 -0.0027009440507790401 0.00046517663947012435 0 -0.0025575564752121993 0.00041964866065623003 0 -0.0027315218876621033 0.00025569998181568433 0 -0.0023580519725655801 0.00026665882544645844 0 -0.0025688863555615722 0.00059373061076465109 0 -0.0025575564752121993 0.00041964866065623003 0 -0.0023637216059464315 0.00042163735137207904 0 -0.0025688863555615722 0.00059373061076465109 0 -0.0025575564752121993 0.00041964866065623003 0 -0.0027009440507790401 0.00046517663947012435 0 -0.002942678158166988 0.00058813439682205398 0 -0.0027009440507790401 0.00046517663947012435 0 -0.0027315218876621033 0.00025569998181568433 0 -0.0025575564752121993 0.00041964866065623003 0 -0.0027009440507790401 0.00046517663947012435 0 -0.0027315218876621033 0.00025569998181568433 0 -0.0027315218876621033 0.00025569998181568433 0 -0.0023580519725655801 0.00026665882544645844 0 -0.0024202665525916039 -1.290783161304377e-05 0 -0.0027315218876621033 0.00025569998181568433 0 -0.0030645118757596772 -7.9921338028281496e-05 0 -0.0024202665525916039 -1.290783161304377e-05 0 -0.0030645118757596772 -7.9921338028281496e-05 0 -0.0033952504966845518 0.0005017852523305546 0 -0.0039682868474494931 0.00030401105232501468 0 -0.0026945975257280522 -0.00015090671395538786 0 -0.0033572492095401947 -0.00038678140163173226 0 -0.0037947921320482005 0.00026725960392461913 0 -0.0023082334444568145 0.00051232009760164283 0 -0.0034621710370857091 0.00063305125093672944 0 -0.0037548159054742233 0.00062922299898605634 0 -0.0033952504966845518 0.0005017852523305546 0 -0.0039682868474494931 0.00030401105232501468 0 -0.0015120726156601168 0.0019576521505832614 0 -0.0015892147322240069 0.00057329827033001486 0 -0.00087822209680131361 0.0012176962761297682 0 -0.00085683637131237227 0.0011270120912910044 0 -0.00074468420693171787 0.00075244499000831676 0 -0.00032311208273451132 0.00040707282834088918 0 -0.0015892147322240069 0.00057329827033001486 0 -0.00087822209680131361 0.0012176962761297682 0 -0.0022881961440862834 0.0012135006712513602 0 -0.0024597274262051151 0.00065101699163246389 0 -0.0018057765111493223 0.00018953021935000361 0 -0.0016497336871825394 0.00081624178499836405 0 -0.0022741246498120481 0.0012806264116394367 0 -0.0018057765111493223 0.00018953021935000361 0 -0.0023668871077722501 0.0014568724620240951 0 -0.0021445435676407825 0.00095061689730820749 0 -0.0015120726156601168 0.0019576521505832614 0 -0.0016497336871825394 0.00081624178499836405 0 -0.0022741246498120481 0.0012806264116394367 0 -0.0016497336871825394 0.00081624178499836405 0 -0.0018057765111493223 0.00018953021935000361 0 -0.0017577973161820458 -0.00025365628066365041 0 -0.0023637216059464315 0.00042163735137207904 0 -0.0023580519725655801 0.00026665882544645844 0 -0.0018057765111493223 0.00018953021935000361 0 -0.0024597274262051151 0.00065101699163246389 0 -0.0023637216059464315 0.00042163735137207904 0 -0.0018057765111493223 0.00018953021935000361 0 -0.0025688863555615722 0.00059373061076465109 0 -0.0024597274262051151 0.00065101699163246389 0 -0.0023637216059464315 0.00042163735137207904 0 -0.0025575564752121993 0.00041964866065623003 0 -0.0023637216059464315 0.00042163735137207904 0 -0.0023580519725655801 0.00026665882544645844 0 -0.0023580519725655801 0.00026665882544645844 0 -0.0024202665525916039 -1.290783161304377e-05 0 -0.0021084561491219781 3.3792499169850939e-05 0 -0.0024202665525916039 -1.290783161304377e-05 0 -0.0021084561491219781 3.3792499169850939e-05 0 -0.0020926776500005727 -0.00018523951816062559 0 -0.0023580519725655801 0.00026665882544645844 0 -0.0021084561491219781 3.3792499169850939e-05 0 -0.0018057765111493223 0.00018953021935000361 0 -0.0021084561491219781 3.3792499169850939e-05 0 -0.0018057765111493223 0.00018953021935000361 0 -0.0017577973161820458 -0.00025365628066365041 0 -0.0021084561491219781 3.3792499169850939e-05 0 -0.0017577973161820458 -0.00025365628066365041 0 -0.0020926776500005727 -0.00018523951816062559 0 0.00040225211023138589 0.00078675997416493356 0 0.00044195809110739664 0.00085677275496699799 0 0.00047492947948216883 0.00085047207773918132 0 -0.00032311208273451132 0.00040707282834088918 0 -0.0015892147322240069 0.00057329827033001486 0 -0.0016823599929385131 -0.00076722174761491182 0 -0.00074468420693171787 0.00075244499000831676 0 -0.00028509476758282895 0.00053401774680775119 0 0.00034725213540970882 0.000966161770871853 0 -0.00028509476758282895 0.00053401774680775119 0 0.00088794019554394024 0.0011747312187525996 0 0.00085008129580188422 0.00088606266592897566 0 0.0010395032862813437 0.0011159125636279101 0 0.0010293856763091539 0.00099285002954492768 0 0.00069121517552488674 0.00089903670113187779 0 0.00079465797120691539 0.0010734657468944718 0 0.00069121517552488674 0.00089903670113187779 0 0.00040979696993141213 0.00084714076911544833 0 0.00044528546155300189 0.00089085169923079209 0 0.00044195809110739664 0.00085677275496699799 0 0.00044195809110739664 0.00085677275496699799 0 0.00047699228896453918 0.0008782606133475782 0 0.00047492947948216883 0.00085047207773918132 0 0.00044528546155300189 0.00089085169923079209 0 0.00044195809110739664 0.00085677275496699799 0 0.00047699228896453918 0.0008782606133475782 0 0.00069121517552488674 0.00089903670113187779 0 1.7392042478956613e-05 0.00064667133303882994 0 -0.00040482068498982844 0.0004831623613875202 0 -0.00063867200465289814 4.4928547363348048e-05 0 0.001695899949631755 0.0014613744920763633 0 0.00164387855659843 0.0014813409391596457 0 0.0016410694907545772 0.0013938693302828597 0 1.7392042478956613e-05 0.00064667133303882994 0 -0.00040482068498982844 0.0004831623613875202 0 -9.9816927585526097e-05 0.00087829330479032139 0 -0.00013102096838509298 0.00044645544133151615 0 0.00022266413438980017 0.00075320942979793738 0 1.7392042478956613e-05 0.00064667133303882994 0 -0.00028509476758282895 0.00053401774680775119 0 -0.0017577973161820458 -0.00025365628066365041 0 -0.0020926776500005727 -0.00018523951816062559 0 -0.0020787124425874653 -0.00050829833150708363 0 -0.00028509476758282895 0.00053401774680775119 0 -0.00040482068498982844 0.0004831623613875202 0 -0.0024202665525916039 -1.290783161304377e-05 0 -0.0020926776500005727 -0.00018523951816062559 0 -0.0020787124425874653 -0.00050829833150708363 0 0.00164387855659843 0.0014813409391596457 0 0.0016410694907545772 0.0013938693302828597 0 0.0014933780202764872 0.0013569071232572996 0 0.0016912708099914452 0.0013173477108832947 0 0.0016410694907545772 0.0013938693302828597 0 0.0014933780202764872 0.0013569071232572996 0 1.7392042478956613e-05 0.00064667133303882994 0 0.00070943693114764589 0.0011263677333879709 0 0.001695899949631755 0.0014613744920763633 0 0.0016912708099914452 0.0013173477108832947 0 0.0016410694907545772 0.0013938693302828597 0 0.0011350420809274041 0.0011272149570401291 0 0.0010293856763091539 0.00099285002954492768 0 0.0019897550467802639 0.0012777232037182711 0 0.0020098215117493315 0.001457961914365212 0 0.0019265343907074867 0.001384775000603241 0 9.3599662379473004e-05 0.00064078790738246124 0 0.00034599935638153208 0.00054277270105194139 0 0.00037847768232334475 0.00098706138435815079 0 0.0019897550467802639 0.0012777232037182711 0 0.0017968924135868614 0.0013526900011236757 0 0.0019265343907074867 0.001384775000603241 0 0.0019155523025746748 0.0014940410910568116 0 0.0017968924135868614 0.0013526900011236757 0 0.0019265343907074867 0.001384775000603241 0 0.00069121517552488674 0.00089903670113187779 0 0.00070943693114764589 0.0011263677333879709 0 0.0020098215117493315 0.001457961914365212 0 0.0019155523025746748 0.0014940410910568116 0 0.0019265343907074867 0.001384775000603241 0 -0.0029055979997261675 -0.00079070692610853867 0 -0.0034028102667790542 -0.00090113898163276889 0 -0.0033572492095401947 -0.00038678140163173226 0 -0.0034028102667790542 -0.00090113898163276889 0 -0.0033572492095401947 -0.00038678140163173226 0 -0.0040651606266494927 -0.0003512503482762402 0 -0.0026945975257280522 -0.00015090671395538786 0 -0.0029055979997261675 -0.00079070692610853867 0 -0.0033572492095401947 -0.00038678140163173226 0 -0.0030645118757596772 -7.9921338028281496e-05 0 -0.0024202665525916039 -1.290783161304377e-05 0 -0.0020787124425874653 -0.00050829833150708363 0 -0.001604955041925908 -0.00057096762773135932 0 -0.0023985428467162596 -0.00070714449039129175 0 -0.002460678904960335 -0.0013079948453960217 0 -0.0023082334444568145 0.00051232009760164283 0 -0.00040482068498982844 0.0004831623613875202 0 -0.0026945975257280522 -0.00015090671395538786 0 -0.001604955041925908 -0.00057096762773135932 0 -0.0023985428467162596 -0.00070714449039129175 0 -0.0026945975257280522 -0.00015090671395538786 0 -0.0029055979997261675 -0.00079070692610853867 0 -0.0023985428467162596 -0.00070714449039129175 0 -0.0029055979997261675 -0.00079070692610853867 0 -0.0023985428467162596 -0.00070714449039129175 0 -0.002460678904960335 -0.0013079948453960217 0 0.0014645256390198366 0.0012336660334406082 0 0.0016912708099914452 0.0013173477108832947 0 0.0014933780202764872 0.0013569071232572996 0 -0.0029055979997261675 -0.00079070692610853867 0 -0.002460678904960335 -0.0013079948453960217 0 -0.0031211305548757211 -0.0012817609080719224 0 -0.0010671892910313525 -0.00049749298451273554 0 -0.00063867200465289814 4.4928547363348048e-05 0 -0.0033060640032125735 -0.0020351466791759371 0 -0.002460678904960335 -0.0013079948453960217 0 -0.0031211305548757211 -0.0012817609080719224 0 -0.0029055979997261675 -0.00079070692610853867 0 -0.0034028102667790542 -0.00090113898163276889 0 -0.0031211305548757211 -0.0012817609080719224 0 -0.0018817847286574086 -0.0010304124354305138 0 -0.0017825490890903408 -0.0009510103632201269 0 -0.0034028102667790542 -0.00090113898163276889 0 -0.0031211305548757211 -0.0012817609080719224 0 -0.0035989262802602444 -0.0013637334892091805 0 -0.0033060640032125735 -0.0020351466791759371 0 -0.0031211305548757211 -0.0012817609080719224 0 -0.0035989262802602444 -0.0013637334892091805 0 -0.0010671892910313525 -0.00049749298451273554 0 -0.0017825490890903408 -0.0009510103632201269 0 -0.0041509770908130265 -0.0025342514471106375 0 -0.0036344409537181583 -0.0013453883072363161 0 -0.0044730145491391794 -0.0011610999849475676 0 -0.0034028102667790542 -0.00090113898163276889 0 -0.0036068710828727878 -0.0013753050556908038 0 -0.0040651606266494927 -0.0003512503482762402 0 -0.0017825490890903408 -0.0009510103632201269 0 -0.002288408196883647 -0.00056915624279855407 0 -0.0036344409537181583 -0.0013453883072363161 0 -0.0040651606266494927 -0.0003512503482762402 0 -0.0044730145491391794 -0.0011610999849475676 0 -0.0040651606266494927 -0.0003512503482762402 0 -0.0050494324569278042 -0.00041774965104005067 0 -0.0044534471666207841 3.9018738694402425e-05 0 -0.0040651606266494927 -0.0003512503482762402 0 -0.0050494324569278042 -0.00041774965104005067 0 -0.0044730145491391794 -0.0011610999849475676 0 -0.0050494324569278042 -0.00041774965104005067 0 -0.0051935058915889608 -0.0016611780569860545 0 -0.0044730145491391794 -0.0011610999849475676 0 -0.0033809132223302407 -0.0019508657656418875 0 -0.0049941195412895141 -0.0020362227859664355 0 -0.0049168800411352499 -0.00064220092616448213 0 -0.0038067066838610207 -0.0012525539660020618 0 -0.0053873373498492493 -0.00047797907618973471 0 -0.0049941195412895141 -0.0020362227859664355 0 -0.0049168800411352499 -0.00064220092616448213 0 -0.006440471350370942 -0.00076034713250487228 0 -0.0053873373498492493 -0.00047797907618973471 0 -0.0068472394336422226 0.00045482750527248177 0 -0.0050494324569278042 -0.00041774965104005067 0 -0.0051935058915889608 -0.0016611780569860545 0 -0.0062326243701195088 -0.00078544405077460224 0 -0.0050494324569278042 -0.00041774965104005067 0 -0.0062326243701195088 -0.00078544405077460224 0 -0.0059887715107088775 0.0001555431009785455 0 -0.0050494324569278042 -0.00041774965104005067 0 -0.0059887715107088775 0.0001555431009785455 0 -0.0048949289316316509 0.00066312196037274381 0 -0.0062326243701195088 -0.00078544405077460224 0 -0.0059887715107088775 0.0001555431009785455 0 -0.0072624695006457459 8.1279857526528904e-05 0 -0.0059887715107088775 0.0001555431009785455 0 -0.0064942327274373282 0.00091448694002560775 0 -0.0072624695006457459 8.1279857526528904e-05 0 -0.0064942327274373282 0.00091448694002560775 0 -0.0057112431283699791 0.0010293350858761035 0 -0.0061969216971250593 0.0019555092163537021 0 -0.0059887715107088775 0.0001555431009785455 0 -0.0064942327274373282 0.00091448694002560775 0 -0.0057112431283699791 0.0010293350858761035 0 -0.0059887715107088775 0.0001555431009785455 0 -0.0057112431283699791 0.0010293350858761035 0 -0.0048949289316316509 0.00066312196037274381 0 -0.0048949289316316509 0.00066312196037274381 0 -0.0043820480501181426 0.00096718773401376925 0 -0.004886038732299358 0.0014691180744114468 0 -0.0057112431283699791 0.0010293350858761035 0 -0.0048949289316316509 0.00066312196037274381 0 -0.004886038732299358 0.0014691180744114468 0 -0.0048949289316316509 0.00066312196037274381 0 -0.0043820480501181426 0.00096718773401376925 0 -0.0040728432300561031 0.00072519525572218126 0 -0.0039474267090672801 0.001082056766727782 0 -0.0036130726491523787 0.0012378780723667545 0 -0.0047510978960574697 0.0018055053498615072 0 -0.0037095674577985868 0.0010013760719753823 0 -0.0043820480501181426 0.00096718773401376925 0 -0.004886038732299358 0.0014691180744114468 0 -0.0039413980333511452 0.0010977392387563484 0 -0.0051147325368841355 0.0015211340028926891 0 -0.0037095674577985868 0.0010013760719753823 0 -0.0037548159054742233 0.00062922299898605634 0 -0.0040728432300561031 0.00072519525572218126 0 -0.0037095674577985868 0.0010013760719753823 0 -0.0043820480501181426 0.00096718773401376925 0 -0.0040728432300561031 0.00072519525572218126 0 -0.0039839821114523114 0.00073990347324116954 0 -0.0034621710370857091 0.00063305125093672944 0 -0.0048949289316316509 0.00066312196037274381 0 -0.0037947921320482005 0.00026725960392461913 0 -0.0044534471666207841 3.9018738694402425e-05 0 -0.0048949289316316509 0.00066312196037274381 0 -0.0040728432300561031 0.00072519525572218126 0 -0.0039682868474494931 0.00030401105232501468 0 -0.0037548159054742233 0.00062922299898605634 0 -0.0040728432300561031 0.00072519525572218126 0 -0.0039682868474494931 0.00030401105232501468 0 -0.0033572492095401947 -0.00038678140163173226 0 -0.0040651606266494927 -0.0003512503482762402 0 -0.0037947921320482005 0.00026725960392461913 0 -0.0040651606266494927 -0.0003512503482762402 0 -0.0037947921320482005 0.00026725960392461913 0 -0.0044534471666207841 3.9018738694402425e-05 0 -0.0050494324569278042 -0.00041774965104005067 0 -0.0048949289316316509 0.00066312196037274381 0 -0.0044534471666207841 3.9018738694402425e-05 0 0.0012575988040923051 0.00079410984271344198 0 0.0010187456596866828 0.0012955063021896382 0 0.00031535295719501647 0.00138798735130057 0 0.0022511293451897172 0.00025470342001221409 0 0.0021231950127841288 0.00023462889984074344 0 0.0023007975506870427 0.00019378555134886609 0 0.0021231950127841288 0.00023462889984074344 0 0.0023007975506870427 0.00019378555134886609 0 0.0023060395842772734 0.00013084815724478702 0 0.0014908250769183923 0.00045106014512345154 0 0.00099839936968982093 0.00058968383288737975 0 0.0022511293451897172 0.00025470342001221409 0 0.0021816524085814023 0.00033982449909126269 0 0.0021231950127841288 0.00023462889984074344 0 0.0022511293451897172 0.00025470342001221409 0 0.002273980261928567 0.00030205640438251991 0 0.0021816524085814023 0.00033982449909126269 0 0.002273980261928567 0.00030205640438251991 0 0.00230096539991802 0.00039614527864769323 0 0.0021816524085814023 0.00033982449909126269 0 0.0021369743057613757 0.0004625973567145736 0 0.00230096539991802 0.00039614527864769323 0 0.0021816524085814023 0.00033982449909126269 0 0.0021816524085814023 0.00033982449909126269 0 0.0020694273404103492 0.00038541505989750981 0 0.0021231950127841288 0.00023462889984074344 0 0.0020694273404103492 0.00038541505989750981 0 0.0021231950127841288 0.00023462889984074344 0 0.0019075789707848618 0.00043420430750145425 0 0.0021369743057613757 0.0004625973567145736 0 0.0021816524085814023 0.00033982449909126269 0 0.0020694273404103492 0.00038541505989750981 0 -0.0079265824862650401 -0.00088595821426651876 0 -0.0080025372090773116 0.00057984411980411686 0 -0.0095166912139579302 0.00046470592475304914 0 0.0012575988040923051 0.00079410984271344198 0 0.0016746329307042525 0.00069770958032205769 0 0.0010187456596866828 0.0012955063021896382 0 -0.0031014391496848016 8.7827882406848828e-05 0 -0.0042357735457252176 0.00098993047502530986 0 -0.006440471350370942 -0.00076034713250487228 0 -0.0065130775723983682 0.00070681490145721578 0 -0.0080025372090773116 0.00057984411980411686 0 -0.0079265824862650401 -0.00088595821426651876 0 -0.006440471350370942 -0.00076034713250487228 0 -0.0080025372090773116 0.00057984411980411686 0 0.0014908250769183923 0.00045106014512345154 0 0.0016671219596240358 0.00039061781862275222 0 0.0020117781035896569 0.00041356054376494913 0 0.0020694273404103492 0.00038541505989750981 0 0.0019075789707848618 0.00043420430750145425 0 -0.0020473844697408493 -0.0006184503373479073 0 -0.0031014391496848016 8.7827882406848828e-05 0 0.0020745847039101441 0.00036021541923358908 0 0.0016746329307042525 0.00069770958032205769 0 0.0019075789707848618 0.00043420430750145425 0 0.0012575988040923051 0.00079410984271344198 0 0.0016746329307042525 0.00069770958032205769 0 0.0019075789707848618 0.00043420430750145425 0 -0.0063804682259654246 -0.0021909693883698273 0 -0.0079265824862650401 -0.00088595821426651876 0 -0.006440471350370942 -0.00076034713250487228 0 -0.0063804682259654246 -0.0021909693883698273 0 -0.0049941195412895141 -0.0020362227859664355 0 -0.006440471350370942 -0.00076034713250487228 0 -0.0049168800411352499 -0.00064220092616448213 0 -0.006440471350370942 -0.00076034713250487228 0 -0.0065130775723983682 0.00070681490145721578 0 -0.0064942327274373282 0.00091448694002560775 0 -0.0072624695006457459 8.1279857526528904e-05 0 -0.0073147115294942529 0.0013527111528748893 0 -0.0072624695006457459 8.1279857526528904e-05 0 -0.008293629143831931 0.0009515196309887394 0 -0.0073147115294942529 0.0013527111528748893 0 -0.0068472394336422226 0.00045482750527248177 0 -0.0082858752000020113 0.0014332201769916529 0 -0.0065130775723983682 0.00070681490145721578 0 -0.0081732217410492407 0.0020896361243952499 0 -0.0080025372090773116 0.00057984411980411686 0 -0.0081732217410492407 0.0020896361243952499 0 -0.0080025372090773116 0.00057984411980411686 0 -0.0095166912139579302 0.00046470592475304914 0 -0.0081732217410492407 0.0020896361243952499 0 -0.0099080857133569279 0.0021367320892369248 0 -0.0095166912139579302 0.00046470592475304914 0 -0.0081732217410492407 0.0020896361243952499 0 -0.0099080857133569279 0.0021367320892369248 0 -0.0098848262261773349 0.003457776480342613 0 -0.0099080857133569279 0.0021367320892369248 0 -0.0095166912139579302 0.00046470592475304914 0 -0.011130394819753598 0.0018635040397435739 0 -0.0099080857133569279 0.0021367320892369248 0 -0.011130394819753598 0.0018635040397435739 0 -0.01084201782654113 0.002791935639821626 0 0.0010187456596866828 0.0012955063021896382 0 0.00031535295719501647 0.00138798735130057 0 0.00017202372995424843 0.0020807616380867189 0 -0.0042357735457252176 0.00098993047502530986 0 -0.005392571634345979 0.0019847798635699368 0 -0.0092933895869426204 0.0018267593048717939 0 -0.008865034244710886 0.002842479695381444 0 -0.010216747357544362 0.0026409523456987485 0 -0.0097487219907422852 0.0023468214079712187 0 -0.011258943519438102 0.0030178346286172694 0 -0.0099080857133569279 0.0021367320892369248 0 -0.0098848262261773349 0.003457776480342613 0 -0.01084201782654113 0.002791935639821626 0 -0.0098848262261773349 0.003457776480342613 0 -0.01084201782654113 0.002791935639821626 0 -0.010974365845929486 0.0035922565657101084 0 -0.0082858752000020113 0.0014332201769916529 0 -0.0097487219907422852 0.0023468214079712187 0 -0.008293629143831931 0.0009515196309887394 0 -0.0092933895869426204 0.0018267593048717939 0 -0.0084054758824367928 0.0020448365365833185 0 -0.0092933895869426204 0.0018267593048717939 0 -0.0084054758824367928 0.0020448365365833185 0 -0.008865034244710886 0.002842479695381444 0 -0.0077463208313183667 0.0024541447057116776 0 -0.008280129405036623 0.0031575152121506309 0 -0.008865034244710886 0.002842479695381444 0 -0.0075183721757803006 0.0023791965258030067 0 -0.0081657715539760253 0.0026047331843124101 0 -0.0084054758824367928 0.0020448365365833185 0 -0.0075340400236165164 0.0024184765528445446 0 -0.008865034244710886 0.002842479695381444 0 -0.0084054758824367928 0.0020448365365833185 0 -0.0073147115294942529 0.0013527111528748893 0 -0.0075340400236165164 0.0024184765528445446 0 -0.008293629143831931 0.0009515196309887394 0 -0.0084054758824367928 0.0020448365365833185 0 -0.0073147115294942529 0.0013527111528748893 0 -0.0073147115294942529 0.0013527111528748893 0 -0.0075340400236165164 0.0024184765528445446 0 -0.0061969216971250593 0.0019555092163537021 0 -0.0075183721757803006 0.0023791965258030067 0 -0.0063580534607814319 0.0019681918659156957 0 -0.0077463208313183667 0.0024541447057116776 0 -0.0073004319848718668 0.003197973643762563 0 -0.0068947453434058366 0.0028426870181781682 0 -0.0077463208313183667 0.0024541447057116776 0 -0.0073004319848718668 0.003197973643762563 0 -0.0077878825535379025 0.0032241624338438233 0 -0.0073004319848718668 0.003197973643762563 0 -0.0076034093625401266 0.0035651467117837296 0 -0.0077878825535379025 0.0032241624338438233 0 -0.0073004319848718668 0.003197973643762563 0 -0.0071976002341254753 0.0036763414493157622 0 -0.0076034093625401266 0.0035651467117837296 0 -0.0073004319848718668 0.003197973643762563 0 -0.0071976002341254753 0.0036763414493157622 0 -0.0067770601794608955 0.003355398581754539 0 -0.010467366026648496 0.0035263667941718242 0 -0.010637690123165483 0.0036366555012846843 0 -0.0071976002341254753 0.0036763414493157622 0 -0.0073787750820515545 0.0040139646294904243 0 -0.0068717221637988471 0.0039538118733631515 0 -0.0073876780142543858 0.0040089546765815333 0 -0.0077292870042308106 0.0039444487933250521 0 -0.0076553500980296963 0.00448364053244043 0 -0.0071976002341254753 0.0036763414493157622 0 -0.0073876780142543858 0.0040089546765815333 0 -0.0077292870042308106 0.0039444487933250521 0 -0.0071976002341254753 0.0036763414493157622 0 -0.0077292870042308106 0.0039444487933250521 0 -0.0076034093625401266 0.0035651467117837296 0 -0.0077292870042308106 0.0039444487933250521 0 -0.0076034093625401266 0.0035651467117837296 0 -0.0080608361190030991 0.0037347212471998937 0 -0.0077292870042308106 0.0039444487933250521 0 -0.0080608361190030991 0.0037347212471998937 0 -0.0081249912238774927 0.004261171893198413 0 -0.0080608361190030991 0.0037347212471998937 0 -0.008674869849046335 0.0043292218261240774 0 -0.0081249912238774927 0.004261171893198413 0 -0.0080608361190030991 0.0037347212471998937 0 -0.008280129405036623 0.0031575152121506309 0 -0.0088057573143400878 0.0036097015042935829 0 -0.0077463208313183667 0.0024541447057116776 0 -0.0077878825535379025 0.0032241624338438233 0 -0.008280129405036623 0.0031575152121506309 0 -0.0076034093625401266 0.0035651467117837296 0 -0.0080608361190030991 0.0037347212471998937 0 -0.0077878825535379025 0.0032241624338438233 0 -0.0080608361190030991 0.0037347212471998937 0 -0.0077878825535379025 0.0032241624338438233 0 -0.008280129405036623 0.0031575152121506309 0 -0.008280129405036623 0.0031575152121506309 0 -0.008865034244710886 0.002842479695381444 0 -0.0088057573143400878 0.0036097015042935829 0 -0.0080608361190030991 0.0037347212471998937 0 -0.0088057573143400878 0.0036097015042935829 0 -0.008674869849046335 0.0043292218261240774 0 -0.0088057573143400878 0.0036097015042935829 0 -0.008674869849046335 0.0043292218261240774 0 -0.0098309046792751549 0.0037976802993131054 0 -0.008865034244710886 0.002842479695381444 0 -0.010216747357544362 0.0026409523456987485 0 -0.0098309046792751549 0.0037976802993131054 0 -0.008865034244710886 0.002842479695381444 0 -0.0088057573143400878 0.0036097015042935829 0 -0.0098309046792751549 0.0037976802993131054 0 -0.0052427128251465865 0.0025423836075784646 0 -0.004951563182272278 0.0018329104040732086 0 -0.0059490437606744464 0.0023753483773952941 0 -0.0052427128251465865 0.0025423836075784646 0 -0.0059490437606744464 0.0023753483773952941 0 -0.0055930093428950235 0.0030628507121150473 0 -0.0052427128251465865 0.0025423836075784646 0 -0.0045061554505826185 0.0024969249543512757 0 -0.0050810645557458492 0.0030733110154591878 0 -0.0052427128251465865 0.0025423836075784646 0 -0.0045061554505826185 0.0024969249543512757 0 -0.004951563182272278 0.0018329104040732086 0 -0.0041660219528606521 0.0018662211604994125 0 -0.0037291255125376822 0.0011956083242453358 0 -0.004951563182272278 0.0018329104040732086 0 -0.0038114520173798917 0.0013015982984313876 0 -0.0048027596007838161 0.0017985483647442616 0 -0.0039474267090672801 0.001082056766727782 0 -0.0047510978960574697 0.0018055053498615072 0 -0.0052894013688485455 0.0015597125976152628 0 -0.0041660219528606521 0.0018662211604994125 0 -0.0045061554505826185 0.0024969249543512757 0 -0.004951563182272278 0.0018329104040732086 0 -0.0048027596007838161 0.0017985483647442616 0 -0.0057408705491529188 0.002270551410978467 0 -0.0047510978960574697 0.0018055053498615072 0 -0.0052894013688485455 0.0015597125976152628 0 -0.0058497055907236681 0.002342937471720262 0 -0.0057112431283699791 0.0010293350858761035 0 -0.004886038732299358 0.0014691180744114468 0 -0.0061969216971250593 0.0019555092163537021 0 -0.0052894013688485455 0.0015597125976152628 0 -0.006563505274383678 0.0020208713995257428 0 -0.0058497055907236681 0.002342937471720262 0 -0.0051147325368841355 0.0015211340028926891 0 -0.0063580534607814319 0.0019681918659156957 0 -0.0064942327274373282 0.00091448694002560775 0 -0.0073147115294942529 0.0013527111528748893 0 -0.0061969216971250593 0.0019555092163537021 0 -0.006563505274383678 0.0020208713995257428 0 -0.0068947453434058366 0.0028426870181781682 0 -0.0058497055907236681 0.002342937471720262 0 -0.0077463208313183667 0.0024541447057116776 0 -0.006563505274383678 0.0020208713995257428 0 -0.0068947453434058366 0.0028426870181781682 0 -0.0068947453434058366 0.0028426870181781682 0 -0.0059490437606744464 0.0023753483773952941 0 -0.0062503083886376173 0.0032071122418680701 0 -0.0062367181467892123 0.0025187199175221654 0 -0.0057408705491529188 0.002270551410978467 0 -0.0059490437606744464 0.0023753483773952941 0 -0.0062503083886376173 0.0032071122418680701 0 -0.0055930093428950235 0.0030628507121150473 0 -0.0062503083886376173 0.0032071122418680701 0 -0.0057840559073913788 0.0035365854019156298 0 -0.0055930093428950235 0.0030628507121150473 0 -0.0073004319848718668 0.003197973643762563 0 -0.0068947453434058366 0.0028426870181781682 0 -0.0067770601794608955 0.003355398581754539 0 -0.0068947453434058366 0.0028426870181781682 0 -0.0062503083886376173 0.0032071122418680701 0 -0.0067770601794608955 0.003355398581754539 0 -0.0062503083886376173 0.0032071122418680701 0 -0.0067770601794608955 0.003355398581754539 0 -0.0065435250870491497 0.0037315139346724324 0 -0.0071976002341254753 0.0036763414493157622 0 -0.00684857779219153 0.0036861207909538751 0 -0.0068717221637988471 0.0039538118733631515 0 -0.0071976002341254753 0.0036763414493157622 0 -0.0067770601794608955 0.003355398581754539 0 -0.00684857779219153 0.0036861207909538751 0 -0.0067770601794608955 0.003355398581754539 0 -0.00684857779219153 0.0036861207909538751 0 -0.0065435250870491497 0.0037315139346724324 0 -0.00684857779219153 0.0036861207909538751 0 -0.0065435250870491497 0.0037315139346724324 0 -0.0068717221637988471 0.0039538118733631515 0 -0.0065435250870491497 0.0037315139346724324 0 -0.006498976784022335 0.004094810413742744 0 -0.0068717221637988471 0.0039538118733631515 0 -0.006498976784022335 0.004094810413742744 0 -0.0068717221637988471 0.0039538118733631515 0 -0.0067341991458220365 0.0044535797876737344 0 -0.0073787750820515545 0.0040139646294904243 0 -0.0068717221637988471 0.0039538118733631515 0 -0.0067341991458220365 0.0044535797876737344 0 -0.0062503083886376173 0.0032071122418680701 0 -0.0065435250870491497 0.0037315139346724324 0 -0.0060833044469161494 0.0039022647112013161 0 -0.0062503083886376173 0.0032071122418680701 0 -0.0057840559073913788 0.0035365854019156298 0 -0.0060833044469161494 0.0039022647112013161 0 -0.0057840559073913788 0.0035365854019156298 0 -0.0060833044469161494 0.0039022647112013161 0 -0.0056946542663566368 0.0040260036764350237 0 -0.0065435250870491497 0.0037315139346724324 0 -0.006498976784022335 0.004094810413742744 0 -0.0060833044469161494 0.0039022647112013161 0 -0.006498976784022335 0.004094810413742744 0 -0.0060833044469161494 0.0039022647112013161 0 -0.0061645620155060706 0.0043347014803454412 0 -0.0060833044469161494 0.0039022647112013161 0 -0.0056946542663566368 0.0040260036764350237 0 -0.0061645620155060706 0.0043347014803454412 0 -0.0056946542663566368 0.0040260036764350237 0 -0.0052003404925770281 0.004126094539280617 0 -0.0053011405704013123 0.0035964616567067597 0 -0.0057840559073913788 0.0035365854019156298 0 -0.0056946542663566368 0.0040260036764350237 0 -0.0053011405704013123 0.0035964616567067597 0 -0.0057840559073913788 0.0035365854019156298 0 -0.0053011405704013123 0.0035964616567067597 0 -0.0055930093428950235 0.0030628507121150473 0 -0.0053011405704013123 0.0035964616567067597 0 -0.0050810645557458492 0.0030733110154591878 0 -0.0055930093428950235 0.0030628507121150473 0 -0.0052427128251465865 0.0025423836075784646 0 -0.0050810645557458492 0.0030733110154591878 0 -0.0055930093428950235 0.0030628507121150473 0 -0.0051610721492813877 0.0032941722480333523 0 -0.0053516635017644421 0.0039595369386158426 0 -0.0039647169492950289 0.0031375901252568734 0 -0.0045061554505826185 0.0024969249543512757 0 -0.0043578787652261679 0.0041222150052914464 0 -0.0045061554505826185 0.0024969249543512757 0 -0.0050810645557458492 0.0030733110154591878 0 -0.0045167473573735888 0.003645876070646494 0 -0.0053011405704013123 0.0035964616567067597 0 -0.0050810645557458492 0.0030733110154591878 0 -0.0045167473573735888 0.003645876070646494 0 -0.0052003404925770281 0.004126094539280617 0 -0.0053011405704013123 0.0035964616567067597 0 -0.0045167473573735888 0.003645876070646494 0 -0.0052003404925770281 0.004126094539280617 0 -0.0045167473573735888 0.003645876070646494 0 -0.0049617744739476853 0.0045489690472771665 0 -0.0045167473573735888 0.003645876070646494 0 -0.0049617744739476853 0.0045489690472771665 0 -0.0044656410100924193 0.0047792943184269835 0 -0.0053516635017644421 0.0039595369386158426 0 -0.0061663444168291075 0.0048123126548817018 0 -0.0049617744739476853 0.0045489690472771665 0 -0.0051003828666691311 0.0051165889534591303 0 -0.0044656410100924193 0.0047792943184269835 0 -0.0051003828666691311 0.0051165889534591303 0 -0.0044656410100924193 0.0047792943184269835 0 -0.0043931863241718329 0.0059017886997725037 0 -0.0051003828666691311 0.0051165889534591303 0 -0.0057479752072619279 0.0051811839513685454 0 -0.0053621597206493406 0.0057416924010486176 0 -0.0051003828666691311 0.0051165889534591303 0 -0.0057479752072619279 0.0051811839513685454 0 -0.0056362773985149479 0.0046524524423001406 0 -0.0052003404925770281 0.004126094539280617 0 -0.0049617744739476853 0.0045489690472771665 0 -0.0056362773985149479 0.0046524524423001406 0 -0.0049617744739476853 0.0045489690472771665 0 -0.0051003828666691311 0.0051165889534591303 0 -0.0056362773985149479 0.0046524524423001406 0 -0.0056946542663566368 0.0040260036764350237 0 -0.0052003404925770281 0.004126094539280617 0 -0.0056362773985149479 0.0046524524423001406 0 -0.0056946542663566368 0.0040260036764350237 0 -0.0056362773985149479 0.0046524524423001406 0 -0.0061645620155060706 0.0043347014803454412 0 -0.0056362773985149479 0.0046524524423001406 0 -0.0061645620155060706 0.0043347014803454412 0 -0.0062960640990036877 0.0048125254171354041 0 -0.0061645620155060706 0.0043347014803454412 0 -0.0062960640990036877 0.0048125254171354041 0 -0.0067341991458220365 0.0044535797876737344 0 -0.0073787750820515545 0.0040139646294904243 0 -0.0067341991458220365 0.0044535797876737344 0 -0.006811404391932294 0.0048838540501316714 0 -0.006498976784022335 0.004094810413742744 0 -0.0061645620155060706 0.0043347014803454412 0 -0.0067341991458220365 0.0044535797876737344 0 -0.0062960640990036877 0.0048125254171354041 0 -0.0067341991458220365 0.0044535797876737344 0 -0.0068040274037293276 0.0048724516651713857 0 -0.01066649107035607 0.0036826324087006284 0 -0.010830534750740172 0.0036110834824924281 0 -0.011189228080072926 0.0031131305468744732 0 -0.0113385014931035 0.0028758546023667491 0 -0.01115465968460288 0.0029079325264919041 0 -0.010830534750740172 0.0036110834824924281 0 -0.011319525870858022 0.0031563145117299183 0 -0.0062960640990036877 0.0048125254171354041 0 -0.0068040274037293276 0.0048724516651713857 0 -0.0063507105827309025 0.0055797504157060508 0 -0.011240440054523898 0.0033567765035396008 0 -0.011250109048699523 0.0034146889826505919 0 -0.011279155509401596 0.0033785734365963608 0 -0.010830534750740172 0.0036110834824924281 0 -0.011851695631714064 0.0029207909214432706 0 -0.0057479752072619279 0.0051811839513685454 0 -0.0062960640990036877 0.0048125254171354041 0 -0.0063507105827309025 0.0055797504157060508 0 -0.0057479752072619279 0.0051811839513685454 0 -0.0056362773985149479 0.0046524524423001406 0 -0.0062960640990036877 0.0048125254171354041 0 -0.0057479752072619279 0.0051811839513685454 0 -0.0063507105827309025 0.0055797504157060508 0 -0.0053621597206493406 0.0057416924010486176 0 -0.013813327666595841 0.0022147244620323767 0 -0.014221565985455716 0.0015918845844560213 0 -0.014426025269547919 0.002101532566528827 0 -0.011319525870858022 0.0031563145117299183 0 -0.0098393451559028976 0.0034576871691326008 0 -0.011319525870858022 0.0031563145117299183 0 -0.013413844090657634 0.0013952706353855227 0 -0.014249013560032097 0.0016367253627221927 0 -0.014069498123797118 0.0016685051754773185 0 -0.014205092699856824 0.0014389726669622154 0 -0.011851695631714064 0.0029207909214432706 0 -0.012750503267385659 0.0019248924541652055 0 -0.014069498123797118 0.0016685051754773185 0 -0.014205092699856824 0.0014389726669622154 0 -0.014027910710455048 0.0013803282791198365 0 -0.011319525870858022 0.0031563145117299183 0 -0.011851695631714064 0.0029207909214432706 0 -0.014205092699856824 0.0014389726669622154 0 -0.014027910710455048 0.0013803282791198365 0 -0.014222264217109475 0.0012011542738847645 0 -0.014249013560032097 0.0016367253627221927 0 -0.014205092699856824 0.0014389726669622154 0 -0.014454491327603153 0.0013110415644618854 0 -0.014205092699856824 0.0014389726669622154 0 -0.014454491327603153 0.0013110415644618854 0 -0.014222264217109475 0.0012011542738847645 0 -0.014221565985455716 0.0015918845844560213 0 -0.014702077320611117 0.0016308028071473986 0 -0.014426025269547919 0.002101532566528827 0 -0.014702077320611117 0.0016308028071473986 0 -0.015052059885222969 0.0013312330745150719 0 -0.015009935947529742 0.0019867904985932184 0 -0.0098393451559028976 0.0034576871691326008 0 -0.0083896269158185797 0.0035138265393529094 0 -0.0051003828666691311 0.0051165889534591303 0 -0.0053621597206493406 0.0057416924010486176 0 -0.0043931863241718329 0.0059017886997725037 0 -0.014702077320611117 0.0016308028071473986 0 -0.014426025269547919 0.002101532566528827 0 -0.015009935947529742 0.0019867904985932184 0 -0.011216075071822275 0.003483538329610898 0 -0.011290122655298969 0.003013614117650706 0 -0.011216075071822275 0.003483538329610898 0 -0.011260396327349199 0.0033055405673552752 0 -0.0094702938486488693 0.0049034574097686799 0 -0.008674869849046335 0.0043292218261240774 0 -0.0098309046792751549 0.0037976802993131054 0 -0.0094702938486488693 0.0049034574097686799 0 -0.008674869849046335 0.0043292218261240774 0 -0.0086001026885059954 0.0048899397237187189 0 -0.008674869849046335 0.0043292218261240774 0 -0.0086001026885059954 0.0048899397237187189 0 -0.0081313326371096444 0.0047592588965898273 0 -0.0094702938486488693 0.0049034574097686799 0 -0.0086001026885059954 0.0048899397237187189 0 -0.0091257514603354899 0.0060003830149339826 0 -0.0086001026885059954 0.0048899397237187189 0 -0.0082551236492957557 0.0052707596147662317 0 -0.0091257514603354899 0.0060003830149339826 0 -0.011674083940950644 0.0031356498172503068 0 -0.010819636001991421 0.0034515352743999576 0 -0.0081096533896726549 0.0052928649940673436 0 -0.0081313326371096444 0.0047592588965898273 0 -0.0076553500980296963 0.00448364053244043 0 -0.0082551236492957557 0.0052707596147662317 0 -0.0081096533896726549 0.0052928649940673436 0 -0.0082946797302020092 0.0050175388391574156 0 -0.011603217076315222 0.0031541912610335895 0 -0.011674083940950644 0.0031356498172503068 0 -0.0081096533896726549 0.0052928649940673436 0 -0.0082946797302020092 0.0050175388391574156 0 -0.0081313326371096444 0.0047592588965898273 0 -0.0086001026885059954 0.0048899397237187189 0 -0.0082551236492957557 0.0052707596147662317 0 -0.0082946797302020092 0.0050175388391574156 0 -0.0086001026885059954 0.0048899397237187189 0 -0.0082946797302020092 0.0050175388391574156 0 -0.0081313326371096444 0.0047592588965898273 0 -0.008674869849046335 0.0043292218261240774 0 -0.0081313326371096444 0.0047592588965898273 0 -0.0081249912238774927 0.004261171893198413 0 -0.0077292870042308106 0.0039444487933250521 0 -0.0081249912238774927 0.004261171893198413 0 -0.0076553500980296963 0.00448364053244043 0 -0.0081313326371096444 0.0047592588965898273 0 -0.0081249912238774927 0.004261171893198413 0 -0.0076553500980296963 0.00448364053244043 0 -0.011289822696357995 0.0032811827696142127 0 -0.01131221402563619 0.0033225328640040463 0 -0.011280555557648141 0.0033430632752236233 0 -0.011289822696357995 0.0032811827696142127 0 -0.011240440054523898 0.0033567765035396008 0 -0.011280555557648141 0.0033430632752236233 0 -0.010637690123165483 0.0036366555012846843 0 -0.010830534750740172 0.0036110834824924281 0 -0.010637690123165483 0.0036366555012846843 0 -0.010819636001991421 0.0034515352743999576 0 -0.011250109048699523 0.0034146889826505919 0 -0.011358120907316841 0.003395791445979574 0 -0.011279155509401596 0.0033785734365963608 0 -0.011240440054523898 0.0033567765035396008 0 -0.011280555557648141 0.0033430632752236233 0 -0.011279155509401596 0.0033785734365963608 0 -0.011358120907316841 0.003395791445979574 0 -0.011280555557648141 0.0033430632752236233 0 -0.011279155509401596 0.0033785734365963608 0 -0.011851695631714064 0.0029207909214432706 0 -0.011674083940950644 0.0031356498172503068 0 -0.011350491083720379 0.0033912837057533396 0 -0.01131221402563619 0.0033225328640040463 0 -0.011280555557648141 0.0033430632752236233 0 -0.011674083940950644 0.0031356498172503068 0 -0.011550664068539376 0.0031433206108919276 0 -0.014164334933067705 0.0019626421183788025 0 -0.014108037466370018 0.0015979349794429253 0 -0.013809716088336289 0.0017211103269821257 0 -0.014164334933067705 0.0019626421183788025 0 -0.013700917273786407 0.0020431750890430723 0 -0.013809716088336289 0.0017211103269821257 0 -0.014108037466370018 0.0015979349794429253 0 -0.013792878704812325 0.0014438925927607745 0 -0.013809716088336289 0.0017211103269821257 0 -0.013792878704812325 0.0014438925927607745 0 -0.013616389541911035 0.0015387181982595857 0 -0.013809716088336289 0.0017211103269821257 0 -0.013616389541911035 0.0015387181982595857 0 -0.013809716088336289 0.0017211103269821257 0 -0.0135426606785005 0.0017389272359540243 0 -0.011674083940950644 0.0031356498172503068 0 -0.012360596089970284 0.0024620936567753015 0 -0.013700917273786407 0.0020431750890430723 0 -0.013809716088336289 0.0017211103269821257 0 -0.0135426606785005 0.0017389272359540243 0 -0.011674083940950644 0.0031356498172503068 0 -0.011290122655298969 0.003013614117650706 0 -0.013755430601130048 0.0022628253136042519 0 -0.013580079439332969 0.0019227703835572464 0 -0.013303474862179419 0.0019363646450767393 0 -0.0082551236492957557 0.0052707596147662317 0 -0.0081105801273033806 0.0052922381261220801 0 -0.0091257514603354899 0.0060003830149339826 0 -0.013580079439332969 0.0019227703835572464 0 -0.013328745189805657 0.0018559009159683914 0 -0.013303474862179419 0.0019363646450767393 0 -0.013616389541911035 0.0015387181982595857 0 -0.0135426606785005 0.0017389272359540243 0 -0.013387674927719719 0.0014399425486515025 0 -0.013580079439332969 0.0019227703835572464 0 -0.013409783919553688 0.0015674619612710335 0 -0.013328745189805657 0.0018559009159683914 0 -0.012360596089970284 0.0024620936567753015 0 -0.012623415347926858 0.0019994978848406142 0 -0.011290122655298969 0.003013614117650706 0 -0.011973742677066513 0.0028139846228358591 0 -0.013178129727369103 0.0016730612522811909 0 -0.013302216848846837 0.0019407239783894553 0 -0.012826413743336639 0.0016050005476862133 0 -0.013328745189805657 0.0018559009159683914 0 -0.013178129727369103 0.0016730612522811909 0 -0.013302216848846837 0.0019407239783894553 0 -0.013409783919553688 0.0015674619612710335 0 -0.013328745189805657 0.0018559009159683914 0 -0.013178129727369103 0.0016730612522811909 0 -0.013089670395422895 0.0024560019264976986 0 -0.013266048199910712 0.0019405823720578391 0 -0.012856236277875768 0.0020498791468715667 0 -0.011317001623536554 0.0029687294747132338 0 -0.011290122655298969 0.003013614117650706 0 -0.013220310169676709 0.0011716867111574167 0 -0.013384669425859813 0.00079661081200509652 0 -0.013004659744853622 0.00099257876815357139 0 -0.013220310169676709 0.0011716867111574167 0 -0.013021085045927056 0.0011936680235282934 0 -0.013004659744853622 0.00099257876815357139 0 -0.013220310169676709 0.0011716867111574167 0 -0.013021085045927056 0.0011936680235282934 0 -0.013036197981221473 0.0013929648508275345 0 -0.013409783919553688 0.0015674619612710335 0 -0.013178129727369103 0.0016730612522811909 0 -0.013036197981221473 0.0013929648508275345 0 -0.012623415347926858 0.0019994978848406142 0 -0.012670552339022537 0.0018024032936035891 0 -0.013178129727369103 0.0016730612522811909 0 -0.013036197981221473 0.0013929648508275345 0 -0.012826413743336639 0.0016050005476862133 0 -0.013409783919553688 0.0015674619612710335 0 -0.013220310169676709 0.0011716867111574167 0 -0.013036197981221473 0.0013929648508275345 0 -0.013387674927719719 0.0014399425486515025 0 -0.013220310169676709 0.0011716867111574167 0 -0.013439911567214852 0.0012179451292957289 0 -0.013616389541911035 0.0015387181982595857 0 -0.013387674927719719 0.0014399425486515025 0 -0.013608584995250741 0.0013238016126382716 0 -0.013387674927719719 0.0014399425486515025 0 -0.013439911567214852 0.0012179451292957289 0 -0.013608584995250741 0.0013238016126382716 0 -0.013439911567214852 0.0012179451292957289 0 -0.013607299770706745 0.0010723495894775245 0 -0.013608584995250741 0.0013238016126382716 0 -0.013220310169676709 0.0011716867111574167 0 -0.013434217609538548 0.0010359404153685518 0 -0.013384669425859813 0.00079661081200509652 0 -0.013439911567214852 0.0012179451292957289 0 -0.013434217609538548 0.0010359404153685518 0 -0.013607299770706745 0.0010723495894775245 0 -0.013220310169676709 0.0011716867111574167 0 -0.013439911567214852 0.0012179451292957289 0 -0.013434217609538548 0.0010359404153685518 0 -0.013434217609538548 0.0010359404153685518 0 -0.013607299770706745 0.0010723495894775245 0 -0.013521686125914201 0.00084891548251216 0 -0.013816362245030585 0.0010070884565746149 0 -0.013607299770706745 0.0010723495894775245 0 -0.013699196391726594 0.00079512273601956105 0 -0.013607299770706745 0.0010723495894775245 0 -0.013699196391726594 0.00079512273601956105 0 -0.013521686125914201 0.00084891548251216 0 -0.013816362245030585 0.0010070884565746149 0 -0.013607299770706745 0.0010723495894775245 0 -0.013800465641025064 0.0012166908389525473 0 -0.013607299770706745 0.0010723495894775245 0 -0.013608584995250741 0.0013238016126382716 0 -0.013800465641025064 0.0012166908389525473 0 -0.013792878704812325 0.0014438925927607745 0 -0.013616389541911035 0.0015387181982595857 0 -0.013608584995250741 0.0013238016126382716 0 -0.013792878704812325 0.0014438925927607745 0 -0.013608584995250741 0.0013238016126382716 0 -0.013800465641025064 0.0012166908389525473 0 -0.013792878704812325 0.0014438925927607745 0 -0.013800465641025064 0.0012166908389525473 0 -0.014053265342701104 0.0012246181174521806 0 -0.012750503267385659 0.0019248924541652055 0 -0.013175300756957322 0.001432222264128641 0 -0.014108037466370018 0.0015979349794429253 0 -0.013792878704812325 0.0014438925927607745 0 -0.014053265342701104 0.0012246181174521806 0 -0.013816362245030585 0.0010070884565746149 0 -0.014053265342701104 0.0012246181174521806 0 -0.013968416964544679 0.00082610770028588958 0 -0.013175300756957322 0.001432222264128641 0 -0.01329223829065455 0.0012390092055634609 0 -0.013816362245030585 0.0010070884565746149 0 -0.013800465641025064 0.0012166908389525473 0 -0.014053265342701104 0.0012246181174521806 0 -0.013968416964544679 0.00082610770028588958 0 -0.013988955878691716 0.00053535096454731482 0 -0.013830232037448298 0.00066213634454573582 0 -0.013968416964544679 0.00082610770028588958 0 -0.013988955878691716 0.00053535096454731482 0 -0.014152012568816784 0.00068833935100199152 0 -0.014075039765858891 0.00045893487435655264 0 -0.01387917463063653 0.00046898274144832803 0 -0.014187342749770371 0.00041082587633169826 0 -0.013652921065446763 0.00049726743603476658 0 -0.014039335674449418 0.00021941919792044587 0 -0.013988955878691716 0.00053535096454731482 0 -0.013652921065446763 0.00049726743603476658 0 -0.013830232037448298 0.00066213634454573582 0 -0.013652921065446763 0.00049726743603476658 0 -0.013719297163756399 0.00024038919364218422 0 -0.014039335674449418 0.00021941919792044587 0 -0.013652921065446763 0.00049726743603476658 0 -0.013699196391726594 0.00079512273601956105 0 -0.013559920100613888 0.00069322464503336536 0 -0.013816362245030585 0.0010070884565746149 0 -0.013968416964544679 0.00082610770028588958 0 -0.013699196391726594 0.00079512273601956105 0 -0.013968416964544679 0.00082610770028588958 0 -0.013830232037448298 0.00066213634454573582 0 -0.013699196391726594 0.00079512273601956105 0 -0.013652921065446763 0.00049726743603476658 0 -0.013830232037448298 0.00066213634454573582 0 -0.013699196391726594 0.00079512273601956105 0 -0.013699196391726594 0.00079512273601956105 0 -0.013521686125914201 0.00084891548251216 0 -0.013559920100613888 0.00069322464503336536 0 -0.013521686125914201 0.00084891548251216 0 -0.013384669425859813 0.00079661081200509652 0 -0.013427740868914236 0.00069973728509687631 0 -0.013434217609538548 0.0010359404153685518 0 -0.013521686125914201 0.00084891548251216 0 -0.013384669425859813 0.00079661081200509652 0 -0.013427740868914236 0.00069973728509687631 0 -0.013340456638501648 0.00062958512368575424 0 -0.013540826836650444 0.00055799340722033916 0 -0.013427740868914236 0.00069973728509687631 0 -0.013340456638501648 0.00062958512368575424 0 -0.013298435507304555 0.00077461147325540841 0 -0.013384669425859813 0.00079661081200509652 0 -0.013427740868914236 0.00069973728509687631 0 -0.013298435507304555 0.00077461147325540841 0 -0.013427740868914236 0.00069973728509687631 0 -0.013559920100613888 0.00069322464503336536 0 -0.013540826836650444 0.00055799340722033916 0 -0.013521686125914201 0.00084891548251216 0 -0.013427740868914236 0.00069973728509687631 0 -0.013559920100613888 0.00069322464503336536 0 -0.013652921065446763 0.00049726743603476658 0 -0.013559920100613888 0.00069322464503336536 0 -0.013540826836650444 0.00055799340722033916 0 -0.013652921065446763 0.00049726743603476658 0 -0.013540826836650444 0.00055799340722033916 0 -0.013719297163756399 0.00024038919364218422 0 -0.013973332428544231 0.00027557123579921875 0 -0.013970826999212734 9.3366318106856571e-05 0 -0.014079976542742506 3.0411844844541809e-05 0 -0.013340456638501648 0.00062958512368575424 0 -0.013540826836650444 0.00055799340722033916 0 -0.013719297163756399 0.00024038919364218422 0 -0.013580954253273015 0.00048948030412209798 0 -0.013835669335948434 0.00021731556297247668 0 -0.013970826999212734 9.3366318106856571e-05 0 -0.013931916318651061 0.00021070283966789912 0 -0.013915209915795933 0.00011199545556101506 0 -0.013973332428544231 0.00027557123579921875 0 -0.013970826999212734 9.3366318106856571e-05 0 -0.013931916318651061 0.00021070283966789912 0 -0.013973332428544231 0.00027557123579921875 0 -0.013933520510903907 0.00025838677181543908 0 -0.013934068002608378 0.00028657515248492271 0 -0.013933520510903907 0.00025838677181543908 0 -0.013855951658588004 0.00025419923742733792 0 -0.013934068002608378 0.00028657515248492271 0 -0.013855951658588004 0.00025419923742733792 0 -0.013931916318651061 0.00021070283966789912 0 -0.013840192215245632 0.00013303514922118328 0 -0.013933520510903907 0.00025838677181543908 0 -0.013855951658588004 0.00025419923742733792 0 -0.013931916318651061 0.00021070283966789912 0 -0.013973332428544231 0.00027557123579921875 0 -0.013933520510903907 0.00025838677181543908 0 -0.013931916318651061 0.00021070283966789912 0 -0.013840192215245632 0.00013303514922118328 0 -0.013915209915795933 0.00011199545556101506 0 -0.013892875705873095 2.5872724807680335e-05 0 -0.013931916318651061 0.00021070283966789912 0 -0.013840192215245632 0.00013303514922118328 0 -0.013915209915795933 0.00011199545556101506 0 -0.013840192215245632 0.00013303514922118328 0 -0.013722005033325688 0.0002090298792470151 0 -0.013708218136628545 1.6191629621354548e-06 0 -0.013855951658588004 0.00025419923742733792 0 -0.013840192215245632 0.00013303514922118328 0 -0.013722005033325688 0.0002090298792470151 0 -0.013855951658588004 0.00025419923742733792 0 -0.013664272658058493 0.00035544827341693895 0 -0.013722005033325688 0.0002090298792470151 0 -0.013934068002608378 0.00028657515248492271 0 -0.013425169965103992 0.00064391897456819399 0 -0.013623076074819855 0.00069527932318266654 0 -0.013973332428544231 0.00027557123579921875 0 -0.013934068002608378 0.00028657515248492271 0 -0.013623076074819855 0.00069527932318266654 0 -0.013580954253273015 0.00048948030412209798 0 -0.013211102060501505 0.00086710467036870862 0 -0.013235453349371849 0.00085783939601691088 0 -0.013211102060501505 0.00086710467036870862 0 -0.013340456638501648 0.00062958512368575424 0 -0.013298435507304555 0.00077461147325540841 0 -0.013048495838362878 0.00097262544939632556 0 -0.013934068002608378 0.00028657515248492271 0 -0.01358984424400037 0.00065439371159685769 0 -0.013664272658058493 0.00035544827341693895 0 -0.013855951658588004 0.00025419923742733792 0 -0.013934068002608378 0.00028657515248492271 0 -0.013664272658058493 0.00035544827341693895 0 -0.013680715269589644 0.0005059577711613491 0 -0.013421792614653979 0.00069313060127457432 0 -0.013384669425859813 0.00079661081200509652 0 -0.013298435507304555 0.00077461147325540841 0 -0.013048495838362878 0.00097262544939632556 0 -0.014656057061533225 0.0010122518887878545 0 -0.014422156613745275 0.0010489212082041355 0 -0.014493214269757472 0.00068779652671529254 0 -0.014656057061533225 0.0010122518887878545 0 -0.014804310106169763 0.00066024030412903433 0 -0.015062499868066884 0.00079007096788082521 0 -0.014656057061533225 0.0010122518887878545 0 -0.015062499868066884 0.00079007096788082521 0 -0.015052059885222969 0.0013312330745150719 0 -0.014702077320611117 0.0016308028071473986 0 -0.014656057061533225 0.0010122518887878545 0 -0.015052059885222969 0.0013312330745150719 0 -0.013413844090657634 0.0013952706353855227 0 -0.013902977815512845 0.0010431089707666759 0 -0.014221565985455716 0.0015918845844560213 0 -0.014702077320611117 0.0016308028071473986 0 -0.014656057061533225 0.0010122518887878545 0 -0.014454491327603153 0.0013110415644618854 0 -0.014656057061533225 0.0010122518887878545 0 -0.014422156613745275 0.0010489212082041355 0 -0.014454491327603153 0.0013110415644618854 0 -0.014222264217109475 0.0012011542738847645 0 -0.014422156613745275 0.0010489212082041355 0 -0.014222264217109475 0.0012011542738847645 0 -0.014247739826179178 0.00091290828985107232 0 -0.014422156613745275 0.0010489212082041355 0 -0.013992753591364251 0.0010934044885598871 0 -0.014222264217109475 0.0012011542738847645 0 -0.014247739826179178 0.00091290828985107232 0 -0.014027910710455048 0.0013803282791198365 0 -0.013992753591364251 0.0010934044885598871 0 -0.014222264217109475 0.0012011542738847645 0 -0.013992753591364251 0.0010934044885598871 0 -0.013968416964544679 0.00082610770028588958 0 -0.014247739826179178 0.00091290828985107232 0 -0.014247739826179178 0.00091290828985107232 0 -0.014422156613745275 0.0010489212082041355 0 -0.014493214269757472 0.00068779652671529254 0 -0.014152012568816784 0.00068833935100199152 0 -0.014310653619755979 0.00049980954485006788 0 -0.014493214269757472 0.00068779652671529254 0 -0.014247739826179178 0.00091290828985107232 0 -0.014152012568816784 0.00068833935100199152 0 -0.014493214269757472 0.00068779652671529254 0 -0.013968416964544679 0.00082610770028588958 0 -0.014247739826179178 0.00091290828985107232 0 -0.014152012568816784 0.00068833935100199152 0 -0.014075039765858891 0.00045893487435655264 0 -0.014368080721299926 0.0004405088829589078 0 -0.014187342749770371 0.00041082587633169826 0 -0.014459178029527484 0.00035169739647781552 0 -0.014298136825240247 0.0001411836066039242 0 -0.013988955878691716 0.00053535096454731482 0 -0.014152012568816784 0.00068833935100199152 0 -0.014310653619755979 0.00049980954485006788 0 -0.014368080721299926 0.0004405088829589078 0 -0.014536993923269717 0.00043104407552146479 0 -0.014459178029527484 0.00035169739647781552 0 -0.014703358185031571 0.00040396311335905193 0 -0.014574412960692245 0.00022764004431865609 0 -0.014493214269757472 0.00068779652671529254 0 -0.01477224507609907 0.00051934031161569806 0 -0.014703358185031571 0.00040396311335905193 0 -0.014310653619755979 0.00049980954485006788 0 -0.014493214269757472 0.00068779652671529254 0 -0.014703358185031571 0.00040396311335905193 0 -0.014656057061533225 0.0010122518887878545 0 -0.014493214269757472 0.00068779652671529254 0 -0.014804310106169763 0.00066024030412903433 0 -0.014804310106169763 0.00066024030412903433 0 -0.014854025445039958 0.0003885957444657977 0 -0.015062499868066884 0.00079007096788082521 0 -0.014493214269757472 0.00068779652671529254 0 -0.014804310106169763 0.00066024030412903433 0 -0.01477224507609907 0.00051934031161569806 0 -0.014804310106169763 0.00066024030412903433 0 -0.01477224507609907 0.00051934031161569806 0 -0.014854025445039958 0.0003885957444657977 0 -0.01477224507609907 0.00051934031161569806 0 -0.014703358185031571 0.00040396311335905193 0 -0.014854025445039958 0.0003885957444657977 0 -0.011217813967108022 0.0011835942178652738 0 -0.011117910576840532 0.0013313621541655495 0 -0.011143287481964347 0.0010364211568708451 0 -0.014719899353098188 0.00020819819560896689 0 -0.014783054879928254 0.00024648825108088856 0 -0.014793698268396979 0.00014835138059433344 0 -0.012267793478125344 0.0010561362003388512 0 -0.012704962472813242 0.00092254045637654367 0 -0.011117910576840532 0.0013313621541655495 0 -0.0112395214979594 0.0012833101921695901 0 -0.011282461965680765 0.0013704779721478962 0 -0.011217813967108022 0.0011835942178652738 0 -0.011117910576840532 0.0013313621541655495 0 -0.0112395214979594 0.0012833101921695901 0 -0.011291452064042608 0.0010900873945917538 0 -0.011359109161341009 0.0012643320812166935 0 -0.011459295484506072 0.0010178211354289635 0 -0.010468105408265854 0.0016251901664350065 0 -0.011516111968722122 0.00089266983163496197 0 -0.011291452064042608 0.0010900873945917538 0 -0.011459295484506072 0.0010178211354289635 0 -0.011385170348632364 0.00092518110332124486 0 -0.011685316213242364 0.0011773948890280367 0 -0.012274867549131102 0.00069104233550876628 0 -0.011217813967108022 0.0011835942178652738 0 -0.011344449653479808 0.0012631664644407038 0 -0.011246814675010233 0.0010134367205461791 0 -0.011685316213242364 0.0011773948890280367 0 -0.012545475760195665 0.00080135212125325458 0 -0.011217813967108022 0.0011835942178652738 0 -0.0112395214979594 0.0012833101921695901 0 -0.011344449653479808 0.0012631664644407038 0 -0.011282461965680765 0.0013704779721478962 0 -0.011341940714681194 0.0012646731172365189 0 -0.011430997265439828 0.0014915032160936746 0 -0.0112395214979594 0.0012833101921695901 0 -0.011282461965680765 0.0013704779721478962 0 -0.011344449653479808 0.0012631664644407038 0 -0.011667874672914157 0.0011974735638714676 0 -0.011685316213242364 0.0011773948890280367 0 -0.011685316213242364 0.0011773948890280367 0 -0.010468105408265854 0.0016251901664350065 0 -0.011282461965680765 0.0013704779721478962 0 -0.011430997265439828 0.0014915032160936746 0 -0.011233037952914027 0.001555258068492322 0 -0.012267793478125344 0.0010561362003388512 0 -0.011632511747578846 0.0015530515262517685 0 -0.011117910576840532 0.0013313621541655495 0 -0.011092183822496845 0.0016246696741061047 0 -0.011233037952914027 0.001555258068492322 0 -0.014719899353098188 0.00020819819560896689 0 -0.014783054879928254 0.00024648825108088856 0 -0.014765670283103898 0.00034854931259361394 0 -0.013105186019095738 0.0010262948869708584 0 -0.011632511747578846 0.0015530515262517685 0 -0.011117910576840532 0.0013313621541655495 0 -0.011282461965680765 0.0013704779721478962 0 -0.011233037952914027 0.001555258068492322 0 -0.010081147846407831 0.0016798826293255168 0 -0.010366153285078099 0.0023085036985678467 0 -0.010009663518810292 0.0025182560562484182 0 -0.011632511747578846 0.0015530515262517685 0 -0.0095048007618514611 0.0025159663218234027 0 -0.011632511747578846 0.0015530515262517685 0 -0.010635130955217679 0.0020730296379918808 0 -0.011092183822496845 0.0016246696741061047 0 -0.011233037952914027 0.001555258068492322 0 -0.011241380070204499 0.0019584756230421347 0 -0.011430997265439828 0.0014915032160936746 0 -0.011233037952914027 0.001555258068492322 0 -0.011241380070204499 0.0019584756230421347 0 -0.008094845055271839 0.0025423704222639612 0 -0.0080973877062581103 0.002522840644802557 0 -0.0080772894312904145 0.0025243118242510346 0 -0.010468105408265854 0.0016251901664350065 0 -0.0095048007618514611 0.0025159663218234027 0 -0.0083156378768075735 0.0032771125554516439 0 -0.008200465666613279 0.0035644099766213477 0 -0.0084297538998095896 0.0035319150855978869 0 -0.0080973877062581103 0.002522840644802557 0 -0.0080772894312904145 0.0025243118242510346 0 -0.0080882992215807366 0.0025110720391620812 0 -0.0095048007618514611 0.0025159663218234027 0 -0.0078555870397162171 0.0032094733138641673 0 -0.010366153285078099 0.0023085036985678467 0 -0.010009663518810292 0.0025182560562484182 0 -0.010161014368973121 0.0028198674293333265 0 -0.0095048007618514611 0.0025159663218234027 0 -0.0089819422640852759 0.0030430417579087763 0 -0.0088266151256613315 0.0014186776753732813 0 -0.0090691175121645866 0.0015444129787655918 0 -0.0088763123094314136 0.0018632490111398288 0 -0.0088266151256613315 0.0014186776753732813 0 -0.0088763123094314136 0.0018632490111398288 0 -0.0086311295772499713 0.0015728942025582725 0 -0.0088266151256613315 0.0014186776753732813 0 -0.0090691175121645866 0.0015444129787655918 0 -0.0089198369501258187 0.0011907537009855215 0 -0.0084777857479177918 0.0021456919632065934 0 -0.0065180933881163611 0.0029994095627952923 0 -0.0080772894312904145 0.0025243118242510346 0 -0.0080882992215807366 0.0025110720391620812 0 -0.0080687248524114793 0.002504565849984014 0 -0.0092183262993839107 0.0018972270701810537 0 -0.0090691175121645866 0.0015444129787655918 0 -0.0088763123094314136 0.0018632490111398288 0 -0.010468105408265854 0.0016251901664350065 0 -0.0084777857479177918 0.0021456919632065934 0 -0.010184570141680798 0.0011238634807642866 0 -0.0090789195563117653 0.0013428362208255701 0 -0.0092183262993839107 0.0018972270701810537 0 -0.0088763123094314136 0.0018632490111398288 0 -0.0091203462878858745 0.0021514942316321066 0 -0.010184570141680798 0.0011238634807642866 0 -0.011516111968722122 0.00089266983163496197 0 -0.011053565328848767 0.00066593438776821898 0 -0.011342744139871125 0.0010157417269295232 0 -0.011043582456614248 0.0010380913619302246 0 -0.011053565328848767 0.00066593438776821898 0 -0.011043582456614248 0.0010380913619302246 0 -0.010738451423760119 0.00099913472484338566 0 -0.01248285493565675 0.00017419283207988138 0 -0.011712503328271237 0.00028198989647730592 0 -0.014129618229215079 -0.000407704275355937 0 -0.014056194535263694 -0.00038800399453099965 0 -0.014080315163718084 -0.00055106596738853993 0 -0.013799877878183514 -0.00033061308017734751 0 -0.013862164256199568 -0.00044757061147639702 0 -0.014056194535263694 -0.00038800399453099965 0 -0.014080315163718084 -0.00055106596738853993 0 -0.013941900266271933 -0.00052892820874389447 0 -0.014080315163718084 -0.00055106596738853993 0 -0.013941900266271933 -0.00052892820874389447 0 -0.013994933602629534 -0.00060416726709651241 0 -0.011053565328848767 0.00066593438776821898 0 -0.010738451423760119 0.00099913472484338566 0 -0.010592515419023715 0.00066438293288971289 0 -0.013969770021536725 -0.00060577148978126921 0 -0.013980323031452606 -0.00057751224135520012 0 -0.013938942369871372 -0.00059539036105127916 0 -0.013969770021536725 -0.00060577148978126921 0 -0.014003734387148192 -0.00057096367241554649 0 -0.013980323031452606 -0.00057751224135520012 0 -0.014046269897058015 -0.00057865123002213774 0 -0.014015734435064238 -0.00058192455573891641 0 -0.014003767020869315 -0.00062129618254278863 0 -0.013969770021536725 -0.00060577148978126921 0 -0.014015734435064238 -0.00058192455573891641 0 -0.014003734387148192 -0.00057096367241554649 0 -0.013969770021536725 -0.00060577148978126921 0 -0.014015734435064238 -0.00058192455573891641 0 -0.014003767020869315 -0.00062129618254278863 0 -0.013941900266271933 -0.00052892820874389447 0 -0.01390557248724881 -0.00063042365748306427 0 -0.013994933602629534 -0.00060416726709651241 0 -0.013862164256199568 -0.00044757061147639702 0 -0.013867059768830165 -0.00049579480062322931 0 -0.014003767020869315 -0.00062129618254278863 0 -0.013946186565856779 -0.0006302826780029638 0 -0.01391639820391511 -0.00064256929794629346 0 -0.013969770021536725 -0.00060577148978126921 0 -0.013946186565856779 -0.0006302826780029638 0 -0.013932925780288432 -0.00062410257177172238 0 -0.013969770021536725 -0.00060577148978126921 0 -0.014003767020869315 -0.00062129618254278863 0 -0.013946186565856779 -0.0006302826780029638 0 -0.01391639820391511 -0.00064256929794629346 0 -0.01390557248724881 -0.00063042365748306427 0 -0.013926839282374339 -0.00065311646922073781 0 -0.01390557248724881 -0.00063042365748306427 0 -0.013628762549186151 -0.00084320246842382927 0 -0.013243157700746288 -0.00068417334727132871 0 -0.013462765596355951 -0.00030184634567414278 0 -0.012897029529795521 -0.00026895219058992588 0 -0.013946186565856779 -0.0006302826780029638 0 -0.01391639820391511 -0.00064256929794629346 0 -0.01393046318665061 -0.00064097489254376545 0 -0.013941900266271933 -0.00052892820874389447 0 -0.01391639820391511 -0.00064256929794629346 0 -0.01390557248724881 -0.00063042365748306427 0 -0.01390557248724881 -0.00063042365748306427 0 -0.013897437164012063 -0.00083273476609453212 0 -0.013628762549186151 -0.00084320246842382927 0 -0.01390557248724881 -0.00063042365748306427 0 -0.013994933602629534 -0.00060416726709651241 0 -0.014064788239886382 -0.00073972659408783417 0 -0.01390557248724881 -0.00063042365748306427 0 -0.013897437164012063 -0.00083273476609453212 0 -0.014064788239886382 -0.00073972659408783417 0 -0.013897437164012063 -0.00083273476609453212 0 -0.014064788239886382 -0.00073972659408783417 0 -0.013961819784146678 -0.0011440169324594496 0 -0.013897437164012063 -0.00083273476609453212 0 -0.013628762549186151 -0.00084320246842382927 0 -0.013961819784146678 -0.0011440169324594496 0 -0.013628762549186151 -0.00084320246842382927 0 -0.013243157700746288 -0.00068417334727132871 0 -0.013349810592673641 -0.0010949386672918209 0 -0.013628762549186151 -0.00084320246842382927 0 -0.013961819784146678 -0.0011440169324594496 0 -0.013349810592673641 -0.0010949386672918209 0 -0.011053565328848767 0.00066593438776821898 0 -0.010592515419023715 0.00066438293288971289 0 -0.010760474602400172 0.0003126659416940121 0 -0.011712503328271237 0.00028198989647730592 0 -0.010659818208274401 0.00047062272883244722 0 -0.014080315163718084 -0.00055106596738853993 0 -0.013994933602629534 -0.00060416726709651241 0 -0.014064788239886382 -0.00073972659408783417 0 -0.010592515419023715 0.00066438293288971289 0 -0.010760474602400172 0.0003126659416940121 0 -0.01044247065635991 0.00032575478095137972 0 -0.01044247065635991 0.00032575478095137972 0 -0.01046091003907283 -4.8775052208815904e-05 0 -0.010292388370798095 -1.9952088942201462e-05 0 -0.010760474602400172 0.0003126659416940121 0 -0.01044247065635991 0.00032575478095137972 0 -0.01046091003907283 -4.8775052208815904e-05 0 -0.0090789195563117653 0.0013428362208255701 0 -0.007361007703845737 0.001627033775690492 0 -0.010659818208274401 0.00047062272883244722 0 -0.0089557386352469986 0.0010692067221373751 0 -0.0086311295772499713 0.0015728942025582725 0 -0.0086548195732950375 0.0012342340443693303 0 -0.0083867791323152096 0.0012793205449673989 0 -0.0088266151256613315 0.0014186776753732813 0 -0.0086311295772499713 0.0015728942025582725 0 -0.0086548195732950375 0.0012342340443693303 0 -0.0066205852245790073 0.0023786320039844286 0 -0.007361007703845737 0.001627033775690492 0 -0.0038200262183319517 0.0037778386589117641 0 -0.003394008985965273 0.0038419203895330291 0 -0.0033788883858446648 0.0034602468980700091 0 -0.007361007703845737 0.001627033775690492 0 -0.0089557386352469986 0.0010692067221373751 0 -0.003394008985965273 0.0038419203895330291 0 -0.0033788883858446648 0.0034602468980700091 0 -0.003065066300970407 0.0034264804434941199 0 -0.0038200262183319517 0.0037778386589117641 0 -0.0033788883858446648 0.0034602468980700091 0 -0.0037349252542650717 0.0033721433568439192 0 -0.0038200262183319517 0.0037778386589117641 0 -0.0037349252542650717 0.0033721433568439192 0 -0.0040081690472946064 0.0035190012316199215 0 -0.0037349252542650717 0.0033721433568439192 0 -0.0040394503495771814 0.0031735257795538442 0 -0.0040081690472946064 0.0035190012316199215 0 -0.0047629329305781008 0.0012231352106155317 0 -0.0042496549317641002 0.0013441566464325021 0 -0.0042539713261583352 0.0018386864137066598 0 -0.0089557386352469986 0.0010692067221373751 0 -0.0088474339741308264 0.00043835427712619716 0 -0.0053396468431731762 0.0016697106777822822 0 -0.0047629329305781008 0.0012231352106155317 0 -0.0042539713261583352 0.0018386864137066598 0 -0.0057313204459427452 0.0016151542901309899 0 -0.0051748547933483978 0.0012789979227060462 0 -0.0051067796655755475 0.00086540481307809428 0 -0.007361007703845737 0.001627033775690492 0 -0.004438765615457434 0.0018497739647522105 0 -0.0051748547933483978 0.0012789979227060462 0 -0.0053396468431731762 0.0016697106777822822 0 -0.0047629329305781008 0.0012231352106155317 0 -0.0087117347642170113 0.00095107107348172629 0 -0.0089557386352469986 0.0010692067221373751 0 -0.0057313204459427452 0.0016151542901309899 0 -0.0051748547933483978 0.0012789979227060462 0 -0.0053448568300791637 0.0016833981889841198 0 -0.0033788883858446648 0.0034602468980700091 0 -0.003065066300970407 0.0034264804434941199 0 -0.0032574305057521229 0.0032075502080360801 0 -0.0051748547933483978 0.0012789979227060462 0 -0.0051067796655755475 0.00086540481307809428 0 -0.0047629329305781008 0.0012231352106155317 0 -0.0051067796655755475 0.00086540481307809428 0 -0.0047629329305781008 0.0012231352106155317 0 -0.0047113543934145753 0.00074672429212428932 0 -0.0047629329305781008 0.0012231352106155317 0 -0.0047113543934145753 0.00074672429212428932 0 -0.0043839086683864657 0.00089773131977879483 0 -0.0047113543934145753 0.00074672429212428932 0 -0.0043839086683864657 0.00089773131977879483 0 -0.0044442099085198637 0.0005951204159133672 0 -0.0047629329305781008 0.0012231352106155317 0 -0.0043839086683864657 0.00089773131977879483 0 -0.0042496549317641002 0.0013441566464325021 0 -0.004438765615457434 0.0018497739647522105 0 -0.0016833314408296949 0.0018584173847424024 0 -0.0047113543934145753 0.00074672429212428932 0 -0.004503023474665583 0.00014261757681275196 0 -0.0044442099085198637 0.0005951204159133672 0 -0.004503023474665583 0.00014261757681275196 0 -0.0044442099085198637 0.0005951204159133672 0 -0.0041055315587762162 0.00074196953391458733 0 -0.0051067796655755475 0.00086540481307809428 0 -0.0047113543934145753 0.00074672429212428932 0 -0.004503023474665583 0.00014261757681275196 0 -0.003065066300970407 0.0034264804434941199 0 -0.002765443840463793 0.0030549140390540058 0 -0.0030911121985490379 0.0030774594404866518 0 -0.003065066300970407 0.0034264804434941199 0 -0.0030911121985490379 0.0030774594404866518 0 -0.0032574305057521229 0.0032075502080360801 0 -0.0030911121985490379 0.0030774594404866518 0 -0.0032574305057521229 0.0032075502080360801 0 -0.0032827145582626526 0.0029606404138652819 0 -0.0030911121985490379 0.0030774594404866518 0 -0.0031936106838328844 0.0027723730929074103 0 -0.0032827145582626526 0.0029606404138652819 0 -0.002765443840463793 0.0030549140390540058 0 -0.0030911121985490379 0.0030774594404866518 0 -0.0031936106838328844 0.0027723730929074103 0 0.0029067476782879864 0.0032337198318868011 0 0.0026123801749546225 0.0030360309466153155 0 0.0027833395694193781 0.0031094746952590011 0 -0.0016833314408296949 0.0018584173847424024 0 -0.00049937804008458103 0.0033988956036848602 0 0.0029127645736902793 0.0029262081228159631 0 0.0026123801749546225 0.0030360309466153155 0 0.0027833395694193781 0.0031094746952590011 0 -0.00049937804008458103 0.0033988956036848602 0 -0.00066756552115577854 0.0034559667617486052 0 0.0029127645736902793 0.0029262081228159631 0 0.0027833395694193781 0.0031094746952590011 0 0.0029826374584023198 0.0031835513542206712 0 8.2343352481441371e-06 0.0022036177026420163 0 -0.0010993680530432034 0.0018123178257601475 0 0.0029067476782879864 0.0032337198318868011 0 0.0027833395694193781 0.0031094746952590011 0 0.0029526628755406252 0.0031727887277703129 0 -0.0016833314408296949 0.0018584173847424024 0 -0.0010993680530432034 0.0018123178257601475 0 -0.0037349252542650717 0.0033721433568439192 0 -0.0035442783942238052 0.0030621818919510948 0 -0.0040394503495771814 0.0031735257795538442 0 -0.0035442783942238052 0.0030621818919510948 0 -0.0037047883811953722 0.0026687237459687872 0 -0.0040394503495771814 0.0031735257795538442 0 -0.0033788883858446648 0.0034602468980700091 0 -0.0032574305057521229 0.0032075502080360801 0 -0.0034916637505600454 0.0031138179542262688 0 -0.0033788883858446648 0.0034602468980700091 0 -0.0037349252542650717 0.0033721433568439192 0 -0.0035442783942238052 0.0030621818919510948 0 -0.0027745113008997902 0.003194192025453652 0 -0.0026396708041130606 0.0032327768163423832 0 -0.0032574305057521229 0.0032075502080360801 0 -0.0034916637505600454 0.0031138179542262688 0 -0.0032827145582626526 0.0029606404138652819 0 -0.0034916637505600454 0.0031138179542262688 0 -0.0034131311623032952 0.0028533279303422565 0 -0.0036086332784805767 0.0027984480789615927 0 -0.0034916637505600454 0.0031138179542262688 0 -0.0032827145582626526 0.0029606404138652819 0 -0.0034131311623032952 0.0028533279303422565 0 -0.0032036885990816225 0.0027938816187358601 0 -0.0032827145582626526 0.0029606404138652819 0 -0.0034131311623032952 0.0028533279303422565 0 -0.00037130339021867006 0.004964547288181873 0 -0.00099523534014358812 0.0051837889448458595 0 -0.0011440472442570799 0.00609671170168276 0 -0.0026396708041130606 0.0032327768163423832 0 -0.0019870316482645833 0.0038595999133713152 0 -0.0019870316482645833 0.0038595999133713152 0 -0.0035667324629397061 0.0039435220145832197 0 -0.00095245682751012571 0.0046875264646912499 0 -0.00037130339021867006 0.004964547288181873 0 -0.00099523534014358812 0.0051837889448458595 0 -0.00099523534014358812 0.0051837889448458595 0 -0.0015149701613531436 0.0049739006332038278 0 -0.0011440472442570799 0.00609671170168276 0 -0.00095245682751012571 0.0046875264646912499 0 -0.00099523534014358812 0.0051837889448458595 0 -0.0015149701613531436 0.0049739006332038278 0 -0.0015149701613531436 0.0049739006332038278 0 -0.0011440472442570799 0.00609671170168276 0 -0.0020143680009067867 0.0060365322987570094 0 -0.0026174084610150168 0.0045468960078575366 0 -0.0015149701613531436 0.0049739006332038278 0 -0.0023307237755816799 0.0053310046237408119 0 -0.0020961224833653232 0.0061880683921088199 0 -0.0023307237755816799 0.0053310046237408119 0 -0.0030894717138312774 0.0056178637157934808 0 -0.0037048327759718843 0.0047234095691907245 0 -0.0043777434737255153 0.0048504892507160099 0 -0.0015149701613531436 0.0049739006332038278 0 -0.0020961224833653232 0.0061880683921088199 0 -0.0023307237755816799 0.0053310046237408119 0 -0.0038093637247925221 0.0047786644966485749 0 -0.0026174084610150168 0.0045468960078575366 0 -0.0030894717138312774 0.0056178637157934808 0 -0.0026174084610150168 0.0045468960078575366 0 -0.0023307237755816799 0.0053310046237408119 0 -0.0030894717138312774 0.0056178637157934808 0 -0.0038093637247925221 0.0047786644966485749 0 -0.0030894717138312774 0.0056178637157934808 0 -0.0042044947873738315 0.0056673069108283819 0 -0.0042044947873738315 0.0056673069108283819 0 -0.0035803364121103007 0.006240008089066146 0 -0.0040863569916521209 0.007137834425146595 0 -0.0061663444168291075 0.0048123126548817018 0 -0.0083896269158185797 0.0035138265393529094 0 -0.0030894717138312774 0.0056178637157934808 0 -0.0042044947873738315 0.0056673069108283819 0 -0.0035803364121103007 0.006240008089066146 0 -0.0020961224833653232 0.0061880683921088199 0 -0.0030894717138312774 0.0056178637157934808 0 -0.0029380320611210602 0.0065311900457204536 0 -0.0030894717138312774 0.0056178637157934808 0 -0.0035803364121103007 0.006240008089066146 0 -0.0029380320611210602 0.0065311900457204536 0 -0.0029380320611210602 0.0065311900457204536 0 -0.0026660281585200816 0.0073830011901311549 0 -0.0040863569916521209 0.007137834425146595 0 -0.0061242536431800653 0.0039425422611768617 0 -0.0083896269158185797 0.0035138265393529094 0 -0.0020961224833653232 0.0061880683921088199 0 -0.0029380320611210602 0.0065311900457204536 0 -0.0026660281585200816 0.0073830011901311549 0 -0.0035803364121103007 0.006240008089066146 0 -0.0029380320611210602 0.0065311900457204536 0 -0.0040863569916521209 0.007137834425146595 0 -0.0083896269158185797 0.0035138265393529094 0 -0.0089819422640852759 0.0030430417579087763 0 -0.0085437270970732428 0.0037859041559499258 0 -0.008078308341000439 0.0038666668113647904 0 -0.008200465666613279 0.0035644099766213477 0 -0.010635130955217679 0.0020730296379918808 0 -0.0083896269158185797 0.0035138265393529094 0 -0.010009663518810292 0.0025182560562484182 0 -0.0099365700133333523 0.003362800666983795 0 -0.010161014368973121 0.0028198674293333265 0 -0.0085437270970732428 0.0037859041559499258 0 -0.008200465666613279 0.0035644099766213477 0 -0.0084297538998095896 0.0035319150855978869 0 -0.008077904153307832 0.0024978537423530562 0 -0.0080882992215807366 0.0025110720391620812 0 -0.0080687248524114793 0.002504565849984014 0 -0.0061242536431800653 0.0039425422611768617 0 -0.0078555870397162171 0.0032094733138641673 0 -0.0080772894312904145 0.0025243118242510346 0 -0.0080687248524114793 0.002504565849984014 0 -0.0080563525294058483 0.0025002026726020552 0 -0.0061242536431800653 0.0039425422611768617 0 -0.0057474313013208735 0.0034031850242433955 0 -0.008077904153307832 0.0024978537423530562 0 -0.0080687248524114793 0.002504565849984014 0 -0.0080636834775916679 0.0024998688210544689 0 -0.0080687248524114793 0.002504565849984014 0 -0.0080632649839048002 0.0024983359886825464 0 -0.0080563525294058483 0.0025002026726020552 0 -0.0057474313013208735 0.0034031850242433955 0 -0.0065180933881163611 0.0029994095627952923 0 -0.005799219883557665 0.003408233511812958 0 -0.0057474313013208735 0.0034031850242433955 0 -0.0066205852245790073 0.0023786320039844286 0 -0.0065180933881163611 0.0029994095627952923 0 -0.0088266151256613315 0.0014186776753732813 0 -0.0086548195732950375 0.0012342340443693303 0 -0.0089198369501258187 0.0011907537009855215 0 -0.0038200262183319517 0.0037778386589117641 0 -0.0042535249062739091 0.0037077594168829363 0 -0.0040081690472946064 0.0035190012316199215 0 -0.0043810424986712978 0.0036862264967453466 0 -0.0042544487186074089 0.0037088870994701644 0 -0.0041945452313769619 0.0035641102775802362 0 -0.0040394503495771814 0.0031735257795538442 0 -0.0041945452313769619 0.0035641102775802362 0 -0.0040081690472946064 0.0035190012316199215 0 -0.0042535249062739091 0.0037077594168829363 0 -0.0041945452313769619 0.0035641102775802362 0 -0.0040081690472946064 0.0035190012316199215 0 -0.0040394503495771814 0.0031735257795538442 0 -0.0043810424986712978 0.0036862264967453466 0 -0.0041945452313769619 0.0035641102775802362 0 -0.0065180933881163611 0.0029994095627952923 0 -0.0064660195749529099 0.0029964796768018787 0 -0.0035667324629397061 0.0039435220145832197 0 -0.0057474313013208735 0.0034031850242433955 0 -0.0043777434737255153 0.0048504892507160099 0 -0.0061242536431800653 0.0039425422611768617 0 -0.0020143680009067867 0.0060365322987570094 0 -0.0025133089130607287 0.0070853517426791813 0 -0.0018816954770945319 0.007196180956313223 0 -0.0011440472442570799 0.00609671170168276 0 -0.0020143680009067867 0.0060365322987570094 0 -0.0018816954770945319 0.007196180956313223 0 -0.0019821532953064902 5.8170245389750959e-05 0 -0.0029610074863366783 -4.4918083856395043e-07 0 -0.002459098143700478 0.00044984612411737767 0 -0.0029610074863366783 -4.4918083856395043e-07 0 -0.002459098143700478 0.00044984612411737767 0 -0.0038598831260466412 1.883643209458637e-06 0 -0.0035731317597449161 0.00033903039217787989 0 -0.0029457938278455368 0.00057577413775512331 0 -0.0019821532953064902 5.8170245389750959e-05 0 -0.002459098143700478 0.00044984612411737767 0 -0.0016412425571220907 0.0004194385956021112 0 -0.0035731317597449161 0.00033903039217787989 0 -0.004133941421239763 0.00092670861660412674 0 -0.0032469863774450282 0.00098232782520014787 0 -0.0035969619429858123 0.0011356254035309616 0 -0.0037038838253737358 0.001053306265561111 0 -0.0029457938278455368 0.00057577413775512331 0 -0.0028971324545276505 0.00091409552379419288 0 -0.0035969619429858123 0.0011356254035309616 0 -0.0037038838253737358 0.001053306265561111 0 -0.0039472925763872225 0.0012878377900999972 0 -0.0016412425571220907 0.0004194385956021112 0 -0.0014375069250020906 0.00016332953711175086 0 -0.0012749440686585034 0.00027383454534698982 0 -0.0019821532953064902 5.8170245389750959e-05 0 -0.0016412425571220907 0.0004194385956021112 0 -0.0014375069250020906 0.00016332953711175086 0 -0.0019821532953064902 5.8170245389750959e-05 0 -0.0012422931231340097 7.5414590337244224e-05 0 -0.0014410560319703719 -2.4101814013690545e-05 0 -0.0019821532953064902 5.8170245389750959e-05 0 -0.0014375069250020906 0.00016332953711175086 0 -0.0012422931231340097 7.5414590337244224e-05 0 -0.0014375069250020906 0.00016332953711175086 0 -0.0012422931231340097 7.5414590337244224e-05 0 -0.0012345002882544805 0.00010109942050095464 0 -0.0013283348311368527 0.00072136178904323711 0 -0.0013882240858684239 0.00088917599635680356 0 -0.0012422931231340097 7.5414590337244224e-05 0 -0.00075553447486924915 -9.5521000944648638e-05 0 -0.00056219808868442414 1.2986068307741137e-05 0 -0.0012422931231340097 7.5414590337244224e-05 0 -0.0014410560319703719 -2.4101814013690545e-05 0 -0.00093723999959288294 -0.00011923963009098841 0 -0.0019821532953064902 5.8170245389750959e-05 0 -0.0014410560319703719 -2.4101814013690545e-05 0 -0.0020597291191513998 -6.3536802534016982e-08 0 -0.0019821532953064902 5.8170245389750959e-05 0 -0.0029610074863366783 -4.4918083856395043e-07 0 -0.0020597291191513998 -6.3536802534016982e-08 0 -0.0020597291191513998 -6.3536802534016982e-08 0 -0.0010293901977845754 -0.00011230238276704665 0 -0.001158986231552861 -2.3810701085686651e-07 0 -0.0014410560319703719 -2.4101814013690545e-05 0 -0.0020597291191513998 -6.3536802534016982e-08 0 -0.0010293901977845754 -0.00011230238276704665 0 -0.001158986231552861 -2.3810701085686651e-07 0 -0.0002638774217137487 -0.00014475770310275388 0 -0.00025808427355122568 -1.8925124844155103e-07 0 -0.0010293901977845754 -0.00011230238276704665 0 -0.001158986231552861 -2.3810701085686651e-07 0 -0.0002638774217137487 -0.00014475770310275388 0 -0.0010293901977845754 -0.00011230238276704665 0 -0.0002638774217137487 -0.00014475770310275388 0 -0.0005625912589772345 -0.00019599050320716834 0 -1.0771848197271036e-05 -0.00017918024056186058 0 -0.000149280373569503 -0.00020214176546257126 0 -0.00020977116322413075 -0.00022840252329203394 0 -0.000149280373569503 -0.00020214176546257126 0 -0.00039118510023054148 -0.00022193959172790205 0 -0.00020977116322413075 -0.00022840252329203394 0 6.9807169192862361e-05 -0.00017078057056273143 0 -0.0002638774217137487 -0.00014475770310275388 0 -0.000149280373569503 -0.00020214176546257126 0 -0.0002638774217137487 -0.00014475770310275388 0 -0.000149280373569503 -0.00020214176546257126 0 -0.0005625912589772345 -0.00019599050320716834 0 -0.0005625912589772345 -0.00019599050320716834 0 -0.00039118510023054148 -0.00022193959172790205 0 -0.00058271179137279799 -0.00018672393412478186 0 -0.000149280373569503 -0.00020214176546257126 0 -0.0005625912589772345 -0.00019599050320716834 0 -0.00039118510023054148 -0.00022193959172790205 0 -0.0005625912589772345 -0.00019599050320716834 0 -0.00058271179137279799 -0.00018672393412478186 0 -0.00093723999959288294 -0.00011923963009098841 0 -0.0010293901977845754 -0.00011230238276704665 0 -0.0005625912589772345 -0.00019599050320716834 0 -0.00093723999959288294 -0.00011923963009098841 0 -0.0014410560319703719 -2.4101814013690545e-05 0 -0.0010293901977845754 -0.00011230238276704665 0 -0.00093723999959288294 -0.00011923963009098841 0 -0.00058271179137279799 -0.00018672393412478186 0 -0.00093723999959288294 -0.00011923963009098841 0 -0.00075553447486924915 -9.5521000944648638e-05 0 -0.0012422931231340097 7.5414590337244224e-05 0 -0.00093723999959288294 -0.00011923963009098841 0 -0.00075553447486924915 -9.5521000944648638e-05 0 -0.00075553447486924915 -9.5521000944648638e-05 0 -0.00046991641801336976 -0.00016098385216376955 0 -0.00056219808868442414 1.2986068307741137e-05 0 -0.00039959094707799428 -7.2718701668926349e-05 0 -0.00034733123584419464 4.8261905695971038e-05 0 -0.00056219808868442414 1.2986068307741137e-05 0 -0.00039959094707799428 -7.2718701668926349e-05 0 -0.00046991641801336976 -0.00016098385216376955 0 -0.00031635864522467098 -0.0001485572232695044 0 -0.00039959094707799428 -7.2718701668926349e-05 0 -0.00046991641801336976 -0.00016098385216376955 0 -0.00056219808868442414 1.2986068307741137e-05 0 -0.00039959094707799428 -7.2718701668926349e-05 0 -0.00030579200685334459 -7.3812951911102112e-05 0 -0.00034733123584419464 4.8261905695971038e-05 0 -0.00039959094707799428 -7.2718701668926349e-05 0 -0.00031635864522467098 -0.0001485572232695044 0 -0.00030579200685334459 -7.3812951911102112e-05 0 -0.0003231692027054085 -0.00020330214440017878 0 -0.00046991641801336976 -0.00016098385216376955 0 -0.00031635864522467098 -0.0001485572232695044 0 -0.0003231692027054085 -0.00020330214440017878 0 -0.00046991641801336976 -0.00016098385216376955 0 -0.00037775678172208212 -0.0002209864941453861 0 -0.00058271179137279799 -0.00018672393412478186 0 -0.00075553447486924915 -9.5521000944648638e-05 0 -0.00046991641801336976 -0.00016098385216376955 0 -0.00058271179137279799 -0.00018672393412478186 0 -0.00046991641801336976 -0.00016098385216376955 0 -0.00037775678172208212 -0.0002209864941453861 0 -0.00039118510023054148 -0.00022193959172790205 0 -0.00058271179137279799 -0.00018672393412478186 0 -0.00037775678172208212 -0.0002209864941453861 0 -0.00039118510023054148 -0.00022193959172790205 0 -0.00037775678172208212 -0.0002209864941453861 0 -0.00020977116322413075 -0.00022840252329203394 0 -0.00037775678172208212 -0.0002209864941453861 0 -0.0002899380720108348 -0.00022851570961029605 0 -0.00020977116322413075 -0.00022840252329203394 0 -0.0003231692027054085 -0.00020330214440017878 0 -0.00037775678172208212 -0.0002209864941453861 0 -0.0002899380720108348 -0.00022851570961029605 0 -0.0003231692027054085 -0.00020330214440017878 0 -0.0002899380720108348 -0.00022851570961029605 0 -0.000260557967073371 -0.00020776531249288414 0 -0.0002899380720108348 -0.00022851570961029605 0 -0.00024705899751797412 -0.00021804526118376864 0 -0.000260557967073371 -0.00020776531249288414 0 -0.0002899380720108348 -0.00022851570961029605 0 -0.00024705899751797412 -0.00021804526118376864 0 -0.00020977116322413075 -0.00022840252329203394 0 -1.0771848197271036e-05 -0.00017918024056186058 0 -0.00024705899751797412 -0.00021804526118376864 0 -0.00020977116322413075 -0.00022840252329203394 0 -0.00021258242208322848 -0.00022386788777089338 0 -5.5280275889773564e-05 -0.00014830008781079344 0 -0.00023371781096112108 -0.00017020769818001149 0 -5.5280275889773564e-05 -0.00014830008781079344 0 -0.00023371781096112108 -0.00017020769818001149 0 -6.1364115772155091e-05 -3.602473409124151e-07 0 -5.5280275889773564e-05 -0.00014830008781079344 0 -6.1364115772155091e-05 -3.602473409124151e-07 0 5.2353781148139301e-05 -2.0905776344587447e-05 0 -0.00021258242208322848 -0.00022386788777089338 0 -0.00024705899751797412 -0.00021804526118376864 0 -0.00023371781096112108 -0.00017020769818001149 0 -0.00024705899751797412 -0.00021804526118376864 0 -0.00023371781096112108 -0.00017020769818001149 0 -0.000260557967073371 -0.00020776531249288414 0 -0.00023371781096112108 -0.00017020769818001149 0 -0.000260557967073371 -0.00020776531249288414 0 -0.00023000738155932421 -0.00019648274535816928 0 -0.0003231692027054085 -0.00020330214440017878 0 -0.000260557967073371 -0.00020776531249288414 0 -0.00025675676536202871 -0.00018177539380376159 0 -0.000260557967073371 -0.00020776531249288414 0 -0.00023000738155932421 -0.00019648274535816928 0 -0.00025675676536202871 -0.00018177539380376159 0 -0.00023371781096112108 -0.00017020769818001149 0 -0.00023000738155932421 -0.00019648274535816928 0 -0.00021233589913449528 -0.00020222859477175319 0 -6.1364115772155091e-05 -3.602473409124151e-07 0 -0.00014428410461681833 0.0002572618627707741 0 4.4074989035303145e-05 0.00011599604308631028 0 -0.00023371781096112108 -0.00017020769818001149 0 -6.1364115772155091e-05 -3.602473409124151e-07 0 -0.00014428410461681833 0.0002572618627707741 0 -0.0002974400801858225 6.9704973638016343e-05 0 -0.00026023851436756236 0.00028121005747273946 0 -0.00023000738155932421 -0.00019648274535816928 0 -0.00021241709241552931 -0.00020051117078558609 0 -0.00021233589913449528 -0.00020222859477175319 0 -0.00023000738155932421 -0.00019648274535816928 0 -0.00021241709241552931 -0.00020051117078558609 0 -0.00022951967371201185 -0.0001906400461451595 0 -0.00018435131993130779 -0.00019973299585481321 0 -0.00021006496482979352 -0.00015189518596884824 0 -6.5031915116343673e-05 -3.906151556605778e-05 0 -0.00026023851436756236 0.00028121005747273946 0 -0.00039961617364370325 0.00049819439861980663 0 -0.00026041605647438693 0.00027980163876380182 0 -0.00026023851436756236 0.00028121005747273946 0 -0.00021241709241552931 -0.00020051117078558609 0 -0.00021006496482979352 -0.00015189518596884824 0 -0.00022951967371201185 -0.0001906400461451595 0 -0.00021241709241552931 -0.00020051117078558609 0 -0.00018435131993130779 -0.00019973299585481321 0 -0.00021006496482979352 -0.00015189518596884824 0 -0.0003231692027054085 -0.00020330214440017878 0 -0.00025675676536202871 -0.00018177539380376159 0 -0.00031635864522467098 -0.0001485572232695044 0 -0.00021006496482979352 -0.00015189518596884824 0 -0.00025675676536202871 -0.00018177539380376159 0 -0.00022951967371201185 -0.0001906400461451595 0 -0.00023000738155932421 -0.00019648274535816928 0 -0.00025675676536202871 -0.00018177539380376159 0 -0.00022951967371201185 -0.0001906400461451595 0 -0.00021006496482979352 -0.00015189518596884824 0 -0.00025675676536202871 -0.00018177539380376159 0 -0.0002596037614899262 -0.00012991502646864881 0 -0.00021006496482979352 -0.00015189518596884824 0 -0.0002596037614899262 -0.00012991502646864881 0 -0.00020804138240570772 -7.2290835714656021e-05 0 -0.0002596037614899262 -0.00012991502646864881 0 -0.00031635864522467098 -0.0001485572232695044 0 -0.00030579200685334459 -7.3812951911102112e-05 0 -0.00025675676536202871 -0.00018177539380376159 0 -0.0002596037614899262 -0.00012991502646864881 0 -0.00031635864522467098 -0.0001485572232695044 0 -0.00030579200685334459 -7.3812951911102112e-05 0 -0.00018838897299481075 6.0330310671324624e-05 0 -0.00034733123584419464 4.8261905695971038e-05 0 -0.0002596037614899262 -0.00012991502646864881 0 -0.00030579200685334459 -7.3812951911102112e-05 0 -0.00020804138240570772 -7.2290835714656021e-05 0 -0.00030579200685334459 -7.3812951911102112e-05 0 -0.00020804138240570772 -7.2290835714656021e-05 0 -0.00018838897299481075 6.0330310671324624e-05 0 -0.00020804138240570772 -7.2290835714656021e-05 0 -0.00018838897299481075 6.0330310671324624e-05 0 -6.5031915116343673e-05 -3.906151556605778e-05 0 -0.00021006496482979352 -0.00015189518596884824 0 -0.00020804138240570772 -7.2290835714656021e-05 0 -6.5031915116343673e-05 -3.906151556605778e-05 0 -0.00018838897299481075 6.0330310671324624e-05 0 -8.7205716206761313e-05 0.00010865760239762801 0 -6.5031915116343673e-05 -3.906151556605778e-05 0 -0.00018838897299481075 6.0330310671324624e-05 0 -8.7205716206761313e-05 0.00010865760239762801 0 -0.00013409463868386707 0.00025263059873726869 0 -0.00018838897299481075 6.0330310671324624e-05 0 -0.00013409463868386707 0.00025263059873726869 0 -0.00026807242070546971 0.00018979965997281158 0 -0.0021485221241148802 0.0021207541791777936 0 -0.0029109476474316579 0.0024519861319322804 0 -0.0018014761860665027 0.0028174486345828118 0 -0.0021485221241148802 0.0021207541791777936 0 -0.0018014761860665027 0.0028174486345828118 0 -0.0016148384601215818 0.002327683037412443 0 -0.0013033831040807019 0.0011106504956691526 0 -0.0022123402804817122 0.001283315668696077 0 -0.00013409463868386707 0.00025263059873726869 0 -0.00031018230904036729 0.00036360437334053433 0 -0.00026807242070546971 0.00018979965997281158 0 -0.00031018230904036729 0.00036360437334053433 0 -0.00026807242070546971 0.00018979965997281158 0 -0.00041266131820411002 0.0001938310709315044 0 -0.00018838897299481075 6.0330310671324624e-05 0 -0.00026807242070546971 0.00018979965997281158 0 -0.00034733123584419464 4.8261905695971038e-05 0 -0.00026807242070546971 0.00018979965997281158 0 -0.00034733123584419464 4.8261905695971038e-05 0 -0.00041266131820411002 0.0001938310709315044 0 -0.00034733123584419464 4.8261905695971038e-05 0 -0.00041266131820411002 0.0001938310709315044 0 -0.00056219808868442414 1.2986068307741137e-05 0 -0.00041266131820411002 0.0001938310709315044 0 -0.00056219808868442414 1.2986068307741137e-05 0 -0.00062925586196368555 0.0003246908156270502 0 -0.0012422931231340097 7.5414590337244224e-05 0 -0.00056219808868442414 1.2986068307741137e-05 0 -0.00062925586196368555 0.0003246908156270502 0 -0.0022123402804817122 0.001283315668696077 0 -0.0013882240858684239 0.00088917599635680356 0 -0.00031018230904036729 0.00036360437334053433 0 -0.00041266131820411002 0.0001938310709315044 0 -0.00062925586196368555 0.0003246908156270502 0 -0.0010550226281722478 0.00016668108069745475 0 -0.0012345002882544805 0.00010109942050095464 0 -0.0011186193816868557 0.00019290530038367203 0 -0.0035358105526117557 0.0015608753297855506 0 -0.0028971324545276505 0.00091409552379419288 0 -0.0048014114881866493 0.0021906135949767182 0 -0.0046628023400684679 0.0018625759839862356 0 -0.0050168925196600366 0.0019153628979000695 0 -0.0042957176094564429 0.0014407127466727178 0 -0.0039472925763872225 0.0012878377900999972 0 -0.0041611101279237471 0.0011238629145298475 0 -0.0035358105526117557 0.0015608753297855506 0 -0.0053244045217522365 0.0018411201101001748 0 -0.0012345002882544805 0.00010109942050095464 0 -0.0011186193816868557 0.00019290530038367203 0 -0.0012749440686585034 0.00027383454534698982 0 -0.0014375069250020906 0.00016332953711175086 0 -0.0012345002882544805 0.00010109942050095464 0 -0.0012749440686585034 0.00027383454534698982 0 -0.004133941421239763 0.00092670861660412674 0 -0.0053244045217522365 0.0018411201101001748 0 -0.0037038838253737358 0.001053306265561111 0 -0.0039472925763872225 0.0012878377900999972 0 -0.0041611101279237471 0.0011238629145298475 0 -0.0053244045217522365 0.0018411201101001748 0 -0.0066554251045258493 0.0023032029819322029 0 -0.0093730658561707141 0.00342509401289935 0 -0.0099199336148717097 0.0030879036264021857 0 -0.0094299235295842825 0.0029813070896918732 0 -0.0086823875753830118 0.0033416405720601214 0 -0.0093730658561707141 0.00342509401289935 0 -0.0094299235295842825 0.0029813070896918732 0 -0.0066554251045258493 0.0023032029819322029 0 -0.0069109819479317323 0.0024913926438325006 0 -0.0093730658561707141 0.00342509401289935 0 -0.010039818465368508 0.0034812399050253096 0 -0.0099199336148717097 0.0030879036264021857 0 -0.0029404672393750363 0.0024477646338914461 0 -0.0021495471197828515 0.0028110550081037423 0 -0.0018014761860665027 0.0028174486345828118 0 -0.0050168925196600366 0.0019153628979000695 0 -0.0053719020337562751 0.0019663193654865935 0 -0.005265571153418456 0.0021053632014791765 0 -0.0022123402804817122 0.001283315668696077 0 -0.0020110962380830689 0.001723063495545521 0 -0.0029404672393750363 0.0024477646338914461 0 -0.0033024735516688484 0.002599431995311997 0 -0.0021495471197828515 0.0028110550081037423 0 -0.0035358105526117557 0.0015608753297855506 0 -0.0039724134263136469 0.0021787159518449088 0 -0.0048014114881866493 0.0021906135949767182 0 -0.0050168925196600366 0.0019153628979000695 0 -0.005265571153418456 0.0021053632014791765 0 -0.0022123402804817122 0.001283315668696077 0 -0.0035358105526117557 0.0015608753297855506 0 -0.0056529322320840953 0.0024050298224604126 0 -0.0050395620193948642 0.0022403198556531574 0 -0.0010098411494599625 0.0030228781802925761 0 -0.00072606465156978208 0.0025956845991931573 0 -0.0011235154104465388 0.0023618626202416147 0 -0.0058411906871378002 0.0024174526083526027 0 -0.0057656544518604807 0.0024286755763042274 0 -0.005698530486255602 0.0023907211651809212 0 -0.0010098411494599625 0.0030228781802925761 0 -0.00072606465156978208 0.0025956845991931573 0 -0.00033567941711039518 0.0029187594013009156 0 -0.0056529322320840953 0.0024050298224604126 0 -0.006210701072240872 0.0025048709647969439 0 -0.006210701072240872 0.0025048709647969439 0 -0.0063851446983050333 0.0025809421610345153 0 -0.010665966547846821 0.0035224192129114482 0 -0.010916019673182056 0.0034647984992568505 0 -0.010783809885781414 0.0033952642445773699 0 -0.0010098411494599625 0.0030228781802925761 0 -0.0013875510048963295 0.0026325339445536695 0 -0.0011235154104465388 0.0023618626202416147 0 -0.0069109819479317323 0.0024913926438325006 0 -0.0056529322320840953 0.0024050298224604126 0 -0.0053719020337562751 0.0019663193654865935 0 -0.005265571153418456 0.0021053632014791765 0 -0.0057274814683605652 0.0020161966009691139 0 -0.0010098411494599625 0.0030228781802925761 0 -0.0013875510048963295 0.0026325339445536695 0 -0.0018014761860665027 0.0028174486345828118 0 -0.0039724134263136469 0.0021787159518449088 0 -0.0056529322320840953 0.0024050298224604126 0 -0.0021495471197828515 0.0028110550081037423 0 -0.0010098411494599625 0.0030228781802925761 0 -0.0018014761860665027 0.0028174486345828118 0 -0.0013875510048963295 0.0026325339445536695 0 -0.0018014761860665027 0.0028174486345828118 0 -0.0016148384601215818 0.002327683037412443 0 -0.0099199336148717097 0.0030879036264021857 0 -0.010458739612180488 0.0032187879987964538 0 -0.01039729039393943 0.002791579091900271 0 -0.010039818465368508 0.0034812399050253096 0 -0.010665966547846821 0.0035224192129114482 0 -0.010458739612180488 0.0032187879987964538 0 -0.010039818465368508 0.0034812399050253096 0 -0.0099199336148717097 0.0030879036264021857 0 -0.010458739612180488 0.0032187879987964538 0 -0.010458739612180488 0.0032187879987964538 0 -0.010768200787874466 0.0030396103662638273 0 -0.01039729039393943 0.002791579091900271 0 -0.010665966547846821 0.0035224192129114482 0 -0.010458739612180488 0.0032187879987964538 0 -0.010783809885781414 0.0033952642445773699 0 -0.010458739612180488 0.0032187879987964538 0 -0.010768200787874466 0.0030396103662638273 0 -0.010783809885781414 0.0033952642445773699 0 -0.010915116056590594 0.0034467056003093326 0 -0.010783809885781414 0.0033952642445773699 0 -0.010964271630480521 0.0032002115602029518 0 -0.010768200787874466 0.0030396103662638273 0 -0.010783809885781414 0.0033952642445773699 0 -0.010964271630480521 0.0032002115602029518 0 -0.010768200787874466 0.0030396103662638273 0 -0.010964271630480521 0.0032002115602029518 0 -0.01111893819973825 0.0029367757369935556 0 -0.010915116056590594 0.0034467056003093326 0 -0.011182002467964882 0.0031624825907642412 0 -0.011446423752557907 0.0032765448349153146 0 -0.006210701072240872 0.0025048709647969439 0 -0.007547480125737676 0.0023831669200753297 0 -0.010964271630480521 0.0032002115602029518 0 -0.011182002467964882 0.0031624825907642412 0 -0.01111893819973825 0.0029367757369935556 0 -0.011182002467964882 0.0031624825907642412 0 -0.011455097802020779 0.0029627250602088004 0 -0.01111893819973825 0.0029367757369935556 0 -0.011182002467964882 0.0031624825907642412 0 -0.011455097802020779 0.0029627250602088004 0 -0.011446423752557907 0.0032765448349153146 0 -0.010915116056590594 0.0034467056003093326 0 -0.010964271630480521 0.0032002115602029518 0 -0.011182002467964882 0.0031624825907642412 0 -0.007547480125737676 0.0023831669200753297 0 -0.0074773648176398371 0.0022637402174803161 0 -0.0056231595600259856 0.0026250247263332757 0 -0.0055773506153395302 0.0026110209438627578 0 -0.0055326122884124009 0.0026331691688919337 0 -0.011758465285777011 0.0029756561655361045 0 -0.011446423752557907 0.0032765448349153146 0 -0.01191724660918638 0.003093486731515637 0 -0.011758465285777011 0.0029756561655361045 0 -0.011455097802020779 0.0029627250602088004 0 -0.011689112949468573 0.0028265480641188091 0 -0.011758465285777011 0.0029756561655361045 0 -0.011455097802020779 0.0029627250602088004 0 -0.011446423752557907 0.0032765448349153146 0 -0.0050395620193948642 0.0022403198556531574 0 -0.0032098695665161605 0.0018566885304557629 0 -0.0057134228125728607 0.0025772739920204559 0 -0.0056425102055572595 0.0025616738300469357 0 -0.0055243466558727097 0.0024588829472633189 0 -0.0055823324299090942 0.0025622348262857942 0 -0.0056425102055572595 0.0025616738300469357 0 -0.0055243466558727097 0.0024588829472633189 0 -0.0055773506153395302 0.0026110209438627578 0 -0.0055823324299090942 0.0025622348262857942 0 -0.0055368521067036269 0.002539521488565065 0 -0.0055773506153395302 0.0026110209438627578 0 -0.0055368521067036269 0.002539521488565065 0 -0.0054526697881148818 0.0025219103823409237 0 -0.0056231595600259856 0.0026250247263332757 0 -0.0055773506153395302 0.0026110209438627578 0 -0.0055823324299090942 0.0025622348262857942 0 -0.0056231595600259856 0.0026250247263332757 0 -0.0055823324299090942 0.0025622348262857942 0 -0.0056425102055572595 0.0025616738300469357 0 -0.0055823324299090942 0.0025622348262857942 0 -0.0055368521067036269 0.002539521488565065 0 -0.0055243466558727097 0.0024588829472633189 0 -0.00072606465156978208 0.0025956845991931573 0 -0.00033567941711039518 0.0029187594013009156 0 -0.00038892943600318114 0.0021687809761884429 0 -0.0057699869966728427 0.0026057679038993227 0 -0.0056231595600259856 0.0026250247263332757 0 -0.0057128899169815311 0.0025733008728282191 0 -0.006210701072240872 0.0025048709647969439 0 -0.0050395620193948642 0.0022403198556531574 0 -0.0056231595600259856 0.0026250247263332757 0 -0.0057128899169815311 0.0025733008728282191 0 -0.0056425102055572595 0.0025616738300469357 0 -0.0050395620193948642 0.0022403198556531574 0 -0.0051340815871971802 0.0022637712445035523 0 -0.00033567941711039518 0.0029187594013009156 0 -0.00038892943600318114 0.0021687809761884429 0 0.00075687554343542096 0.0023355616529075959 0 -0.00038892943600318114 0.0021687809761884429 0 0.00075687554343542096 0.0023355616529075959 0 0.00021432018085540148 0.0016829924119106587 0 0.00021432018085540148 0.0016829924119106587 0 0.00030418216876918142 0.0010882601945962993 0 0.00092106883961750891 0.0013869160635447352 0 0.00075687554343542096 0.0023355616529075959 0 0.00021432018085540148 0.0016829924119106587 0 0.00092106883961750891 0.0013869160635447352 0 -0.00022232647281146203 0.00094995597073788823 0 0.00026798870175418323 0.00082113603187607598 0 -0.00038892943600318114 0.0021687809761884429 0 0.00021432018085540148 0.0016829924119106587 0 -0.00053334871084918594 0.0014324628230493193 0 0.00021432018085540148 0.0016829924119106587 0 -0.00053334871084918594 0.0014324628230493193 0 0.00030418216876918142 0.0010882601945962993 0 -0.00053334871084918594 0.0014324628230493193 0 -0.00083853602092302402 0.0019942281433400553 0 -0.0013651275718959835 0.001787659174401042 0 -0.00022232647281146203 0.00094995597073788823 0 -0.00058857640987769206 0.00097063309246586552 0 5.0687204462048167e-05 0.00074680193422598808 0 -0.0001514255024974743 0.0008343289368143949 0 -8.1414588324709686e-05 0.00065458001737694828 0 -0.00038892943600318114 0.0021687809761884429 0 -0.00053334871084918594 0.0014324628230493193 0 -0.00083853602092302402 0.0019942281433400553 0 -0.00083853602092302402 0.0019942281433400553 0 -0.0011235154104465388 0.0023618626202416147 0 -0.0013651275718959835 0.001787659174401042 0 -0.00072606465156978208 0.0025956845991931573 0 -0.00083853602092302402 0.0019942281433400553 0 -0.0011235154104465388 0.0023618626202416147 0 -0.00072606465156978208 0.0025956845991931573 0 -0.00038892943600318114 0.0021687809761884429 0 -0.00083853602092302402 0.0019942281433400553 0 -0.0021485221241148802 0.0021207541791777936 0 -0.0016148384601215818 0.002327683037412443 0 -0.0013747827425571674 0.0017792414534942419 0 -0.0013033831040807019 0.0011106504956691526 0 -0.00058857640987769206 0.00097063309246586552 0 -0.0013875510048963295 0.0026325339445536695 0 -0.0011235154104465388 0.0023618626202416147 0 -0.0016148384601215818 0.002327683037412443 0 -0.0011235154104465388 0.0023618626202416147 0 -0.0016148384601215818 0.002327683037412443 0 -0.0013747827425571674 0.0017792414534942419 0 -0.00057112734921568582 0.001239833071811526 0 -0.00058857640987769206 0.00097063309246586552 0 -0.0001514255024974743 0.0008343289368143949 0 -0.00024426534594731975 0.00061609000574053805 0 -8.1414588324709686e-05 0.00065458001737694828 0 -8.7205716206761313e-05 0.00010865760239762801 0 -0.00013409463868386707 0.00025263059873726869 0 3.6652338076663528e-05 0.00016759532821722568 0 -8.7205716206761313e-05 0.00010865760239762801 0 3.6652338076663528e-05 0.00016759532821722568 0 -6.5031915116343673e-05 -3.906151556605778e-05 0 -0.00058857640987769206 0.00097063309246586552 0 -0.00039961617364370325 0.00049819439861980663 0 -0.00024426534594731975 0.00061609000574053805 0 -8.1414588324709686e-05 0.00065458001737694828 0 -7.4007260479424202e-05 0.00045583108687690771 0 5.0687204462048167e-05 0.00074680193422598808 0 -8.1414588324709686e-05 0.00065458001737694828 0 3.7410990146570125e-05 0.00058011926512285155 0 -8.1414588324709686e-05 0.00065458001737694828 0 3.7410990146570125e-05 0.00058011926512285155 0 -7.4007260479424202e-05 0.00045583108687690771 0 0.00026690645148208199 0.00039243824732483097 0 0.00015311038698103294 0.00025435920021367323 0 0.00063391434061360174 0.00018143630057279724 0 3.7410990146570125e-05 0.00058011926512285155 0 -7.4007260479424202e-05 0.00045583108687690771 0 0.00019131806768229418 0.00051269844782905717 0 -0.00014428410461681833 0.0002572618627707741 0 0.00026690645148208199 0.00039243824732483097 0 0.00015311038698103294 0.00025435920021367323 0 -0.00033739806712144467 0.00039855423182065975 0 -0.00024426534594731975 0.00061609000574053805 0 -7.4007260479424202e-05 0.00045583108687690771 0 -0.00026023851436756236 0.00028121005747273946 0 0.00011016449251529458 0.00041522909070475662 0 -0.00014428410461681833 0.0002572618627707741 0 0.00015311038698103294 0.00025435920021367323 0 4.4074989035303145e-05 0.00011599604308631028 0 -6.1364115772155091e-05 -3.602473409124151e-07 0 4.4074989035303145e-05 0.00011599604308631028 0 5.2353781148139301e-05 -2.0905776344587447e-05 0 4.4074989035303145e-05 0.00011599604308631028 0 0.00016526542893363869 5.2283574026353293e-05 0 5.2353781148139301e-05 -2.0905776344587447e-05 0 0.00015311038698103294 0.00025435920021367323 0 0.00016526542893363869 5.2283574026353293e-05 0 0.00035546937820777794 6.0932711214975563e-05 0 0.00015311038698103294 0.00025435920021367323 0 4.4074989035303145e-05 0.00011599604308631028 0 0.00016526542893363869 5.2283574026353293e-05 0 0.00041536257658691055 0.00020093677562583832 0 0.00069693723803966687 0.0001426903020150305 0 0.00015311038698103294 0.00025435920021367323 0 0.00035546937820777794 6.0932711214975563e-05 0 0.00062698513981210952 0.00015722202962940298 0 0.00016526542893363869 5.2283574026353293e-05 0 0.00035546937820777794 6.0932711214975563e-05 0 0.00029319697320571856 -6.2145059136754882e-05 0 0.00029319697320571856 -6.2145059136754882e-05 0 0.00029410343721564003 -0.00019704492956341784 0 0.00015673695934064049 -0.0001297844485352231 0 0.00045414976900122765 -0.00036010401560097042 0 0.00049090574584641244 -0.00012216911853521578 0 0.00029410343721564003 -0.00019704492956341784 0 0.00029319697320571856 -6.2145059136754882e-05 0 0.00049090574584641244 -0.00012216911853521578 0 0.00029410343721564003 -0.00019704492956341784 0 0.00035546937820777794 6.0932711214975563e-05 0 0.00029319697320571856 -6.2145059136754882e-05 0 0.00049090574584641244 -0.00012216911853521578 0 0.00012507690695896757 -0.00034549620411671522 0 0.00029410343721564003 -0.00019704492956341784 0 0.00015673695934064049 -0.0001297844485352231 0 -8.2045056039483565e-05 -0.00025793415534601424 0 -5.5280275889773564e-05 -0.00014830008781079344 0 0.00015673695934064049 -0.0001297844485352231 0 -5.5280275889773564e-05 -0.00014830008781079344 0 0.00015673695934064049 -0.0001297844485352231 0 5.2353781148139301e-05 -2.0905776344587447e-05 0 0.00016526542893363869 5.2283574026353293e-05 0 0.00015673695934064049 -0.0001297844485352231 0 5.2353781148139301e-05 -2.0905776344587447e-05 0 0.00016526542893363869 5.2283574026353293e-05 0 0.00029319697320571856 -6.2145059136754882e-05 0 0.00015673695934064049 -0.0001297844485352231 0 0.0010470465709442849 -0.0003890753700983535 0 0.00080342656792477968 -9.9277116866172127e-05 0 0.0010768640684248086 6.4651559160709124e-05 0 0.00062512385501125418 -0.00033344299198722932 0 0.00049090574584641244 -0.00012216911853521578 0 0.00080342656792477968 -9.9277116866172127e-05 0 0.00049090574584641244 -0.00012216911853521578 0 0.00080342656792477968 -9.9277116866172127e-05 0 0.00062698513981210952 0.00015722202962940298 0 0.00035546937820777794 6.0932711214975563e-05 0 0.00049090574584641244 -0.00012216911853521578 0 0.00062698513981210952 0.00015722202962940298 0 0.00069693723803966687 0.0001426903020150305 0 0.0012992472747276856 1.2389266667742726e-05 0 0.00063391434061360174 0.00018143630057279724 0 0.0010200070218145028 0.00036391785300950689 0 0.0012217769455768693 4.4973847746377266e-05 0 0.00080342656792477968 -9.9277116866172127e-05 0 0.00062698513981210952 0.00015722202962940298 0 0.0010768640684248086 6.4651559160709124e-05 0 0.0010200070218145028 0.00036391785300950689 0 0.00071725524078505344 0.00054852019388659551 0 0.0012628538470789278 0.00074289555965058806 0 0.00063391434061360174 0.00018143630057279724 0 0.0010200070218145028 0.00036391785300950689 0 0.00071725524078505344 0.00054852019388659551 0 0.00026690645148208199 0.00039243824732483097 0 0.00063391434061360174 0.00018143630057279724 0 0.00071725524078505344 0.00054852019388659551 0 0.00011016449251529458 0.00041522909070475662 0 0.00046722526079102098 0.00053815366974066189 0 5.0687204462048167e-05 0.00074680193422598808 0 3.7410990146570125e-05 0.00058011926512285155 0 0.0002541692961061344 0.0006589639904098437 0 3.7410990146570125e-05 0.00058011926512285155 0 0.00019131806768229418 0.00051269844782905717 0 0.0002541692961061344 0.0006589639904098437 0 0.00046722526079102098 0.00053815366974066189 0 0.00078810341871102002 0.00065528057699934669 0 0.00019131806768229418 0.00051269844782905717 0 0.0002541692961061344 0.0006589639904098437 0 0.00045881921645906016 0.00057015849173248218 0 0.00026798870175418323 0.00082113603187607598 0 0.00078810341871102002 0.00065528057699934669 0 0.00030418216876918142 0.0010882601945962993 0 0.0011267980189094173 0.00077034205850697219 0 0.00092106883961750891 0.0013869160635447352 0 0.0012456813651897814 0.0011111073256178741 0 0.0011267980189094173 0.00077034205850697219 0 0.00092106883961750891 0.0013869160635447352 0 0.0014123749100765008 0.00071307599859454199 0 0.0011910115718329094 0.0008090278036018909 0 0.0014917383865120932 0.00088390577418237049 0 0.0012456813651897814 0.0011111073256178741 0 0.0011267980189094173 0.00077034205850697219 0 0.0014917383865120932 0.00088390577418237049 0 0.00078810341871102002 0.00065528057699934669 0 0.00086584017059387788 0.00067461175453210919 0 0.00082741550385790827 0.00064476529329144945 0 0.00078810341871102002 0.00065528057699934669 0 0.0014917383865120932 0.00088390577418237049 0 0.0018287202597863878 0.00039648921255718413 0 0.0015768308955762173 0.0012527099973577624 0 0.0019890477532102623 0.00067443419521689941 0 0.0020142227587331518 0.00090569030629816187 0 0.0015768308955762173 0.0012527099973577624 0 0.0019168369954286413 0.00060975346553300861 0 0.0017756124144387238 0.00092985701691957151 0 0.0020142227587331518 0.00090569030629816187 0 0.0020719657382046661 0.001045324744165893 0 0.0015768308955762173 0.0012527099973577624 0 0.0012456813651897814 0.0011111073256178741 0 0.0014917383865120932 0.00088390577418237049 0 0.0015768308955762173 0.0012527099973577624 0 0.0014123749100765008 0.00071307599859454199 0 0.0014780093531732894 0.00039736761082010997 0 0.0018287202597863878 0.00039648921255718413 0 0.0014123749100765008 0.00071307599859454199 0 0.0014917383865120932 0.00088390577418237049 0 0.0018287202597863878 0.00039648921255718413 0 0.0014780093531732894 0.00039736761082010997 0 0.0018287202597863878 0.00039648921255718413 0 0.0014752120496272069 0.00018707808083903333 0 0.0010200070218145028 0.00036391785300950689 0 0.0012628538470789278 0.00074289555965058806 0 0.0012676117408366319 0.00049104501303649296 0 0.0014123749100765008 0.00071307599859454199 0 0.0012628538470789278 0.00074289555965058806 0 0.0012676117408366319 0.00049104501303649296 0 0.0014123749100765008 0.00071307599859454199 0 0.0014780093531732894 0.00039736761082010997 0 0.0012676117408366319 0.00049104501303649296 0 0.0014780093531732894 0.00039736761082010997 0 0.0012676117408366319 0.00049104501303649296 0 0.0012369833917177783 0.00022508246440117497 0 0.0010200070218145028 0.00036391785300950689 0 0.0012676117408366319 0.00049104501303649296 0 0.0012369833917177783 0.00022508246440117497 0 0.0010200070218145028 0.00036391785300950689 0 0.0012369833917177783 0.00022508246440117497 0 0.0012217769455768693 4.4973847746377266e-05 0 0.001298019177636219 2.9047016719142785e-05 0 0.0012992472747276856 1.2389266667742726e-05 0 0.0012254917787066953 -6.6336598006977709e-06 0 0.0014752120496272069 0.00018707808083903333 0 0.0016131821123039347 -8.1228153165741052e-05 0 0.0012992472747276856 1.2389266667742726e-05 0 0.0015230282454565714 -3.8667912741989968e-05 0 0.0014780093531732894 0.00039736761082010997 0 0.0012369833917177783 0.00022508246440117497 0 0.0014752120496272069 0.00018707808083903333 0 0.0012369833917177783 0.00022508246440117497 0 0.0012254917787066953 -6.6336598006977709e-06 0 0.0014752120496272069 0.00018707808083903333 0 0.0018287202597863878 0.00039648921255718413 0 0.0016131821123039347 -8.1228153165741052e-05 0 0.001974804558052567 -0.00014578661468680522 0 0.0018287202597863878 0.00039648921255718413 0 0.0014752120496272069 0.00018707808083903333 0 0.0016131821123039347 -8.1228153165741052e-05 0 0.0017059079588920348 -9.8376204853192292e-05 0 0.0019123739549923512 -0.00026935993567856078 0 0.001974804558052567 -0.00014578661468680522 0 0.0015230282454565714 -3.8667912741989968e-05 0 0.0016283710332568712 -6.1494838203047137e-05 0 0.0017059079588920348 -9.8376204853192292e-05 0 0.0018004867025621244 -0.00036094254127436317 0 0.0019123739549923512 -0.00026935993567856078 0 0.0017059079588920348 -9.8376204853192292e-05 0 0.0018004867025621244 -0.00036094254127436317 0 0.0016044705791321836 -0.000334418122301034 0 0.0014362053829566105 -4.4390981211958852e-05 0 0.0017059079588920348 -9.8376204853192292e-05 0 0.0016044705791321836 -0.000334418122301034 0 0.0014817853595503248 -0.00017520331817511112 0 0.0012992472747276856 1.2389266667742726e-05 0 0.0014028281215115943 -0.00056822604493362953 0 0.0014362053829566105 -4.4390981211958852e-05 0 0.0016044705791321836 -0.000334418122301034 0 0.002273980261928567 0.00030205640438251991 0 0.00230096539991802 0.00039614527864769323 0 0.0023621487661545531 0.00018510544207503643 0 0.00230096539991802 0.00039614527864769323 0 0.0023299052831351127 0.00045660940007271586 0 0.0023356927541473014 0.00055728968846291155 0 0.0016805200331488277 0.00016169125261419 0 0.0013869484306286281 0.00018282930529817416 0 0.0023299052831351127 0.00045660940007271586 0 0.0023164712577736913 0.00041282094469236247 0 0.0022633395264910114 0.00046897403929548124 0 0.00230096539991802 0.00039614527864769323 0 0.0023299052831351127 0.00045660940007271586 0 0.0023999247967378431 0.00040593206186869058 0 0.0023299052831351127 0.00045660940007271586 0 0.0023999247967378431 0.00040593206186869058 0 0.0023164712577736913 0.00041282094469236247 0 0.0023490237796615007 0.0003165729854830909 0 0.0023999247967378431 0.00040593206186869058 0 0.0023164712577736913 0.00041282094469236247 0 0.0023490237796615007 0.0003165729854830909 0 0.0023164712577736913 0.00041282094469236247 0 0.002200255862503441 0.00045538246356873689 0 0.0019530205319365219 -0.00042795821596553385 0 0.0019123739549923512 -0.00026935993567856078 0 0.0020365862643961104 -0.00021287834600631234 0 0.0019530205319365219 -0.00042795821596553385 0 0.0018004867025621244 -0.00036094254127436317 0 0.0019123739549923512 -0.00026935993567856078 0 0.0019123739549923512 -0.00026935993567856078 0 0.001974804558052567 -0.00014578661468680522 0 0.0020365862643961104 -0.00021287834600631234 0 0.002200255862503441 0.00045538246356873689 0 0.0022633395264910114 0.00046897403929548124 0 0.0022209549120811053 0.00054038690770826729 0 0.0023164712577736913 0.00041282094469236247 0 0.002200255862503441 0.00045538246356873689 0 0.0022633395264910114 0.00046897403929548124 0 0.0019890477532102623 0.00067443419521689941 0 0.002200255862503441 0.00045538246356873689 0 0.0022209549120811053 0.00054038690770826729 0 0.0023299052831351127 0.00045660940007271586 0 0.0022633395264910114 0.00046897403929548124 0 0.0022209549120811053 0.00054038690770826729 0 0.0018287202597863878 0.00039648921255718413 0 0.001974804558052567 -0.00014578661468680522 0 0.0020365862643961104 -0.00021287834600631234 0 0.0019168369954286413 0.00060975346553300861 0 0.002128289802122135 0.00017304261268561501 0 0.0019890477532102623 0.00067443419521689941 0 0.0022209549120811053 0.00054038690770826729 0 0.0021647724959922322 0.00064272566974571909 0 0.0022209549120811053 0.00054038690770826729 0 0.0023356927541473014 0.00055728968846291155 0 0.0021647724959922322 0.00064272566974571909 0 0.0022511293451897172 0.00025470342001221409 0 0.002273980261928567 0.00030205640438251991 0 0.0023621487661545531 0.00018510544207503643 0 0.0022511293451897172 0.00025470342001221409 0 0.0023621487661545531 0.00018510544207503643 0 0.0023007975506870427 0.00019378555134886609 0 0.0023299052831351127 0.00045660940007271586 0 0.0022209549120811053 0.00054038690770826729 0 0.0023356927541473014 0.00055728968846291155 0 0.0023621487661545531 0.00018510544207503643 0 0.0023007975506870427 0.00019378555134886609 0 0.0023060395842772734 0.00013084815724478702 0 0.0023621487661545531 0.00018510544207503643 0 0.0023060395842772734 0.00013084815724478702 0 0.0024174677037060751 5.1788731103914462e-05 0 0.00099839936968982093 0.00058968383288737975 0 -3.3253794067142771e-05 0.00084102087576062151 0 0.0023356927541473014 0.00055728968846291155 0 0.0021303287396370152 0.00075288698266195401 0 0.00212797026756328 0.00098991956688965644 0 0.0013869484306286281 0.00018282930529817416 0 -3.3253794067142771e-05 0.00084102087576062151 0 0.0019890477532102623 0.00067443419521689941 0 0.0021647724959922322 0.00064272566974571909 0 0.0021303287396370152 0.00075288698266195401 0 0.0023356927541473014 0.00055728968846291155 0 0.0021647724959922322 0.00064272566974571909 0 0.0021303287396370152 0.00075288698266195401 0 0.0021303287396370152 0.00075288698266195401 0 0.0020142227587331518 0.00090569030629816187 0 0.00212797026756328 0.00098991956688965644 0 0.0019890477532102623 0.00067443419521689941 0 0.0021303287396370152 0.00075288698266195401 0 0.0020142227587331518 0.00090569030629816187 0 -0.00076444575932578475 0.0021292578659109613 0 0.00017202372995424843 0.0020807616380867189 0 -0.00076422240117417608 0.0029347970403602631 0 0.0021538654914452214 0.00098059994818600342 0 0.0020719657382046661 0.001045324744165893 0 0.0017997394718090285 0.0017383112918771544 0 0.0020142227587331518 0.00090569030629816187 0 0.00212797026756328 0.00098991956688965644 0 0.0020719657382046661 0.001045324744165893 0 -3.3253794067142771e-05 0.00084102087576062151 0 -6.0715859309889508e-06 0.00082925478450999383 0 -0.005392571634345979 0.0019847798635699368 0 -0.0063220876457231951 0.0028266779780000769 0 0.00031535295719501647 0.00138798735130057 0 -0.00076444575932578475 0.0021292578659109613 0 0.00017202372995424843 0.0020807616380867189 0 -0.011130394819753598 0.0018635040397435739 0 -0.011667979693891531 0.0027573345196860257 0 -0.012753371798617481 0.003344660153205324 0 -0.011130394819753598 0.0018635040397435739 0 -0.011667979693891531 0.0027573345196860257 0 -0.01084201782654113 0.002791935639821626 0 -0.011433863858341891 0.0033227549133079503 0 -0.01152105420197424 0.0047454044961035653 0 -0.011968324910896199 0.0029739421863941222 0 -0.01084201782654113 0.002791935639821626 0 -0.011433863858341891 0.0033227549133079503 0 -0.010974365845929486 0.0035922565657101084 0 -0.011667979693891531 0.0027573345196860257 0 -0.01084201782654113 0.002791935639821626 0 -0.011433863858341891 0.0033227549133079503 0 -0.011667979693891531 0.0027573345196860257 0 -0.011433863858341891 0.0033227549133079503 0 -0.011968324910896199 0.0029739421863941222 0 -0.011433863858341891 0.0033227549133079503 0 -0.010974365845929486 0.0035922565657101084 0 -0.01152105420197424 0.0047454044961035653 0 -0.0098848262261773349 0.003457776480342613 0 -0.010974365845929486 0.0035922565657101084 0 -0.01152105420197424 0.0047454044961035653 0 -0.011258943519438102 0.0030178346286172694 0 -0.011388241388671427 0.0030857206354936539 0 -0.012150372869097453 0.0032646092774791533 0 -0.012271350985690606 0.0032333582281082259 0 -0.011968324910896199 0.0029739421863941222 0 -0.012271350985690606 0.0032333582281082259 0 -0.012261440507825289 0.0030606457949001529 0 -0.012278365232677599 0.003259487574843086 0 -0.012271350985690606 0.0032333582281082259 0 -0.012282449333640781 0.0032368520111991468 0 -0.01237919324495703 0.0032562487869060019 0 -0.012150372869097453 0.0032646092774791533 0 -0.012271350985690606 0.0032333582281082259 0 -0.01237919324495703 0.0032562487869060019 0 -0.012271350985690606 0.0032333582281082259 0 -0.011968324910896199 0.0029739421863941222 0 -0.012261440507825289 0.0030606457949001529 0 -0.00076444575932578475 0.0021292578659109613 0 -0.00076422240117417608 0.0029347970403602631 0 -0.0013740222248734674 0.0032582700419328675 0 -3.3253794067142771e-05 0.00084102087576062151 0 -0.0039679631712578045 0.0020629909010194767 0 -0.0063220876457231951 0.0028266779780000769 0 -0.0039679631712578045 0.0020629909010194767 0 -0.007693915201378256 0.0033120583427066167 0 -0.0063220876457231951 0.0028266779780000769 0 -0.011667979693891531 0.0027573345196860257 0 -0.011968324910896199 0.0029739421863941222 0 -0.012261440507825289 0.0030606457949001529 0 -0.0063220876457231951 0.0028266779780000769 0 -0.0057248334500829339 0.0028393087615921752 0 -0.0056936021545905295 0.0024337496337250137 0 -0.0053877119348490939 0.002279550058222998 0 -0.0052702936573466915 0.0020689974192869913 0 0.0015768308955762173 0.0012527099973577624 0 0.0017997394718090285 0.0017383112918771544 0 0.00092106883961750891 0.0013869160635447352 0 0.0020719657382046661 0.001045324744165893 0 0.0015768308955762173 0.0012527099973577624 0 0.0017997394718090285 0.0017383112918771544 0 0.00075687554343542096 0.0023355616529075959 0 0.0017997394718090285 0.0017383112918771544 0 0.00092106883961750891 0.0013869160635447352 0 0.0012456813651897814 0.0011111073256178741 0 0.0015768308955762173 0.0012527099973577624 0 0.00092106883961750891 0.0013869160635447352 0 -0.0055243466558727097 0.0024588829472633189 0 -0.0052798478724545555 0.0023189698687465891 0 -0.0053244174763896791 0.0024061249033460286 0 -0.0032098695665161605 0.0018566885304557629 0 -0.0039679631712578045 0.0020629909010194767 0 -0.0055243466558727097 0.0024588829472633189 0 -0.0053244174763896791 0.0024061249033460286 0 -0.0054526697881148818 0.0025219103823409237 0 -0.0057248334500829339 0.0028393087615921752 0 -0.0055721502584518429 0.0026772222133281949 0 -0.012271350985690606 0.0032333582281082259 0 -0.012278365232677599 0.003259487574843086 0 -0.012282449333640781 0.0032368520111991468 0 -0.0039679631712578045 0.0020629909010194767 0 -0.0057248334500829339 0.0028393087615921752 0 -0.012278365232677599 0.003259487574843086 0 -0.012282449333640781 0.0032368520111991468 0 -0.012126499770609409 0.0031978862416716194 0 -0.0057248334500829339 0.0028393087615921752 0 -0.0069928572105650948 0.0028718120657775623 0 -0.012282449333640781 0.0032368520111991468 0 -0.012266929468666947 0.0031134486808421439 0 -0.012126499770609409 0.0031978862416716194 0 -0.012266929468666947 0.0031134486808421439 0 -0.012126499770609409 0.0031978862416716194 0 -0.012122674567301227 0.003091120770095883 0 -0.0055368521067036269 0.002539521488565065 0 -0.0055243466558727097 0.0024588829472633189 0 -0.0054526697881148818 0.0025219103823409237 0 -0.0055084629846360407 0.0025565718581854516 0 -0.0055300442718950616 0.0025773978762503431 0 -0.0055190479137259378 0.00258359602668405 0 -0.0055300442718950616 0.0025773978762503431 0 -0.0055190479137259378 0.00258359602668405 0 -0.0055384701800166468 0.0026009567565365051 0 -0.012126499770609409 0.0031978862416716194 0 -0.011978480252308665 0.003026761091285874 0 -0.012122674567301227 0.003091120770095883 0 -0.0069928572105650948 0.0028718120657775623 0 -0.0074773648176398371 0.0022637402174803161 0 -0.0055773506153395302 0.0026110209438627578 0 -0.0055300442718950616 0.0025773978762503431 0 -0.0055384701800166468 0.0026009567565365051 0 -0.0055190479137259378 0.00258359602668405 0 -0.0055384701800166468 0.0026009567565365051 0 -0.0055326122884124009 0.0026331691688919337 0 -0.0055530133261663134 0.0026519000535470444 0 -0.0055721502584518429 0.0026772222133281949 0 -0.0055773506153395302 0.0026110209438627578 0 -0.0055384701800166468 0.0026009567565365051 0 -0.0055326122884124009 0.0026331691688919337 0 -0.01191724660918638 0.003093486731515637 0 -0.01205154220309624 0.0030150532458636638 0 -0.011947083822927567 0.0030153335259304232 0 -0.011978480252308665 0.003026761091285874 0 -0.012122674567301227 0.003091120770095883 0 -0.01205154220309624 0.0030150532458636638 0 -0.012122674567301227 0.003091120770095883 0 -0.01205154220309624 0.0030150532458636638 0 -0.012182249823681473 0.0029902071918725 0 -0.0074773648176398371 0.0022637402174803161 0 -0.0077211734300296269 0.0022428428133197034 0 -0.01205154220309624 0.0030150532458636638 0 -0.012088100837040877 0.0029034293294549715 0 -0.012182249823681473 0.0029902071918725 0 -0.012088100837040877 0.0029034293294549715 0 -0.011996768256630362 0.002950460959587317 0 -0.011969543620569515 0.0028771671044389388 0 -0.01205154220309624 0.0030150532458636638 0 -0.012088100837040877 0.0029034293294549715 0 -0.011996768256630362 0.002950460959587317 0 -0.01205154220309624 0.0030150532458636638 0 -0.011996768256630362 0.002950460959587317 0 -0.011947083822927567 0.0030153335259304232 0 -0.011996768256630362 0.002950460959587317 0 -0.011947083822927567 0.0030153335259304232 0 -0.011910502697715425 0.0029514257317828315 0 -0.01191724660918638 0.003093486731515637 0 -0.011947083822927567 0.0030153335259304232 0 -0.011880235016608943 0.00300326504752317 0 -0.011947083822927567 0.0030153335259304232 0 -0.011910502697715425 0.0029514257317828315 0 -0.011880235016608943 0.00300326504752317 0 -0.011969543620569515 0.0028771671044389388 0 -0.011910502697715425 0.0029514257317828315 0 -0.011881593780492564 0.0028882732826850366 0 -0.011996768256630362 0.002950460959587317 0 -0.011969543620569515 0.0028771671044389388 0 -0.011910502697715425 0.0029514257317828315 0 -0.011758465285777011 0.0029756561655361045 0 -0.011881593780492564 0.0028882732826850366 0 -0.011865894185630504 0.0027878866504556688 0 -0.011758465285777011 0.0029756561655361045 0 -0.011910502697715425 0.0029514257317828315 0 -0.011881593780492564 0.0028882732826850366 0 -0.011758465285777011 0.0029756561655361045 0 -0.01191724660918638 0.003093486731515637 0 -0.011880235016608943 0.00300326504752317 0 -0.011758465285777011 0.0029756561655361045 0 -0.011910502697715425 0.0029514257317828315 0 -0.011880235016608943 0.00300326504752317 0 -0.012266929468666947 0.0031134486808421439 0 -0.012182249823681473 0.0029902071918725 0 -0.012360298498368351 0.0028929931123450525 0 -0.012266929468666947 0.0031134486808421439 0 -0.012122674567301227 0.003091120770095883 0 -0.012182249823681473 0.0029902071918725 0 -0.012088100837040877 0.0029034293294549715 0 -0.012182249823681473 0.0029902071918725 0 -0.012228357331635922 0.0028145277433173008 0 -0.012182249823681473 0.0029902071918725 0 -0.012360298498368351 0.0028929931123450525 0 -0.012228357331635922 0.0028145277433173008 0 -0.012266929468666947 0.0031134486808421439 0 -0.012360298498368351 0.0028929931123450525 0 -0.012486252129689563 0.0029929079429066589 0 -0.012360298498368351 0.0028929931123450525 0 -0.012486252129689563 0.0029929079429066589 0 -0.012622864372482391 0.0027430763586203171 0 -0.012486252129689563 0.0029929079429066589 0 -0.012879378671929027 0.0029583330721347149 0 -0.01237919324495703 0.0032562487869060019 0 -0.012486252129689563 0.0029929079429066589 0 -0.012879378671929027 0.0029583330721347149 0 -0.012622864372482391 0.0027430763586203171 0 -0.011258943519438102 0.0030178346286172694 0 -0.011260396327349199 0.0033055405673552752 0 -0.012649688708605264 0.0034880129390704498 0 -0.012879378671929027 0.0029583330721347149 0 -0.01237919324495703 0.0032562487869060019 0 -0.011258943519438102 0.0030178346286172694 0 -0.011525536173762858 0.0031801413735687567 0 -0.012282449333640781 0.0032368520111991468 0 -0.012266929468666947 0.0031134486808421439 0 -0.01237919324495703 0.0032562487869060019 0 -0.012266929468666947 0.0031134486808421439 0 -0.012486252129689563 0.0029929079429066589 0 -0.01237919324495703 0.0032562487869060019 0 -0.012624474740034083 0.0023852634129297541 0 -0.012404414523009066 0.0024661817948514867 0 -0.01241547303321593 0.0026532711243350987 0 -0.012624474740034083 0.0023852634129297541 0 -0.012404414523009066 0.0024661817948514867 0 -0.012434640994207422 0.0022331000750429883 0 -0.012624474740034083 0.0023852634129297541 0 -0.012434640994207422 0.0022331000750429883 0 -0.012592637599396181 0.0020899284677029445 0 -0.013089670395422895 0.0024560019264976986 0 -0.012624474740034083 0.0023852634129297541 0 -0.012856236277875768 0.0020498791468715667 0 -0.013089670395422895 0.0024560019264976986 0 -0.012879378671929027 0.0029583330721347149 0 -0.012622864372482391 0.0027430763586203171 0 -0.013089670395422895 0.0024560019264976986 0 -0.012624474740034083 0.0023852634129297541 0 -0.012622864372482391 0.0027430763586203171 0 -0.012624474740034083 0.0023852634129297541 0 -0.012622864372482391 0.0027430763586203171 0 -0.01241547303321593 0.0026532711243350987 0 -0.012360298498368351 0.0028929931123450525 0 -0.012622864372482391 0.0027430763586203171 0 -0.01241547303321593 0.0026532711243350987 0 -0.01241547303321593 0.0026532711243350987 0 -0.012228357331635922 0.0028145277433173008 0 -0.012231953754382643 0.0026386076154975261 0 -0.012360298498368351 0.0028929931123450525 0 -0.01241547303321593 0.0026532711243350987 0 -0.012228357331635922 0.0028145277433173008 0 -0.012088100837040877 0.0029034293294549715 0 -0.012228357331635922 0.0028145277433173008 0 -0.012125862126919849 0.002759025620287279 0 -0.012228357331635922 0.0028145277433173008 0 -0.012125862126919849 0.002759025620287279 0 -0.012231953754382643 0.0026386076154975261 0 -0.012231953754382643 0.0026386076154975261 0 -0.012086617866185074 0.0026307853719089178 0 -0.012145054761451916 0.0024944824826075643 0 -0.012125862126919849 0.002759025620287279 0 -0.012231953754382643 0.0026386076154975261 0 -0.012086617866185074 0.0026307853719089178 0 -0.012404414523009066 0.0024661817948514867 0 -0.01241547303321593 0.0026532711243350987 0 -0.012231953754382643 0.0026386076154975261 0 -0.011969543620569515 0.0028771671044389388 0 -0.011881593780492564 0.0028882732826850366 0 -0.011865894185630504 0.0027878866504556688 0 -0.011969543620569515 0.0028771671044389388 0 -0.011865894185630504 0.0027878866504556688 0 -0.012020301733542311 0.0027723456853073064 0 -0.011865894185630504 0.0027878866504556688 0 -0.012020301733542311 0.0027723456853073064 0 -0.011968576910953082 0.0026683877819926589 0 -0.012088100837040877 0.0029034293294549715 0 -0.011969543620569515 0.0028771671044389388 0 -0.012020301733542311 0.0027723456853073064 0 -0.012088100837040877 0.0029034293294549715 0 -0.012125862126919849 0.002759025620287279 0 -0.012020301733542311 0.0027723456853073064 0 -0.012125862126919849 0.002759025620287279 0 -0.012020301733542311 0.0027723456853073064 0 -0.012086617866185074 0.0026307853719089178 0 -0.012086617866185074 0.0026307853719089178 0 -0.011992890458724596 0.0024982809136312838 0 -0.012145054761451916 0.0024944824826075643 0 -0.012086617866185074 0.0026307853719089178 0 -0.011968576910953082 0.0026683877819926589 0 -0.011992890458724596 0.0024982809136312838 0 -0.012020301733542311 0.0027723456853073064 0 -0.012086617866185074 0.0026307853719089178 0 -0.011968576910953082 0.0026683877819926589 0 -0.011862391441694957 0.0026319841517116875 0 -0.011832023026293489 0.0025131813606913498 0 -0.011992890458724596 0.0024982809136312838 0 -0.011865894185630504 0.0027878866504556688 0 -0.011968576910953082 0.0026683877819926589 0 -0.011862391441694957 0.0026319841517116875 0 -0.011968576910953082 0.0026683877819926589 0 -0.011862391441694957 0.0026319841517116875 0 -0.011992890458724596 0.0024982809136312838 0 -0.011862391441694957 0.0026319841517116875 0 -0.011832023026293489 0.0025131813606913498 0 -0.011735775087002437 0.0026565409823638567 0 -0.011865894185630504 0.0027878866504556688 0 -0.011862391441694957 0.0026319841517116875 0 -0.011735775087002437 0.0026565409823638567 0 -0.011846927509300102 0.0023530010436490795 0 -0.011832023026293489 0.0025131813606913498 0 -0.011992890458724596 0.0024982809136312838 0 -0.011846927509300102 0.0023530010436490795 0 -0.011992890458724596 0.0024982809136312838 0 -0.011989917238937414 0.0022837438114228221 0 -0.011992890458724596 0.0024982809136312838 0 -0.012124243172342583 0.0023295424810389283 0 -0.011989917238937414 0.0022837438114228221 0 -0.011992890458724596 0.0024982809136312838 0 -0.012124243172342583 0.0023295424810389283 0 -0.012145054761451916 0.0024944824826075643 0 -0.011989917238937414 0.0022837438114228221 0 -0.011908174212927697 0.0021235176724833261 0 -0.012074990936871666 0.0021657157527697709 0 -0.012124243172342583 0.0023295424810389283 0 -0.011989917238937414 0.0022837438114228221 0 -0.012074990936871666 0.0021657157527697709 0 -0.011846927509300102 0.0023530010436490795 0 -0.011989917238937414 0.0022837438114228221 0 -0.011908174212927697 0.0021235176724833261 0 -0.011846927509300102 0.0023530010436490795 0 -0.011908174212927697 0.0021235176724833261 0 -0.011727237448121939 0.0022428982909529363 0 -0.012404414523009066 0.0024661817948514867 0 -0.012434640994207422 0.0022331000750429883 0 -0.012268839346943672 0.0023708001036551632 0 -0.012404414523009066 0.0024661817948514867 0 -0.012231953754382643 0.0026386076154975261 0 -0.012268839346943672 0.0023708001036551632 0 -0.012124243172342583 0.0023295424810389283 0 -0.012268839346943672 0.0023708001036551632 0 -0.012145054761451916 0.0024944824826075643 0 -0.012231953754382643 0.0026386076154975261 0 -0.012268839346943672 0.0023708001036551632 0 -0.012145054761451916 0.0024944824826075643 0 -0.012124243172342583 0.0023295424810389283 0 -0.01223800997510323 0.0021486265488033711 0 -0.012074990936871666 0.0021657157527697709 0 -0.012124243172342583 0.0023295424810389283 0 -0.012268839346943672 0.0023708001036551632 0 -0.01223800997510323 0.0021486265488033711 0 -0.012434640994207422 0.0022331000750429883 0 -0.012268839346943672 0.0023708001036551632 0 -0.01223800997510323 0.0021486265488033711 0 -0.012434640994207422 0.0022331000750429883 0 -0.01223800997510323 0.0021486265488033711 0 -0.012424265382757763 0.0019977010390638847 0 -0.01223800997510323 0.0021486265488033711 0 -0.012274821231517708 0.0019158290320920913 0 -0.012424265382757763 0.0019977010390638847 0 -0.01223800997510323 0.0021486265488033711 0 -0.012274821231517708 0.0019158290320920913 0 -0.01210504808691892 0.0019442341367722005 0 -0.012274821231517708 0.0019158290320920913 0 -0.01210504808691892 0.0019442341367722005 0 -0.012238872225058645 0.0017234454893930412 0 -0.012274821231517708 0.0019158290320920913 0 -0.012387036026960634 0.001803938741948593 0 -0.012424265382757763 0.0019977010390638847 0 -0.01223800997510323 0.0021486265488033711 0 -0.012074990936871666 0.0021657157527697709 0 -0.01210504808691892 0.0019442341367722005 0 -0.011908174212927697 0.0021235176724833261 0 -0.012074990936871666 0.0021657157527697709 0 -0.01210504808691892 0.0019442341367722005 0 -0.01210504808691892 0.0019442341367722005 0 -0.012098489256368514 0.0017407086977571577 0 -0.011875742823103984 0.0018513963713529455 0 -0.011908174212927697 0.0021235176724833261 0 -0.01210504808691892 0.0019442341367722005 0 -0.011875742823103984 0.0018513963713529455 0 -0.012098489256368514 0.0017407086977571577 0 -0.012052037619799411 0.0015996054640293868 0 -0.011875742823103984 0.0018513963713529455 0 -0.01210504808691892 0.0019442341367722005 0 -0.012098489256368514 0.0017407086977571577 0 -0.012238872225058645 0.0017234454893930412 0 -0.012098489256368514 0.0017407086977571577 0 -0.012052037619799411 0.0015996054640293868 0 -0.012132099381033828 0.001537864321674831 0 -0.012554014210635192 0.001280336800980794 0 -0.012629035038597903 0.0012289718689037002 0 -0.012098489256368514 0.0017407086977571577 0 -0.012238872225058645 0.0017234454893930412 0 -0.012132099381033828 0.001537864321674831 0 -0.012387036026960634 0.001803938741948593 0 -0.012238872225058645 0.0017234454893930412 0 -0.012421348623827322 0.0016176560545933417 0 -0.012274821231517708 0.0019158290320920913 0 -0.012387036026960634 0.001803938741948593 0 -0.012238872225058645 0.0017234454893930412 0 -0.012238872225058645 0.0017234454893930412 0 -0.012312727451062072 0.0015838615652135819 0 -0.012132099381033828 0.001537864321674831 0 -0.012238872225058645 0.0017234454893930412 0 -0.012312727451062072 0.0015838615652135819 0 -0.012421348623827322 0.0016176560545933417 0 -0.012421348623827322 0.0016176560545933417 0 -0.01258858977987201 0.001805544611151813 0 -0.012606982671546295 0.0015025780260878262 0 -0.01258858977987201 0.001805544611151813 0 -0.012826413743336639 0.0016050005476862133 0 -0.012606982671546295 0.0015025780260878262 0 -0.012387036026960634 0.001803938741948593 0 -0.012421348623827322 0.0016176560545933417 0 -0.01258858977987201 0.001805544611151813 0 -0.01258858977987201 0.001805544611151813 0 -0.012424265382757763 0.0019977010390638847 0 -0.012592637599396181 0.0020899284677029445 0 -0.012387036026960634 0.001803938741948593 0 -0.01258858977987201 0.001805544611151813 0 -0.012424265382757763 0.0019977010390638847 0 -0.01258858977987201 0.001805544611151813 0 -0.012592637599396181 0.0020899284677029445 0 -0.012856236277875768 0.0020498791468715667 0 -0.012434640994207422 0.0022331000750429883 0 -0.012424265382757763 0.0019977010390638847 0 -0.012592637599396181 0.0020899284677029445 0 -0.012624474740034083 0.0023852634129297541 0 -0.012592637599396181 0.0020899284677029445 0 -0.012856236277875768 0.0020498791468715667 0 -0.013266048199910712 0.0019405823720578391 0 -0.012856236277875768 0.0020498791468715667 0 -0.012826413743336639 0.0016050005476862133 0 -0.01258858977987201 0.001805544611151813 0 -0.012856236277875768 0.0020498791468715667 0 -0.012826413743336639 0.0016050005476862133 0 -0.013036197981221473 0.0013929648508275345 0 -0.012826413743336639 0.0016050005476862133 0 -0.012824070288882959 0.0012181545999124703 0 -0.012826413743336639 0.0016050005476862133 0 -0.012606982671546295 0.0015025780260878262 0 -0.012824070288882959 0.0012181545999124703 0 -0.013021085045927056 0.0011936680235282934 0 -0.013036197981221473 0.0013929648508275345 0 -0.012824070288882959 0.0012181545999124703 0 -0.012606982671546295 0.0015025780260878262 0 -0.01252754240134901 0.0012905442314427103 0 -0.012415653994094125 0.0014897334106106824 0 -0.012421348623827322 0.0016176560545933417 0 -0.012606982671546295 0.0015025780260878262 0 -0.012415653994094125 0.0014897334106106824 0 -0.012606982671546295 0.0015025780260878262 0 -0.01252754240134901 0.0012905442314427103 0 -0.012824070288882959 0.0012181545999124703 0 -0.013175997585732352 0.00072426151624931459 0 -0.01358984424400037 0.00065439371159685769 0 -0.013379115471163414 0.00055099054490910884 0 -0.013105449428207938 0.00096492724291663231 0 -0.013425169965103992 0.00064391897456819399 0 -0.012908608584816527 0.0010030637775792926 0 -0.013421792614653979 0.00069313060127457432 0 -0.012931678876095417 0.001032673583880565 0 -0.013175997585732352 0.00072426151624931459 0 -0.01358984424400037 0.00065439371159685769 0 -0.012973993314671028 0.0011420597655330137 0 -0.01252754240134901 0.0012905442314427103 0 -0.012824070288882959 0.0012181545999124703 0 -0.012988322425588613 0.0010115833705994534 0 -0.013105449428207938 0.00096492724291663231 0 -0.013425169965103992 0.00064391897456819399 0 -0.013623076074819855 0.00069527932318266654 0 -0.012856640821545459 0.0010875959171851707 0 -0.013211102060501505 0.00086710467036870862 0 -0.013021085045927056 0.0011936680235282934 0 -0.012824070288882959 0.0012181545999124703 0 -0.013004659744853622 0.00099257876815357139 0 -0.013142353723173484 0.00093957816660914753 0 -0.013211102060501505 0.00086710467036870862 0 -0.013664272658058493 0.00035544827341693895 0 -0.013417807010996929 0.00040058368439675399 0 -0.013524050008547608 0.00018186653829534508 0 -0.013664272658058493 0.00035544827341693895 0 -0.013519194041339094 0.00049206613035949944 0 -0.013417807010996929 0.00040058368439675399 0 -0.01358984424400037 0.00065439371159685769 0 -0.013519194041339094 0.00049206613035949944 0 -0.013379115471163414 0.00055099054490910884 0 -0.01358984424400037 0.00065439371159685769 0 -0.013664272658058493 0.00035544827341693895 0 -0.013519194041339094 0.00049206613035949944 0 -0.013379115471163414 0.00055099054490910884 0 -0.013176115490502715 0.00048697296839498417 0 -0.013417807010996929 0.00040058368439675399 0 -0.013519194041339094 0.00049206613035949944 0 -0.013379115471163414 0.00055099054490910884 0 -0.013417807010996929 0.00040058368439675399 0 -0.013175997585732352 0.00072426151624931459 0 -0.013176115490502715 0.00048697296839498417 0 -0.012838213011657074 0.0006250883425942957 0 -0.013175997585732352 0.00072426151624931459 0 -0.013379115471163414 0.00055099054490910884 0 -0.013176115490502715 0.00048697296839498417 0 -0.013176115490502715 0.00048697296839498417 0 -0.013214902270822478 0.00025908320706298835 0 -0.012934332266913333 0.00036568127228814578 0 -0.013176115490502715 0.00048697296839498417 0 -0.013417807010996929 0.00040058368439675399 0 -0.013214902270822478 0.00025908320706298835 0 -0.013214902270822478 0.00025908320706298835 0 -0.013311063740181227 3.4195157936245889e-05 0 -0.013524050008547608 0.00018186653829534508 0 -0.013417807010996929 0.00040058368439675399 0 -0.013214902270822478 0.00025908320706298835 0 -0.013524050008547608 0.00018186653829534508 0 -0.013311063740181227 3.4195157936245889e-05 0 -0.013524050008547608 0.00018186653829534508 0 -0.013495548664128566 -5.791589605324765e-05 0 -0.013722005033325688 0.0002090298792470151 0 -0.013524050008547608 0.00018186653829534508 0 -0.013708218136628545 1.6191629621354548e-06 0 -0.013664272658058493 0.00035544827341693895 0 -0.013722005033325688 0.0002090298792470151 0 -0.013524050008547608 0.00018186653829534508 0 -0.012253250226525653 0.00019033715040689763 0 -0.012892901622248118 4.677785253943733e-05 0 -0.012301783416434562 -0.00013496544407931742 0 -0.012253250226525653 0.00019033715040689763 0 -0.012892901622248118 4.677785253943733e-05 0 -0.012500939268258 0.00042067271329785034 0 -0.012892901622248118 4.677785253943733e-05 0 -0.012934332266913333 0.00036568127228814578 0 -0.012500939268258 0.00042067271329785034 0 -0.013214902270822478 0.00025908320706298835 0 -0.013311063740181227 3.4195157936245889e-05 0 -0.012892901622248118 4.677785253943733e-05 0 -0.013214902270822478 0.00025908320706298835 0 -0.012892901622248118 4.677785253943733e-05 0 -0.012934332266913333 0.00036568127228814578 0 -0.013176115490502715 0.00048697296839498417 0 -0.012934332266913333 0.00036568127228814578 0 -0.012838213011657074 0.0006250883425942957 0 -0.012934332266913333 0.00036568127228814578 0 -0.012838213011657074 0.0006250883425942957 0 -0.012500939268258 0.00042067271329785034 0 -0.012500939268258 0.00042067271329785034 0 -0.012141972136777755 0.00064943022033577577 0 -0.011908255637418163 0.0004057466448311091 0 -0.012838213011657074 0.0006250883425942957 0 -0.012500939268258 0.00042067271329785034 0 -0.012450765334136971 0.00070028278441569656 0 -0.012253250226525653 0.00019033715040689763 0 -0.012500939268258 0.00042067271329785034 0 -0.011908255637418163 0.0004057466448311091 0 -0.012500939268258 0.00042067271329785034 0 -0.012141972136777755 0.00064943022033577577 0 -0.012450765334136971 0.00070028278441569656 0 -0.012141972136777755 0.00064943022033577577 0 -0.012450765334136971 0.00070028278441569656 0 -0.012270846992413681 0.00096470377406782581 0 -0.012450765334136971 0.00070028278441569656 0 -0.012270846992413681 0.00096470377406782581 0 -0.012671062897990961 0.00083678720289021209 0 -0.012270846992413681 0.00096470377406782581 0 -0.012671062897990961 0.00083678720289021209 0 -0.012673830523499125 0.0010283671300968739 0 -0.013175997585732352 0.00072426151624931459 0 -0.012838213011657074 0.0006250883425942957 0 -0.012892546909285912 0.0008615684954107562 0 -0.012838213011657074 0.0006250883425942957 0 -0.012671062897990961 0.00083678720289021209 0 -0.012892546909285912 0.0008615684954107562 0 -0.012838213011657074 0.0006250883425942957 0 -0.012450765334136971 0.00070028278441569656 0 -0.012671062897990961 0.00083678720289021209 0 -0.012671062897990961 0.00083678720289021209 0 -0.012673830523499125 0.0010283671300968739 0 -0.012892546909285912 0.0008615684954107562 0 -0.012673830523499125 0.0010283671300968739 0 -0.012892546909285912 0.0008615684954107562 0 -0.012973993314671028 0.0011420597655330137 0 -0.013175997585732352 0.00072426151624931459 0 -0.012892546909285912 0.0008615684954107562 0 -0.012973993314671028 0.0011420597655330137 0 -0.013105449428207938 0.00096492724291663231 0 -0.012908608584816527 0.0010030637775792926 0 -0.012583450207656798 0.0012291798336651573 0 -0.012312727451062072 0.0015838615652135819 0 -0.012415653994094125 0.0014897334106106824 0 -0.012132099381033828 0.001537864321674831 0 -0.012973993314671028 0.0011420597655330137 0 -0.01243477344943184 0.0012095664145171958 0 -0.012440711256374483 0.0014492636021203509 0 -0.012673830523499125 0.0010283671300968739 0 -0.012973993314671028 0.0011420597655330137 0 -0.01243477344943184 0.0012095664145171958 0 -0.012856640821545459 0.0010875959171851707 0 -0.012629035038597903 0.0012289718689037002 0 -0.01252754240134901 0.0012905442314427103 0 -0.012415653994094125 0.0014897334106106824 0 -0.012132099381033828 0.001537864321674831 0 -0.012931678876095417 0.001032673583880565 0 -0.012629035038597903 0.0012289718689037002 0 -0.012312727451062072 0.0015838615652135819 0 -0.012421348623827322 0.0016176560545933417 0 -0.012415653994094125 0.0014897334106106824 0 -0.012270846992413681 0.00096470377406782581 0 -0.012117659704572733 0.0012966620200916431 0 -0.011831744501502161 0.0012126091081593642 0 -0.012270846992413681 0.00096470377406782581 0 -0.01243477344943184 0.0012095664145171958 0 -0.012117659704572733 0.0012966620200916431 0 -0.012270846992413681 0.00096470377406782581 0 -0.012673830523499125 0.0010283671300968739 0 -0.01243477344943184 0.0012095664145171958 0 -0.012052037619799411 0.0015996054640293868 0 -0.01243477344943184 0.0012095664145171958 0 -0.012440711256374483 0.0014492636021203509 0 -0.012052037619799411 0.0015996054640293868 0 -0.012117659704572733 0.0012966620200916431 0 -0.011831744501502161 0.0012126091081593642 0 -0.012052037619799411 0.0015996054640293868 0 -0.01243477344943184 0.0012095664145171958 0 -0.012117659704572733 0.0012966620200916431 0 -0.011831744501502161 0.0012126091081593642 0 -0.011409535999034642 0.001239946240132759 0 -0.011722755559276521 0.00080097665638038007 0 -0.011831744501502161 0.0012126091081593642 0 -0.011409535999034642 0.001239946240132759 0 -0.011665996064265209 0.0015731108370652576 0 -0.011409535999034642 0.001239946240132759 0 -0.011111111942647368 0.00080633647037706656 0 -0.010863431907805437 0.0013041781333701307 0 -0.011409535999034642 0.001239946240132759 0 -0.011722755559276521 0.00080097665638038007 0 -0.011111111942647368 0.00080633647037706656 0 -0.011722755559276521 0.00080097665638038007 0 -0.011372269093597297 0.00038575879808568336 0 -0.011111111942647368 0.00080633647037706656 0 -0.012270846992413681 0.00096470377406782581 0 -0.011831744501502161 0.0012126091081593642 0 -0.011722755559276521 0.00080097665638038007 0 -0.012141972136777755 0.00064943022033577577 0 -0.012270846992413681 0.00096470377406782581 0 -0.011722755559276521 0.00080097665638038007 0 -0.011722755559276521 0.00080097665638038007 0 -0.011908255637418163 0.0004057466448311091 0 -0.011372269093597297 0.00038575879808568336 0 -0.012141972136777755 0.00064943022033577577 0 -0.011722755559276521 0.00080097665638038007 0 -0.011908255637418163 0.0004057466448311091 0 -0.011908255637418163 0.0004057466448311091 0 -0.011372269093597297 0.00038575879808568336 0 -0.011668406831200535 -2.8581356666446363e-05 0 -0.011372269093597297 0.00038575879808568336 0 -0.011668406831200535 -2.8581356666446363e-05 0 -0.011038254432476687 -7.4886620991535389e-05 0 -0.012253250226525653 0.00019033715040689763 0 -0.011908255637418163 0.0004057466448311091 0 -0.011668406831200535 -2.8581356666446363e-05 0 -0.012253250226525653 0.00019033715040689763 0 -0.011668406831200535 -2.8581356666446363e-05 0 -0.012301783416434562 -0.00013496544407931742 0 -0.010606225481858442 -2.9585628722042631e-05 0 -0.011038254432476687 -7.4886620991535389e-05 0 -0.010811579904587025 0.00037673416278523916 0 -0.011372269093597297 0.00038575879808568336 0 -0.011038254432476687 -7.4886620991535389e-05 0 -0.010811579904587025 0.00037673416278523916 0 -0.011372269093597297 0.00038575879808568336 0 -0.010811579904587025 0.00037673416278523916 0 -0.011111111942647368 0.00080633647037706656 0 -0.010811579904587025 0.00037673416278523916 0 -0.010486759332755983 0.00084483826451297781 0 -0.0103137766992964 0.00031812837444061891 0 -0.010606225481858442 -2.9585628722042631e-05 0 -0.010811579904587025 0.00037673416278523916 0 -0.0103137766992964 0.00031812837444061891 0 -0.010366253203314626 0.00048604288743537069 0 -0.010218480021057779 0.0001352957699294122 0 -0.010811579904587025 0.00037673416278523916 0 -0.011111111942647368 0.00080633647037706656 0 -0.010486759332755983 0.00084483826451297781 0 -0.011111111942647368 0.00080633647037706656 0 -0.010863431907805437 0.0013041781333701307 0 -0.010486759332755983 0.00084483826451297781 0 -0.010863431907805437 0.0013041781333701307 0 -0.010486759332755983 0.00084483826451297781 0 -0.010121059430062761 0.0015360864653285659 0 -0.010863431907805437 0.0013041781333701307 0 -0.010121059430062761 0.0015360864653285659 0 -0.010735879070429536 0.0017979755358239792 0 -0.010278082575186235 0.0020261094899755787 0 -0.010735879070429536 0.0017979755358239792 0 -0.010546203262294088 0.0023108050375828196 0 -0.010121059430062761 0.0015360864653285659 0 -0.010278082575186235 0.0020261094899755787 0 -0.010735879070429536 0.0017979755358239792 0 -0.010735879070429536 0.0017979755358239792 0 -0.011235413403183077 0.0016374449319316762 0 -0.01114500070460098 0.0020133639224251265 0 -0.010735879070429536 0.0017979755358239792 0 -0.010546203262294088 0.0023108050375828196 0 -0.010894477601675875 0.0022047578830482971 0 -0.010735879070429536 0.0017979755358239792 0 -0.01114500070460098 0.0020133639224251265 0 -0.010894477601675875 0.0022047578830482971 0 -0.010863431907805437 0.0013041781333701307 0 -0.010735879070429536 0.0017979755358239792 0 -0.011235413403183077 0.0016374449319316762 0 -0.011409535999034642 0.001239946240132759 0 -0.011235413403183077 0.0016374449319316762 0 -0.011665996064265209 0.0015731108370652576 0 -0.011409535999034642 0.001239946240132759 0 -0.010863431907805437 0.0013041781333701307 0 -0.011235413403183077 0.0016374449319316762 0 -0.011235413403183077 0.0016374449319316762 0 -0.011665996064265209 0.0015731108370652576 0 -0.011537495828703174 0.0019428924609580017 0 -0.011665996064265209 0.0015731108370652576 0 -0.011875742823103984 0.0018513963713529455 0 -0.011537495828703174 0.0019428924609580017 0 -0.012052037619799411 0.0015996054640293868 0 -0.011831744501502161 0.0012126091081593642 0 -0.011665996064265209 0.0015731108370652576 0 -0.012052037619799411 0.0015996054640293868 0 -0.011665996064265209 0.0015731108370652576 0 -0.011875742823103984 0.0018513963713529455 0 -0.011875742823103984 0.0018513963713529455 0 -0.011537495828703174 0.0019428924609580017 0 -0.011729392863148676 0.0020675542089354229 0 -0.011537495828703174 0.0019428924609580017 0 -0.011588718277494451 0.002168711081703916 0 -0.011729392863148676 0.0020675542089354229 0 -0.011537495828703174 0.0019428924609580017 0 -0.011588718277494451 0.002168711081703916 0 -0.011381293424294916 0.0022340761299844696 0 -0.011908174212927697 0.0021235176724833261 0 -0.011875742823103984 0.0018513963713529455 0 -0.011729392863148676 0.0020675542089354229 0 -0.011908174212927697 0.0021235176724833261 0 -0.011729392863148676 0.0020675542089354229 0 -0.011727237448121939 0.0022428982909529363 0 -0.011588718277494451 0.002168711081703916 0 -0.011729392863148676 0.0020675542089354229 0 -0.011727237448121939 0.0022428982909529363 0 -0.011235413403183077 0.0016374449319316762 0 -0.011537495828703174 0.0019428924609580017 0 -0.01114500070460098 0.0020133639224251265 0 -0.011537495828703174 0.0019428924609580017 0 -0.01114500070460098 0.0020133639224251265 0 -0.011381293424294916 0.0022340761299844696 0 -0.01114500070460098 0.0020133639224251265 0 -0.01110763789147952 0.0024353274719742263 0 -0.010894477601675875 0.0022047578830482971 0 -0.01114500070460098 0.0020133639224251265 0 -0.011381293424294916 0.0022340761299844696 0 -0.01110763789147952 0.0024353274719742263 0 -0.011381293424294916 0.0022340761299844696 0 -0.011359467740131498 0.0024966766451136224 0 -0.011559544283625638 0.0023552353648897493 0 -0.011381293424294916 0.0022340761299844696 0 -0.011359467740131498 0.0024966766451136224 0 -0.01110763789147952 0.0024353274719742263 0 -0.011359467740131498 0.0024966766451136224 0 -0.01110763789147952 0.0024353274719742263 0 -0.011154710576776028 0.0026605320135122306 0 -0.011846927509300102 0.0023530010436490795 0 -0.011727237448121939 0.0022428982909529363 0 -0.011715890622941039 0.0024355278286956553 0 -0.011727237448121939 0.0022428982909529363 0 -0.011559544283625638 0.0023552353648897493 0 -0.011715890622941039 0.0024355278286956553 0 -0.011588718277494451 0.002168711081703916 0 -0.011381293424294916 0.0022340761299844696 0 -0.011559544283625638 0.0023552353648897493 0 -0.011588718277494451 0.002168711081703916 0 -0.011727237448121939 0.0022428982909529363 0 -0.011559544283625638 0.0023552353648897493 0 -0.011359467740131498 0.0024966766451136224 0 -0.011559544283625638 0.0023552353648897493 0 -0.011573682638349146 0.0025496363529014803 0 -0.011559544283625638 0.0023552353648897493 0 -0.011715890622941039 0.0024355278286956553 0 -0.011573682638349146 0.0025496363529014803 0 -0.011846927509300102 0.0023530010436490795 0 -0.011832023026293489 0.0025131813606913498 0 -0.011715890622941039 0.0024355278286956553 0 -0.011832023026293489 0.0025131813606913498 0 -0.011715890622941039 0.0024355278286956553 0 -0.011735775087002437 0.0026565409823638567 0 -0.011715890622941039 0.0024355278286956553 0 -0.011735775087002437 0.0026565409823638567 0 -0.011573682638349146 0.0025496363529014803 0 -0.011735775087002437 0.0026565409823638567 0 -0.011571905061640752 0.0027210823839679812 0 -0.011573682638349146 0.0025496363529014803 0 -0.011571905061640752 0.0027210823839679812 0 -0.011573682638349146 0.0025496363529014803 0 -0.011366862115334815 0.0027359017613149258 0 -0.011455097802020779 0.0029627250602088004 0 -0.011571905061640752 0.0027210823839679812 0 -0.011366862115334815 0.0027359017613149258 0 -0.011455097802020779 0.0029627250602088004 0 -0.011571905061640752 0.0027210823839679812 0 -0.011689112949468573 0.0028265480641188091 0 -0.011735775087002437 0.0026565409823638567 0 -0.011571905061640752 0.0027210823839679812 0 -0.011689112949468573 0.0028265480641188091 0 -0.011758465285777011 0.0029756561655361045 0 -0.011865894185630504 0.0027878866504556688 0 -0.011689112949468573 0.0028265480641188091 0 -0.011865894185630504 0.0027878866504556688 0 -0.011735775087002437 0.0026565409823638567 0 -0.011689112949468573 0.0028265480641188091 0 -0.01110763789147952 0.0024353274719742263 0 -0.011154710576776028 0.0026605320135122306 0 -0.010859372950297028 0.0026639434643977761 0 -0.011154710576776028 0.0026605320135122306 0 -0.01111893819973825 0.0029367757369935556 0 -0.010859372950297028 0.0026639434643977761 0 -0.011359467740131498 0.0024966766451136224 0 -0.011154710576776028 0.0026605320135122306 0 -0.011366862115334815 0.0027359017613149258 0 -0.011359467740131498 0.0024966766451136224 0 -0.011573682638349146 0.0025496363529014803 0 -0.011366862115334815 0.0027359017613149258 0 -0.011455097802020779 0.0029627250602088004 0 -0.011366862115334815 0.0027359017613149258 0 -0.01111893819973825 0.0029367757369935556 0 -0.011154710576776028 0.0026605320135122306 0 -0.011366862115334815 0.0027359017613149258 0 -0.01111893819973825 0.0029367757369935556 0 -0.010768200787874466 0.0030396103662638273 0 -0.010859372950297028 0.0026639434643977761 0 -0.01039729039393943 0.002791579091900271 0 -0.010768200787874466 0.0030396103662638273 0 -0.01111893819973825 0.0029367757369935556 0 -0.010859372950297028 0.0026639434643977761 0 -0.010859372950297028 0.0026639434643977761 0 -0.01039729039393943 0.002791579091900271 0 -0.010546203262294088 0.0023108050375828196 0 -0.01039729039393943 0.002791579091900271 0 -0.010151505107843494 0.0023776754609050603 0 -0.0097775723059900423 0.0026344565673437118 0 -0.01039729039393943 0.002791579091900271 0 -0.010151505107843494 0.0023776754609050603 0 -0.010546203262294088 0.0023108050375828196 0 -0.010278082575186235 0.0020261094899755787 0 -0.010151505107843494 0.0023776754609050603 0 -0.010546203262294088 0.0023108050375828196 0 -0.01110763789147952 0.0024353274719742263 0 -0.010859372950297028 0.0026639434643977761 0 -0.010894477601675875 0.0022047578830482971 0 -0.010859372950297028 0.0026639434643977761 0 -0.010546203262294088 0.0023108050375828196 0 -0.010894477601675875 0.0022047578830482971 0 -0.0094175691739145605 0.0022114689365616766 0 -0.0090872057840838804 0.0025739740006858959 0 -0.0090688589970327697 0.001895403479676131 0 -0.0094175691739145605 0.0022114689365616766 0 -0.0097775723059900423 0.0026344565673437118 0 -0.0090872057840838804 0.0025739740006858959 0 -0.0094175691739145605 0.0022114689365616766 0 -0.0098169628511800781 0.0021044791299944716 0 -0.0097775723059900423 0.0026344565673437118 0 -0.010151505107843494 0.0023776754609050603 0 -0.0098169628511800781 0.0021044791299944716 0 -0.0097775723059900423 0.0026344565673437118 0 -0.010278082575186235 0.0020261094899755787 0 -0.010151505107843494 0.0023776754609050603 0 -0.0098169628511800781 0.0021044791299944716 0 -0.0099199336148717097 0.0030879036264021857 0 -0.01039729039393943 0.002791579091900271 0 -0.0097775723059900423 0.0026344565673437118 0 -0.0099199336148717097 0.0030879036264021857 0 -0.0097775723059900423 0.0026344565673437118 0 -0.0094299235295842825 0.0029813070896918732 0 -0.0097775723059900423 0.0026344565673437118 0 -0.0094299235295842825 0.0029813070896918732 0 -0.0090872057840838804 0.0025739740006858959 0 -0.0086823875753830118 0.0033416405720601214 0 -0.0094299235295842825 0.0029813070896918732 0 -0.0090872057840838804 0.0025739740006858959 0 -0.0086823875753830118 0.0033416405720601214 0 -0.0090872057840838804 0.0025739740006858959 0 -0.0082600942727856178 0.0024597475425801874 0 -0.0053244045217522365 0.0018411201101001748 0 -0.0060083629664442195 0.0013307942169528257 0 -0.0043692403809072033 0.00013145412506864232 0 -0.0045212150281518796 0.00014918663589958106 0 -0.0044337024804730913 2.9054261706764316e-05 0 -0.0045212150281518796 0.00014918663589958106 0 -0.0044337024804730913 2.9054261706764316e-05 0 -0.0044441588748956864 1.6542653297085078e-05 0 -0.0090872057840838804 0.0025739740006858959 0 -0.0090688589970327697 0.001895403479676131 0 -0.0085395649139001079 0.0019680781222850322 0 -0.0090872057840838804 0.0025739740006858959 0 -0.0082600942727856178 0.0024597475425801874 0 -0.0085395649139001079 0.0019680781222850322 0 -0.0090688589970327697 0.001895403479676131 0 -0.0084361835278838268 0.0013610279455523254 0 -0.0090602235411691347 0.0013866007891677277 0 -0.0090688589970327697 0.001895403479676131 0 -0.0085395649139001079 0.0019680781222850322 0 -0.0084361835278838268 0.0013610279455523254 0 -0.0085395649139001079 0.0019680781222850322 0 -0.0084361835278838268 0.0013610279455523254 0 -0.0078061293533356309 0.0014976224335234161 0 -0.0060083629664442195 0.0013307942169528257 0 -0.0062988085088646392 0.00064436744717968723 0 -0.0082600942727856178 0.0024597475425801874 0 -0.0085395649139001079 0.0019680781222850322 0 -0.0078061293533356309 0.0014976224335234161 0 -0.0084361835278838268 0.0013610279455523254 0 -0.0079715212360883334 0.00096347442069566133 0 -0.0077417234798220404 0.0013949269226805382 0 -0.006995932596678218 0.00064089576722616286 0 -0.0062988085088646392 0.00064436744717968723 0 -0.0084361835278838268 0.0013610279455523254 0 -0.0088141507080861676 0.00093277899479996559 0 -0.008254972474490533 0.00078061507240039494 0 -0.0084361835278838268 0.0013610279455523254 0 -0.0079715212360883334 0.00096347442069566133 0 -0.008254972474490533 0.00078061507240039494 0 -0.0084361835278838268 0.0013610279455523254 0 -0.0090602235411691347 0.0013866007891677277 0 -0.0088141507080861676 0.00093277899479996559 0 -0.0090602235411691347 0.0013866007891677277 0 -0.0095099058480523253 0.0016670042170897506 0 -0.0094490972347992513 0.0010915049302827938 0 -0.0090602235411691347 0.0013866007891677277 0 -0.0094490972347992513 0.0010915049302827938 0 -0.0088141507080861676 0.00093277899479996559 0 -0.0094175691739145605 0.0022114689365616766 0 -0.0098169628511800781 0.0021044791299944716 0 -0.0095099058480523253 0.0016670042170897506 0 -0.0094175691739145605 0.0022114689365616766 0 -0.0090688589970327697 0.001895403479676131 0 -0.0095099058480523253 0.0016670042170897506 0 -0.0090688589970327697 0.001895403479676131 0 -0.0090602235411691347 0.0013866007891677277 0 -0.0095099058480523253 0.0016670042170897506 0 -0.010121059430062761 0.0015360864653285659 0 -0.010278082575186235 0.0020261094899755787 0 -0.0098169628511800781 0.0021044791299944716 0 -0.010121059430062761 0.0015360864653285659 0 -0.0098169628511800781 0.0021044791299944716 0 -0.0095099058480523253 0.0016670042170897506 0 -0.010121059430062761 0.0015360864653285659 0 -0.0095099058480523253 0.0016670042170897506 0 -0.0094490972347992513 0.0010915049302827938 0 -0.010486759332755983 0.00084483826451297781 0 -0.0094490972347992513 0.0010915049302827938 0 -0.0095217363385221888 0.00044592802513706355 0 -0.010486759332755983 0.00084483826451297781 0 -0.010121059430062761 0.0015360864653285659 0 -0.0094490972347992513 0.0010915049302827938 0 -0.0094490972347992513 0.0010915049302827938 0 -0.0095217363385221888 0.00044592802513706355 0 -0.0090078481497091103 0.00052145057910218278 0 -0.0094490972347992513 0.0010915049302827938 0 -0.0090078481497091103 0.00052145057910218278 0 -0.0088141507080861676 0.00093277899479996559 0 -0.0095217363385221888 0.00044592802513706355 0 -0.0090194894919711326 1.0678496061402701e-06 0 -0.0090078481497091103 0.00052145057910218278 0 -0.010486759332755983 0.00084483826451297781 0 -0.0095217363385221888 0.00044592802513706355 0 -0.0098436575128723093 -0.00010817677783924656 0 -0.0095217363385221888 0.00044592802513706355 0 -0.0098436575128723093 -0.00010817677783924656 0 -0.0090194894919711326 1.0678496061402701e-06 0 -0.0090194894919711326 1.0678496061402701e-06 0 -0.0086994533073442657 -0.00045268173941279458 0 -0.0093552417157379796 -0.00072343750875085802 0 -0.0098436575128723093 -0.00010817677783924656 0 -0.0090194894919711326 1.0678496061402701e-06 0 -0.0093552417157379796 -0.00072343750875085802 0 -0.010218480021057779 0.0001352957699294122 0 -0.010243435682773656 -8.7495796325807312e-05 0 -0.010606225481858442 -2.9585628722042631e-05 0 -0.0103137766992964 0.00031812837444061891 0 -0.0099701723661768816 -0.00033855168868071828 0 -0.0086994533073442657 -0.00045268173941279458 0 -0.0084937586692106389 -0.00012941396295973494 0 -0.0083572993736009109 -0.0002947955870846425 0 -0.0090194894919711326 1.0678496061402701e-06 0 -0.0086994533073442657 -0.00045268173941279458 0 -0.0084937586692106389 -0.00012941396295973494 0 -0.0090194894919711326 1.0678496061402701e-06 0 -0.0084937586692106389 -0.00012941396295973494 0 -0.0083807493284714409 0.00032314448132437541 0 -0.0084937586692106389 -0.00012941396295973494 0 -0.0083807493284714409 0.00032314448132437541 0 -0.0081178554777251964 -1.8119332248354267e-05 0 -0.0084937586692106389 -0.00012941396295973494 0 -0.0081178554777251964 -1.8119332248354267e-05 0 -0.0083572993736009109 -0.0002947955870846425 0 -0.0090194894919711326 1.0678496061402701e-06 0 -0.0083807493284714409 0.00032314448132437541 0 -0.0090078481497091103 0.00052145057910218278 0 -0.0083807493284714409 0.00032314448132437541 0 -0.0090078481497091103 0.00052145057910218278 0 -0.0088141507080861676 0.00093277899479996559 0 -0.0083807493284714409 0.00032314448132437541 0 -0.008254972474490533 0.00078061507240039494 0 -0.0077925629795579307 0.00053347385662971076 0 -0.0083807493284714409 0.00032314448132437541 0 -0.0088141507080861676 0.00093277899479996559 0 -0.008254972474490533 0.00078061507240039494 0 -0.0079715212360883334 0.00096347442069566133 0 -0.008254972474490533 0.00078061507240039494 0 -0.0077925629795579307 0.00053347385662971076 0 -0.0077925629795579307 0.00053347385662971076 0 -0.0073432622850994394 0.00041787074122511377 0 -0.0075325978452074737 0.00078469439124736714 0 -0.0077925629795579307 0.00053347385662971076 0 -0.0073432622850994394 0.00041787074122511377 0 -0.0077148686348690616 0.00019339581112772343 0 -0.0073432622850994394 0.00041787074122511377 0 -0.0077148686348690616 0.00019339581112772343 0 -0.0069808609933776373 0.00012402022460736048 0 -0.0073432622850994394 0.00041787074122511377 0 -0.0069808609933776373 0.00012402022460736048 0 -0.0068473409330354817 0.00043855806453822841 0 -0.0073432622850994394 0.00041787074122511377 0 -0.0068473409330354817 0.00043855806453822841 0 -0.0075325978452074737 0.00078469439124736714 0 -0.0077148686348690616 0.00019339581112772343 0 -0.0077776711216622592 -0.00010115755206445361 0 -0.0069808609933776373 0.00012402022460736048 0 -0.0083807493284714409 0.00032314448132437541 0 -0.0077925629795579307 0.00053347385662971076 0 -0.0077148686348690616 0.00019339581112772343 0 -0.0083807493284714409 0.00032314448132437541 0 -0.0077148686348690616 0.00019339581112772343 0 -0.0081178554777251964 -1.8119332248354267e-05 0 -0.0081178554777251964 -1.8119332248354267e-05 0 -0.0077776711216622592 -0.00010115755206445361 0 -0.0083572993736009109 -0.0002947955870846425 0 -0.0077148686348690616 0.00019339581112772343 0 -0.0081178554777251964 -1.8119332248354267e-05 0 -0.0077776711216622592 -0.00010115755206445361 0 -0.0077776711216622592 -0.00010115755206445361 0 -0.0081664722624789233 -0.00023150146606375072 0 -0.0079763087260673673 -0.00017813027136686868 0 -0.0077776711216622592 -0.00010115755206445361 0 -0.0081664722624789233 -0.00023150146606375072 0 -0.0083572993736009109 -0.0002947955870846425 0 -0.0073978341281123565 -2.7803633317189835e-07 0 -0.0072767722105663854 -6.1323599619804244e-05 0 -0.0079763087260673673 -0.00017813027136686868 0 -0.0077776711216622592 -0.00010115755206445361 0 -0.0072767722105663854 -6.1323599619804244e-05 0 -0.0079763087260673673 -0.00017813027136686868 0 -0.0077776711216622592 -0.00010115755206445361 0 -0.0072767722105663854 -6.1323599619804244e-05 0 -0.0069808609933776373 0.00012402022460736048 0 -0.0073978341281123565 -2.7803633317189835e-07 0 -0.0072767722105663854 -6.1323599619804244e-05 0 -0.0065327684791025983 6.3259068822226839e-08 0 -0.0069808609933776373 0.00012402022460736048 0 -0.0056669560658064106 -3.0336565718769108e-07 0 -0.0068473409330354817 0.00043855806453822841 0 -0.0065327684791025983 6.3259068822226839e-08 0 -0.0069808609933776373 0.00012402022460736048 0 -0.0056669560658064106 -3.0336565718769108e-07 0 -0.0072767722105663854 -6.1323599619804244e-05 0 -0.0065327684791025983 6.3259068822226839e-08 0 -0.0069808609933776373 0.00012402022460736048 0 -0.0056669560658064106 -3.0336565718769108e-07 0 -0.0065191557729675966 0.00077162678002108372 0 -0.0068473409330354817 0.00043855806453822841 0 -0.0056669560658064106 -3.0336565718769108e-07 0 -0.0048039834166651264 2.2457412847912683e-06 0 -0.0065191557729675966 0.00077162678002108372 0 -0.0048027099258619935 6.4093663928298852e-07 0 -0.005606837797387825 0.00032016604437660773 0 -0.0048000435114132082 -1.202574394656931e-07 0 -0.0044509187975447671 6.6869104065735738e-05 0 -0.0044656023532335665 -3.4638386341255411e-05 0 -0.0065191557729675966 0.00077162678002108372 0 -0.0068473409330354817 0.00043855806453822841 0 -0.0075325978452074737 0.00078469439124736714 0 -0.0065191557729675966 0.00077162678002108372 0 -0.0075325978452074737 0.00078469439124736714 0 -0.0076387216428804175 0.0010566016776692659 0 -0.0079715212360883334 0.00096347442069566133 0 -0.0077925629795579307 0.00053347385662971076 0 -0.0075325978452074737 0.00078469439124736714 0 -0.0064210966040707546 0.00077115182475265981 0 -0.0062988085088646392 0.00064436744717968723 0 -0.0079715212360883334 0.00096347442069566133 0 -0.0075325978452074737 0.00078469439124736714 0 -0.0077417234798220404 0.0013949269226805382 0 -0.005606837797387825 0.00032016604437660773 0 -0.0062988085088646392 0.00064436744717968723 0 -0.0044509187975447671 6.6869104065735738e-05 0 -0.0044393314259948708 4.2770798559427553e-05 0 -0.0044437613541499759 2.2284367646224437e-05 0 -0.0044509187975447671 6.6869104065735738e-05 0 -0.0044560196387256647 5.2734040333612798e-06 0 -0.0044437613541499759 2.2284367646224437e-05 0 -0.0044560196387256647 5.2734040333612798e-06 0 -0.0044437613541499759 2.2284367646224437e-05 0 -0.0044707879978501223 2.9813908764355065e-06 0 -0.0044337024804730913 2.9054261706764316e-05 0 -0.0044441588748956864 1.6542653297085078e-05 0 -0.0044437613541499759 2.2284367646224437e-05 0 -0.0044441588748956864 1.6542653297085078e-05 0 -0.0044393314259948708 4.2770798559427553e-05 0 -0.0044437613541499759 2.2284367646224437e-05 0 -0.0044337024804730913 2.9054261706764316e-05 0 -0.0044437613541499759 2.2284367646224437e-05 0 -0.0044707879978501223 2.9813908764355065e-06 0 -0.0043797201585558214 2.8863279778641391e-05 0 -0.0043016022550113903 3.8346716972299519e-05 0 -0.0043692403809072033 0.00013145412506864232 0 -0.0044337024804730913 2.9054261706764316e-05 0 -0.0042756282257702064 4.7074126174227001e-05 0 -0.0042035166519649543 0.00010991295854461562 0 -0.0043692403809072033 0.00013145412506864232 0 -0.0042756282257702064 4.7074126174227001e-05 0 -0.0043016022550113903 3.8346716972299519e-05 0 -0.0039779051937529585 7.9294980103847097e-05 0 -0.0042035166519649543 0.00010991295854461562 0 -0.0042756282257702064 4.7074126174227001e-05 0 -0.0041099400569813401 6.9851088783973804e-05 0 -0.0044707879978501223 2.9813908764355065e-06 0 -0.0044121781268464952 6.5298156826934913e-05 0 -0.0044656023532335665 -3.4638386341255411e-05 0 -0.0035731317597449161 0.00033903039217787989 0 -0.0039779051937529585 7.9294980103847097e-05 0 -0.0035731317597449161 0.00033903039217787989 0 -0.0038613819844620775 6.4655260909063402e-07 0 -0.0040011376147877954 2.7146102174903267e-05 0 -0.0039165146891332481 -1.3265586644478134e-05 0 -0.0038628541354998286 -3.147812912321385e-08 0 -0.0039779051937529585 7.9294980103847097e-05 0 -0.0039091793743105075 4.1589793842524982e-07 0 -0.0039494535779179179 -1.0610964695447357e-07 0 -0.0039098404217022369 1.3111547467111029e-10 0 -0.0040751287381792676 -2.7712765439404977e-10 0 -0.0039165146891332481 -1.3265586644478134e-05 0 -0.0038628541354998286 -3.147812912321385e-08 0 -0.0039081197020091503 3.2085068854520025e-08 0 -0.0044121781268464952 6.5298156826934913e-05 0 -0.0040776903396777331 1.382334988749575e-07 0 -0.0044558280491470963 -3.6491022947432298e-05 0 -0.0039779051937529585 7.9294980103847097e-05 0 -0.0040756553529827481 4.1551772189752008e-07 0 -0.0048000435114132082 -1.202574394656931e-07 0 -0.0040776903396777331 1.382334988749575e-07 0 -0.0044558280491470963 -3.6491022947432298e-05 0 -0.0048000435114132082 -1.202574394656931e-07 0 -0.0044558280491470963 -3.6491022947432298e-05 0 -0.0044656023532335665 -3.4638386341255411e-05 0 -0.0044121781268464952 6.5298156826934913e-05 0 -0.0044558280491470963 -3.6491022947432298e-05 0 -0.0044656023532335665 -3.4638386341255411e-05 0 -0.0044509187975447671 6.6869104065735738e-05 0 -0.0044560196387256647 5.2734040333612798e-06 0 -0.0044656023532335665 -3.4638386341255411e-05 0 -0.0044560196387256647 5.2734040333612798e-06 0 -0.0044707879978501223 2.9813908764355065e-06 0 -0.0044656023532335665 -3.4638386341255411e-05 0 -0.01049350725896972 0.00012280765278908083 0 -0.010827039540916144 4.3625557558050561e-05 0 -0.010920663456632458 0.00011970539036421172 0 -0.01049350725896972 0.00012280765278908083 0 -0.010443654910976423 3.4788246401080454e-05 0 -0.010827039540916144 4.3625557558050561e-05 0 -0.010443654910976423 3.4788246401080454e-05 0 -0.010859153362873389 -6.3568543028545899e-08 0 -0.010827039540916144 4.3625557558050561e-05 0 -0.010443654910976423 3.4788246401080454e-05 0 -0.010859153362873389 -6.3568543028545899e-08 0 -0.0099935340470945523 1.0241059276016722e-07 0 -0.010859153362873389 -6.3568543028545899e-08 0 -0.010827039540916144 4.3625557558050561e-05 0 -0.011197841811681181 -3.4210345084569202e-05 0 -0.010827039540916144 4.3625557558050561e-05 0 -0.011194414494807948 5.0141740346693337e-06 0 -0.011197841811681181 -3.4210345084569202e-05 0 -0.010827039540916144 4.3625557558050561e-05 0 -0.010920663456632458 0.00011970539036421172 0 -0.011194414494807948 5.0141740346693337e-06 0 -0.010920663456632458 0.00011970539036421172 0 -0.011570108907282453 1.6490419033519732e-05 0 -0.011194414494807948 5.0141740346693337e-06 0 -0.010920663456632458 0.00011970539036421172 0 -0.011024177984356178 0.00024908309265088006 0 -0.011570108907282453 1.6490419033519732e-05 0 -0.011024177984356178 0.00024908309265088006 0 -0.011644018768251649 0.00010362432105161624 0 -0.011570108907282453 1.6490419033519732e-05 0 -0.01094118903151288 0.00020389135360076818 0 -0.010940212159719952 0.00019538093275877811 0 -0.011024177984356178 0.00024908309265088006 0 -0.010439074310425492 0.00021008800754776611 0 -0.010548158448171637 0.00023009141700904281 0 -0.010920663456632458 0.00011970539036421172 0 -0.011024177984356178 0.00024908309265088006 0 -0.01063675339589097 0.00019206781480337657 0 -0.011024177984356178 0.00024908309265088006 0 -0.01063675339589097 0.00019206781480337657 0 -0.010439074310425492 0.00021008800754776611 0 -0.01049350725896972 0.00012280765278908083 0 -0.010920663456632458 0.00011970539036421172 0 -0.01063675339589097 0.00019206781480337657 0 -0.01049350725896972 0.00012280765278908083 0 -0.01063675339589097 0.00019206781480337657 0 -0.010248127336652865 0.00018926818753412395 0 -0.010248127336652865 0.00018926818753412395 0 -0.0098418394349049886 0.00025147527839840494 0 -0.0099053037574530298 9.467778324110224e-05 0 -0.01049350725896972 0.00012280765278908083 0 -0.010248127336652865 0.00018926818753412395 0 -0.0099053037574530298 9.467778324110224e-05 0 -0.010439074310425492 0.00021008800754776611 0 -0.0098418394349049886 0.00025147527839840494 0 -0.010543901117257018 0.00025624251826214989 0 -0.010563189430589181 0.00030836863735872965 0 -0.010852942693466105 0.00019447926945932628 0 -0.010439074310425492 0.00021008800754776611 0 -0.010543901117257018 0.00025624251826214989 0 -0.010548158448171637 0.00023009141700904281 0 -0.01063675339589097 0.00019206781480337657 0 -0.010248127336652865 0.00018926818753412395 0 -0.010439074310425492 0.00021008800754776611 0 -0.010248127336652865 0.00018926818753412395 0 -0.010439074310425492 0.00021008800754776611 0 -0.0098418394349049886 0.00025147527839840494 0 -0.0098418394349049886 0.00025147527839840494 0 -0.0090794836512307648 -0.00013375185407025277 0 -0.0093311069850708153 0.00055699486304019248 0 -0.0098418394349049886 0.00025147527839840494 0 -0.0094215879880073013 -2.5042879629720973e-05 0 -0.0090794836512307648 -0.00013375185407025277 0 -0.0098418394349049886 0.00025147527839840494 0 -0.0099053037574530298 9.467778324110224e-05 0 -0.0094215879880073013 -2.5042879629720973e-05 0 -0.0099053037574530298 9.467778324110224e-05 0 -0.0092052358008140999 -8.1813965890995127e-05 0 -0.0094584099166238281 -5.8156952282340497e-06 0 -0.01049350725896972 0.00012280765278908083 0 -0.010443654910976423 3.4788246401080454e-05 0 -0.0099053037574530298 9.467778324110224e-05 0 -0.010443654910976423 3.4788246401080454e-05 0 -0.0099053037574530298 9.467778324110224e-05 0 -0.0099935340470945523 1.0241059276016722e-07 0 -0.0099053037574530298 9.467778324110224e-05 0 -0.0099935340470945523 1.0241059276016722e-07 0 -0.0094584099166238281 -5.8156952282340497e-06 0 -0.0099935340470945523 1.0241059276016722e-07 0 -0.0091284287845919809 -8.1570604024957696e-08 0 -0.0094584099166238281 -5.8156952282340497e-06 0 -0.0091284287845919809 -8.1570604024957696e-08 0 -0.0094584099166238281 -5.8156952282340497e-06 0 -0.0088645933997920038 -6.9469063991100391e-05 0 -0.0092052358008140999 -8.1813965890995127e-05 0 -0.0094584099166238281 -5.8156952282340497e-06 0 -0.0088645933997920038 -6.9469063991100391e-05 0 -0.0092052358008140999 -8.1813965890995127e-05 0 -0.0088645933997920038 -6.9469063991100391e-05 0 -0.0085485641633626791 -0.00017410452810413617 0 -0.0091284287845919809 -8.1570604024957696e-08 0 -0.0088645933997920038 -6.9469063991100391e-05 0 -0.0082631391737292142 -2.0796804825686154e-07 0 -0.0082631391737292142 -2.0796804825686154e-07 0 -0.0085485641633626791 -0.00017410452810413617 0 -0.0080360509029453828 -9.8980454044871109e-05 0 -0.0088645933997920038 -6.9469063991100391e-05 0 -0.0082631391737292142 -2.0796804825686154e-07 0 -0.0085485641633626791 -0.00017410452810413617 0 -0.0085485641633626791 -0.00017410452810413617 0 -0.0079763087260673673 -0.00017813027136686868 0 -0.0080360509029453828 -9.8980454044871109e-05 0 -0.0073978341281123565 -2.7803633317189835e-07 0 -0.0079763087260673673 -0.00017813027136686868 0 -0.0080360509029453828 -9.8980454044871109e-05 0 -0.0073978341281123565 -2.7803633317189835e-07 0 -0.0082631391737292142 -2.0796804825686154e-07 0 -0.0080360509029453828 -9.8980454044871109e-05 0 -0.0081664722624789233 -0.00023150146606375072 0 -0.0083572993736009109 -0.0002947955870846425 0 -0.0085533913789105319 -0.00031464778712653917 0 -0.0083572993736009109 -0.0002947955870846425 0 -0.0085533913789105319 -0.00031464778712653917 0 -0.0086556050037592033 -0.00039183752775768762 0 -0.0081664722624789233 -0.00023150146606375072 0 -0.0079763087260673673 -0.00017813027136686868 0 -0.0085533913789105319 -0.00031464778712653917 0 -0.0085485641633626791 -0.00017410452810413617 0 -0.0079763087260673673 -0.00017813027136686868 0 -0.0085533913789105319 -0.00031464778712653917 0 -0.0085485641633626791 -0.00017410452810413617 0 -0.0085533913789105319 -0.00031464778712653917 0 -0.0089516506790243301 -0.00023187780302791252 0 -0.0085533913789105319 -0.00031464778712653917 0 -0.0089516506790243301 -0.00023187780302791252 0 -0.0088051491013161325 -0.00031150233334300816 0 -0.0089516506790243301 -0.00023187780302791252 0 -0.0090794836512307648 -0.00013375185407025277 0 -0.0088051491013161325 -0.00031150233334300816 0 -0.0092052358008140999 -8.1813965890995127e-05 0 -0.0085485641633626791 -0.00017410452810413617 0 -0.0089516506790243301 -0.00023187780302791252 0 -0.0099053037574530298 9.467778324110224e-05 0 -0.0092052358008140999 -8.1813965890995127e-05 0 -0.0094215879880073013 -2.5042879629720973e-05 0 -0.0092052358008140999 -8.1813965890995127e-05 0 -0.0089516506790243301 -0.00023187780302791252 0 -0.0094215879880073013 -2.5042879629720973e-05 0 -0.0089516506790243301 -0.00023187780302791252 0 -0.0094215879880073013 -2.5042879629720973e-05 0 -0.0090794836512307648 -0.00013375185407025277 0 -0.0090794836512307648 -0.00013375185407025277 0 -0.0087600232761633132 -0.00010353657668970006 0 -0.0088051491013161325 -0.00031150233334300816 0 -0.011820799876200978 -0.00025524738350589344 0 -0.011797625577613846 -0.0002504429016979628 0 -0.011823209857749876 -0.00024618773573490348 0 -0.011815758528743643 -0.00026529490942299385 0 -0.011820799876200978 -0.00025524738350589344 0 -0.011831756359006193 -0.0002586944251275849 0 -0.011815758528743643 -0.00026529490942299385 0 -0.011820799876200978 -0.00025524738350589344 0 -0.011797625577613846 -0.0002504429016979628 0 -0.011797625577613846 -0.0002504429016979628 0 -0.011819083983384269 -0.0002388337353363596 0 -0.011823209857749876 -0.00024618773573490348 0 -0.010462888473870223 -0.00018503481555893757 0 -0.010284535945075633 -0.00024243856389514977 0 -0.011797625577613846 -0.0002504429016979628 0 -0.011818428379684137 -0.00022437967165157071 0 -0.011819083983384269 -0.0002388337353363596 0 -0.0087600232761633132 -0.00010353657668970006 0 -0.0088051491013161325 -0.00031150233334300816 0 -0.0086343099532102605 -0.00033862982901285382 0 -0.0086994533073442657 -0.00045268173941279458 0 -0.0086556050037592033 -0.00039183752775768762 0 -0.0086343099532102605 -0.00033862982901285382 0 -0.0085533913789105319 -0.00031464778712653917 0 -0.0088051491013161325 -0.00031150233334300816 0 -0.0086556050037592033 -0.00039183752775768762 0 -0.0088051491013161325 -0.00031150233334300816 0 -0.0086556050037592033 -0.00039183752775768762 0 -0.0086343099532102605 -0.00033862982901285382 0 -0.0086994533073442657 -0.00045268173941279458 0 -0.0083572993736009109 -0.0002947955870846425 0 -0.0086556050037592033 -0.00039183752775768762 0 -0.0086994533073442657 -0.00045268173941279458 0 -0.0086093531257041105 -0.00043167672595297133 0 -0.0086343099532102605 -0.00033862982901285382 0 -0.010243435682773656 -8.7495796325807312e-05 0 -0.011139019550579077 -0.00027242365519092922 0 -0.011828836564378019 -0.00019396681151679759 0 -0.011840347157562648 -0.00021621421003465132 0 -0.0118615971785764 -0.0001990693862915065 0 -0.010606225481858442 -2.9585628722042631e-05 0 -0.0099701723661768816 -0.00033855168868071828 0 -0.010586818449832131 -0.00051835945412241939 0 -0.0095236352614582447 -4.6591305518291372e-05 0 -0.010243435682773656 -8.7495796325807312e-05 0 -0.011840347157562648 -0.00021621421003465132 0 -0.011818428379684137 -0.00022437967165157071 0 -0.011833623004109341 -0.00023120463423461957 0 -0.010243435682773656 -8.7495796325807312e-05 0 -0.010284535945075633 -0.00024243856389514977 0 -0.011828836564378019 -0.00019396681151679759 0 -0.011840347157562648 -0.00021621421003465132 0 -0.011818428379684137 -0.00022437967165157071 0 -0.011840347157562648 -0.00021621421003465132 0 -0.011851918415715564 -0.00022877480510984861 0 -0.011854358387574057 -0.00021608162496582488 0 -0.011840347157562648 -0.00021621421003465132 0 -0.011851918415715564 -0.00022877480510984861 0 -0.011833623004109341 -0.00023120463423461957 0 -0.011847975867283573 -0.00023917737159853239 0 -0.011833623004109341 -0.00023120463423461957 0 -0.011826452214057993 -0.00024413776562604104 0 -0.011851918415715564 -0.00022877480510984861 0 -0.011847975867283573 -0.00023917737159853239 0 -0.011833623004109341 -0.00023120463423461957 0 -0.011818428379684137 -0.00022437967165157071 0 -0.011833623004109341 -0.00023120463423461957 0 -0.011824540707571144 -0.0002363289541293996 0 -0.011833623004109341 -0.00023120463423461957 0 -0.011824540707571144 -0.0002363289541293996 0 -0.011826452214057993 -0.00024413776562604104 0 -0.011818428379684137 -0.00022437967165157071 0 -0.011824540707571144 -0.0002363289541293996 0 -0.011819083983384269 -0.0002388337353363596 0 -0.011824540707571144 -0.0002363289541293996 0 -0.011819083983384269 -0.0002388337353363596 0 -0.011825221739690495 -0.00024402004633196554 0 -0.011819083983384269 -0.0002388337353363596 0 -0.011823209857749876 -0.00024618773573490348 0 -0.011825221739690495 -0.00024402004633196554 0 -0.011824540707571144 -0.0002363289541293996 0 -0.011825221739690495 -0.00024402004633196554 0 -0.011826452214057993 -0.00024413776562604104 0 -0.011983406856513255 -0.00026369209424248295 0 -0.011984097306453508 -0.00026373759836875466 0 -0.011975854659461702 -0.00026533930769940064 0 -0.011984097306453508 -0.00026373759836875466 0 -0.011823209857749876 -0.00024618773573490348 0 -0.01183593166295807 -0.00024275543796184129 0 -0.011833592221428288 -0.0002494152439612188 0 -0.011823209857749876 -0.00024618773573490348 0 -0.011825221739690495 -0.00024402004633196554 0 -0.011826082612747372 -0.0002437359625478884 0 -0.011984097306453508 -0.00026373759836875466 0 -0.012046987595387791 -0.00025827186028085504 0 -0.01183593166295807 -0.00024275543796184129 0 -0.011833592221428288 -0.0002494152439612188 0 -0.011852830257316564 -0.00024384991768772941 0 -0.011969782764228283 -0.00019000308869845158 0 -0.011983871274736085 -0.00019069352781619239 0 -0.011914822090215989 -0.00025547276473457023 0 -0.011952207687432992 -0.00028969791462983839 0 -0.012046987595387791 -0.00025827186028085504 0 -0.012090484514948697 -0.0002571239994785352 0 -0.012014779579285737 -0.00028636786820023961 0 -0.011833592221428288 -0.0002494152439612188 0 -0.011831756359006193 -0.0002586944251275849 0 -0.011852830257316564 -0.00024384991768772941 0 -0.011891370849497958 -0.00024150962307508712 0 -0.011969782764228283 -0.00019000308869845158 0 -0.011914822090215989 -0.00025547276473457023 0 -0.011820799876200978 -0.00025524738350589344 0 -0.011823209857749876 -0.00024618773573490348 0 -0.011833592221428288 -0.0002494152439612188 0 -0.011820799876200978 -0.00025524738350589344 0 -0.011833592221428288 -0.0002494152439612188 0 -0.011831756359006193 -0.0002586944251275849 0 -0.012030566642416616 -0.00026466080660120976 0 -0.011984097306453508 -0.00026373759836875466 0 -0.01203128246103234 -0.00025774193894176361 0 -0.01201786084785425 -0.00026169801321659436 0 -0.012024792568136482 -0.00026211526374161052 0 -0.012090484514948697 -0.0002571239994785352 0 -0.012589101363361232 -0.00026148192048290776 0 -0.012030406162144444 -0.00014462233948164154 0 -0.012029187932061834 -0.00021851789538211521 0 -0.01214791944218861 -0.00015056272797775691 0 -0.012318693023434283 -0.00025739612826797942 0 -0.012295559188325922 -0.00027871298892297847 0 -0.012341235137955747 -0.00028132343977936092 0 -0.012030566642416616 -0.00026466080660120976 0 -0.012090484514948697 -0.0002571239994785352 0 -0.012028146817214674 -0.00027489917144939564 0 -0.012099268846391059 -0.00022469822187880364 0 -0.012081426920622581 -0.0002239135000094867 0 -0.012030566642416616 -0.00026466080660120976 0 -0.012046987595387791 -0.00025827186028085504 0 -0.012046987595387791 -0.00025827186028085504 0 -0.012090484514948697 -0.0002571239994785352 0 -0.012030406162144444 -0.00014462233948164154 0 -0.012029187932061834 -0.00021851789538211521 0 -0.011934260468063784 -0.00023406931635221376 0 -0.012419091389728186 -0.00026838031618420645 0 -0.012589101363361232 -0.00026148192048290776 0 -0.013095113842015449 -0.00040678481242181281 0 -0.013165029083907622 -0.00043785422097112107 0 -0.013163910222568243 -0.00036716437222181984 0 -0.012419091389728186 -0.00026838031618420645 0 -0.012743350516552716 -0.00040433042433577816 0 -0.013095113842015449 -0.00040678481242181281 0 -0.013139343296142234 -0.00053224308993865402 0 -0.013165029083907622 -0.00043785422097112107 0 -0.01201093933929983 -0.0002248768509176333 0 -0.012075544067337126 -0.00040218029351671584 0 -0.011933545565478605 -0.00038704585106382936 0 -0.012075544067337126 -0.00040218029351671584 0 -0.011933545565478605 -0.00038704585106382936 0 -0.01199921834022879 -0.00047553842742384205 0 -0.011933545565478605 -0.00038704585106382936 0 -0.011841289943779134 -0.00039513216590897669 0 -0.011862840500897398 -0.00048030115952920249 0 -0.011933545565478605 -0.00038704585106382936 0 -0.011845928674159591 -0.00032003290196909359 0 -0.011841289943779134 -0.00039513216590897669 0 -0.011933545565478605 -0.00038704585106382936 0 -0.011914441301093627 -0.00028229101237320072 0 -0.011845928674159591 -0.00032003290196909359 0 -0.01201093933929983 -0.0002248768509176333 0 -0.011933545565478605 -0.00038704585106382936 0 -0.011914441301093627 -0.00028229101237320072 0 -0.012419091389728186 -0.00026838031618420645 0 -0.012284967495002332 -0.00031740866724642237 0 -0.012029187932061834 -0.00021851789538211521 0 -0.011934260468063784 -0.00023406931635221376 0 -0.011914441301093627 -0.00028229101237320072 0 -0.012014779579285737 -0.00028636786820023961 0 -0.011981085346218192 -0.00030518703234841507 0 -0.011891370849497958 -0.00024150962307508712 0 -0.011914822090215989 -0.00025547276473457023 0 -0.011845928674159591 -0.00032003290196909359 0 -0.011934260468063784 -0.00023406931635221376 0 -0.011914441301093627 -0.00028229101237320072 0 -0.011845928674159591 -0.00032003290196909359 0 -0.011891370849497958 -0.00024150962307508712 0 -0.011809929790492816 -0.00029619946856704701 0 -0.011845928674159591 -0.00032003290196909359 0 -0.011815758528743643 -0.00026529490942299385 0 -0.011831756359006193 -0.0002586944251275849 0 -0.011809929790492816 -0.00029619946856704701 0 -0.011797625577613846 -0.0002504429016979628 0 -0.011809929790492816 -0.00029619946856704701 0 -0.011787105921285576 -0.00034764622291764735 0 -0.011952207687432992 -0.00028969791462983839 0 -0.011917875700427179 -0.00030315473683602322 0 -0.011815758528743643 -0.00026529490942299385 0 -0.011797625577613846 -0.0002504429016979628 0 -0.011809929790492816 -0.00029619946856704701 0 -0.011809929790492816 -0.00029619946856704701 0 -0.011845928674159591 -0.00032003290196909359 0 -0.011787105921285576 -0.00034764622291764735 0 -0.0087600232761633132 -0.00010353657668970006 0 -0.0090170137810057609 0.0003354262483118529 0 -0.0089926992755438914 0.00035005777235066983 0 -0.010462888473870223 -0.00018503481555893757 0 -0.010933630531043365 0.00014691619305052118 0 -0.0090794836512307648 -0.00013375185407025277 0 -0.0087600232761633132 -0.00010353657668970006 0 -0.0090170137810057609 0.0003354262483118529 0 -0.011797625577613846 -0.0002504429016979628 0 -0.011717707707710402 -0.00038039563931647861 0 -0.011787105921285576 -0.00034764622291764735 0 -0.010380439495510346 0.00015727078940901265 0 -0.010852942693466105 0.00019447926945932628 0 -0.010988847370684569 -0.0002298577306602555 0 -0.010770725748842892 -9.9775864235538656e-05 0 -0.010924911494570358 0.00020606371919040835 0 -0.010852942693466105 0.00019447926945932628 0 -0.010933630531043365 0.00014691619305052118 0 -0.012519915822043195 0.001076609610781094 0 -0.012498756834429286 0.0010333044340915978 0 -0.0127060184240591 0.00076780495590254611 0 -0.010933630531043365 0.00014691619305052118 0 -0.010940212159719952 0.00019538093275877811 0 -0.010852942693466105 0.00019447926945932628 0 -0.010940212159719952 0.00019538093275877811 0 -0.011717707707710402 -0.00038039563931647861 0 -0.011841289943779134 -0.00039513216590897669 0 -0.011862840500897398 -0.00048030115952920249 0 -0.011717707707710402 -0.00038039563931647861 0 -0.011787105921285576 -0.00034764622291764735 0 -0.011841289943779134 -0.00039513216590897669 0 -0.010933630531043365 0.00014691619305052118 0 -0.012190272101914023 -5.9291625935222062e-05 0 -0.011845928674159591 -0.00032003290196909359 0 -0.011787105921285576 -0.00034764622291764735 0 -0.011841289943779134 -0.00039513216590897669 0 -0.012519915822043195 0.001076609610781094 0 -0.013044411867802926 0.00076916202627505135 0 -0.0127060184240591 0.00076780495590254611 0 -0.013044411867802926 0.00076916202627505135 0 -0.012891677481518621 0.00051664086495907188 0 -0.013290217037582848 0.0004413121883238162 0 -0.013044411867802926 0.00076916202627505135 0 -0.0127060184240591 0.00076780495590254611 0 -0.012891677481518621 0.00051664086495907188 0 -0.011024177984356178 0.00024908309265088006 0 -0.011277689060545939 0.00078780027601489102 0 -0.011644018768251649 0.00010362432105161624 0 -0.012498756834429286 0.0010333044340915978 0 -0.0127060184240591 0.00076780495590254611 0 -0.012587065564094432 0.00044215036044240855 0 -0.010940212159719952 0.00019538093275877811 0 -0.011601978940589864 7.1158539327306785e-05 0 -0.0127060184240591 0.00076780495590254611 0 -0.012587065564094432 0.00044215036044240855 0 -0.012891677481518621 0.00051664086495907188 0 -0.012587065564094432 0.00044215036044240855 0 -0.012891677481518621 0.00051664086495907188 0 -0.012956888286182293 0.00019087474888125164 0 -0.012891677481518621 0.00051664086495907188 0 -0.013290217037582848 0.0004413121883238162 0 -0.012956888286182293 0.00019087474888125164 0 -0.013290217037582848 0.0004413121883238162 0 -0.013438000822138073 8.9756919701546243e-05 0 -0.012956888286182293 0.00019087474888125164 0 -0.013044411867802926 0.00076916202627505135 0 -0.013290217037582848 0.0004413121883238162 0 -0.013587353587476867 0.00043297740699586808 0 -0.013553333132757445 0.00039403813975784965 0 -0.013700160321779132 0.00012536250027651022 0 -0.013438000822138073 8.9756919701546243e-05 0 -0.013553333132757445 0.00039403813975784965 0 -0.013863490710430831 0.00035922074405945001 0 -0.013700160321779132 0.00012536250027651022 0 -0.013290217037582848 0.0004413121883238162 0 -0.013553333132757445 0.00039403813975784965 0 -0.013438000822138073 8.9756919701546243e-05 0 -0.012853438935292187 -0.00016827160090423428 0 -0.013148150296106689 -0.00043475206182042487 0 -0.012972678107946169 -0.00012939929709902695 0 -0.012853438935292187 -0.00016827160090423428 0 -0.012075544067337126 -0.00040218029351671584 0 -0.01199921834022879 -0.00047553842742384205 0 -0.012143435834215345 -0.00058187864761961698 0 -0.012026765846257618 -0.00057930903722167742 0 -0.01199921834022879 -0.00047553842742384205 0 -0.012143435834215345 -0.00058187864761961698 0 -0.011933545565478605 -0.00038704585106382936 0 -0.011862840500897398 -0.00048030115952920249 0 -0.01199921834022879 -0.00047553842742384205 0 -0.012190272101914023 -5.9291625935222062e-05 0 -0.012853438935292187 -0.00016827160090423428 0 -0.011862840500897398 -0.00048030115952920249 0 -0.012026765846257618 -0.00057930903722167742 0 -0.01199921834022879 -0.00047553842742384205 0 -0.013237534742652218 -0.00057659420851447602 0 -0.01318334855826438 -0.00066328016035216745 0 -0.013288350535713913 -0.00066896606665894324 0 -0.013237534742652218 -0.00057659420851447602 0 -0.013288350535713913 -0.00066896606665894324 0 -0.013309159802900547 -0.0005814131229083877 0 -0.013139343296142234 -0.00053224308993865402 0 -0.013237534742652218 -0.00057659420851447602 0 -0.01318334855826438 -0.00066328016035216745 0 -0.012743350516552716 -0.00040433042433577816 0 -0.013148150296106689 -0.00043475206182042487 0 -0.013148150296106689 -0.00043475206182042487 0 -0.013476694965691139 -0.00054571323253723445 0 -0.014055405205606783 -0.00072010947054015342 0 -0.013910581008932837 -0.00071721427525406247 0 -0.014009327791888911 -0.0005807418331461717 0 -0.013476694965691139 -0.00054571323253723445 0 -0.013556736462049116 -0.00059505272445049113 0 -0.013288350535713913 -0.00066896606665894324 0 -0.013404757708934682 -0.00067570592635566586 0 -0.013309159802900547 -0.0005814131229083877 0 -0.013910581008932837 -0.00071721427525406247 0 -0.013756847917637861 -0.00070672129036909509 0 -0.013793365827737514 -0.0006082423801757593 0 -0.013756847917637861 -0.00070672129036909509 0 -0.01357824443204985 -0.00065941417799119338 0 -0.013693745800604652 -0.00059693774795458257 0 -0.013556736462049116 -0.00059505272445049113 0 -0.013571695235600797 -0.00060756078126858405 0 -0.013404757708934682 -0.00067570592635566586 0 -0.0133896592490965 -0.00055019089923155845 0 -0.013486343582744262 -0.00059566804921768314 0 -0.013404757708934682 -0.00067570592635566586 0 -0.013309159802900547 -0.0005814131229083877 0 -0.0133896592490965 -0.00055019089923155845 0 -0.013309159802900547 -0.0005814131229083877 0 -0.013299318420546928 -0.0004972783340581276 0 -0.0133896592490965 -0.00055019089923155845 0 -0.013299318420546928 -0.0004972783340581276 0 -0.0133896592490965 -0.00055019089923155845 0 -0.013383075879674107 -0.00045237345890027309 0 -0.0133896592490965 -0.00055019089923155845 0 -0.013461187152115207 -0.00052657725166889132 0 -0.013486343582744262 -0.00059566804921768314 0 -0.0133896592490965 -0.00055019089923155845 0 -0.013383075879674107 -0.00045237345890027309 0 -0.013461187152115207 -0.00052657725166889132 0 -0.013383075879674107 -0.00045237345890027309 0 -0.013312691719614017 -0.00042727410270508354 0 -0.013352460713551947 -0.00038742876407145248 0 -0.013299318420546928 -0.0004972783340581276 0 -0.013383075879674107 -0.00045237345890027309 0 -0.013312691719614017 -0.00042727410270508354 0 -0.013299318420546928 -0.0004972783340581276 0 -0.013312691719614017 -0.00042727410270508354 0 -0.013260058378084402 -0.00043290848229752621 0 -0.013299318420546928 -0.0004972783340581276 0 -0.013260058378084402 -0.00043290848229752621 0 -0.013214861891620366 -0.00047074373943748284 0 -0.013260058378084402 -0.00043290848229752621 0 -0.013214861891620366 -0.00047074373943748284 0 -0.013211220389383757 -0.00041288011433061064 0 -0.013237534742652218 -0.00057659420851447602 0 -0.013309159802900547 -0.0005814131229083877 0 -0.013299318420546928 -0.0004972783340581276 0 -0.013237534742652218 -0.00057659420851447602 0 -0.013299318420546928 -0.0004972783340581276 0 -0.013214861891620366 -0.00047074373943748284 0 -0.013139343296142234 -0.00053224308993865402 0 -0.013237534742652218 -0.00057659420851447602 0 -0.013214861891620366 -0.00047074373943748284 0 -0.013139343296142234 -0.00053224308993865402 0 -0.013214861891620366 -0.00047074373943748284 0 -0.013165029083907622 -0.00043785422097112107 0 -0.013214861891620366 -0.00047074373943748284 0 -0.013165029083907622 -0.00043785422097112107 0 -0.013211220389383757 -0.00041288011433061064 0 -0.012589101363361232 -0.00026148192048290776 0 -0.013103619391370171 -0.00032230368238670603 0 -0.013165029083907622 -0.00043785422097112107 0 -0.013211220389383757 -0.00041288011433061064 0 -0.013163910222568243 -0.00036716437222181984 0 -0.013211220389383757 -0.00041288011433061064 0 -0.013163910222568243 -0.00036716437222181984 0 -0.013263166547472423 -0.00037486360976137303 0 -0.013259275393750975 -0.00038354757550597863 0 -0.013308749261706571 -0.00038561685683082279 0 -0.013302123248949201 -0.00036150099553901034 0 -0.013312691719614017 -0.00042727410270508354 0 -0.013260058378084402 -0.00043290848229752621 0 -0.013263166547472423 -0.00037486360976137303 0 -0.013260058378084402 -0.00043290848229752621 0 -0.013211220389383757 -0.00041288011433061064 0 -0.013263166547472423 -0.00037486360976137303 0 -0.012397636748393502 -0.00024956729685478806 0 -0.012387957756973517 -0.00023714583070102421 0 -0.012454055022650047 -0.00021859256215151155 0 -0.012198080808312306 -0.00027322224636208145 0 -0.01246120805133921 -0.00027091679844863491 0 -0.011885906969601836 -0.00024421542349676093 0 -0.01191341416938593 -0.00022562720668760188 0 -0.011928502714598718 -0.00023429349975499062 0 -0.012647928588805951 -0.00023036579648044053 0 -0.01246120805133921 -0.00027091679844863491 0 -0.013308749261706571 -0.00038561685683082279 0 -0.013302123248949201 -0.00036150099553901034 0 -0.01332963227768642 -0.00036834054084502121 0 -0.011885906969601836 -0.00024421542349676093 0 -0.01187429181802821 -0.00024014393444623023 0 -0.011896942238239894 -0.00022304087884523235 0 -0.011852438138579124 -0.00025345161953011208 0 -0.011885906969601836 -0.00024421542349676093 0 -0.01187429181802821 -0.00024014393444623023 0 -0.012030566642416616 -0.00026466080660120976 0 -0.012198080808312306 -0.00027322224636208145 0 -0.012589101363361232 -0.00026148192048290776 0 -0.012647928588805951 -0.00023036579648044053 0 -0.012318693023434283 -0.00025739612826797942 0 -0.012341235137955747 -0.00028132343977936092 0 -0.012387957756973517 -0.00023714583070102421 0 -0.012341235137955747 -0.00028132343977936092 0 -0.012397636748393502 -0.00024956729685478806 0 -0.012387957756973517 -0.00023714583070102421 0 -0.012030566642416616 -0.00026466080660120976 0 -0.011958640316026918 -0.00027774336277445376 0 -0.011851918415715564 -0.00022877480510984861 0 -0.011865514328824409 -0.0002276512578894298 0 -0.011858522957689181 -0.00022330899739343894 0 -0.012030566642416616 -0.00026466080660120976 0 -0.011965005486182498 -0.00027353357121118443 0 -0.011851918415715564 -0.00022877480510984861 0 -0.011847975867283573 -0.00023917737159853239 0 -0.011865514328824409 -0.0002276512578894298 0 -0.011855028929088266 -0.00025161709056524035 0 -0.011874200981141201 -0.00023824300193824949 0 -0.011871814589745334 -0.00023361992242037504 0 -0.011851918415715564 -0.00022877480510984861 0 -0.011858522957689181 -0.00022330899739343894 0 -0.011854358387574057 -0.00021608162496582488 0 -0.011862277837976469 -0.00022051252466799009 0 -0.011854358387574057 -0.00021608162496582488 0 -0.011871660391236263 -0.00021332237445872849 0 -0.011840347157562648 -0.00021621421003465132 0 -0.011854358387574057 -0.00021608162496582488 0 -0.0118615971785764 -0.0001990693862915065 0 -0.011865514328824409 -0.0002276512578894298 0 -0.011858522957689181 -0.00022330899739343894 0 -0.011862277837976469 -0.00022051252466799009 0 -0.011858522957689181 -0.00022330899739343894 0 -0.011862277837976469 -0.00022051252466799009 0 -0.011854358387574057 -0.00021608162496582488 0 -0.011854358387574057 -0.00021608162496582488 0 -0.011871660391236263 -0.00021332237445872849 0 -0.0118615971785764 -0.0001990693862915065 0 -0.011871660391236263 -0.00021332237445872849 0 -0.011892152233231919 -0.00021072483958602996 0 -0.0118615971785764 -0.0001990693862915065 0 -0.011865514328824409 -0.0002276512578894298 0 -0.011871660391236263 -0.00021332237445872849 0 -0.011892152233231919 -0.00021072483958602996 0 -0.011865514328824409 -0.0002276512578894298 0 -0.011862277837976469 -0.00022051252466799009 0 -0.011871660391236263 -0.00021332237445872849 0 -0.011874200981141201 -0.00023824300193824949 0 -0.011871814589745334 -0.00023361992242037504 0 -0.011896942238239894 -0.00022304087884523235 0 -0.011965005486182498 -0.00027353357121118443 0 -0.01195215605734269 -0.00026956089197968555 0 -0.011958640316026918 -0.00027774336277445376 0 -0.011945817616259041 -0.00027658455329095338 0 -0.011892152233231919 -0.00021072483958602996 0 -0.0118615971785764 -0.0001990693862915065 0 -0.011910805494809308 -0.00020884265343274554 0 -0.011871814589745334 -0.00023361992242037504 0 -0.011896942238239894 -0.00022304087884523235 0 -0.011892152233231919 -0.00021072483958602996 0 -0.011885906969601836 -0.00024421542349676093 0 -0.011896942238239894 -0.00022304087884523235 0 -0.01191341416938593 -0.00022562720668760188 0 -0.011896942238239894 -0.00022304087884523235 0 -0.011910805494809308 -0.00020884265343274554 0 -0.01191341416938593 -0.00022562720668760188 0 -0.011896942238239894 -0.00022304087884523235 0 -0.011892152233231919 -0.00021072483958602996 0 -0.011910805494809308 -0.00020884265343274554 0 -0.011139019550579077 -0.00027242365519092922 0 -0.011692009613576637 -0.00032925131713812487 0 -0.011038254432476687 -7.4886620991535389e-05 0 -0.010586818449832131 -0.00051835945412241939 0 -0.011271384660819932 -0.000711060919555442 0 -0.010606225481858442 -2.9585628722042631e-05 0 -0.011038254432476687 -7.4886620991535389e-05 0 -0.010586818449832131 -0.00051835945412241939 0 -0.011668406831200535 -2.8581356666446363e-05 0 -0.011881810365431549 -0.00044699582504006198 0 -0.012301783416434562 -0.00013496544407931742 0 -0.011881810365431549 -0.00044699582504006198 0 -0.012301783416434562 -0.00013496544407931742 0 -0.012342227827093297 -0.00047146464031995282 0 -0.011668406831200535 -2.8581356666446363e-05 0 -0.011881810365431549 -0.00044699582504006198 0 -0.011271384660819932 -0.000711060919555442 0 -0.011668406831200535 -2.8581356666446363e-05 0 -0.011038254432476687 -7.4886620991535389e-05 0 -0.011271384660819932 -0.000711060919555442 0 -0.011881810365431549 -0.00044699582504006198 0 -0.011271384660819932 -0.000711060919555442 0 -0.012079876395408216 -0.00094058884276930618 0 -0.011692009613576637 -0.00032925131713812487 0 -0.012417450570838987 -0.00034292456994902741 0 -0.011910805494809308 -0.00020884265343274554 0 -0.011938416889874169 -0.00022945692557671223 0 -0.011967301562093031 -0.00022351351203607597 0 -0.011910805494809308 -0.00020884265343274554 0 -0.01191341416938593 -0.00022562720668760188 0 -0.011938416889874169 -0.00022945692557671223 0 -0.01191341416938593 -0.00022562720668760188 0 -0.011928502714598718 -0.00023429349975499062 0 -0.011938416889874169 -0.00022945692557671223 0 -0.01246120805133921 -0.00027091679844863491 0 -0.012445902544470254 -0.00027663432647766689 0 -0.011928830571846256 -0.00023500694595848624 0 -0.011938416889874169 -0.00022945692557671223 0 -0.011967301562093031 -0.00022351351203607597 0 -0.01246120805133921 -0.00027091679844863491 0 -0.012417450570838987 -0.00034292456994902741 0 -0.011881810365431549 -0.00044699582504006198 0 -0.012079876395408216 -0.00094058884276930618 0 -0.012342227827093297 -0.00047146464031995282 0 -0.013372917375389731 -0.00036814630587934851 0 -0.013370012909955868 -0.00036359075033652702 0 -0.01335896837091219 -0.00035207738375405215 0 -0.012429626154688296 -0.00034541894532459666 0 -0.012417450570838987 -0.00034292456994902741 0 -0.013341079555704714 -0.00034887774851079798 0 -0.013370012909955868 -0.00036359075033652702 0 -0.013356593542832921 -0.00035863137143232651 0 -0.013370012909955868 -0.00036359075033652702 0 -0.01335896837091219 -0.00035207738375405215 0 -0.013356593542832921 -0.00035863137143232651 0 -0.01335896837091219 -0.00035207738375405215 0 -0.013356593542832921 -0.00035863137143232651 0 -0.013367719040603219 -0.00036251729895732816 0 -0.013356593542832921 -0.00035863137143232651 0 -0.013367719040603219 -0.00036251729895732816 0 -0.013345041769129692 -0.0003840464265025198 0 -0.013302123248949201 -0.00036150099553901034 0 -0.013341079555704714 -0.00034887774851079798 0 -0.01332963227768642 -0.00036834054084502121 0 -0.013341079555704714 -0.00034887774851079798 0 -0.013356593542832921 -0.00035863137143232651 0 -0.01332963227768642 -0.00036834054084502121 0 -0.013356593542832921 -0.00035863137143232651 0 -0.01332963227768642 -0.00036834054084502121 0 -0.013345041769129692 -0.0003840464265025198 0 -0.013308749261706571 -0.00038561685683082279 0 -0.01332963227768642 -0.00036834054084502121 0 -0.013345041769129692 -0.0003840464265025198 0 -0.013312691719614017 -0.00042727410270508354 0 -0.013263166547472423 -0.00037486360976137303 0 -0.013352460713551947 -0.00038742876407145248 0 -0.013103619391370171 -0.00032230368238670603 0 -0.013279894486474304 -0.00034861110371385161 0 -0.013367719040603219 -0.00036251729895732816 0 -0.013345041769129692 -0.0003840464265025198 0 -0.013399612480163499 -0.00038809186188192582 0 -0.013383075879674107 -0.00045237345890027309 0 -0.013352460713551947 -0.00038742876407145248 0 -0.013399612480163499 -0.00038809186188192582 0 -0.013279894486474304 -0.00034861110371385161 0 -0.013330614454150413 -0.00035637690258799869 0 -0.013399612480163499 -0.00038809186188192582 0 -0.013416399141114877 -0.00037094990120583742 0 -0.013496015057930267 -0.00045023975638491679 0 -0.013399612480163499 -0.00038809186188192582 0 -0.013416399141114877 -0.00037094990120583742 0 -0.013358542780630572 -0.00035328469992855634 0 -0.013416399141114877 -0.00037094990120583742 0 -0.013521024208718885 -0.00036790405961908523 0 -0.013496015057930267 -0.00045023975638491679 0 -0.013416399141114877 -0.00037094990120583742 0 -0.013313474908668339 -0.00034938915010052681 0 -0.013521024208718885 -0.00036790405961908523 0 -0.013416399141114877 -0.00037094990120583742 0 -0.013313474908668339 -0.00034938915010052681 0 -0.013358542780630572 -0.00035328469992855634 0 -0.013367719040603219 -0.00036251729895732816 0 -0.013399612480163499 -0.00038809186188192582 0 -0.013358542780630572 -0.00035328469992855634 0 -0.01335896837091219 -0.00035207738375405215 0 -0.013367719040603219 -0.00036251729895732816 0 -0.013358542780630572 -0.00035328469992855634 0 -0.013313474908668339 -0.00034938915010052681 0 -0.013358542780630572 -0.00035328469992855634 0 -0.013300063391960684 -0.00034823560768564791 0 -0.01335896837091219 -0.00035207738375405215 0 -0.013358542780630572 -0.00035328469992855634 0 -0.013300063391960684 -0.00034823560768564791 0 -0.013372917375389731 -0.00036814630587934851 0 -0.01335896837091219 -0.00035207738375405215 0 -0.013300063391960684 -0.00034823560768564791 0 -0.013372917375389731 -0.00036814630587934851 0 -0.013300063391960684 -0.00034823560768564791 0 -0.013127542025140087 -0.00039293056842922621 0 -0.012417450570838987 -0.00034292456994902741 0 -0.012741486755379228 -0.0003196941121341193 0 -0.012079876395408216 -0.00094058884276930618 0 -0.013127542025140087 -0.00039293056842922621 0 -0.012342227827093297 -0.00047146464031995282 0 -0.013372917375389731 -0.00036814630587934851 0 -0.013402324900960287 -0.00038137477883895868 0 -0.013127542025140087 -0.00039293056842922621 0 -0.013313474908668339 -0.00034938915010052681 0 -0.013127542025140087 -0.00039293056842922621 0 -0.01332039466815667 -0.00022340829589643008 0 -0.013313474908668339 -0.00034938915010052681 0 -0.013300063391960684 -0.00034823560768564791 0 -0.013127542025140087 -0.00039293056842922621 0 -0.012892901622248118 4.677785253943733e-05 0 -0.013127542025140087 -0.00039293056842922621 0 -0.01332039466815667 -0.00022340829589643008 0 -0.013311063740181227 3.4195157936245889e-05 0 -0.012892901622248118 4.677785253943733e-05 0 -0.01332039466815667 -0.00022340829589643008 0 -0.013127542025140087 -0.00039293056842922621 0 -0.012301783416434562 -0.00013496544407931742 0 -0.012342227827093297 -0.00047146464031995282 0 -0.012892901622248118 4.677785253943733e-05 0 -0.013127542025140087 -0.00039293056842922621 0 -0.012301783416434562 -0.00013496544407931742 0 -0.013708218136628545 1.6191629621354548e-06 0 -0.013495548664128566 -5.791589605324765e-05 0 -0.013562833652861775 -0.00021394764967507465 0 -0.013524050008547608 0.00018186653829534508 0 -0.013708218136628545 1.6191629621354548e-06 0 -0.013495548664128566 -5.791589605324765e-05 0 -0.013495548664128566 -5.791589605324765e-05 0 -0.01332039466815667 -0.00022340829589643008 0 -0.013562833652861775 -0.00021394764967507465 0 -0.013311063740181227 3.4195157936245889e-05 0 -0.013495548664128566 -5.791589605324765e-05 0 -0.01332039466815667 -0.00022340829589643008 0 -0.013313474908668339 -0.00034938915010052681 0 -0.01332039466815667 -0.00022340829589643008 0 -0.013562833652861775 -0.00021394764967507465 0 -0.013708218136628545 1.6191629621354548e-06 0 -0.013562833652861775 -0.00021394764967507465 0 -0.013832836254972425 -0.00016180930463050822 0 -0.013562833652861775 -0.00021394764967507465 0 -0.013757743317321937 -0.0003207719843061814 0 -0.013832836254972425 -0.00016180930463050822 0 -0.013562833652861775 -0.00021394764967507465 0 -0.013521024208718885 -0.00036790405961908523 0 -0.013757743317321937 -0.0003207719843061814 0 -0.013313474908668339 -0.00034938915010052681 0 -0.013562833652861775 -0.00021394764967507465 0 -0.013521024208718885 -0.00036790405961908523 0 -0.013521024208718885 -0.00036790405961908523 0 -0.013757743317321937 -0.0003207719843061814 0 -0.013708829535639374 -0.00046200813533934956 0 -0.013757743317321937 -0.0003207719843061814 0 -0.013708829535639374 -0.00046200813533934956 0 -0.013976922841879451 -0.00043542050371442575 0 -0.013969375824139584 -0.00053676825223180008 0 -0.013976922841879451 -0.00043542050371442575 0 -0.014106018090194629 -0.00051909528518063314 0 -0.013708829535639374 -0.00046200813533934956 0 -0.013969375824139584 -0.00053676825223180008 0 -0.013976922841879451 -0.00043542050371442575 0 -0.013708829535639374 -0.00046200813533934956 0 -0.013565962553554266 -0.0005869738051328087 0 -0.013650991378783011 -0.00059230965546922475 0 -0.013828672121531644 -0.00043305101624639355 0 -0.013862662727927752 -0.0004728542676784407 0 -0.013521024208718885 -0.00036790405961908523 0 -0.013708829535639374 -0.00046200813533934956 0 -0.013496015057930267 -0.00045023975638491679 0 -0.013383075879674107 -0.00045237345890027309 0 -0.013399612480163499 -0.00038809186188192582 0 -0.013496015057930267 -0.00045023975638491679 0 -0.013383075879674107 -0.00045237345890027309 0 -0.013496015057930267 -0.00045023975638491679 0 -0.013461187152115207 -0.00052657725166889132 0 -0.013496015057930267 -0.00045023975638491679 0 -0.013461187152115207 -0.00052657725166889132 0 -0.013565962553554266 -0.0005869738051328087 0 -0.013708829535639374 -0.00046200813533934956 0 -0.013496015057930267 -0.00045023975638491679 0 -0.013565962553554266 -0.0005869738051328087 0 -0.013565962553554266 -0.0005869738051328087 0 -0.013486343582744262 -0.00059566804921768314 0 -0.01357824443204985 -0.00065941417799119338 0 -0.013461187152115207 -0.00052657725166889132 0 -0.013565962553554266 -0.0005869738051328087 0 -0.013486343582744262 -0.00059566804921768314 0 -0.013404757708934682 -0.00067570592635566586 0 -0.013486343582744262 -0.00059566804921768314 0 -0.01357824443204985 -0.00065941417799119338 0 -0.01357824443204985 -0.00065941417799119338 0 -0.013593595133634713 -0.00063125023306987967 0 -0.013623135533871641 -0.00059980937973091 0 -0.013565962553554266 -0.0005869738051328087 0 -0.01357824443204985 -0.00065941417799119338 0 -0.013593595133634713 -0.00063125023306987967 0 -0.013593595133634713 -0.00063125023306987967 0 -0.013588576809460386 -0.00061852378247220221 0 -0.013650991378783011 -0.00059230965546922475 0 -0.013936019606117804 -0.00049589742938346403 0 -0.013862662727927752 -0.0004728542676784407 0 -0.014177743494442882 -0.00058522816432920706 0 -0.013969375824139584 -0.00053676825223180008 0 -0.014106018090194629 -0.00051909528518063314 0 -0.013565962553554266 -0.0005869738051328087 0 -0.013593595133634713 -0.00063125023306987967 0 -0.013650991378783011 -0.00059230965546922475 0 -0.013591361194522998 -0.00053637937639079074 0 -0.013535638056596329 -0.00054864897174190569 0 -0.013586997930096423 -0.0005879612676774128 0 -0.013591361194522998 -0.00053637937639079074 0 -0.013586997930096423 -0.0005879612676774128 0 -0.013612066964267614 -0.00056951350412509649 0 -0.013936019606117804 -0.00049589742938346403 0 -0.014037959528612922 -0.00043961086350711781 0 -0.013588576809460386 -0.00061852378247220221 0 -0.013535638056596329 -0.00054864897174190569 0 -0.013586997930096423 -0.0005879612676774128 0 -0.014177743494442882 -0.00058522816432920706 0 -0.014395120273712208 -0.00055030885150073765 0 -0.014307734080055078 -0.00057808569449197575 0 -0.013593595133634713 -0.00063125023306987967 0 -0.013588576809460386 -0.00061852378247220221 0 -0.013586997930096423 -0.0005879612676774128 0 -0.013593595133634713 -0.00063125023306987967 0 -0.013586997930096423 -0.0005879612676774128 0 -0.013612066964267614 -0.00056951350412509649 0 -0.013593595133634713 -0.00063125023306987967 0 -0.013623135533871641 -0.00059980937973091 0 -0.013612066964267614 -0.00056951350412509649 0 -0.013623135533871641 -0.00059980937973091 0 -0.0136789872613433 -0.00051862139740751112 0 -0.013693745800604652 -0.00059693774795458257 0 -0.01357824443204985 -0.00065941417799119338 0 -0.013623135533871641 -0.00059980937973091 0 -0.013693745800604652 -0.00059693774795458257 0 -0.013623135533871641 -0.00059980937973091 0 -0.0136789872613433 -0.00051862139740751112 0 -0.013612066964267614 -0.00056951350412509649 0 -0.0136789872613433 -0.00051862139740751112 0 -0.013612066964267614 -0.00056951350412509649 0 -0.013632122609445246 -0.00050577726400711977 0 -0.013591361194522998 -0.00053637937639079074 0 -0.013612066964267614 -0.00056951350412509649 0 -0.013632122609445246 -0.00050577726400711977 0 -0.013632122609445246 -0.00050577726400711977 0 -0.013657360960454756 -0.00045321940514871757 0 -0.013589301217721629 -0.00048059672677239494 0 -0.01373953854550192 -0.00047496982368753875 0 -0.013676140401343502 -0.00047971094089299985 0 -0.013657360960454756 -0.00045321940514871757 0 -0.013709243244935979 -0.00046944527391436171 0 -0.013766370708950829 -0.00042465636304529612 0 -0.0136789872613433 -0.00051862139740751112 0 -0.013670128027926869 -0.00048589066601076845 0 -0.013709243244935979 -0.00046944527391436171 0 -0.013632122609445246 -0.00050577726400711977 0 -0.013670128027926869 -0.00048589066601076845 0 -0.013657360960454756 -0.00045321940514871757 0 -0.0136789872613433 -0.00051862139740751112 0 -0.013632122609445246 -0.00050577726400711977 0 -0.013670128027926869 -0.00048589066601076845 0 -0.013670128027926869 -0.00048589066601076845 0 -0.013657360960454756 -0.00045321940514871757 0 -0.013709243244935979 -0.00046944527391436171 0 -0.01373953854550192 -0.00047496982368753875 0 -0.013863366507320623 -0.00047126345391377623 0 -0.013753140499848245 -0.00047699401789116366 0 -0.013764632483289841 -0.00041440812531376496 0 -0.013863266363498258 -0.00039949734603382905 0 -0.01430860906506152 -0.00031879322670354487 0 -0.014428294717521075 -0.00021321279375032014 0 -0.013764632483289841 -0.00041440812531376496 0 -0.013837504853226856 -0.00030462955284825356 0 -0.013863266363498258 -0.00039949734603382905 0 -0.013753140499848245 -0.00047699401789116366 0 -0.013665454954279975 -0.00042690803195907882 0 -0.013589301217721629 -0.00048059672677239494 0 -0.013764632483289841 -0.00041440812531376496 0 -0.013665454954279975 -0.00042690803195907882 0 -0.013640404615453098 -0.00031149497615168005 0 -0.013753140499848245 -0.00047699401789116366 0 -0.013764632483289841 -0.00041440812531376496 0 -0.013665454954279975 -0.00042690803195907882 0 -0.013575579677891714 -0.00038883839606747484 0 -0.013589301217721629 -0.00048059672677239494 0 -0.013504686739422534 -0.00043248816158384783 0 -0.013665454954279975 -0.00042690803195907882 0 -0.013575579677891714 -0.00038883839606747484 0 -0.013640404615453098 -0.00031149497615168005 0 -0.013665454954279975 -0.00042690803195907882 0 -0.013575579677891714 -0.00038883839606747484 0 -0.013589301217721629 -0.00048059672677239494 0 -0.013591361194522998 -0.00053637937639079074 0 -0.013632122609445246 -0.00050577726400711977 0 -0.013589301217721629 -0.00048059672677239494 0 -0.013591361194522998 -0.00053637937639079074 0 -0.013535638056596329 -0.00054864897174190569 0 -0.013589301217721629 -0.00048059672677239494 0 -0.014037959528612922 -0.00043961086350711781 0 -0.014182245274922751 -0.00032837116576485523 0 -0.013535638056596329 -0.00054864897174190569 0 -0.013589301217721629 -0.00048059672677239494 0 -0.013504686739422534 -0.00043248816158384783 0 -0.014395120273712208 -0.00055030885150073765 0 -0.014633034116817167 -0.00029985710292894298 0 -0.014437378803763501 -0.00045822698246764825 0 -0.014182245274922751 -0.00032837116576485523 0 -0.01441476475851247 -0.00029468827088229325 0 -0.014633034116817167 -0.00029985710292894298 0 -0.014756419486229159 -0.00012678684951730865 0 -0.014701845082640901 -0.00017043127645494297 0 -0.013575579677891714 -0.00038883839606747484 0 -0.013504686739422534 -0.00043248816158384783 0 -0.013483480055150446 -0.0002884917955545878 0 -0.014343762501696423 -0.00022056608567741484 0 -0.01441476475851247 -0.00029468827088229325 0 -0.013575579677891714 -0.00038883839606747484 0 -0.013640404615453098 -0.00031149497615168005 0 -0.013483480055150446 -0.0002884917955545878 0 -0.014994304856537428 -2.2440460633729401e-05 0 -0.014989625998803166 -1.9782107441975911e-05 0 -0.014995658867532935 -1.4113296027094153e-05 0 -0.014994304856537428 -2.2440460633729401e-05 0 -0.01498757855406325 -2.2738366938443143e-05 0 -0.014989625998803166 -1.9782107441975911e-05 0 -0.01498757855406325 -2.2738366938443143e-05 0 -0.014989625998803166 -1.9782107441975911e-05 0 -0.014982105753115356 -2.1513724990620535e-05 0 -0.01441476475851247 -0.00029468827088229325 0 -0.014555556756013379 -0.00014208891712818019 0 -0.014989625998803166 -1.9782107441975911e-05 0 -0.014993330085533305 -1.3989685444633686e-05 0 -0.014982105753115356 -2.1513724990620535e-05 0 -0.014989625998803166 -1.9782107441975911e-05 0 -0.014993330085533305 -1.3989685444633686e-05 0 -0.014995658867532935 -1.4113296027094153e-05 0 -0.014993330085533305 -1.3989685444633686e-05 0 -0.014995658867532935 -1.4113296027094153e-05 0 -0.014998030518684551 -6.6981446742455772e-06 0 -0.014998030518684551 -6.6981446742455772e-06 0 -0.014999999197425505 -8.8481505478783711e-09 0 -0.014999998828546171 -7.1587073283609088e-09 0 -0.014993330085533305 -1.3989685444633686e-05 0 -0.014999999197425505 -8.8481505478783711e-09 0 -0.014982105753115356 -2.1513724990620535e-05 0 -0.014993330085533305 -1.3989685444633686e-05 0 -0.014998030518684551 -6.6981446742455772e-06 0 -0.014999999197425505 -8.8481505478783711e-09 0 -0.015000638370770619 -8.6979317205256488e-07 0 -0.014999998828546171 -7.1587073283609088e-09 0 -0.015000003893223281 -1.0085369102504781e-09 0 -0.015003269836199092 -7.135655404717833e-06 0 -0.015000638370770619 -8.6979317205256488e-07 0 -0.015000056772268686 -6.6983332060698636e-06 0 -0.015003269836199092 -7.135655404717833e-06 0 -0.015000638370770619 -8.6979317205256488e-07 0 -0.01500803368243302 -5.6933410979680262e-06 0 -0.014998030518684551 -6.6981446742455772e-06 0 -0.014999998828546171 -7.1587073283609088e-09 0 -0.015000056772268686 -6.6983332060698636e-06 0 -0.015000638370770619 -8.6979317205256488e-07 0 -0.014999998828546171 -7.1587073283609088e-09 0 -0.015000056772268686 -6.6983332060698636e-06 0 -0.014995658867532935 -1.4113296027094153e-05 0 -0.014998030518684551 -6.6981446742455772e-06 0 -0.015000056772268686 -6.6983332060698636e-06 0 -0.014995658867532935 -1.4113296027094153e-05 0 -0.015000056772268686 -6.6983332060698636e-06 0 -0.01499842566262527 -1.5020466298746811e-05 0 -0.015000056772268686 -6.6983332060698636e-06 0 -0.015002595419533053 -1.2590095204970018e-05 0 -0.01499842566262527 -1.5020466298746811e-05 0 -0.015003269836199092 -7.135655404717833e-06 0 -0.015000056772268686 -6.6983332060698636e-06 0 -0.015002595419533053 -1.2590095204970018e-05 0 -0.015003269836199092 -7.135655404717833e-06 0 -0.015002595419533053 -1.2590095204970018e-05 0 -0.015007095302315821 -1.0890571581906362e-05 0 -0.015002595419533053 -1.2590095204970018e-05 0 -0.015001086418935921 -1.7992598665721536e-05 0 -0.01500816116401742 -1.6626636490455505e-05 0 -0.015001086418935921 -1.7992598665721536e-05 0 -0.015002961060015058 -2.3468451008821933e-05 0 -0.01500816116401742 -1.6626636490455505e-05 0 -0.015002595419533053 -1.2590095204970018e-05 0 -0.015001086418935921 -1.7992598665721536e-05 0 -0.01499842566262527 -1.5020466298746811e-05 0 -0.014994304856537428 -2.2440460633729401e-05 0 -0.015001086418935921 -1.7992598665721536e-05 0 -0.01499842566262527 -1.5020466298746811e-05 0 -0.014994304856537428 -2.2440460633729401e-05 0 -0.014995658867532935 -1.4113296027094153e-05 0 -0.01499842566262527 -1.5020466298746811e-05 0 -0.014343762501696423 -0.00022056608567741484 0 -0.014428294717521075 -0.00021321279375032014 0 -0.013764632483289841 -0.00041440812531376496 0 -0.013640404615453098 -0.00031149497615168005 0 -0.013817736054947394 -0.00033743676389795454 0 -0.014994304856537428 -2.2440460633729401e-05 0 -0.015001086418935921 -1.7992598665721536e-05 0 -0.015002961060015058 -2.3468451008821933e-05 0 -0.014428294717521075 -0.00021321279375032014 0 -0.014679810278355172 -9.7864476200159746e-05 0 -0.014559357811168754 -0.00017617983378645418 0 -0.014585217263017676 -0.0001808421761366724 0 -0.014576972192525449 -0.00015051590405470224 0 -0.014428294717521075 -0.00021321279375032014 0 -0.014386261758714667 -0.00020005467953841465 0 -0.013837504853226856 -0.00030462955284825356 0 -0.014001265705461077 -0.0003341700551806939 0 -0.013863266363498258 -0.00039949734603382905 0 -0.014585217263017676 -0.0001808421761366724 0 -0.014594112563823487 -0.0001637525193890326 0 -0.014610873834357741 -0.00018553971856952883 0 -0.014585217263017676 -0.0001808421761366724 0 -0.014594112563823487 -0.0001637525193890326 0 -0.014576972192525449 -0.00015051590405470224 0 -0.014594112563823487 -0.0001637525193890326 0 -0.014596994988102373 -0.00014629302333205485 0 -0.014610753416932461 -0.00015962592703600839 0 -0.014594112563823487 -0.0001637525193890326 0 -0.014596994988102373 -0.00014629302333205485 0 -0.014576972192525449 -0.00015051590405470224 0 -0.015007095302315821 -1.0890571581906362e-05 0 -0.015013297069896242 -9.1930933334523897e-06 0 -0.01500803368243302 -5.6933410979680262e-06 0 -0.01500816116401742 -1.6626636490455505e-05 0 -0.015007095302315821 -1.0890571581906362e-05 0 -0.015013297069896242 -9.1930933334523897e-06 0 -0.015002595419533053 -1.2590095204970018e-05 0 -0.01500816116401742 -1.6626636490455505e-05 0 -0.015007095302315821 -1.0890571581906362e-05 0 -0.015003269836199092 -7.135655404717833e-06 0 -0.015007095302315821 -1.0890571581906362e-05 0 -0.01500803368243302 -5.6933410979680262e-06 0 -0.014679810278355172 -9.7864476200159746e-05 0 -0.014796739950263387 -0.00011061247115129606 0 -0.014596994988102373 -0.00014629302333205485 0 -0.014594550723216942 -0.00012488647031688201 0 -0.014610708218002288 -0.0001334837488002375 0 -0.014596994988102373 -0.00014629302333205485 0 -0.014576972192525449 -0.00015051590405470224 0 -0.014594550723216942 -0.00012488647031688201 0 -0.014796739950263387 -0.00011061247115129606 0 -0.014683087134658854 -0.00015815371466535274 0 -0.014796739950263387 -0.00011061247115129606 0 -0.01488966614732239 -0.00010295394688304958 0 -0.014796739950263387 -0.00011061247115129606 0 -0.014971632338010679 -1.0054192307400926e-05 0 -0.015000003893223281 -1.0085369102504781e-09 0 -0.01499982877289658 -3.8091219443977713e-08 0 -0.014999970197484731 -6.1036936716339655e-09 0 -0.015000003893223281 -1.0085369102504781e-09 0 -0.014999970197484731 -6.1036936716339655e-09 0 -0.014999997236381762 4.011958887983079e-10 0 -0.014999660350859872 -1.5322355164761834e-07 0 -0.01499982877289658 -3.8091219443977713e-08 0 -0.014999970197484731 -6.1036936716339655e-09 0 -0.014913175062506051 -9.7883769767768161e-05 0 -0.01488966614732239 -0.00010295394688304958 0 -0.015000638370770619 -8.6979317205256488e-07 0 -0.015000003893223281 -1.0085369102504781e-09 0 -0.01499982877289658 -3.8091219443977713e-08 0 -0.014999998963684133 -4.3598430861935211e-10 0 -0.014999201186416565 -5.9553289605899559e-07 0 -0.014999997504810923 -5.7887027525926929e-10 0 -0.014999998963684133 -4.3598430861935211e-10 0 -0.014999201186416565 -5.9553289605899559e-07 0 -0.014999069323286327 -8.473029850180084e-07 0 -0.014792588545258173 -0.00013118855281296415 0 -0.014826888448110729 -8.0778283825575921e-05 0 -0.014827603061795426 -0.00014963146501758664 0 -0.014999201186416565 -5.9553289605899559e-07 0 -0.014999858475881865 -8.4573116478136212e-08 0 -0.014998244697359775 -1.2303707326682457e-06 0 -0.014999201186416565 -5.9553289605899559e-07 0 -0.014999858475881865 -8.4573116478136212e-08 0 -0.014999997504810923 -5.7887027525926929e-10 0 -0.014971632338010679 -1.0054192307400926e-05 0 -0.014683087134658854 -0.00015815371466535274 0 -0.014971632338010679 -1.0054192307400926e-05 0 -0.014999086473790292 -1.7149252208163539e-07 0 -0.014999201186416565 -5.9553289605899559e-07 0 -0.014998244697359775 -1.2303707326682457e-06 0 -0.014998120409193048 -1.6249325768542002e-06 0 -0.014683087134658854 -0.00015815371466535274 0 -0.014519443042250406 -0.00022883578377985305 0 -0.014998120409193048 -1.6249325768542002e-06 0 -0.014997863263005161 -2.2596092775189674e-06 0 -0.014999069323286327 -8.473029850180084e-07 0 -0.014999201186416565 -5.9553289605899559e-07 0 -0.014998120409193048 -1.6249325768542002e-06 0 -0.014999069323286327 -8.473029850180084e-07 0 -0.014519443042250406 -0.00022883578377985305 0 -0.014297006070015624 -0.00032568724960548549 0 -0.014282840539519195 -0.00013909613929824951 0 -0.014271447964063743 -0.00022655831980775783 0 -0.014396524365201087 -0.00019873841770171657 0 -0.014596994988102373 -0.00014629302333205485 0 -0.014610708218002288 -0.0001334837488002375 0 -0.014610753416932461 -0.00015962592703600839 0 -0.014683087134658854 -0.00015815371466535274 0 -0.014552344273568552 -0.00018004015630850712 0 -0.014169746250169226 -7.9733471824809275e-05 0 -0.014282840539519195 -0.00013909613929824951 0 -0.014170775532720481 -0.00022316445618976921 0 -0.014282840539519195 -0.00013909613929824951 0 -0.014271447964063743 -0.00022655831980775783 0 -0.014170775532720481 -0.00022316445618976921 0 -0.014594112563823487 -0.0001637525193890326 0 -0.014610753416932461 -0.00015962592703600839 0 -0.014610873834357741 -0.00018553971856952883 0 -0.014170775532720481 -0.00022316445618976921 0 -0.014218460481113776 -0.00030075792719269818 0 -0.014170495362000709 -0.00036958030675978771 0 -0.014552344273568552 -0.00018004015630850712 0 -0.014474041870108327 -0.0001863963181571316 0 -0.014271447964063743 -0.00022655831980775783 0 -0.014170775532720481 -0.00022316445618976921 0 -0.014218460481113776 -0.00030075792719269818 0 -0.014218460481113776 -0.00030075792719269818 0 -0.014292098541815183 -0.00031282044922644446 0 -0.014186987873598997 -0.00037287012041681782 0 -0.014218460481113776 -0.00030075792719269818 0 -0.014170495362000709 -0.00036958030675978771 0 -0.014186987873598997 -0.00037287012041681782 0 -0.014271447964063743 -0.00022655831980775783 0 -0.014292098541815183 -0.00031282044922644446 0 -0.014396524365201087 -0.00019873841770171657 0 -0.014086027167895287 -0.00046226210120824069 0 -0.014297006070015624 -0.00032568724960548549 0 -0.014271447964063743 -0.00022655831980775783 0 -0.014218460481113776 -0.00030075792719269818 0 -0.014292098541815183 -0.00031282044922644446 0 -0.013825969578233843 -0.00063372991870151837 0 -0.013709529822432365 -0.00058449887157836062 0 -0.01366009985578312 -0.00073047469461032407 0 -0.013807264390725212 -0.00077776199424730067 0 -0.013825969578233843 -0.00063372991870151837 0 -0.01366009985578312 -0.00073047469461032407 0 -0.013807264390725212 -0.00077776199424730067 0 -0.013825969578233843 -0.00063372991870151837 0 -0.013968244321061021 -0.00061665373850324694 0 -0.013825969578233843 -0.00063372991870151837 0 -0.013880934418074142 -0.00049999100330399952 0 -0.013709529822432365 -0.00058449887157836062 0 -0.013880934418074142 -0.00049999100330399952 0 -0.013731630658303941 -0.00042547028275265647 0 -0.013709529822432365 -0.00058449887157836062 0 -0.013880934418074142 -0.00049999100330399952 0 -0.013731630658303941 -0.00042547028275265647 0 -0.013853238869553806 -0.00033619020126362202 0 -0.013966278230647177 -0.00043183277681584179 0 -0.013939455321681343 -0.00047719238926697741 0 -0.013917556663089616 -0.00043044321105033945 0 -0.013880934418074142 -0.00049999100330399952 0 -0.013966278230647177 -0.00043183277681584179 0 -0.013853238869553806 -0.00033619020126362202 0 -0.013880934418074142 -0.00049999100330399952 0 -0.013966278230647177 -0.00043183277681584179 0 -0.013939455321681343 -0.00047719238926697741 0 -0.013880934418074142 -0.00049999100330399952 0 -0.013939455321681343 -0.00047719238926697741 0 -0.013948615809877439 -0.00056042541153712071 0 -0.013963444885635147 -0.00048689506253091626 0 -0.013900908848812956 -0.00051081076781030448 0 -0.013939455321681343 -0.00047719238926697741 0 -0.013948615809877439 -0.00056042541153712071 0 -0.013917556663089616 -0.00043044321105033945 0 -0.013825969578233843 -0.00063372991870151837 0 -0.013880934418074142 -0.00049999100330399952 0 -0.013948615809877439 -0.00056042541153712071 0 -0.013931538165130708 -0.0004991633697701127 0 -0.013963444885635147 -0.00048689506253091626 0 -0.014292098541815183 -0.00031282044922644446 0 -0.014184491439411763 -0.00043224754260269923 0 -0.014186987873598997 -0.00037287012041681782 0 -0.014086027167895287 -0.00046226210120824069 0 -0.013963444885635147 -0.00048689506253091626 0 -0.014471967988350683 -0.00019197204416135019 0 -0.014474041870108327 -0.0001863963181571316 0 -0.014184491439411763 -0.00043224754260269923 0 -0.014169417191993468 -0.00040122071893614649 0 -0.014186987873598997 -0.00037287012041681782 0 -0.014169417191993468 -0.00040122071893614649 0 -0.014169830617036621 -0.0003695484714971589 0 -0.014186987873598997 -0.00037287012041681782 0 -0.014474041870108327 -0.0001863963181571316 0 -0.014471914056715397 -0.00018649148927934439 0 -0.013963444885635147 -0.00048689506253091626 0 -0.013863366507320623 -0.00047126345391377623 0 -0.014386261758714667 -0.00020005467953841465 0 -0.014474041870108327 -0.0001863963181571316 0 -0.014001265705461077 -0.0003341700551806939 0 -0.014169417191993468 -0.00040122071893614649 0 -0.014168913327126031 -0.00036506186192392158 0 -0.014184491439411763 -0.00043224754260269923 0 -0.014169417191993468 -0.00040122071893614649 0 -0.013964585551381982 -0.00045945286799783274 0 -0.014001265705461077 -0.0003341700551806939 0 -0.014169417191993468 -0.00040122071893614649 0 -0.013964585551381982 -0.00045945286799783274 0 -0.014001265705461077 -0.0003341700551806939 0 -0.013863266363498258 -0.00039949734603382905 0 -0.013964585551381982 -0.00045945286799783274 0 -0.013753140499848245 -0.00047699401789116366 0 -0.013863266363498258 -0.00039949734603382905 0 -0.013964585551381982 -0.00045945286799783274 0 -0.0136789872613433 -0.00051862139740751112 0 -0.013709243244935979 -0.00046944527391436171 0 -0.013762914264905326 -0.00047372558666651185 0 -0.013709243244935979 -0.00046944527391436171 0 -0.013766370708950829 -0.00042465636304529612 0 -0.013762914264905326 -0.00047372558666651185 0 -0.013863275543831632 -0.00041352956482841835 0 -0.013766370708950829 -0.00042465636304529612 0 -0.013814309646697715 -0.00046621693245066576 0 -0.013766370708950829 -0.00042465636304529612 0 -0.013762914264905326 -0.00047372558666651185 0 -0.013814309646697715 -0.00046621693245066576 0 -0.013762914264905326 -0.00047372558666651185 0 -0.013814309646697715 -0.00046621693245066576 0 -0.013775366257284429 -0.00051187435666462161 0 -0.013900908848812956 -0.00051081076781030448 0 -0.013874083426895211 -0.00052378014070755916 0 -0.013966278230647177 -0.00043183277681584179 0 -0.013917556663089616 -0.00043044321105033945 0 -0.013891845593595319 -0.00054490303935854183 0 -0.013917556663089616 -0.00043044321105033945 0 -0.013891845593595319 -0.00054490303935854183 0 -0.013775366257284429 -0.00051187435666462161 0 -0.0136789872613433 -0.00051862139740751112 0 -0.013762914264905326 -0.00047372558666651185 0 -0.013775366257284429 -0.00051187435666462161 0 -0.0136789872613433 -0.00051862139740751112 0 -0.013775366257284429 -0.00051187435666462161 0 -0.013693745800604652 -0.00059693774795458257 0 -0.013756847917637861 -0.00070672129036909509 0 -0.013693745800604652 -0.00059693774795458257 0 -0.013793365827737514 -0.0006082423801757593 0 -0.013775366257284429 -0.00051187435666462161 0 -0.013693745800604652 -0.00059693774795458257 0 -0.013793365827737514 -0.0006082423801757593 0 -0.013891845593595319 -0.00054490303935854183 0 -0.013775366257284429 -0.00051187435666462161 0 -0.013793365827737514 -0.0006082423801757593 0 -0.013910581008932837 -0.00071721427525406247 0 -0.013891845593595319 -0.00054490303935854183 0 -0.013793365827737514 -0.0006082423801757593 0 -0.013910581008932837 -0.00071721427525406247 0 -0.013891845593595319 -0.00054490303935854183 0 -0.014009327791888911 -0.0005807418331461717 0 -0.013148150296106689 -0.00043475206182042487 0 -0.013469896641745041 -0.00043579893031224623 0 -0.013965040742903513 -5.1706216254121248e-05 0 -0.01371073788936867 -0.0001633253463331112 0 -0.013700160321779132 0.00012536250027651022 0 -0.013863490710430831 0.00035922074405945001 0 -0.013965040742903513 -5.1706216254121248e-05 0 -0.013700160321779132 0.00012536250027651022 0 -0.013731630658303941 -0.00042547028275265647 0 -0.01371073788936867 -0.0001633253463331112 0 -0.013853238869553806 -0.00033619020126362202 0 -0.013965040742903513 -5.1706216254121248e-05 0 -0.01371073788936867 -0.0001633253463331112 0 -0.013853238869553806 -0.00033619020126362202 0 -0.013966278230647177 -0.00043183277681584179 0 -0.013891845593595319 -0.00054490303935854183 0 -0.014009327791888911 -0.0005807418331461717 0 -0.013565189369835973 -0.00045128159397564476 0 -0.013469896641745041 -0.00043579893031224623 0 -0.013966278230647177 -0.00043183277681584179 0 -0.013965040742903513 -5.1706216254121248e-05 0 -0.013853238869553806 -0.00033619020126362202 0 -0.013173590211985841 -0.00013044808736562287 0 -0.013484833183473233 -0.00027662649940285477 0 -0.013236728322489776 -0.00048089671289336931 0 -0.013731630658303941 -0.00042547028275265647 0 -0.01371073788936867 -0.0001633253463331112 0 -0.013484833183473233 -0.00027662649940285477 0 -0.01371073788936867 -0.0001633253463331112 0 -0.013484833183473233 -0.00027662649940285477 0 -0.013438000822138073 8.9756919701546243e-05 0 -0.01371073788936867 -0.0001633253463331112 0 -0.013700160321779132 0.00012536250027651022 0 -0.013438000822138073 8.9756919701546243e-05 0 -0.013173590211985841 -0.00013044808736562287 0 -0.013484833183473233 -0.00027662649940285477 0 -0.013438000822138073 8.9756919701546243e-05 0 -0.013173590211985841 -0.00013044808736562287 0 -0.013438000822138073 8.9756919701546243e-05 0 -0.012956888286182293 0.00019087474888125164 0 -0.013173590211985841 -0.00013044808736562287 0 -0.012956888286182293 0.00019087474888125164 0 -0.012594778927127541 -0.00015669833529862289 0 -0.011644018768251649 0.00010362432105161624 0 -0.012594778927127541 -0.00015669833529862289 0 -0.011570108907282453 1.6490419033519732e-05 0 -0.012587065564094432 0.00044215036044240855 0 -0.012956888286182293 0.00019087474888125164 0 -0.012594778927127541 -0.00015669833529862289 0 -0.011601978940589864 7.1158539327306785e-05 0 -0.011857401399643395 -0.00018638273461745312 0 -0.012594778927127541 -0.00015669833529862289 0 -0.012853930611822715 -0.00045445392310507692 0 -0.012247339111202181 -0.00025579644503845317 0 -0.012594778927127541 -0.00015669833529862289 0 -0.012247339111202181 -0.00025579644503845317 0 -0.011570108907282453 1.6490419033519732e-05 0 -0.012594778927127541 -0.00015669833529862289 0 -0.013236728322489776 -0.00048089671289336931 0 -0.012853930611822715 -0.00045445392310507692 0 -0.013173590211985841 -0.00013044808736562287 0 -0.012594778927127541 -0.00015669833529862289 0 -0.013236728322489776 -0.00048089671289336931 0 -0.013236728322489776 -0.00048089671289336931 0 -0.012853930611822715 -0.00045445392310507692 0 -0.01322681481463554 -0.00070680515453697026 0 -0.012853930611822715 -0.00045445392310507692 0 -0.012862063298803166 -0.00061051949300582455 0 -0.01322681481463554 -0.00070680515453697026 0 -0.012853930611822715 -0.00045445392310507692 0 -0.012862063298803166 -0.00061051949300582455 0 -0.012247339111202181 -0.00025579644503845317 0 -0.013233484693334014 -0.00080878976841645804 0 -0.01322681481463554 -0.00070680515453697026 0 -0.013502486226690678 -0.00082198953270897239 0 -0.012862063298803166 -0.00061051949300582455 0 -0.013233484693334014 -0.00080878976841645804 0 -0.01322681481463554 -0.00070680515453697026 0 -0.012862063298803166 -0.00061051949300582455 0 -0.013233484693334014 -0.00080878976841645804 0 -0.012930422491966078 -0.00075025691443121275 0 -0.013236728322489776 -0.00048089671289336931 0 -0.01322681481463554 -0.00070680515453697026 0 -0.013474997804657413 -0.00077936753864507981 0 -0.01322681481463554 -0.00070680515453697026 0 -0.013474997804657413 -0.00077936753864507981 0 -0.013502486226690678 -0.00082198953270897239 0 -0.013474997804657413 -0.00077936753864507981 0 -0.013565543195733424 -0.00058744971561452096 0 -0.01366009985578312 -0.00073047469461032407 0 -0.013236728322489776 -0.00048089671289336931 0 -0.013474997804657413 -0.00077936753864507981 0 -0.013565543195733424 -0.00058744971561452096 0 -0.013484833183473233 -0.00027662649940285477 0 -0.013236728322489776 -0.00048089671289336931 0 -0.013565543195733424 -0.00058744971561452096 0 -0.013731630658303941 -0.00042547028275265647 0 -0.013484833183473233 -0.00027662649940285477 0 -0.013565543195733424 -0.00058744971561452096 0 -0.013731630658303941 -0.00042547028275265647 0 -0.013565543195733424 -0.00058744971561452096 0 -0.013709529822432365 -0.00058449887157836062 0 -0.013565543195733424 -0.00058744971561452096 0 -0.013709529822432365 -0.00058449887157836062 0 -0.01366009985578312 -0.00073047469461032407 0 -0.013807264390725212 -0.00077776199424730067 0 -0.01366009985578312 -0.00073047469461032407 0 -0.013684399256672173 -0.0008805510898987546 0 -0.01366009985578312 -0.00073047469461032407 0 -0.01358485806664647 -0.00080941416148881619 0 -0.013684399256672173 -0.0008805510898987546 0 -0.013474997804657413 -0.00077936753864507981 0 -0.01366009985578312 -0.00073047469461032407 0 -0.01358485806664647 -0.00080941416148881619 0 -0.013474997804657413 -0.00077936753864507981 0 -0.01358485806664647 -0.00080941416148881619 0 -0.013817178286629168 -0.00075718770426697112 0 -0.01358485806664647 -0.00080941416148881619 0 -0.013746531250816986 -0.00041607493597399444 0 -0.013817178286629168 -0.00075718770426697112 0 -0.01358485806664647 -0.00080941416148881619 0 -0.013391628862819078 -0.00068887408629033677 0 -0.013746531250816986 -0.00041607493597399444 0 -0.014297006070015624 -0.00032568724960548549 0 -0.014511548385937991 -0.00026249946374425049 0 -0.014086930616838416 -0.00033601000678359666 0 -0.014297006070015624 -0.00032568724960548549 0 -0.014997863263005161 -2.2596092775189674e-06 0 -0.014999069323286327 -8.473029850180084e-07 0 -0.014999244924994909 -9.9550344880283652e-07 0 -0.014999244924994909 -9.9550344880283652e-07 0 -0.014999998871673356 -6.9486708960969779e-10 0 -0.015000000050078165 3.7668735785759999e-10 0 -0.014999069323286327 -8.473029850180084e-07 0 -0.014999244924994909 -9.9550344880283652e-07 0 -0.014999998871673356 -6.9486708960969779e-10 0 -0.014999998963684133 -4.3598430861935211e-10 0 -0.014999069323286327 -8.473029850180084e-07 0 -0.014999998871673356 -6.9486708960969779e-10 0 -0.014758239159712999 -0.00016069106711995819 0 -0.014997335304473041 1.09303398801427e-07 0 -0.014455297502352329 -0.00035612544592761167 0 -0.014758239159712999 -0.00016069106711995819 0 -0.014997335304473041 1.09303398801427e-07 0 -0.015000855303364225 -2.3474175941049863e-07 0 -0.014997335304473041 1.09303398801427e-07 0 -0.014227753403227147 -0.00044358878555707248 0 -0.014455297502352329 -0.00035612544592761167 0 -0.013746531250816986 -0.00041607493597399444 0 -0.014997335304473041 1.09303398801427e-07 0 -0.014227753403227147 -0.00044358878555707248 0 -0.014511548385937991 -0.00026249946374425049 0 -0.014999310203763942 -2.3846969153831335e-07 0 -0.013746531250816986 -0.00041607493597399444 0 -0.014227753403227147 -0.00044358878555707248 0 -0.013817178286629168 -0.00075718770426697112 0 -0.014227753403227147 -0.00044358878555707248 0 -0.014185498172003121 -0.00056441393849104577 0 -0.014455297502352329 -0.00035612544592761167 0 -0.014758239159712999 -0.00016069106711995819 0 -0.014455297502352329 -0.00035612544592761167 0 -0.014653874709740495 -0.0003683797986127726 0 -0.014185498172003121 -0.00056441393849104577 0 -0.014455297502352329 -0.00035612544592761167 0 -0.014653874709740495 -0.0003683797986127726 0 -0.014185498172003121 -0.00056441393849104577 0 -0.013854184378931175 -0.00074468422669725094 0 -0.013817178286629168 -0.00075718770426697112 0 -0.014185498172003121 -0.00056441393849104577 0 -0.013854184378931175 -0.00074468422669725094 0 -0.014653874709740495 -0.0003683797986127726 0 -0.014227753403227147 -0.00044358878555707248 0 -0.014185498172003121 -0.00056441393849104577 0 -0.013817178286629168 -0.00075718770426697112 0 -0.013474997804657413 -0.00077936753864507981 0 -0.013817178286629168 -0.00075718770426697112 0 -0.013502486226690678 -0.00082198953270897239 0 -0.013854184378931175 -0.00074468422669725094 0 -0.013817178286629168 -0.00075718770426697112 0 -0.013502486226690678 -0.00082198953270897239 0 -0.013854184378931175 -0.00074468422669725094 0 -0.013502486226690678 -0.00082198953270897239 0 -0.0134746526355415 -0.00085732123529244468 0 -0.013233484693334014 -0.00080878976841645804 0 -0.013502486226690678 -0.00082198953270897239 0 -0.0134746526355415 -0.00085732123529244468 0 -0.0134746526355415 -0.00085732123529244468 0 -0.013277620953423216 -0.00093858169301176209 0 -0.013556365785228786 -0.00088724772726897093 0 -0.013233484693334014 -0.00080878976841645804 0 -0.0134746526355415 -0.00085732123529244468 0 -0.013277620953423216 -0.00093858169301176209 0 -0.012870537351503725 -0.0011016254642759995 0 -0.012502529054915701 -0.00075852112508158784 0 -0.012814916797292958 -0.00088068372842089017 0 -0.013277620953423216 -0.00093858169301176209 0 -0.012941048997569189 -0.00098899279625527152 0 -0.012814916797292958 -0.00088068372842089017 0 -0.012941048997569189 -0.00098899279625527152 0 -0.012870537351503725 -0.0011016254642759995 0 -0.012814916797292958 -0.00088068372842089017 0 -0.01418070673001145 -0.00060164030634030411 0 -0.014212813860404372 -0.00058210637615013132 0 -0.012941048997569189 -0.00098899279625527152 0 -0.012906788043809833 -0.0010939202796624008 0 -0.012870537351503725 -0.0011016254642759995 0 -0.013277620953423216 -0.00093858169301176209 0 -0.012941048997569189 -0.00098899279625527152 0 -0.012906788043809833 -0.0010939202796624008 0 -0.013854184378931175 -0.00074468422669725094 0 -0.0134746526355415 -0.00085732123529244468 0 -0.013556365785228786 -0.00088724772726897093 0 -0.012870537351503725 -0.0011016254642759995 0 -0.012710997259512935 -0.00094992494951018662 0 -0.012712012834069841 -0.0011796842885366033 0 -0.014212813860404372 -0.00058210637615013132 0 -0.014020472417200277 -0.00052028705921081488 0 -0.012870537351503725 -0.0011016254642759995 0 -0.012710997259512935 -0.00094992494951018662 0 -0.012785350456693535 -0.00053265933436847789 0 -0.012906788043809833 -0.0010939202796624008 0 -0.012870537351503725 -0.0011016254642759995 0 -0.012712012834069841 -0.0011796842885366033 0 -0.014983707877719844 -3.0207134190129309e-05 0 -0.014996014257165754 -1.9677284120109914e-05 0 -0.014989086503610081 -1.0698245376041407e-05 0 -0.014212813860404372 -0.00058210637615013132 0 -0.014631095159347565 -0.00015309841447485724 0 -0.014630419798488486 -0.00043905706878155957 0 -0.014752294235162841 -0.00030401543832866274 0 -0.013854184378931175 -0.00074468422669725094 0 -0.013556365785228786 -0.00088724772726897093 0 -0.014398380920833027 -0.00049343781865413688 0 -0.014398380920833027 -0.00049343781865413688 0 -0.014345944367748229 -0.00035804160504956446 0 -0.015000614504961563 1.6414845651107872e-07 0 -0.013854184378931175 -0.00074468422669725094 0 -0.014398380920833027 -0.00049343781865413688 0 -0.014345944367748229 -0.00035804160504956446 0 -0.014989086503610081 -1.0698245376041407e-05 0 -0.014997699376753418 -6.2919639639719914e-06 0 -0.014999984598373504 1.4731862493106471e-09 0 -0.014996014257165754 -1.9677284120109914e-05 0 -0.014989086503610081 -1.0698245376041407e-05 0 -0.014997699376753418 -6.2919639639719914e-06 0 -0.014997699376753418 -6.2919639639719914e-06 0 -0.015000000781068825 -3.9156999311181926e-09 0 -0.014999984598373504 1.4731862493106471e-09 0 -0.014752294235162841 -0.00030401543832866274 0 -0.014999422061422192 -4.2301055566165833e-07 0 -0.014345944367748229 -0.00035804160504956446 0 -0.015000614504961563 1.6414845651107872e-07 0 -0.014998887498928153 -2.2728699316026606e-07 0 -0.014631095159347565 -0.00015309841447485724 0 -0.014999368790896885 -1.4272154805427645e-08 0 -0.014758239159712999 -0.00016069106711995819 0 -0.014653874709740495 -0.0003683797986127726 0 -0.015000855303364225 -2.3474175941049863e-07 0 -0.014780985504549459 4.2170511443196114e-06 0 -0.014999754958799167 -2.6702864432112515e-07 0 -0.014812726253726056 0.0001759298668533558 0 -0.014780985504549459 4.2170511443196114e-06 0 -0.014999529193508854 -9.0771372137849992e-08 0 -0.014479169943239166 4.4751561088014858e-07 0 -0.014998731820272775 -8.4936917405847901e-08 0 -0.014165161672117272 -0.000225350100283844 0 -0.014780985504549459 4.2170511443196114e-06 0 -0.014999529193508854 -9.0771372137849992e-08 0 -0.014999754958799167 -2.6702864432112515e-07 0 -0.015000005679899465 4.3258166139565658e-10 0 -0.015000002357448652 -3.8545824529487419e-06 0 -0.015003256680141826 -1.0731412079588044e-05 0 -0.014997699376753418 -6.2919639639719914e-06 0 -0.015000000781068825 -3.9156999311181926e-09 0 -0.015000002357448652 -3.8545824529487419e-06 0 -0.015000000781068825 -3.9156999311181926e-09 0 -0.015000005679899465 4.3258166139565658e-10 0 -0.015000002357448652 -3.8545824529487419e-06 0 -0.014996014257165754 -1.9677284120109914e-05 0 -0.014997699376753418 -6.2919639639719914e-06 0 -0.015003256680141826 -1.0731412079588044e-05 0 -0.014997699376753418 -6.2919639639719914e-06 0 -0.015000002357448652 -3.8545824529487419e-06 0 -0.015003256680141826 -1.0731412079588044e-05 0 -0.013777795664170566 5.4330096523988241e-05 0 -0.014477102736908463 3.7994632745575103e-07 0 -0.013789508142344082 -1.3149507953836458e-07 0 -0.014780985504549459 4.2170511443196114e-06 0 -0.014812726253726056 0.0001759298668533558 0 -0.014479169943239166 4.4751561088014858e-07 0 -0.014165161672117272 -0.000225350100283844 0 -0.014477534206805243 -2.8543976188519361e-07 0 -0.013777795664170566 5.4330096523988241e-05 0 -0.013789508142344082 -1.3149507953836458e-07 0 -0.013195574632824973 -3.7797584363926379e-05 0 -0.014020472417200277 -0.00052028705921081488 0 -0.014165161672117272 -0.000225350100283844 0 -0.014165161672117272 -0.000225350100283844 0 -0.013468984898911974 -0.00053450023255856749 0 -0.012712012834069841 -0.0011796842885366033 0 -0.012398373011190364 -0.0014106175458399913 0 -0.012408038609627305 -0.00091909749475296636 0 -0.012710997259512935 -0.00094992494951018662 0 -0.012408038609627305 -0.00091909749475296636 0 -0.012785350456693535 -0.00053265933436847789 0 -0.012710997259512935 -0.00094992494951018662 0 -0.012712012834069841 -0.0011796842885366033 0 -0.012408038609627305 -0.00091909749475296636 0 -0.013789508142344082 -1.3149507953836458e-07 0 -0.013195574632824973 -3.7797584363926379e-05 0 -0.01310114461612372 -9.1475665197740934e-08 0 -0.013195574632824973 -3.7797584363926379e-05 0 -0.012875863877493187 -5.9175457919498627e-05 0 -0.012585133675286469 -0.00011904390040755696 0 -0.01310114461612372 -9.1475665197740934e-08 0 -0.012875863877493187 -5.9175457919498627e-05 0 -0.01263929747207616 -6.411466697056129e-05 0 -0.013195574632824973 -3.7797584363926379e-05 0 -0.01310114461612372 -9.1475665197740934e-08 0 -0.012875863877493187 -5.9175457919498627e-05 0 -0.01310114461612372 -9.1475665197740934e-08 0 -0.012412562410819335 -2.2358203304154737e-07 0 -0.01263929747207616 -6.411466697056129e-05 0 -0.012412562410819335 -2.2358203304154737e-07 0 -0.01263929747207616 -6.411466697056129e-05 0 -0.012555459248114279 8.520762767386435e-06 0 -0.012875863877493187 -5.9175457919498627e-05 0 -0.01263929747207616 -6.411466697056129e-05 0 -0.012585133675286469 -0.00011904390040755696 0 -0.01263929747207616 -6.411466697056129e-05 0 -0.012555459248114279 8.520762767386435e-06 0 -0.012585133675286469 -0.00011904390040755696 0 -0.011638473076532525 -0.00024196282042868896 0 -0.011322890292566319 -0.00016514540391854838 0 -0.011853624402664091 -0.00072561103752929817 0 -0.011997435938358574 -0.00025464226552526016 0 -0.012232201626272395 -0.00049872068288127499 0 -0.012555459248114279 8.520762767386435e-06 0 -0.012585133675286469 -0.00011904390040755696 0 -0.012785350456693535 -0.00053265933436847789 0 -0.011638473076532525 -0.00024196282042868896 0 -0.011322890292566319 -0.00016514540391854838 0 -0.011427275727859709 -0.0001202116632367565 0 -0.013468984898911974 -0.00053450023255856749 0 -0.013256542861011564 -0.00046077801957436813 0 -0.012408038609627305 -0.00091909749475296636 0 -0.012585133675286469 -0.00011904390040755696 0 -0.012785350456693535 -0.00053265933436847789 0 -0.012403605038986841 -0.00067819707859497098 0 -0.012232201626272395 -0.00049872068288127499 0 -0.012870537351503725 -0.0011016254642759995 0 -0.012502529054915701 -0.00075852112508158784 0 -0.011853624402664091 -0.00072561103752929817 0 -0.012502529054915701 -0.00075852112508158784 0 -0.011853624402664091 -0.00072561103752929817 0 -0.012015077298777294 -0.00045110816903476381 0 -0.013277620953423216 -0.00093858169301176209 0 -0.012930422491966078 -0.00075025691443121275 0 -0.012814916797292958 -0.00088068372842089017 0 -0.013233484693334014 -0.00080878976841645804 0 -0.013277620953423216 -0.00093858169301176209 0 -0.012930422491966078 -0.00075025691443121275 0 -0.012502529054915701 -0.00075852112508158784 0 -0.012930422491966078 -0.00075025691443121275 0 -0.012814916797292958 -0.00088068372842089017 0 -0.012502529054915701 -0.00075852112508158784 0 -0.012930422491966078 -0.00075025691443121275 0 -0.012363217896033873 -0.00047322539125514734 0 -0.012862063298803166 -0.00061051949300582455 0 -0.012930422491966078 -0.00075025691443121275 0 -0.012363217896033873 -0.00047322539125514734 0 -0.012363217896033873 -0.00047322539125514734 0 -0.011831340450469836 -0.00021405839415175257 0 -0.012247339111202181 -0.00025579644503845317 0 -0.012862063298803166 -0.00061051949300582455 0 -0.012363217896033873 -0.00047322539125514734 0 -0.012247339111202181 -0.00025579644503845317 0 -0.011638473076532525 -0.00024196282042868896 0 -0.011853624402664091 -0.00072561103752929817 0 -0.012015077298777294 -0.00045110816903476381 0 -0.012502529054915701 -0.00075852112508158784 0 -0.012363217896033873 -0.00047322539125514734 0 -0.012015077298777294 -0.00045110816903476381 0 -0.012363217896033873 -0.00047322539125514734 0 -0.012015077298777294 -0.00045110816903476381 0 -0.011831340450469836 -0.00021405839415175257 0 -0.011638473076532525 -0.00024196282042868896 0 -0.012015077298777294 -0.00045110816903476381 0 -0.011831340450469836 -0.00021405839415175257 0 -0.011638473076532525 -0.00024196282042868896 0 -0.011831340450469836 -0.00021405839415175257 0 -0.011404003212890715 -6.7495471939191885e-05 0 -0.011831340450469836 -0.00021405839415175257 0 -0.011608531869699673 -7.5902824930535495e-05 0 -0.011404003212890715 -6.7495471939191885e-05 0 -0.011831340450469836 -0.00021405839415175257 0 -0.012247339111202181 -0.00025579644503845317 0 -0.011608531869699673 -7.5902824930535495e-05 0 -0.012247339111202181 -0.00025579644503845317 0 -0.011570108907282453 1.6490419033519732e-05 0 -0.011608531869699673 -7.5902824930535495e-05 0 -0.011570108907282453 1.6490419033519732e-05 0 -0.011608531869699673 -7.5902824930535495e-05 0 -0.011194414494807948 5.0141740346693337e-06 0 -0.011608531869699673 -7.5902824930535495e-05 0 -0.011194414494807948 5.0141740346693337e-06 0 -0.011404003212890715 -6.7495471939191885e-05 0 -0.011194414494807948 5.0141740346693337e-06 0 -0.011197841811681181 -3.4210345084569202e-05 0 -0.011404003212890715 -6.7495471939191885e-05 0 -0.011197841811681181 -3.4210345084569202e-05 0 -0.011404003212890715 -6.7495471939191885e-05 0 -0.011374702671882692 -5.9743936763753977e-05 0 -0.010859153362873389 -6.3568543028545899e-08 0 -0.011197841811681181 -3.4210345084569202e-05 0 -0.01172255167610441 6.2395217651827405e-08 0 -0.011197841811681181 -3.4210345084569202e-05 0 -0.01172255167610441 6.2395217651827405e-08 0 -0.011374702671882692 -5.9743936763753977e-05 0 -0.011997435938358574 -0.00025464226552526016 0 -0.011724643916447831 -3.8015696256748812e-07 0 -0.011322890292566319 -0.00016514540391854838 0 -0.01172255167610441 6.2395217651827405e-08 0 -0.011374702671882692 -5.9743936763753977e-05 0 -0.012412562410819335 -2.2358203304154737e-07 0 -0.012555459248114279 8.520762767386435e-06 0 -0.011725022586083312 3.2593162855843425e-07 0 -0.011322890292566319 -0.00016514540391854838 0 -0.011427275727859709 -0.0001202116632367565 0 -0.011374702671882692 -5.9743936763753977e-05 0 -0.011638473076532525 -0.00024196282042868896 0 -0.011427275727859709 -0.0001202116632367565 0 -0.011404003212890715 -6.7495471939191885e-05 0 -0.011427275727859709 -0.0001202116632367565 0 -0.011404003212890715 -6.7495471939191885e-05 0 -0.011374702671882692 -5.9743936763753977e-05 0 -0.014473151976134168 -0.00030373192411681075 0 -0.014249277622911484 -0.00031459096928743521 0 -0.014457091175451773 -0.00042385461457798874 0 -0.014457314818736201 -0.00043092034378307785 0 -0.014431555442442578 -0.00047817099522602614 0 -0.014457314818736201 -0.00043092034378307785 0 -0.014431555442442578 -0.00047817099522602614 0 -0.01446042826361434 -0.00045003428987299023 0 -0.014829334738960649 -0.00029361965973756792 0 -0.014754858046849645 -0.00031740521663472024 0 -0.014795749051332853 -0.00037804682888698058 0 -0.014754858046849645 -0.00031740521663472024 0 -0.014755745647828136 -0.00023993016440083703 0 -0.014681133779540355 -0.00030236560415694265 0 -0.014795749051332853 -0.00037804682888698058 0 -0.014721231404691108 -0.00038395046966806766 0 -0.014743699129378018 -0.00042510562819526886 0 -0.014754858046849645 -0.00031740521663472024 0 -0.014711595508672659 -0.00034078972200454435 0 -0.014721231404691108 -0.00038395046966806766 0 -0.014754858046849645 -0.00031740521663472024 0 -0.014795749051332853 -0.00037804682888698058 0 -0.014721231404691108 -0.00038395046966806766 0 -0.014431555442442578 -0.00047817099522602614 0 -0.014467298288883547 -0.00046233752538748547 0 -0.01446042826361434 -0.00045003428987299023 0 -0.014431555442442578 -0.00047817099522602614 0 -0.014467298288883547 -0.00046233752538748547 0 -0.014459501335288255 -0.0004955985427480083 0 -0.014467298288883547 -0.00046233752538748547 0 -0.014503798349528793 -0.00044747890275157631 0 -0.014459501335288255 -0.0004955985427480083 0 -0.014399744729143155 -0.00029455717797335148 0 -0.014223205055419552 -0.00024224038609063297 0 -0.014593919779689189 -0.00034875425447611905 0 -0.014586640579529428 -0.00032715800798889603 0 -0.014597945901423286 -0.00032557005168795813 0 -0.014593919779689189 -0.00034875425447611905 0 -0.014586640579529428 -0.00032715800798889603 0 -0.014577023388277396 -0.00033784581410432814 0 -0.014593919779689189 -0.00034875425447611905 0 -0.014577023388277396 -0.00033784581410432814 0 -0.014552374630806284 -0.00039392267872916255 0 -0.014399744729143155 -0.00029455717797335148 0 -0.014444542876064042 -0.00031280506903799845 0 -0.014503798349528793 -0.00044747890275157631 0 -0.01448144265006651 -0.00042186147926705306 0 -0.014504530606761139 -0.00040143361293424067 0 -0.014457314818736201 -0.00043092034378307785 0 -0.01446042826361434 -0.00045003428987299023 0 -0.014468880386303748 -0.00043610780854930257 0 -0.014467298288883547 -0.00046233752538748547 0 -0.014476372113857499 -0.00044342006116023614 0 -0.01446042826361434 -0.00045003428987299023 0 -0.014476372113857499 -0.00044342006116023614 0 -0.01446042826361434 -0.00045003428987299023 0 -0.014468880386303748 -0.00043610780854930257 0 -0.014467298288883547 -0.00046233752538748547 0 -0.014503798349528793 -0.00044747890275157631 0 -0.014476372113857499 -0.00044342006116023614 0 -0.014503798349528793 -0.00044747890275157631 0 -0.014476372113857499 -0.00044342006116023614 0 -0.01448144265006651 -0.00042186147926705306 0 -0.014476372113857499 -0.00044342006116023614 0 -0.01448144265006651 -0.00042186147926705306 0 -0.014468880386303748 -0.00043610780854930257 0 -0.014457314818736201 -0.00043092034378307785 0 -0.01448144265006651 -0.00042186147926705306 0 -0.014468880386303748 -0.00043610780854930257 0 -0.01448144265006651 -0.00042186147926705306 0 -0.014504530606761139 -0.00040143361293424067 0 -0.014479912791381042 -0.00037619848478599157 0 -0.014457314818736201 -0.00043092034378307785 0 -0.01448144265006651 -0.00042186147926705306 0 -0.014479912791381042 -0.00037619848478599157 0 -0.014457091175451773 -0.00042385461457798874 0 -0.014457314818736201 -0.00043092034378307785 0 -0.014484488000235808 -0.0003654961359292714 0 -0.014540907360316659 -0.00038207423950864907 0 -0.014595031577750604 -0.00029107036197812634 0 -0.014473151976134168 -0.00030373192411681075 0 -0.014595031577750604 -0.00029107036197812634 0 -0.014503798349528793 -0.00044747890275157631 0 -0.014504530606761139 -0.00040143361293424067 0 -0.014552374630806284 -0.00039392267872916255 0 -0.014504530606761139 -0.00040143361293424067 0 -0.014514219154641898 -0.00037363137695181186 0 -0.014552374630806284 -0.00039392267872916255 0 -0.014504530606761139 -0.00040143361293424067 0 -0.014514219154641898 -0.00037363137695181186 0 -0.014479912791381042 -0.00037619848478599157 0 -0.014514219154641898 -0.00037363137695181186 0 -0.014542668824954424 -0.00037601552588738057 0 -0.014518870537517695 -0.00034617801943093 0 -0.014514219154641898 -0.00037363137695181186 0 -0.014479912791381042 -0.00037619848478599157 0 -0.014485674304615609 -0.00034738148699356615 0 -0.014595031577750604 -0.00029107036197812634 0 -0.014717892348229693 -0.00017484974757992394 0 -0.014860764723861592 -0.00021223860340858076 0 -0.014826095461935109 -0.00017791122217381141 0 -0.014878537691840672 -0.00015983137880101083 0 -0.014826095461935109 -0.00017791122217381141 0 -0.014814255120641256 -0.00023591489089925638 0 -0.014755745647828136 -0.00023993016440083703 0 -0.014860764723861592 -0.00021223860340858076 0 -0.014826095461935109 -0.00017791122217381141 0 -0.014814255120641256 -0.00023591489089925638 0 -0.014852573940506333 -7.8305984528416654e-05 0 -0.014840625177547698 -0.00010434532350323529 0 -0.014829334738960649 -0.00029361965973756792 0 -0.014814255120641256 -0.00023591489089925638 0 -0.014755745647828136 -0.00023993016440083703 0 -0.014829334738960649 -0.00029361965973756792 0 -0.014860764723861592 -0.00021223860340858076 0 -0.014814255120641256 -0.00023591489089925638 0 -0.014829334738960649 -0.00029361965973756792 0 -0.014754858046849645 -0.00031740521663472024 0 -0.014755745647828136 -0.00023993016440083703 0 -0.014953362235403443 2.1405333666599778e-06 0 -0.014964915343040695 1.0098729884236641e-05 0 -0.014964576141307943 7.3819345867073656e-07 0 -0.014964915343040695 1.0098729884236641e-05 0 -0.014971693751910896 5.1523857124339679e-06 0 -0.014964576141307943 7.3819345867073656e-07 0 -0.014968783158739694 8.4457391113649911e-06 0 -0.014969437650785273 8.9952378438591786e-06 0 -0.014966712895669096 4.7824468078371805e-06 0 -0.014790788028169658 0.00019697072191500738 0 -0.014785386198977122 0.00017846280336770255 0 -0.014808834060713861 0.00017951607584262697 0 -0.014785386198977122 0.00017846280336770255 0 -0.014701441674532559 0.00016065734657298028 0 -0.014867641284909004 0.00018506423086437086 0 -0.014701441674532559 0.00016065734657298028 0 -0.014495936728808483 0.00022718585475958486 0 -0.014517925205807811 0.00040504604071985901 0 -0.014701441674532559 0.00016065734657298028 0 -0.014532348983077016 0.00042170094177588834 0 -0.014517925205807811 0.00040504604071985901 0 -0.014737137792425116 0.00020609687200149015 0 -0.014724314195531017 0.00025206815767073767 0 -0.014785386198977122 0.00017846280336770255 0 -0.014814416947453854 0.00017771936719811502 0 -0.014808834060713861 0.00017951607584262697 0 -0.014785386198977122 0.00017846280336770255 0 -0.014824203652793733 0.00017885260786352456 0 -0.014814416947453854 0.00017771936719811502 0 -0.014790788028169658 0.00019697072191500738 0 -0.014785386198977122 0.00017846280336770255 0 -0.014701441674532559 0.00016065734657298028 0 -0.014701441674532559 0.00016065734657298028 0 -0.014495936728808483 0.00022718585475958486 0 -0.014541481821587507 9.0366567781452559e-06 0 -0.014701441674532559 0.00016065734657298028 0 -0.014704646371131122 6.1744247559036161e-05 0 -0.014541481821587507 9.0366567781452559e-06 0 -0.014964915343040695 1.0098729884236641e-05 0 -0.014970217982576577 1.3748648307904642e-05 0 -0.014971740006103759 1.5365630599879019e-05 0 -0.014969437650785273 8.9952378438591786e-06 0 -0.014970217982576577 1.3748648307904642e-05 0 -0.014971740006103759 1.5365630599879019e-05 0 -0.014931403311180187 2.0233247900084989e-05 0 -0.01493858970934739 1.5652362984598659e-05 0 -0.014840625177547698 -0.00010434532350323529 0 -0.01480234957428123 -0.00013607585460569821 0 -0.014964915343040695 1.0098729884236641e-05 0 -0.014971693751910896 5.1523857124339679e-06 0 -0.014970217982576577 1.3748648307904642e-05 0 -0.014867486438818661 4.2313327780097504e-05 0 -0.01480234957428123 -0.00013607585460569821 0 -0.014790788028169658 0.00019697072191500738 0 -0.014704646371131122 6.1744247559036161e-05 0 -0.014753746431088869 -1.5677247752622874e-06 0 -0.014790788028169658 0.00019697072191500738 0 -0.014701441674532559 0.00016065734657298028 0 -0.014704646371131122 6.1744247559036161e-05 0 -0.014968783158739694 8.4457391113649911e-06 0 -0.014969437650785273 8.9952378438591786e-06 0 -0.014970217982576577 1.3748648307904642e-05 0 -0.014469122558346521 0.00030599660093304047 0 -0.014472811060934532 0.00038756217181230271 0 -0.014418036789164621 0.00035922355752749968 0 -0.014231968627179487 0.00032063618879882543 0 -0.014330617042619429 0.00037751818717270271 0 -0.014495936728808483 0.00022718585475958486 0 -0.014294540010364164 0.00018555819566645984 0 -0.014517925205807811 0.00040504604071985901 0 -0.014469122558346521 0.00030599660093304047 0 -0.014472811060934532 0.00038756217181230271 0 -0.014517925205807811 0.00040504604071985901 0 -0.014495936728808483 0.00022718585475958486 0 -0.014294540010364164 0.00018555819566645984 0 -0.014345463581115811 1.6193081081710003e-05 0 -0.014495936728808483 0.00022718585475958486 0 -0.014345463581115811 1.6193081081710003e-05 0 -0.014541481821587507 9.0366567781452559e-06 0 -0.014294540010364164 0.00018555819566645984 0 -0.014345463581115811 1.6193081081710003e-05 0 -0.01407485720354352 -5.1469863326436563e-05 0 -0.014231968627179487 0.00032063618879882543 0 -0.013994874120880997 0.00026084139744190035 0 -0.014345463581115811 1.6193081081710003e-05 0 -0.014390879201349398 -0.00016201376117546944 0 -0.01407485720354352 -5.1469863326436563e-05 0 -0.014345463581115811 1.6193081081710003e-05 0 -0.014390879201349398 -0.00016201376117546944 0 -0.014541481821587507 9.0366567781452559e-06 0 -0.014390879201349398 -0.00016201376117546944 0 -0.014541481821587507 9.0366567781452559e-06 0 -0.014573310648107874 -0.00012573800600343044 0 -0.014390879201349398 -0.00016201376117546944 0 -0.014554548491628565 -0.00026824860867153148 0 -0.014427027774874486 -0.0003636936892780596 0 -0.014390879201349398 -0.00016201376117546944 0 -0.014199666740387007 -0.00031536162553536873 0 -0.014427027774874486 -0.0003636936892780596 0 -0.014390879201349398 -0.00016201376117546944 0 -0.014573310648107874 -0.00012573800600343044 0 -0.014554548491628565 -0.00026824860867153148 0 -0.014390879201349398 -0.00016201376117546944 0 -0.014199666740387007 -0.00031536162553536873 0 -0.01407485720354352 -5.1469863326436563e-05 0 -0.014754858046849645 -0.00031740521663472024 0 -0.014711595508672659 -0.00034078972200454435 0 -0.014681133779540355 -0.00030236560415694265 0 -0.014756664619279188 -5.4322077126303326e-06 0 -0.014729434406500402 -2.7573588768554203e-05 0 -0.014693964760228577 -0.00027399654436815319 0 -0.014704646371131122 6.1744247559036161e-05 0 -0.014753746431088869 -1.5677247752622874e-06 0 -0.014729434406500402 -2.7573588768554203e-05 0 -0.01480234957428123 -0.00013607585460569821 0 -0.014802250320004076 -0.00013556586631832728 0 -0.014704646371131122 6.1744247559036161e-05 0 -0.014644236053311653 -3.7264918616870886e-05 0 -0.014541481821587507 9.0366567781452559e-06 0 -0.014704646371131122 6.1744247559036161e-05 0 -0.014729434406500402 -2.7573588768554203e-05 0 -0.014644236053311653 -3.7264918616870886e-05 0 -0.014644236053311653 -3.7264918616870886e-05 0 -0.014541481821587507 9.0366567781452559e-06 0 -0.014573310648107874 -0.00012573800600343044 0 -0.014729434406500402 -2.7573588768554203e-05 0 -0.014644236053311653 -3.7264918616870886e-05 0 -0.014650405297432268 -9.5897402313113752e-05 0 -0.014729434406500402 -2.7573588768554203e-05 0 -0.014650405297432268 -9.5897402313113752e-05 0 -0.014647150380656558 -0.0001763721350270316 0 -0.014644236053311653 -3.7264918616870886e-05 0 -0.014650405297432268 -9.5897402313113752e-05 0 -0.014573310648107874 -0.00012573800600343044 0 -0.014729434406500402 -2.7573588768554203e-05 0 -0.014647150380656558 -0.0001763721350270316 0 -0.014693964760228577 -0.00027399654436815319 0 -0.014650405297432268 -9.5897402313113752e-05 0 -0.014647150380656558 -0.0001763721350270316 0 -0.014573310648107874 -0.00012573800600343044 0 -0.014647150380656558 -0.0001763721350270316 0 -0.014573310648107874 -0.00012573800600343044 0 -0.014554548491628565 -0.00026824860867153148 0 -0.014647150380656558 -0.0001763721350270316 0 -0.014554548491628565 -0.00026824860867153148 0 -0.014693964760228577 -0.00027399654436815319 0 -0.01480234957428123 -0.00013607585460569821 0 -0.014737176475567488 -0.00031043767539012793 0 -0.014711595508672659 -0.00034078972200454435 0 -0.014681133779540355 -0.00030236560415694265 0 -0.014658764608248201 -0.00039889705075366061 0 -0.014711595508672659 -0.00034078972200454435 0 -0.014658764608248201 -0.00039889705075366061 0 -0.014721231404691108 -0.00038395046966806766 0 -0.014658764608248201 -0.00039889705075366061 0 -0.014721231404691108 -0.00038395046966806766 0 -0.01470713676835602 -0.00046210463646380247 0 -0.014721231404691108 -0.00038395046966806766 0 -0.01470713676835602 -0.00046210463646380247 0 -0.014774399471796989 -0.00045516714217892464 0 -0.014658764608248201 -0.00039889705075366061 0 -0.01470713676835602 -0.00046210463646380247 0 -0.014630258719338219 -0.00054105587659116394 0 -0.01470713676835602 -0.00046210463646380247 0 -0.014712777166104371 -0.00053112094033189172 0 -0.014757409661877443 -0.00050771928675789803 0 -0.014693964760228577 -0.00027399654436815319 0 -0.014561555149197663 -0.00040719800293855234 0 -0.014630258719338219 -0.00054105587659116394 0 -0.014737176475567488 -0.00031043767539012793 0 -0.01471111255619024 -0.00040333314635245784 0 -0.014561555149197663 -0.00040719800293855234 0 -0.014503484112840855 -0.00057287965187636407 0 -0.014427027774874486 -0.0003636936892780596 0 -0.014554548491628565 -0.00026824860867153148 0 -0.014693964760228577 -0.00027399654436815319 0 -0.014561555149197663 -0.00040719800293855234 0 -0.014554548491628565 -0.00026824860867153148 0 -0.014561555149197663 -0.00040719800293855234 0 -0.014427027774874486 -0.0003636936892780596 0 -0.014503484112840855 -0.00057287965187636407 0 -0.014362120222710233 -0.00062128631319783797 0 -0.014589021578043405 -0.00066174018058346806 0 -0.014561555149197663 -0.00040719800293855234 0 -0.014630258719338219 -0.00054105587659116394 0 -0.014503484112840855 -0.00057287965187636407 0 -0.014503484112840855 -0.00057287965187636407 0 -0.014609391011175296 -0.00059856776579674551 0 -0.014589021578043405 -0.00066174018058346806 0 -0.014630258719338219 -0.00054105587659116394 0 -0.014503484112840855 -0.00057287965187636407 0 -0.014609391011175296 -0.00059856776579674551 0 -0.014609391011175296 -0.00059856776579674551 0 -0.014690771418438574 -0.00061207975224686134 0 -0.014589021578043405 -0.00066174018058346806 0 -0.014630258719338219 -0.00054105587659116394 0 -0.014609391011175296 -0.00059856776579674551 0 -0.014690771418438574 -0.00061207975224686134 0 -0.014630258719338219 -0.00054105587659116394 0 -0.014690771418438574 -0.00061207975224686134 0 -0.014712777166104371 -0.00053112094033189172 0 -0.014690771418438574 -0.00061207975224686134 0 -0.014746266982054944 -0.00057722230586279859 0 -0.014712777166104371 -0.00053112094033189172 0 -0.014690771418438574 -0.00061207975224686134 0 -0.014746266982054944 -0.00057722230586279859 0 -0.01473590779386265 -0.00063031059764492598 0 -0.014746266982054944 -0.00057722230586279859 0 -0.014712777166104371 -0.00053112094033189172 0 -0.014757409661877443 -0.00050771928675789803 0 -0.01470713676835602 -0.00046210463646380247 0 -0.014630258719338219 -0.00054105587659116394 0 -0.014712777166104371 -0.00053112094033189172 0 -0.014199666740387007 -0.00031536162553536873 0 -0.01429661910998683 -0.00046000670246602567 0 -0.014074618798419593 -0.00051445717706977004 0 -0.014199666740387007 -0.00031536162553536873 0 -0.014427027774874486 -0.0003636936892780596 0 -0.01429661910998683 -0.00046000670246602567 0 -0.014503484112840855 -0.00057287965187636407 0 -0.01429661910998683 -0.00046000670246602567 0 -0.014362120222710233 -0.00062128631319783797 0 -0.014503484112840855 -0.00057287965187636407 0 -0.014427027774874486 -0.0003636936892780596 0 -0.01429661910998683 -0.00046000670246602567 0 -0.01429661910998683 -0.00046000670246602567 0 -0.014362120222710233 -0.00062128631319783797 0 -0.014074618798419593 -0.00051445717706977004 0 -0.014027126900762656 -0.00053822805966708461 0 -0.014074618798419593 -0.00051445717706977004 0 -0.014032199210682512 -0.00053459613696585253 0 -0.014146747962957356 -0.00049301011906578436 0 -0.014133922186657145 -0.00049720457537970569 0 -0.014074618798419593 -0.00051445717706977004 0 -0.014032199210682512 -0.00053459613696585253 0 -0.013990409583250044 -0.00055311549390749484 0 -0.014032199210682512 -0.00053459613696585253 0 -0.01400783546008731 -0.00055542536385141787 0 -0.013990409583250044 -0.00055311549390749484 0 -0.014032199210682512 -0.00053459613696585253 0 -0.01402239356111412 -0.00054442849015268863 0 -0.01400783546008731 -0.00055542536385141787 0 -0.014146747962957356 -0.00049301011906578436 0 -0.014063514364667103 -0.00043611936680417346 0 -0.014027126900762656 -0.00053822805966708461 0 -0.014032199210682512 -0.00053459613696585253 0 -0.01402239356111412 -0.00054442849015268863 0 -0.014027126900762656 -0.00053822805966708461 0 -0.01402239356111412 -0.00054442849015268863 0 -0.014030774066644276 -0.00054091701064748238 0 -0.01402239356111412 -0.00054442849015268863 0 -0.014027304974323324 -0.00054903418638794447 0 -0.014030774066644276 -0.00054091701064748238 0 -0.01402239356111412 -0.00054442849015268863 0 -0.014027304974323324 -0.00054903418638794447 0 -0.014023648663209027 -0.00055990230976625326 0 -0.014027304974323324 -0.00054903418638794447 0 -0.014023648663209027 -0.00055990230976625326 0 -0.014033452976988783 -0.00055303862940876941 0 -0.014015734435064238 -0.00058192455573891641 0 -0.014023648663209027 -0.00055990230976625326 0 -0.014003734387148192 -0.00057096367241554649 0 -0.014015734435064238 -0.00058192455573891641 0 -0.014023648663209027 -0.00055990230976625326 0 -0.014035655005571289 -0.00056459519650272911 0 -0.01402239356111412 -0.00054442849015268863 0 -0.014023648663209027 -0.00055990230976625326 0 -0.014003734387148192 -0.00057096367241554649 0 -0.01402239356111412 -0.00054442849015268863 0 -0.014003734387148192 -0.00057096367241554649 0 -0.01400783546008731 -0.00055542536385141787 0 -0.014003734387148192 -0.00057096367241554649 0 -0.01400783546008731 -0.00055542536385141787 0 -0.013980323031452606 -0.00057751224135520012 0 -0.01400783546008731 -0.00055542536385141787 0 -0.013980323031452606 -0.00057751224135520012 0 -0.013990409583250044 -0.00055311549390749484 0 -0.014690771418438574 -0.00061207975224686134 0 -0.014735775524388567 -0.00068882950920172881 0 -0.014589021578043405 -0.00066174018058346806 0 -0.014022684618363737 -0.00053523777379959692 0 -0.014021308014290712 -0.0005364589852466878 0 -0.01402957929618915 -0.00054081351429570456 0 -0.013536901703469571 -0.00021162903656019345 0 -0.014063514364667103 -0.00043611936680417346 0 -0.012737630320284923 -0.00059485384942168827 0 -0.013606965232480622 -0.00078779278507822004 0 -0.013407752807911399 0.0001934702749374103 0 -0.013539344463068639 -0.00021050913212185306 0 -0.013213613644984204 -0.00013467338010210396 0 -0.013213613644984204 -0.00013467338010210396 0 -0.013362668537781421 -0.00015404458879595315 0 -0.013606965232480622 -0.00078779278507822004 0 -0.013407752807911399 0.0001934702749374103 0 -0.013943642289578961 3.06170421932153e-05 0 -0.013536901703469571 -0.00021162903656019345 0 -0.013362668537781421 -0.00015404458879595315 0 -0.013539344463068639 -0.00021050913212185306 0 -0.013536901703469571 -0.00021162903656019345 0 -0.014735775524388567 -0.00068882950920172881 0 -0.01473590779386265 -0.00063031059764492598 0 -0.014770800170202653 -0.00064346060468456576 0 -0.014690771418438574 -0.00061207975224686134 0 -0.014735775524388567 -0.00068882950920172881 0 -0.01473590779386265 -0.00063031059764492598 0 -0.014027126900762656 -0.00053822805966708461 0 -0.01402957929618915 -0.00054081351429570456 0 -0.014030774066644276 -0.00054091701064748238 0 -0.014022684618363737 -0.00053523777379959692 0 -0.01402957929618915 -0.00054081351429570456 0 -0.014030774066644276 -0.00054091701064748238 0 -0.014068688588965846 -0.00054613609025817519 0 -0.014030774066644276 -0.00054091701064748238 0 -0.014047983285531692 -0.00055451490934623154 0 -0.013539344463068639 -0.00021050913212185306 0 -0.013845848310113769 -0.0003237548079424536 0 -0.014027304974323324 -0.00054903418638794447 0 -0.014030774066644276 -0.00054091701064748238 0 -0.014033452976988783 -0.00055303862940876941 0 -0.014030774066644276 -0.00054091701064748238 0 -0.014047983285531692 -0.00055451490934623154 0 -0.014033452976988783 -0.00055303862940876941 0 -0.014023648663209027 -0.00055990230976625326 0 -0.014033452976988783 -0.00055303862940876941 0 -0.014035655005571289 -0.00056459519650272911 0 -0.014047983285531692 -0.00055451490934623154 0 -0.014033452976988783 -0.00055303862940876941 0 -0.014035655005571289 -0.00056459519650272911 0 -0.014046269897058015 -0.00057865123002213774 0 -0.014015734435064238 -0.00058192455573891641 0 -0.014035655005571289 -0.00056459519650272911 0 -0.014046269897058015 -0.00057865123002213774 0 -0.014047983285531692 -0.00055451490934623154 0 -0.014035655005571289 -0.00056459519650272911 0 -0.014046269897058015 -0.00057865123002213774 0 -0.014068688588965846 -0.00054613609025817519 0 -0.014047983285531692 -0.00055451490934623154 0 -0.013799877878183514 -0.00033061308017734751 0 -0.013539344463068639 -0.00021050913212185306 0 -0.014129618229215079 -0.000407704275355937 0 -0.014056194535263694 -0.00038800399453099965 0 -0.014157174958883653 -0.00026502624941888319 0 -0.011043582456614248 0.0010380913619302246 0 -0.010738451423760119 0.00099913472484338566 0 -0.010881715155092746 0.0013324842350484676 0 -0.01248285493565675 0.00017419283207988138 0 -0.013213613644984204 -0.00013467338010210396 0 -0.014129618229215079 -0.000407704275355937 0 -0.014157174958883653 -0.00026502624941888319 0 -0.014182006568488822 -0.00027050895881506806 0 -0.011043582456614248 0.0010380913619302246 0 -0.010881715155092746 0.0013324842350484676 0 -0.011250005440124616 0.0012513240089211792 0 -0.013213613644984204 -0.00013467338010210396 0 -0.01247858283385731 0.00040677162551714958 0 -0.013186403460575816 8.5979001731606786e-05 0 -0.012828579351470908 0.00012910021505035374 0 -0.012812164140215148 0.00017013596702040445 0 -0.011342744139871125 0.0010157417269295232 0 -0.011043582456614248 0.0010380913619302246 0 -0.011250005440124616 0.0012513240089211792 0 -0.011516111968722122 0.00089266983163496197 0 -0.01247858283385731 0.00040677162551714958 0 -0.011890130185426232 0.00064987946361928155 0 -0.011867948235067391 0.00054165408460782056 0 -0.011841403757181377 0.00058881601251821317 0 -0.011890130185426232 0.00064987946361928155 0 -0.01194040761395016 0.00052518492163910037 0 -0.011867948235067391 0.00054165408460782056 0 -0.011516111968722122 0.00089266983163496197 0 -0.012274867549131102 0.00069104233550876628 0 -0.012676497704321853 0.00027136458533295643 0 -0.01247858283385731 0.00040677162551714958 0 -0.01247858283385731 0.00040677162551714958 0 -0.012599304703187278 0.00047424964559597917 0 -0.012676497704321853 0.00027136458533295643 0 -0.012731547348735398 0.000367699159876958 0 -0.012377043089284178 0.00043209617115400111 0 -0.012853579053406963 0.00042732444466166223 0 -0.012917987083952965 0.00031278411306259074 0 -0.012313836496397975 0.00059055783834530476 0 -0.012377043089284178 0.00043209617115400111 0 -0.012853579053406963 0.00042732444466166223 0 -0.012731547348735398 0.000367699159876958 0 -0.012599304703187278 0.00047424964559597917 0 -0.012676497704321853 0.00027136458533295643 0 -0.01360842822410304 -0.00025577996342755446 0 -0.01317827782711877 0.00033020044977852449 0 -0.013161545283275882 5.4310981940949213e-05 0 -0.013400979445774258 -0.00022734471216472233 0 -0.014590670923733446 -0.00029420957739271819 0 -0.014597200521173789 -0.00030362003022973305 0 -0.01459194988264202 -0.0003034348458284992 0 -0.012731547348735398 0.000367699159876958 0 -0.013328790150418967 -5.6247359324460071e-05 0 -0.01317827782711877 0.00033020044977852449 0 -0.012971120307252096 0.00039351609202165251 0 -0.013161545283275882 5.4310981940949213e-05 0 -0.014597200521173789 -0.00030362003022973305 0 -0.014593566848879462 -0.00030923905761792643 0 -0.01459194988264202 -0.0003034348458284992 0 -0.012676497704321853 0.00027136458533295643 0 -0.013362668537781421 -0.00015404458879595315 0 -0.013186403460575816 8.5979001731606786e-05 0 -0.012828579351470908 0.00012910021505035374 0 -0.013162064426255282 2.686627132981788e-05 0 -0.013326265985190032 -0.00012551143785189032 0 -0.013301923195025546 -0.00011853516953261345 0 -0.013305560330340038 -0.00011006409945868949 0 -0.013326265985190032 -0.00012551143785189032 0 -0.013305560330340038 -0.00011006409945868949 0 -0.013316360903879703 -9.7778015053205981e-05 0 -0.01323235658381656 -0.00053182877970772485 0 -0.013413201433931746 -0.00058679144917225877 0 -0.013626490725120366 -6.8192962380179373e-05 0 -0.013362668537781421 -0.00015404458879595315 0 -0.013530393255885511 -0.00021632757960347125 0 -0.013536901703469571 -0.00021162903656019345 0 -0.013530393255885511 -0.00021632757960347125 0 -0.013530393255885511 -0.00021632757960347125 0 -0.01360842822410304 -0.00025577996342755446 0 -0.013530393255885511 -0.00021632757960347125 0 -0.013737810656334759 -0.00033388020107509564 0 -0.014746266982054944 -0.00057722230586279859 0 -0.01473590779386265 -0.00063031059764492598 0 -0.014770800170202653 -0.00064346060468456576 0 -0.014746266982054944 -0.00057722230586279859 0 -0.014770800170202653 -0.00064346060468456576 0 -0.014809054877311784 -0.00053370137425777292 0 -0.014746266982054944 -0.00057722230586279859 0 -0.014809054877311784 -0.00053370137425777292 0 -0.014757409661877443 -0.00050771928675789803 0 -0.013801086468509534 -0.00033811664961428057 0 -0.013737810656334759 -0.00033388020107509564 0 -0.013687541924042666 -0.00025643016792098439 0 -0.013686110051427653 -0.00025966603005130295 0 -0.013691329936502966 -0.00026345369620171317 0 -0.013737810656334759 -0.00033388020107509564 0 -0.01360842822410304 -0.00025577996342755446 0 -0.013686110051427653 -0.00025966603005130295 0 -0.013691329936502966 -0.00026345369620171317 0 -0.013688658093169746 -0.00026649118140020887 0 -0.013801086468509534 -0.00033811664961428057 0 -0.013687842013023793 -0.00025140769473285353 0 -0.01362417894919354 -0.00030556815404450863 0 -0.013672327065972222 -0.00018993393448781825 0 -0.013688436505040997 -0.00023060387645075715 0 -0.013687842013023793 -0.00025140769473285353 0 -0.01360842822410304 -0.00025577996342755446 0 -0.013328790150418967 -5.6247359324460071e-05 0 -0.013687842013023793 -0.00025140769473285353 0 -0.013161545283275882 5.4310981940949213e-05 0 -0.013352209962177569 -0.0002848497466437529 0 -0.013400979445774258 -0.00022734471216472233 0 -0.014597200521173789 -0.00030362003022973305 0 -0.014601876684469899 -0.00031187205880245763 0 -0.014597594512973613 -0.00031131122235380907 0 -0.014597200521173789 -0.00030362003022973305 0 -0.014597594512973613 -0.00031131122235380907 0 -0.014593566848879462 -0.00030923905761792643 0 -0.014597594512973613 -0.00031131122235380907 0 -0.014593566848879462 -0.00030923905761792643 0 -0.014593675648529206 -0.00031367375635841881 0 -0.014597594512973613 -0.00031131122235380907 0 -0.014597252988927709 -0.00031651773102137916 0 -0.014593675648529206 -0.00031367375635841881 0 -0.014601876684469899 -0.00031187205880245763 0 -0.014597594512973613 -0.00031131122235380907 0 -0.014597252988927709 -0.00031651773102137916 0 -0.014406153069306047 -0.00053230791938763849 0 -0.014413359124806745 -0.00054569336892558505 0 -0.014459501335288255 -0.0004955985427480083 0 -0.013687842013023793 -0.00025140769473285353 0 -0.014223205055419552 -0.00024224038609063297 0 -0.014601876684469899 -0.00031187205880245763 0 -0.014597252988927709 -0.00031651773102137916 0 -0.014597945901423286 -0.00032557005168795813 0 -0.014431555442442578 -0.00047817099522602614 0 -0.014406153069306047 -0.00053230791938763849 0 -0.014459501335288255 -0.0004955985427480083 0 -0.014249277622911484 -0.00031459096928743521 0 -0.013801086468509534 -0.00033811664961428057 0 -0.014795749051332853 -0.00037804682888698058 0 -0.014761003168191516 -0.00045778048072736685 0 -0.014743699129378018 -0.00042510562819526886 0 -0.013989562300832602 -0.00049646264299470179 0 -0.01388733153526144 -0.0004332078798668156 0 -0.014809054877311784 -0.00053370137425777292 0 -0.014774399471796989 -0.00045516714217892464 0 -0.014757409661877443 -0.00050771928675789803 0 -0.01470713676835602 -0.00046210463646380247 0 -0.014774399471796989 -0.00045516714217892464 0 -0.014757409661877443 -0.00050771928675789803 0 -0.013737810656334759 -0.00033388020107509564 0 -0.01388733153526144 -0.0004332078798668156 0 -0.013801086468509534 -0.00033811664961428057 0 -0.01388733153526144 -0.0004332078798668156 0 -0.013762621796877155 -0.00034549729627355257 0 -0.013771758380786418 -0.00032311654838715033 0 -0.013809508021170163 -0.00042853824384581432 0 -0.014586640579529428 -0.00032715800798889603 0 -0.014589603855813179 -0.00032035694420344784 0 -0.01458238076404679 -0.00031229391032127767 0 -0.014586640579529428 -0.00032715800798889603 0 -0.014576416027543032 -0.00031467488124734466 0 -0.014577023388277396 -0.00033784581410432814 0 -0.014586640579529428 -0.00032715800798889603 0 -0.01458238076404679 -0.00031229391032127767 0 -0.014576416027543032 -0.00031467488124734466 0 -0.014586640579529428 -0.00032715800798889603 0 -0.014597945901423286 -0.00032557005168795813 0 -0.014589603855813179 -0.00032035694420344784 0 -0.014597945901423286 -0.00032557005168795813 0 -0.014594092162036236 -0.00031935809577854482 0 -0.014589603855813179 -0.00032035694420344784 0 -0.014597252988927709 -0.00031651773102137916 0 -0.014594092162036236 -0.00031935809577854482 0 -0.014593675648529206 -0.00031367375635841881 0 -0.014597252988927709 -0.00031651773102137916 0 -0.014597945901423286 -0.00032557005168795813 0 -0.014594092162036236 -0.00031935809577854482 0 -0.014594092162036236 -0.00031935809577854482 0 -0.014589603855813179 -0.00032035694420344784 0 -0.014588849760664624 -0.00031364500930811334 0 -0.014588849760664624 -0.00031364500930811334 0 -0.014593675648529206 -0.00031367375635841881 0 -0.014590555337912127 -0.00031023037912525738 0 -0.014594092162036236 -0.00031935809577854482 0 -0.014588849760664624 -0.00031364500930811334 0 -0.014593675648529206 -0.00031367375635841881 0 -0.014593566848879462 -0.00030923905761792643 0 -0.014593675648529206 -0.00031367375635841881 0 -0.014590555337912127 -0.00031023037912525738 0 -0.014593566848879462 -0.00030923905761792643 0 -0.014590555337912127 -0.00031023037912525738 0 -0.014589654680064928 -0.00030653541109574905 0 -0.014588849760664624 -0.00031364500930811334 0 -0.014586942360368843 -0.0003079590008148778 0 -0.014584731654080632 -0.00030970730460922391 0 -0.014588849760664624 -0.00031364500930811334 0 -0.014590555337912127 -0.00031023037912525738 0 -0.014586942360368843 -0.0003079590008148778 0 -0.014590555337912127 -0.00031023037912525738 0 -0.014586942360368843 -0.0003079590008148778 0 -0.014589654680064928 -0.00030653541109574905 0 -0.014586942360368843 -0.0003079590008148778 0 -0.014584649753200368 -0.00030664770773659449 0 -0.014584731654080632 -0.00030970730460922391 0 -0.013790221972305304 0.00034784338584262458 0 -0.014150391110698105 0.00012793913181433794 0 -0.014584731654080632 -0.00030970730460922391 0 -0.01458238076404679 -0.00031229391032127767 0 -0.014581657612773358 -0.00030455227202244307 0 -0.014827915349901149 -6.1431380859087068e-06 0 -0.014735420075195552 -2.5588985993465792e-05 0 -0.0147303565111724 -0.00016674027195206367 0 -0.01458238076404679 -0.00031229391032127767 0 -0.014581657612773358 -0.00030455227202244307 0 -0.014576416027543032 -0.00031467488124734466 0 -0.014584649753200368 -0.00030664770773659449 0 -0.014584731654080632 -0.00030970730460922391 0 -0.014581657612773358 -0.00030455227202244307 0 -0.014589603855813179 -0.00032035694420344784 0 -0.014588849760664624 -0.00031364500930811334 0 -0.01458238076404679 -0.00031229391032127767 0 -0.014588849760664624 -0.00031364500930811334 0 -0.014584731654080632 -0.00030970730460922391 0 -0.01458238076404679 -0.00031229391032127767 0 -0.014819625727591238 8.6359565750898767e-06 0 -0.01482158616219786 2.0886575132588221e-05 0 -0.014817406862120212 3.5973793090051331e-05 0 -0.014827915349901149 -6.1431380859087068e-06 0 -0.014819625727591238 8.6359565750898767e-06 0 -0.014735420075195552 -2.5588985993465792e-05 0 -0.014819625727591238 8.6359565750898767e-06 0 -0.014746311764730203 2.4611013876007553e-05 0 -0.014735420075195552 -2.5588985993465792e-05 0 -0.014584649753200368 -0.00030664770773659449 0 -0.014581657612773358 -0.00030455227202244307 0 -0.01458541068049133 -0.00030393789227425681 0 -0.014827915349901149 -6.1431380859087068e-06 0 -0.014819625727591238 8.6359565750898767e-06 0 -0.01482158616219786 2.0886575132588221e-05 0 -0.014819625727591238 8.6359565750898767e-06 0 -0.014795748421136094 4.746982325592551e-05 0 -0.014827524985898477 7.5538915614111759e-05 0 -0.014819625727591238 8.6359565750898767e-06 0 -0.014795748421136094 4.746982325592551e-05 0 -0.014746311764730203 2.4611013876007553e-05 0 -0.014795748421136094 4.746982325592551e-05 0 -0.014801071319890884 7.3681820841929436e-05 0 -0.014827524985898477 7.5538915614111759e-05 0 -0.014795748421136094 4.746982325592551e-05 0 -0.014759371195858993 7.228446672767974e-05 0 -0.014746311764730203 2.4611013876007553e-05 0 -0.014795748421136094 4.746982325592551e-05 0 -0.014801071319890884 7.3681820841929436e-05 0 -0.014759371195858993 7.228446672767974e-05 0 -0.014827915349901149 -6.1431380859087068e-06 0 -0.01482158616219786 2.0886575132588221e-05 0 -0.014824833157905734 3.8268659083068226e-05 0 -0.013790221972305304 0.00034784338584262458 0 -0.012701552530904835 0.0005474163560767782 0 -0.014581657612773358 -0.00030455227202244307 0 -0.01458585232144766 -0.0003004564911217624 0 -0.014585774864095154 -0.00029226614401896625 0 -0.014593566848879462 -0.00030923905761792643 0 -0.01459194988264202 -0.0003034348458284992 0 -0.014589654680064928 -0.00030653541109574905 0 -0.01459194988264202 -0.0003034348458284992 0 -0.014589654680064928 -0.00030653541109574905 0 -0.014588341401807581 -0.00030246846373637278 0 -0.014581657612773358 -0.00030455227202244307 0 -0.01458541068049133 -0.00030393789227425681 0 -0.01458585232144766 -0.0003004564911217624 0 -0.014588341401807581 -0.00030246846373637278 0 -0.01458541068049133 -0.00030393789227425681 0 -0.01458585232144766 -0.0003004564911217624 0 -0.014586942360368843 -0.0003079590008148778 0 -0.014589654680064928 -0.00030653541109574905 0 -0.01458541068049133 -0.00030393789227425681 0 -0.014589654680064928 -0.00030653541109574905 0 -0.014588341401807581 -0.00030246846373637278 0 -0.01458541068049133 -0.00030393789227425681 0 -0.014586942360368843 -0.0003079590008148778 0 -0.014584649753200368 -0.00030664770773659449 0 -0.01458541068049133 -0.00030393789227425681 0 -0.014590670923733446 -0.00029420957739271819 0 -0.01459194988264202 -0.0003034348458284992 0 -0.014588368923556741 -0.00029854114248808311 0 -0.01458585232144766 -0.0003004564911217624 0 -0.014588368923556741 -0.00029854114248808311 0 -0.014585774864095154 -0.00029226614401896625 0 -0.014588341401807581 -0.00030246846373637278 0 -0.01458585232144766 -0.0003004564911217624 0 -0.014588368923556741 -0.00029854114248808311 0 -0.01459194988264202 -0.0003034348458284992 0 -0.014588341401807581 -0.00030246846373637278 0 -0.014588368923556741 -0.00029854114248808311 0 -0.014590670923733446 -0.00029420957739271819 0 -0.014588368923556741 -0.00029854114248808311 0 -0.014585774864095154 -0.00029226614401896625 0 -0.012498843639431063 0.00063883042237718841 0 -0.012537413177995067 0.00057037510778727219 0 -0.012780987504356729 0.00051705917499607703 0 -0.012731547348735398 0.000367699159876958 0 -0.012701552530904835 0.0005474163560767782 0 -0.012599304703187278 0.00047424964559597917 0 -0.012701552530904835 0.0005474163560767782 0 -0.012139845005749831 0.00041937547524377715 0 -0.012169119965870728 0.00041317234977821622 0 -0.012153793875865173 0.00039455483419621501 0 -0.01482158616219786 2.0886575132588221e-05 0 -0.014824833157905734 3.8268659083068226e-05 0 -0.014820801745141257 3.113277636559065e-05 0 -0.01482158616219786 2.0886575132588221e-05 0 -0.014820801745141257 3.113277636559065e-05 0 -0.014817406862120212 3.5973793090051331e-05 0 -0.014824833157905734 3.8268659083068226e-05 0 -0.014820409109503661 3.4805060817798785e-05 0 -0.014820801745141257 3.113277636559065e-05 0 -0.012701552530904835 0.0005474163560767782 0 -0.01280305893824784 0.00053177423861595907 0 -0.014820409109503661 3.4805060817798785e-05 0 -0.014820801745141257 3.113277636559065e-05 0 -0.014817406862120212 3.5973793090051331e-05 0 -0.012701552530904835 0.0005474163560767782 0 -0.012545475760195665 0.00080135212125325458 0 -0.012072849611719196 0.00088619846961276126 0 -0.012174659697948684 0.00086376480278530464 0 -0.01203774360133176 0.00084319170543654856 0 -0.012111972470602918 0.00071000136886536407 0 -0.012174659697948684 0.00086376480278530464 0 -0.01203774360133176 0.00084319170543654856 0 -0.014823493049209012 3.411603200381044e-05 0 -0.014820409109503661 3.4805060817798785e-05 0 -0.014817406862120212 3.5973793090051331e-05 0 -0.012701552530904835 0.0005474163560767782 0 -0.012274867549131102 0.00069104233550876628 0 -0.012599304703187278 0.00047424964559597917 0 -0.012274867549131102 0.00069104233550876628 0 -0.014819625727591238 8.6359565750898767e-06 0 -0.014864065148646103 0.00013536416575600778 0 -0.014827524985898477 7.5538915614111759e-05 0 -0.01286038123250394 0.00073702004543709399 0 -0.012545475760195665 0.00080135212125325458 0 -0.014793491520825838 0.00010007882428670734 0 -0.014807892304273191 0.00012237745231661468 0 -0.01475325392062202 0.00012241519918548341 0 -0.014793491520825838 0.00010007882428670734 0 -0.014807892304273191 0.00012237745231661468 0 -0.014815605760998317 0.0001055801663380048 0 -0.014793491520825838 0.00010007882428670734 0 -0.014814297476341541 8.866725073977242e-05 0 -0.014815605760998317 0.0001055801663380048 0 -0.014793491520825838 0.00010007882428670734 0 -0.01475325392062202 0.00012241519918548341 0 -0.014759371195858993 7.228446672767974e-05 0 -0.014793491520825838 0.00010007882428670734 0 -0.014801071319890884 7.3681820841929436e-05 0 -0.014759371195858993 7.228446672767974e-05 0 -0.014793491520825838 0.00010007882428670734 0 -0.014801071319890884 7.3681820841929436e-05 0 -0.014814297476341541 8.866725073977242e-05 0 -0.014827524985898477 7.5538915614111759e-05 0 -0.014827145547401357 9.7288555299157548e-05 0 -0.014844383533660802 0.00011787590045185709 0 -0.014864065148646103 0.00013536416575600778 0 -0.014827524985898477 7.5538915614111759e-05 0 -0.014844383533660802 0.00011787590045185709 0 -0.014801071319890884 7.3681820841929436e-05 0 -0.014827524985898477 7.5538915614111759e-05 0 -0.014814297476341541 8.866725073977242e-05 0 -0.014827524985898477 7.5538915614111759e-05 0 -0.014827145547401357 9.7288555299157548e-05 0 -0.014814297476341541 8.866725073977242e-05 0 -0.014827145547401357 9.7288555299157548e-05 0 -0.014814297476341541 8.866725073977242e-05 0 -0.014815605760998317 0.0001055801663380048 0 -0.014827145547401357 9.7288555299157548e-05 0 -0.014815605760998317 0.0001055801663380048 0 -0.014828145520423762 0.00010921532432296776 0 -0.014827145547401357 9.7288555299157548e-05 0 -0.014844383533660802 0.00011787590045185709 0 -0.014828145520423762 0.00010921532432296776 0 -0.014844383533660802 0.00011787590045185709 0 -0.014828145520423762 0.00010921532432296776 0 -0.014826839240203577 0.00012600540880432971 0 -0.014807892304273191 0.00012237745231661468 0 -0.014828145520423762 0.00010921532432296776 0 -0.014826839240203577 0.00012600540880432971 0 -0.014807892304273191 0.00012237745231661468 0 -0.014815605760998317 0.0001055801663380048 0 -0.014828145520423762 0.00010921532432296776 0 -0.011217813967108022 0.0011835942178652738 0 -0.011246814675010233 0.0010134367205461791 0 -0.011143287481964347 0.0010364211568708451 0 -0.014807892304273191 0.00012237745231661468 0 -0.014826839240203577 0.00012600540880432971 0 -0.014822056789543745 0.00014419534877401345 0 -0.014844383533660802 0.00011787590045185709 0 -0.014826839240203577 0.00012600540880432971 0 -0.014822056789543745 0.00014419534877401345 0 -0.012545475760195665 0.00080135212125325458 0 -0.012704962472813242 0.00092254045637654367 0 -0.014864065148646103 0.00013536416575600778 0 -0.014844383533660802 0.00011787590045185709 0 -0.014822056789543745 0.00014419534877401345 0 -0.012704962472813242 0.00092254045637654367 0 -0.013181159583695382 0.00079693943490700069 0 -0.014719899353098188 0.00020819819560896689 0 -0.014793698268396979 0.00014835138059433344 0 -0.014731093668496386 0.00016077976024814582 0 -0.014822056789543745 0.00014419534877401345 0 -0.014731093668496386 0.00016077976024814582 0 -0.01475325392062202 0.00012241519918548341 0 -0.014807892304273191 0.00012237745231661468 0 -0.014822056789543745 0.00014419534877401345 0 -0.01475325392062202 0.00012241519918548341 0 -0.014731093668496386 0.00016077976024814582 0 -0.01475325392062202 0.00012241519918548341 0 -0.014675815043149916 6.4321778287637974e-05 0 -0.013105186019095738 0.0010262948869708584 0 -0.013464491823272657 0.00077719978597421498 0 -0.014703358185031571 0.00040396311335905193 0 -0.014854025445039958 0.0003885957444657977 0 -0.014675815043149916 6.4321778287637974e-05 0 -0.014719899353098188 0.00020819819560896689 0 -0.014731093668496386 0.00016077976024814582 0 -0.014675815043149916 6.4321778287637974e-05 0 -0.01475325392062202 0.00012241519918548341 0 -0.014759371195858993 7.228446672767974e-05 0 -0.014675815043149916 6.4321778287637974e-05 0 -0.014746311764730203 2.4611013876007553e-05 0 -0.014675815043149916 6.4321778287637974e-05 0 -0.014735420075195552 -2.5588985993465792e-05 0 -0.014759371195858993 7.228446672767974e-05 0 -0.014746311764730203 2.4611013876007553e-05 0 -0.014675815043149916 6.4321778287637974e-05 0 -0.014675815043149916 6.4321778287637974e-05 0 -0.014735420075195552 -2.5588985993465792e-05 0 -0.014597040481596952 -7.7524969629826421e-05 0 -0.014675815043149916 6.4321778287637974e-05 0 -0.014475770943880069 9.120968954207196e-05 0 -0.014597040481596952 -7.7524969629826421e-05 0 -0.014675815043149916 6.4321778287637974e-05 0 -0.014574412960692245 0.00022764004431865609 0 -0.014475770943880069 9.120968954207196e-05 0 -0.014703358185031571 0.00040396311335905193 0 -0.014675815043149916 6.4321778287637974e-05 0 -0.014574412960692245 0.00022764004431865609 0 -0.014459178029527484 0.00035169739647781552 0 -0.014574412960692245 0.00022764004431865609 0 -0.014475770943880069 9.120968954207196e-05 0 -0.014459178029527484 0.00035169739647781552 0 -0.014298136825240247 0.0001411836066039242 0 -0.014475770943880069 9.120968954207196e-05 0 -0.014298136825240247 0.0001411836066039242 0 -0.014333162013294936 -4.6953773390812481e-05 0 -0.014475770943880069 9.120968954207196e-05 0 -0.014333162013294936 -4.6953773390812481e-05 0 -0.014475770943880069 9.120968954207196e-05 0 -0.014442513608392727 -0.00014308134331684065 0 -0.014475770943880069 9.120968954207196e-05 0 -0.014442513608392727 -0.00014308134331684065 0 -0.014597040481596952 -7.7524969629826421e-05 0 -0.014333162013294936 -4.6953773390812481e-05 0 -0.014442513608392727 -0.00014308134331684065 0 -0.014315953881380891 -0.0001961888731633352 0 -0.014442513608392727 -0.00014308134331684065 0 -0.014315953881380891 -0.0001961888731633352 0 -0.014466582982560426 -0.00029858283719806482 0 -0.014315953881380891 -0.0001961888731633352 0 -0.014328218968405049 -0.00032903097651141921 0 -0.014466582982560426 -0.00029858283719806482 0 -0.014442513608392727 -0.00014308134331684065 0 -0.014554691230607469 -0.00020706415851454494 0 -0.014466582982560426 -0.00029858283719806482 0 -0.014554691230607469 -0.00020706415851454494 0 -0.014576249498287558 -0.00031677683569616169 0 -0.014466582982560426 -0.00029858283719806482 0 -0.014554691230607469 -0.00020706415851454494 0 -0.0147303565111724 -0.00016674027195206367 0 -0.014576249498287558 -0.00031677683569616169 0 -0.014150391110698105 0.00012793913181433794 0 -0.014231191112832475 3.7738722711182732e-05 0 -0.014576416027543032 -0.00031467488124734466 0 -0.014577023388277396 -0.00033784581410432814 0 -0.014576249498287558 -0.00031677683569616169 0 -0.014735420075195552 -2.5588985993465792e-05 0 -0.0147303565111724 -0.00016674027195206367 0 -0.014597040481596952 -7.7524969629826421e-05 0 -0.014554691230607469 -0.00020706415851454494 0 -0.0147303565111724 -0.00016674027195206367 0 -0.014597040481596952 -7.7524969629826421e-05 0 -0.014442513608392727 -0.00014308134331684065 0 -0.014554691230607469 -0.00020706415851454494 0 -0.014597040481596952 -7.7524969629826421e-05 0 -0.013832836254972425 -0.00016180930463050822 0 -0.013892875705873095 2.5872724807680335e-05 0 -0.014019487167154425 -4.6052542411526575e-05 0 -0.013708218136628545 1.6191629621354548e-06 0 -0.013832836254972425 -0.00016180930463050822 0 -0.013892875705873095 2.5872724807680335e-05 0 -0.013840192215245632 0.00013303514922118328 0 -0.013708218136628545 1.6191629621354548e-06 0 -0.013892875705873095 2.5872724807680335e-05 0 -0.013970826999212734 9.3366318106856571e-05 0 -0.013915209915795933 0.00011199545556101506 0 -0.013892875705873095 2.5872724807680335e-05 0 -0.013970826999212734 9.3366318106856571e-05 0 -0.013892875705873095 2.5872724807680335e-05 0 -0.014019487167154425 -4.6052542411526575e-05 0 -0.013970826999212734 9.3366318106856571e-05 0 -0.014019487167154425 -4.6052542411526575e-05 0 -0.014079976542742506 3.0411844844541809e-05 0 -0.013832836254972425 -0.00016180930463050822 0 -0.014019487167154425 -4.6052542411526575e-05 0 -0.014048420673677694 -0.00015302577744809507 0 -0.014019487167154425 -4.6052542411526575e-05 0 -0.014048420673677694 -0.00015302577744809507 0 -0.014152634589362608 -5.924319782942419e-05 0 -0.014019487167154425 -4.6052542411526575e-05 0 -0.014079976542742506 3.0411844844541809e-05 0 -0.014152634589362608 -5.924319782942419e-05 0 -0.013719297163756399 0.00024038919364218422 0 -0.014039335674449418 0.00021941919792044587 0 -0.014152634589362608 -5.924319782942419e-05 0 -0.013835669335948434 0.00021731556297247668 0 -0.013956394775360946 9.1084420981400453e-05 0 -0.014187342749770371 0.00041082587633169826 0 -0.014298136825240247 0.0001411836066039242 0 -0.014039335674449418 0.00021941919792044587 0 -0.014298136825240247 0.0001411836066039242 0 -0.014039335674449418 0.00021941919792044587 0 -0.014152634589362608 -5.924319782942419e-05 0 -0.014298136825240247 0.0001411836066039242 0 -0.014333162013294936 -4.6953773390812481e-05 0 -0.014152634589362608 -5.924319782942419e-05 0 -0.014315953881380891 -0.0001961888731633352 0 -0.014152634589362608 -5.924319782942419e-05 0 -0.014174678902998124 -0.00023645986010693658 0 -0.014333162013294936 -4.6953773390812481e-05 0 -0.014315953881380891 -0.0001961888731633352 0 -0.014152634589362608 -5.924319782942419e-05 0 -0.014315953881380891 -0.0001961888731633352 0 -0.014174678902998124 -0.00023645986010693658 0 -0.014328218968405049 -0.00032903097651141921 0 -0.014174678902998124 -0.00023645986010693658 0 -0.014176277250652378 -0.00036081463228413281 0 -0.014328218968405049 -0.00032903097651141921 0 -0.014048420673677694 -0.00015302577744809507 0 -0.014152634589362608 -5.924319782942419e-05 0 -0.014174678902998124 -0.00023645986010693658 0 -0.014048420673677694 -0.00015302577744809507 0 -0.014174678902998124 -0.00023645986010693658 0 -0.0139862024934027 -0.0002724945908840945 0 -0.013832836254972425 -0.00016180930463050822 0 -0.014048420673677694 -0.00015302577744809507 0 -0.0139862024934027 -0.0002724945908840945 0 -0.014174678902998124 -0.00023645986010693658 0 -0.0139862024934027 -0.0002724945908840945 0 -0.014176277250652378 -0.00036081463228413281 0 -0.013757743317321937 -0.0003207719843061814 0 -0.0139862024934027 -0.0002724945908840945 0 -0.013976922841879451 -0.00043542050371442575 0 -0.013757743317321937 -0.0003207719843061814 0 -0.013832836254972425 -0.00016180930463050822 0 -0.0139862024934027 -0.0002724945908840945 0 -0.013976922841879451 -0.00043542050371442575 0 -0.014162868117089857 -0.00044916245082366851 0 -0.014106018090194629 -0.00051909528518063314 0 -0.013976922841879451 -0.00043542050371442575 0 -0.014162868117089857 -0.00044916245082366851 0 -0.014176277250652378 -0.00036081463228413281 0 -0.0139862024934027 -0.0002724945908840945 0 -0.013976922841879451 -0.00043542050371442575 0 -0.014176277250652378 -0.00036081463228413281 0 -0.014162868117089857 -0.00044916245082366851 0 -0.014176277250652378 -0.00036081463228413281 0 -0.014346694607470789 -0.0004211819516628488 0 -0.014176277250652378 -0.00036081463228413281 0 -0.014328218968405049 -0.00032903097651141921 0 -0.014346694607470789 -0.0004211819516628488 0 -0.014328218968405049 -0.00032903097651141921 0 -0.014346694607470789 -0.0004211819516628488 0 -0.014451693723270499 -0.00038046868122483394 0 -0.014346694607470789 -0.0004211819516628488 0 -0.014451693723270499 -0.00038046868122483394 0 -0.014479952798223037 -0.0004295900841727156 0 -0.014346694607470789 -0.0004211819516628488 0 -0.01449108678725885 -0.00047704279276394624 0 -0.014479952798223037 -0.0004295900841727156 0 -0.01449108678725885 -0.00047704279276394624 0 -0.014283366322903208 -0.00047694842691545301 0 -0.01423157333884709 -0.00055176107881288667 0 -0.014346694607470789 -0.0004211819516628488 0 -0.01449108678725885 -0.00047704279276394624 0 -0.014283366322903208 -0.00047694842691545301 0 -0.014162868117089857 -0.00044916245082366851 0 -0.014346694607470789 -0.0004211819516628488 0 -0.014283366322903208 -0.00047694842691545301 0 -0.014162868117089857 -0.00044916245082366851 0 -0.014283366322903208 -0.00047694842691545301 0 -0.014106018090194629 -0.00051909528518063314 0 -0.014283366322903208 -0.00047694842691545301 0 -0.01423157333884709 -0.00055176107881288667 0 -0.014106018090194629 -0.00051909528518063314 0 -0.014177743494442882 -0.00058522816432920706 0 -0.01423157333884709 -0.00055176107881288667 0 -0.014106018090194629 -0.00051909528518063314 0 -0.014541752207858138 -0.00037618405260682444 0 -0.014577023388277396 -0.00033784581410432814 0 -0.014552374630806284 -0.00039392267872916255 0 -0.014541752207858138 -0.00037618405260682444 0 -0.014576249498287558 -0.00031677683569616169 0 -0.014466582982560426 -0.00029858283719806482 0 -0.014541752207858138 -0.00037618405260682444 0 -0.014577023388277396 -0.00033784581410432814 0 -0.014576249498287558 -0.00031677683569616169 0 -0.014541752207858138 -0.00037618405260682444 0 -0.014466582982560426 -0.00029858283719806482 0 -0.014451693723270499 -0.00038046868122483394 0 -0.014328218968405049 -0.00032903097651141921 0 -0.014466582982560426 -0.00029858283719806482 0 -0.014451693723270499 -0.00038046868122483394 0 -0.014541752207858138 -0.00037618405260682444 0 -0.014451693723270499 -0.00038046868122483394 0 -0.014517729482387024 -0.00040548170039478201 0 -0.014517729482387024 -0.00040548170039478201 0 -0.014479952798223037 -0.0004295900841727156 0 -0.014555702815768618 -0.00040614162651073722 0 -0.014451693723270499 -0.00038046868122483394 0 -0.014517729482387024 -0.00040548170039478201 0 -0.014479952798223037 -0.0004295900841727156 0 -0.01449108678725885 -0.00047704279276394624 0 -0.014479952798223037 -0.0004295900841727156 0 -0.014555702815768618 -0.00040614162651073722 0 -0.014555702815768618 -0.00040614162651073722 0 -0.014551120096884201 -0.00039690899265937225 0 -0.014583565432878207 -0.00035302863446646046 0 -0.014517729482387024 -0.00040548170039478201 0 -0.014555702815768618 -0.00040614162651073722 0 -0.014551120096884201 -0.00039690899265937225 0 -0.014551120096884201 -0.00039690899265937225 0 -0.014542668824954424 -0.00037601552588738057 0 -0.014558824163418135 -0.00035212709989864549 0 -0.014541752207858138 -0.00037618405260682444 0 -0.014551120096884201 -0.00039690899265937225 0 -0.014552374630806284 -0.00039392267872916255 0 -0.014541752207858138 -0.00037618405260682444 0 -0.014517729482387024 -0.00040548170039478201 0 -0.014551120096884201 -0.00039690899265937225 0 -0.014514219154641898 -0.00037363137695181186 0 -0.014552374630806284 -0.00039392267872916255 0 -0.014542668824954424 -0.00037601552588738057 0 -0.014551120096884201 -0.00039690899265937225 0 -0.014552374630806284 -0.00039392267872916255 0 -0.014542668824954424 -0.00037601552588738057 0 -0.01453904486642791 -0.00030798642671189385 0 -0.014558824163418135 -0.00035212709989864549 0 -0.014518870537517695 -0.00034617801943093 0 -0.014542668824954424 -0.00037601552588738057 0 -0.014558824163418135 -0.00035212709989864549 0 -0.014518870537517695 -0.00034617801943093 0 -0.01453904486642791 -0.00030798642671189385 0 -0.014539806942713762 -0.00022631719523095729 0 -0.014487836735239262 -0.00031102424769498542 0 -0.01453904486642791 -0.00030798642671189385 0 -0.014614622716107032 -0.00028352018220642876 0 -0.014539806942713762 -0.00022631719523095729 0 -0.01453904486642791 -0.00030798642671189385 0 -0.014614622716107032 -0.00028352018220642876 0 -0.014558824163418135 -0.00035212709989864549 0 -0.014551120096884201 -0.00039690899265937225 0 -0.014558824163418135 -0.00035212709989864549 0 -0.014583565432878207 -0.00035302863446646046 0 -0.014614622716107032 -0.00028352018220642876 0 -0.014558824163418135 -0.00035212709989864549 0 -0.014583565432878207 -0.00035302863446646046 0 -0.014555702815768618 -0.00040614162651073722 0 -0.014583565432878207 -0.00035302863446646046 0 -0.01465423258561489 -0.00028560830888729727 0 -0.014555702815768618 -0.00040614162651073722 0 -0.01465423258561489 -0.00028560830888729727 0 -0.01463059516620208 -0.00033765580240300967 0 -0.014614622716107032 -0.00028352018220642876 0 -0.01465423258561489 -0.00028560830888729727 0 -0.014700024497190722 -0.00020152972791684292 0 -0.014614622716107032 -0.00028352018220642876 0 -0.014583565432878207 -0.00035302863446646046 0 -0.01465423258561489 -0.00028560830888729727 0 -0.014614622716107032 -0.00028352018220642876 0 -0.014700024497190722 -0.00020152972791684292 0 -0.01475104630818159 -9.3354553962835321e-05 0 -0.01465423258561489 -0.00028560830888729727 0 -0.014700024497190722 -0.00020152972791684292 0 -0.014766802619818175 -0.00014844187057896192 0 -0.014766802619818175 -0.00014844187057896192 0 -0.01475104630818159 -9.3354553962835321e-05 0 -0.014836046559084244 -8.6701338446474075e-05 0 -0.014700024497190722 -0.00020152972791684292 0 -0.014766802619818175 -0.00014844187057896192 0 -0.01475104630818159 -9.3354553962835321e-05 0 -0.01475104630818159 -9.3354553962835321e-05 0 -0.014914197118461618 -4.5225928863501538e-05 0 -0.014858859066976123 -8.1667259250840186e-05 0 -0.01475104630818159 -9.3354553962835321e-05 0 -0.014914197118461618 -4.5225928863501538e-05 0 -0.014868001991951733 4.0984978939286925e-05 0 -0.014914197118461618 -4.5225928863501538e-05 0 -0.014868001991951733 4.0984978939286925e-05 0 -0.014938942404041072 4.353957495469438e-05 0 -0.014614622716107032 -0.00028352018220642876 0 -0.01475104630818159 -9.3354553962835321e-05 0 -0.014539806942713762 -0.00022631719523095729 0 -0.0147379116891791 -0.00010301676111647752 0 -0.01473970327738228 -0.00010522216970471955 0 -0.014395120273712208 -0.00055030885150073765 0 -0.014307734080055078 -0.00057808569449197575 0 -0.014437378803763501 -0.00045822698246764825 0 -0.014177743494442882 -0.00058522816432920706 0 -0.01423157333884709 -0.00055176107881288667 0 -0.014307734080055078 -0.00057808569449197575 0 -0.01423157333884709 -0.00055176107881288667 0 -0.014307734080055078 -0.00057808569449197575 0 -0.014300594760668892 -0.00059930654840474737 0 -0.014555776689232618 -0.00039081834012697235 0 -0.014586629204015343 -0.0003299662478833889 0 -0.014307734080055078 -0.00057808569449197575 0 -0.014300594760668892 -0.00059930654840474737 0 -0.014315338024325273 -0.00043910438659389562 0 -0.014788995634883487 -0.00030065401325394923 0 -0.01463059516620208 -0.00033765580240300967 0 -0.014774668037908566 -0.00018483230418943241 0 -0.014541936270659712 -0.00041349256316757513 0 -0.014555776689232618 -0.00039081834012697235 0 -0.01449108678725885 -0.00047704279276394624 0 -0.014788995634883487 -0.00030065401325394923 0 -0.01463059516620208 -0.00033765580240300967 0 -0.01449108678725885 -0.00047704279276394624 0 -0.01423157333884709 -0.00055176107881288667 0 -0.014300594760668892 -0.00059930654840474737 0 -0.01449108678725885 -0.00047704279276394624 0 -0.014555702815768618 -0.00040614162651073722 0 -0.01463059516620208 -0.00033765580240300967 0 -0.01465423258561489 -0.00028560830888729727 0 -0.01463059516620208 -0.00033765580240300967 0 -0.014774668037908566 -0.00018483230418943241 0 -0.01465423258561489 -0.00028560830888729727 0 -0.014766802619818175 -0.00014844187057896192 0 -0.014774668037908566 -0.00018483230418943241 0 -0.014766802619818175 -0.00014844187057896192 0 -0.014836564064573588 -0.00012389372475725337 0 -0.014828564833600146 -0.00010886729520857061 0 -0.014766802619818175 -0.00014844187057896192 0 -0.014774668037908566 -0.00018483230418943241 0 -0.014836564064573588 -0.00012389372475725337 0 -0.014774668037908566 -0.00018483230418943241 0 -0.014844982889681444 -0.00013819701507586501 0 -0.014836564064573588 -0.00012389372475725337 0 -0.014788995634883487 -0.00030065401325394923 0 -0.014774668037908566 -0.00018483230418943241 0 -0.014845231800932517 -0.00015230138000812347 0 -0.014774668037908566 -0.00018483230418943241 0 -0.014845231800932517 -0.00015230138000812347 0 -0.014844982889681444 -0.00013819701507586501 0 -0.014633034116817167 -0.00029985710292894298 0 -0.014315338024325273 -0.00043910438659389562 0 -0.014701845082640901 -0.00017043127645494297 0 -0.014586629204015343 -0.0003299662478833889 0 -0.014616344033554265 -0.00028377865829130628 0 -0.014845231800932517 -0.00015230138000812347 0 -0.014701845082640901 -0.00017043127645494297 0 -0.014844982889681444 -0.00013819701507586501 0 -0.014307734080055078 -0.00057808569449197575 0 -0.014315338024325273 -0.00043910438659389562 0 -0.014437378803763501 -0.00045822698246764825 0 -0.014633034116817167 -0.00029985710292894298 0 -0.014315338024325273 -0.00043910438659389562 0 -0.014437378803763501 -0.00045822698246764825 0 -0.014944453871370245 -0.00015597178399688055 0 -0.014860170054352846 -0.00013848917381460878 0 -0.014982105753115356 -2.1513724990620535e-05 0 -0.01441476475851247 -0.00029468827088229325 0 -0.014526490502610283 -0.00029678685619632619 0 -0.014701845082640901 -0.00017043127645494297 0 -0.014809742017635037 -0.00015441653271678179 0 -0.014844982889681444 -0.00013819701507586501 0 -0.014756419486229159 -0.00012678684951730865 0 -0.014701845082640901 -0.00017043127645494297 0 -0.014809742017635037 -0.00015441653271678179 0 -0.014756419486229159 -0.00012678684951730865 0 -0.014860170054352846 -0.00013848917381460878 0 -0.014809742017635037 -0.00015441653271678179 0 -0.014860170054352846 -0.00013848917381460878 0 -0.014809742017635037 -0.00015441653271678179 0 -0.014874121877970593 -0.00011419257639122379 0 -0.014809742017635037 -0.00015441653271678179 0 -0.014844982889681444 -0.00013819701507586501 0 -0.014874121877970593 -0.00011419257639122379 0 -0.014860170054352846 -0.00013848917381460878 0 -0.014874121877970593 -0.00011419257639122379 0 -0.014924186975688206 -6.315501555596487e-05 0 -0.014874121877970593 -0.00011419257639122379 0 -0.014877599818757746 -8.106093642598901e-05 0 -0.01493440306779192 -4.7328740569182142e-05 0 -0.014874121877970593 -0.00011419257639122379 0 -0.014836564064573588 -0.00012389372475725337 0 -0.014877599818757746 -8.106093642598901e-05 0 -0.014844982889681444 -0.00013819701507586501 0 -0.014874121877970593 -0.00011419257639122379 0 -0.014836564064573588 -0.00012389372475725337 0 -0.014836564064573588 -0.00012389372475725337 0 -0.014877599818757746 -8.106093642598901e-05 0 -0.014828564833600146 -0.00010886729520857061 0 -0.014877599818757746 -8.106093642598901e-05 0 -0.014937791791200881 -3.6702375296947418e-05 0 -0.01493440306779192 -4.7328740569182142e-05 0 -0.014937791791200881 -3.6702375296947418e-05 0 -0.014999916313308242 -3.5430248851180265e-08 0 -0.01493440306779192 -4.7328740569182142e-05 0 -0.014999916313308242 -3.5430248851180265e-08 0 -0.01493440306779192 -4.7328740569182142e-05 0 -0.014999911245021086 -1.7494249530719108e-08 0 -0.01493440306779192 -4.7328740569182142e-05 0 -0.014924186975688206 -6.315501555596487e-05 0 -0.014999911245021086 -1.7494249530719108e-08 0 -0.014874121877970593 -0.00011419257639122379 0 -0.01493440306779192 -4.7328740569182142e-05 0 -0.014924186975688206 -6.315501555596487e-05 0 -0.014999999197425505 -8.8481505478783711e-09 0 -0.014999911245021086 -1.7494249530719108e-08 0 -0.014982105753115356 -2.1513724990620535e-05 0 -0.014924186975688206 -6.315501555596487e-05 0 -0.014999911245021086 -1.7494249530719108e-08 0 -0.014982105753115356 -2.1513724990620535e-05 0 -0.014860170054352846 -0.00013848917381460878 0 -0.014924186975688206 -6.315501555596487e-05 0 -0.014982105753115356 -2.1513724990620535e-05 0 -0.014894607087355481 -6.7936142630779591e-05 0 -0.014858859066976123 -8.1667259250840186e-05 0 -0.014836046559084244 -8.6701338446474075e-05 0 -0.014894607087355481 -6.7936142630779591e-05 0 -0.014912403860094405 -6.2186536013393763e-05 0 -0.014946308982691555 -3.8440771581508346e-05 0 -0.014894607087355481 -6.7936142630779591e-05 0 -0.014912403860094405 -6.2186536013393763e-05 0 -0.014858859066976123 -8.1667259250840186e-05 0 -0.014912403860094405 -6.2186536013393763e-05 0 -0.014957384915806953 -3.9041929252235599e-05 0 -0.014928996375711864 -6.0401202448503714e-05 0 -0.014912403860094405 -6.2186536013393763e-05 0 -0.014858859066976123 -8.1667259250840186e-05 0 -0.014928996375711864 -6.0401202448503714e-05 0 -0.014914197118461618 -4.5225928863501538e-05 0 -0.014858859066976123 -8.1667259250840186e-05 0 -0.014928996375711864 -6.0401202448503714e-05 0 -0.01475104630818159 -9.3354553962835321e-05 0 -0.014858859066976123 -8.1667259250840186e-05 0 -0.014836046559084244 -8.6701338446474075e-05 0 -0.014766802619818175 -0.00014844187057896192 0 -0.014836046559084244 -8.6701338446474075e-05 0 -0.014828564833600146 -0.00010886729520857061 0 -0.014877599818757746 -8.106093642598901e-05 0 -0.014836046559084244 -8.6701338446474075e-05 0 -0.014828564833600146 -0.00010886729520857061 0 -0.014877599818757746 -8.106093642598901e-05 0 -0.014836046559084244 -8.6701338446474075e-05 0 -0.014902118047361626 -4.8387082654545842e-05 0 -0.014894607087355481 -6.7936142630779591e-05 0 -0.014836046559084244 -8.6701338446474075e-05 0 -0.014943667547871155 -4.7093361816030408e-05 0 -0.014940093076197567 -5.1992176373611652e-05 0 -0.014959907437832359 -3.7607900411243471e-05 0 -0.014894607087355481 -6.7936142630779591e-05 0 -0.014943667547871155 -4.7093361816030408e-05 0 -0.014946308982691555 -3.8440771581508346e-05 0 -0.014877599818757746 -8.106093642598901e-05 0 -0.014937791791200881 -3.6702375296947418e-05 0 -0.014902118047361626 -4.8387082654545842e-05 0 -0.014937791791200881 -3.6702375296947418e-05 0 -0.014902118047361626 -4.8387082654545842e-05 0 -0.014999842304746627 -1.6681067176897266e-08 0 -0.014937791791200881 -3.6702375296947418e-05 0 -0.014999916313308242 -3.5430248851180265e-08 0 -0.014999842304746627 -1.6681067176897266e-08 0 -0.014959907437832359 -3.7607900411243471e-05 0 -0.014999912471721985 -5.2456941107618e-08 0 -0.014943667547871155 -4.7093361816030408e-05 0 -0.014999985338976148 -1.5470015231084511e-08 0 -0.014946308982691555 -3.8440771581508346e-05 0 -0.014999985338976148 -1.5470015231084511e-08 0 -0.014999925075286882 -2.8749972920252884e-08 0 -0.014946308982691555 -3.8440771581508346e-05 0 -0.014912403860094405 -6.2186536013393763e-05 0 -0.014946308982691555 -3.8440771581508346e-05 0 -0.014957384915806953 -3.9041929252235599e-05 0 -0.014999925075286882 -2.8749972920252884e-08 0 -0.014957384915806953 -3.9041929252235599e-05 0 -0.014999961637797076 -2.1569507477934356e-08 0 -0.014999925075286882 -2.8749972920252884e-08 0 -0.014946308982691555 -3.8440771581508346e-05 0 -0.014957384915806953 -3.9041929252235599e-05 0 -0.014957384915806953 -3.9041929252235599e-05 0 -0.014999961637797076 -2.1569507477934356e-08 0 -0.014979477090113307 -2.4241967807362839e-05 0 -0.014979477090113307 -2.4241967807362839e-05 0 -0.014999982645337456 -1.8796346542089131e-08 0 -0.014979239475634121 -2.6673398501132738e-05 0 -0.014999961637797076 -2.1569507477934356e-08 0 -0.014979477090113307 -2.4241967807362839e-05 0 -0.014999982645337456 -1.8796346542089131e-08 0 -0.014979477090113307 -2.4241967807362839e-05 0 -0.014979239475634121 -2.6673398501132738e-05 0 -0.014959193577702774 -4.3451824918956895e-05 0 -0.014957384915806953 -3.9041929252235599e-05 0 -0.014979477090113307 -2.4241967807362839e-05 0 -0.014959193577702774 -4.3451824918956895e-05 0 -0.014999948581284955 3.8220839187638772e-09 0 -0.014972021856713588 1.439816995087639e-06 0 -0.014999982645337456 -1.8796346542089131e-08 0 -0.014999940695295174 -1.3992638875674308e-08 0 -0.014979239475634121 -2.6673398501132738e-05 0 -0.014999940695295174 -1.3992638875674308e-08 0 -0.014979239475634121 -2.6673398501132738e-05 0 -0.01497036305874082 -3.0485716257926681e-05 0 -0.014972021856713588 1.439816995087639e-06 0 -0.014947891889331672 1.2250584026367946e-05 0 -0.01497036305874082 -3.0485716257926681e-05 0 -0.014963205967295921 -4.168345338275489e-05 0 -0.014967491673336407 -3.838514280521317e-05 0 -0.014979239475634121 -2.6673398501132738e-05 0 -0.01497036305874082 -3.0485716257926681e-05 0 -0.014963205967295921 -4.168345338275489e-05 0 -0.014963205967295921 -4.168345338275489e-05 0 -0.014967491673336407 -3.838514280521317e-05 0 -0.014962235641142683 -3.1978215480039754e-05 0 -0.014928996375711864 -6.0401202448503714e-05 0 -0.014959193577702774 -4.3451824918956895e-05 0 -0.014946038875337034 -4.7609894622172171e-05 0 -0.014957384915806953 -3.9041929252235599e-05 0 -0.014928996375711864 -6.0401202448503714e-05 0 -0.014959193577702774 -4.3451824918956895e-05 0 -0.014963205967295921 -4.168345338275489e-05 0 -0.014959193577702774 -4.3451824918956895e-05 0 -0.014946038875337034 -4.7609894622172171e-05 0 -0.014979239475634121 -2.6673398501132738e-05 0 -0.014963205967295921 -4.168345338275489e-05 0 -0.014959193577702774 -4.3451824918956895e-05 0 -0.014963205967295921 -4.168345338275489e-05 0 -0.014946038875337034 -4.7609894622172171e-05 0 -0.01494962746435854 -3.58223031374104e-05 0 -0.014914197118461618 -4.5225928863501538e-05 0 -0.014928996375711864 -6.0401202448503714e-05 0 -0.014946038875337034 -4.7609894622172171e-05 0 -0.014914197118461618 -4.5225928863501538e-05 0 -0.014946038875337034 -4.7609894622172171e-05 0 -0.01494962746435854 -3.58223031374104e-05 0 -0.014914197118461618 -4.5225928863501538e-05 0 -0.014941537499652102 -2.4491296425023379e-05 0 -0.01494962746435854 -3.58223031374104e-05 0 -0.014914197118461618 -4.5225928863501538e-05 0 -0.014929135069878837 -1.9297802362886396e-05 0 -0.014941537499652102 -2.4491296425023379e-05 0 -0.014865062548613998 -1.5758075199589086e-05 0 -0.014854241678843449 -1.6763691679280527e-05 0 -0.014929135069878837 -1.9297802362886396e-05 0 -0.014941537499652102 -2.4491296425023379e-05 0 -0.014938384385759772 -1.6169768595863089e-05 0 -0.014868001991951733 4.0984978939286925e-05 0 -0.014932647416397576 5.5042480035043155e-05 0 -0.014938942404041072 4.353957495469438e-05 0 -0.014941537499652102 -2.4491296425023379e-05 0 -0.01494962746435854 -3.58223031374104e-05 0 -0.014953447281041476 -2.0498560270991469e-05 0 -0.014941537499652102 -2.4491296425023379e-05 0 -0.014953447281041476 -2.0498560270991469e-05 0 -0.014944493657882878 -1.5271006030940433e-05 0 -0.014941537499652102 -2.4491296425023379e-05 0 -0.014938384385759772 -1.6169768595863089e-05 0 -0.014944493657882878 -1.5271006030940433e-05 0 -0.014963205967295921 -4.168345338275489e-05 0 -0.01494962746435854 -3.58223031374104e-05 0 -0.014962235641142683 -3.1978215480039754e-05 0 -0.01494962746435854 -3.58223031374104e-05 0 -0.014962235641142683 -3.1978215480039754e-05 0 -0.014953447281041476 -2.0498560270991469e-05 0 -0.014967491673336407 -3.838514280521317e-05 0 -0.014962235641142683 -3.1978215480039754e-05 0 -0.014971601109427848 -2.6008746431290294e-05 0 -0.014947891889331672 1.2250584026367946e-05 0 -0.014927327324697681 3.0687083979122307e-05 0 -0.014962235641142683 -3.1978215480039754e-05 0 -0.014964233839123098 -1.9189309586108663e-05 0 -0.014971601109427848 -2.6008746431290294e-05 0 -0.014962235641142683 -3.1978215480039754e-05 0 -0.014964233839123098 -1.9189309586108663e-05 0 -0.014953447281041476 -2.0498560270991469e-05 0 -0.014953447281041476 -2.0498560270991469e-05 0 -0.014960669862139238 -9.1612161890088852e-06 0 -0.014950849302804079 -7.793954572833999e-06 0 -0.014964233839123098 -1.9189309586108663e-05 0 -0.014953447281041476 -2.0498560270991469e-05 0 -0.014960669862139238 -9.1612161890088852e-06 0 -0.014964233839123098 -1.9189309586108663e-05 0 -0.014973128377662799 -7.8635864014691026e-06 0 -0.014971601109427848 -2.6008746431290294e-05 0 -0.014964233839123098 -1.9189309586108663e-05 0 -0.014960669862139238 -9.1612161890088852e-06 0 -0.014973128377662799 -7.8635864014691026e-06 0 -0.014960669862139238 -9.1612161890088852e-06 0 -0.014964576141307943 7.3819345867073656e-07 0 -0.014973128377662799 -7.8635864014691026e-06 0 -0.014953362235403443 2.1405333666599778e-06 0 -0.014960669862139238 -9.1612161890088852e-06 0 -0.014950849302804079 -7.793954572833999e-06 0 -0.014953362235403443 2.1405333666599778e-06 0 -0.014960669862139238 -9.1612161890088852e-06 0 -0.014964576141307943 7.3819345867073656e-07 0 -0.014953362235403443 2.1405333666599778e-06 0 -0.014939124190035152 -6.9282442184644452e-06 0 -0.014950849302804079 -7.793954572833999e-06 0 -0.014852573940506333 -7.8305984528416654e-05 0 -0.01479362359602081 -8.8317629850839644e-05 0 -0.014826095461935109 -0.00017791122217381141 0 -0.014878537691840672 -0.00015983137880101083 0 -0.014893560464954008 -0.00011693622000566581 0 -0.014717892348229693 -0.00017484974757992394 0 -0.01479362359602081 -8.8317629850839644e-05 0 -0.014485674304615609 -0.00034738148699356615 0 -0.014518870537517695 -0.00034617801943093 0 -0.014487836735239262 -0.00031102424769498542 0 -0.014514219154641898 -0.00037363137695181186 0 -0.014485674304615609 -0.00034738148699356615 0 -0.014518870537517695 -0.00034617801943093 0 -0.01453904486642791 -0.00030798642671189385 0 -0.014518870537517695 -0.00034617801943093 0 -0.014487836735239262 -0.00031102424769498542 0 -0.014717892348229693 -0.00017484974757992394 0 -0.014778461821163187 -9.5520421982672364e-05 0 -0.014734877425739082 -0.00016762630413222896 0 -0.014761907962020249 -9.13671938370849e-05 0 -0.014776087780009281 -7.8594930776161007e-05 0 -0.014929135069878837 -1.9297802362886396e-05 0 -0.014939124190035152 -6.9282442184644452e-06 0 -0.014938384385759772 -1.6169768595863089e-05 0 -0.014938942404041072 4.353957495469438e-05 0 -0.014962667570391363 0.00011923922853799003 0 -0.014953853588444824 0.00011091457971360564 0 -0.014854241678843449 -1.6763691679280527e-05 0 -0.01479362359602081 -8.8317629850839644e-05 0 -0.014868001991951733 4.0984978939286925e-05 0 -0.014932647416397576 5.5042480035043155e-05 0 -0.01495974909418037 0.00011873358720073326 0 -0.01473970327738228 -0.00010522216970471955 0 -0.014778461821163187 -9.5520421982672364e-05 0 -0.014932647416397576 5.5042480035043155e-05 0 -0.014938942404041072 4.353957495469438e-05 0 -0.014953853588444824 0.00011091457971360564 0 -0.01479362359602081 -8.8317629850839644e-05 0 -0.014778461821163187 -9.5520421982672364e-05 0 -0.014811073442136776 -3.6361895788109596e-05 0 -0.014778461821163187 -9.5520421982672364e-05 0 -0.014939124190035152 -6.9282442184644452e-06 0 -0.014944493657882878 -1.5271006030940433e-05 0 -0.014950849302804079 -7.793954572833999e-06 0 -0.014939124190035152 -6.9282442184644452e-06 0 -0.014938384385759772 -1.6169768595863089e-05 0 -0.014944493657882878 -1.5271006030940433e-05 0 -0.014953447281041476 -2.0498560270991469e-05 0 -0.014944493657882878 -1.5271006030940433e-05 0 -0.014950849302804079 -7.793954572833999e-06 0 -0.014947769826291942 0.00011053658736933598 0 -0.01488828964533899 0.00013797921501270655 0 -0.014867641284909004 0.00018506423086437086 0 -0.014947769826291942 0.00011053658736933598 0 -0.01488828964533899 0.00013797921501270655 0 -0.014901639116632103 0.00010315129481764763 0 -0.014727810221351167 0.00027672362276291257 0 -0.014724314195531017 0.00025206815767073767 0 -0.014477627966380704 0.00048983477245992488 0 -0.0144446150856949 0.00045285060754101557 0 -0.014482411154998053 0.00043907559651416411 0 -0.014477627966380704 0.00048983477245992488 0 -0.0144446150856949 0.00045285060754101557 0 -0.014423138338846467 0.00047568879319043482 0 -0.0144446150856949 0.00045285060754101557 0 -0.014432418909377466 0.00040901413506352641 0 -0.014482411154998053 0.00043907559651416411 0 -0.014432418909377466 0.00040901413506352641 0 -0.014472811060934532 0.00038756217181230271 0 -0.014418036789164621 0.00035922355752749968 0 -0.014432418909377466 0.00040901413506352641 0 -0.014472811060934532 0.00038756217181230271 0 -0.014482411154998053 0.00043907559651416411 0 -0.014499677488877278 0.00041232652586668637 0 -0.014482411154998053 0.00043907559651416411 0 -0.014532348983077016 0.00042170094177588834 0 -0.014477627966380704 0.00048983477245992488 0 -0.014482411154998053 0.00043907559651416411 0 -0.014532348983077016 0.00042170094177588834 0 -0.014472811060934532 0.00038756217181230271 0 -0.014499677488877278 0.00041232652586668637 0 -0.014517925205807811 0.00040504604071985901 0 -0.014472811060934532 0.00038756217181230271 0 -0.014499677488877278 0.00041232652586668637 0 -0.014482411154998053 0.00043907559651416411 0 -0.01488828964533899 0.00013797921501270655 0 -0.014867641284909004 0.00018506423086437086 0 -0.014858336109994704 0.00016585048553368424 0 -0.014499677488877278 0.00041232652586668637 0 -0.014532348983077016 0.00042170094177588834 0 -0.014517925205807811 0.00040504604071985901 0 -0.014785386198977122 0.00017846280336770255 0 -0.014867641284909004 0.00018506423086437086 0 -0.014824203652793733 0.00017885260786352456 0 -0.014867641284909004 0.00018506423086437086 0 -0.014844460297929525 0.00017681615017625202 0 -0.014824203652793733 0.00017885260786352456 0 -0.014867641284909004 0.00018506423086437086 0 -0.014844460297929525 0.00017681615017625202 0 -0.014858336109994704 0.00016585048553368424 0 -0.014844460297929525 0.00017681615017625202 0 -0.014835134489286627 0.00017237883495260355 0 -0.014858336109994704 0.00016585048553368424 0 -0.014844460297929525 0.00017681615017625202 0 -0.014835134489286627 0.00017237883495260355 0 -0.014824203652793733 0.00017885260786352456 0 -0.014835134489286627 0.00017237883495260355 0 -0.014824203652793733 0.00017885260786352456 0 -0.014814416947453854 0.00017771936719811502 0 -0.014814416947453854 0.00017771936719811502 0 -0.014826812643679001 0.00016691571575083922 0 -0.014808834060713861 0.00017951607584262697 0 -0.014835134489286627 0.00017237883495260355 0 -0.014814416947453854 0.00017771936719811502 0 -0.014826812643679001 0.00016691571575083922 0 -0.014835134489286627 0.00017237883495260355 0 -0.014826812643679001 0.00016691571575083922 0 -0.014855703948152495 0.00015390011873443776 0 -0.014826812643679001 0.00016691571575083922 0 -0.014855703948152495 0.00015390011873443776 0 -0.0148452605723463 0.00014736671683685399 0 -0.01488828964533899 0.00013797921501270655 0 -0.014855703948152495 0.00015390011873443776 0 -0.014858336109994704 0.00016585048553368424 0 -0.014835134489286627 0.00017237883495260355 0 -0.014855703948152495 0.00015390011873443776 0 -0.014858336109994704 0.00016585048553368424 0 -0.014931403311180187 2.0233247900084989e-05 0 -0.014907413148443724 5.6458714104308557e-05 0 -0.014790788028169658 0.00019697072191500738 0 -0.014808834060713861 0.00017951607584262697 0 -0.014815322873074716 0.00015099466029999797 0 -0.014971693751910896 5.1523857124339679e-06 0 -0.014964576141307943 7.3819345867073656e-07 0 -0.014973128377662799 -7.8635864014691026e-06 0 -0.014867486438818661 4.2313327780097504e-05 0 -0.014907413148443724 5.6458714104308557e-05 0 -0.014826812643679001 0.00016691571575083922 0 -0.014808834060713861 0.00017951607584262697 0 -0.014815322873074716 0.00015099466029999797 0 -0.014826812643679001 0.00016691571575083922 0 -0.014815322873074716 0.00015099466029999797 0 -0.0148452605723463 0.00014736671683685399 0 -0.014815322873074716 0.00015099466029999797 0 -0.014850035063980343 0.00012620888611504066 0 -0.014845209808501203 0.00010087364884948016 0 -0.014907413148443724 5.6458714104308557e-05 0 -0.014897169737737422 8.0593624712614435e-05 0 -0.014867922750312117 0.00010375802246758659 0 -0.014877513307474484 7.0141679217583034e-05 0 -0.014875444975094273 8.2140339896486875e-05 0 -0.014907413148443724 5.6458714104308557e-05 0 -0.014927327324697681 3.0687083979122307e-05 0 -0.014815322873074716 0.00015099466029999797 0 -0.014850035063980343 0.00012620888611504066 0 -0.0148452605723463 0.00014736671683685399 0 -0.014850035063980343 0.00012620888611504066 0 -0.014875179365187985 0.00010186469486037119 0 -0.014845209808501203 0.00010087364884948016 0 -0.01488828964533899 0.00013797921501270655 0 -0.014855703948152495 0.00015390011873443776 0 -0.01486920179655373 0.00012882296221310917 0 -0.014850035063980343 0.00012620888611504066 0 -0.01486920179655373 0.00012882296221310917 0 -0.0148452605723463 0.00014736671683685399 0 -0.014855703948152495 0.00015390011873443776 0 -0.01486920179655373 0.00012882296221310917 0 -0.0148452605723463 0.00014736671683685399 0 -0.014850035063980343 0.00012620888611504066 0 -0.01486920179655373 0.00012882296221310917 0 -0.014875179365187985 0.00010186469486037119 0 -0.01488828964533899 0.00013797921501270655 0 -0.01486920179655373 0.00012882296221310917 0 -0.014901639116632103 0.00010315129481764763 0 -0.01486920179655373 0.00012882296221310917 0 -0.014901639116632103 0.00010315129481764763 0 -0.014875179365187985 0.00010186469486037119 0 -0.014901639116632103 0.00010315129481764763 0 -0.014875179365187985 0.00010186469486037119 0 -0.014902877939315008 7.4305729832271591e-05 0 -0.014875179365187985 0.00010186469486037119 0 -0.014902877939315008 7.4305729832271591e-05 0 -0.014880521828036394 7.9145004460031454e-05 0 -0.014901639116632103 0.00010315129481764763 0 -0.014902877939315008 7.4305729832271591e-05 0 -0.014930888954491389 7.5264411019611687e-05 0 -0.014845209808501203 0.00010087364884948016 0 -0.014880521828036394 7.9145004460031454e-05 0 -0.014887953328438166 6.0242486667263302e-05 0 -0.014897169737737422 8.0593624712614435e-05 0 -0.014895109707203771 8.0762511227412396e-05 0 -0.014877513307474484 7.0141679217583034e-05 0 -0.014875444975094273 8.2140339896486875e-05 0 -0.014887953328438166 6.0242486667263302e-05 0 -0.014875179365187985 0.00010186469486037119 0 -0.014845209808501203 0.00010087364884948016 0 -0.014880521828036394 7.9145004460031454e-05 0 -0.014902877939315008 7.4305729832271591e-05 0 -0.014880521828036394 7.9145004460031454e-05 0 -0.014897639173300127 6.1178579420913013e-05 0 -0.014915335866641529 3.4488204672048162e-05 0 -0.014887953328438166 6.0242486667263302e-05 0 -0.014910483153612847 4.6930914808464928e-05 0 -0.014915335866641529 3.4488204672048162e-05 0 -0.014877513307474484 7.0141679217583034e-05 0 -0.014887953328438166 6.0242486667263302e-05 0 -0.014887953328438166 6.0242486667263302e-05 0 -0.014897639173300127 6.1178579420913013e-05 0 -0.014910483153612847 4.6930914808464928e-05 0 -0.014880521828036394 7.9145004460031454e-05 0 -0.014887953328438166 6.0242486667263302e-05 0 -0.014897639173300127 6.1178579420913013e-05 0 -0.014897639173300127 6.1178579420913013e-05 0 -0.014910483153612847 4.6930914808464928e-05 0 -0.014918852615763027 4.9011257963917943e-05 0 -0.014902877939315008 7.4305729832271591e-05 0 -0.014929268198736882 5.5407317322653451e-05 0 -0.014930888954491389 7.5264411019611687e-05 0 -0.014902877939315008 7.4305729832271591e-05 0 -0.014918852615763027 4.9011257963917943e-05 0 -0.014929268198736882 5.5407317322653451e-05 0 -0.014902877939315008 7.4305729832271591e-05 0 -0.014897639173300127 6.1178579420913013e-05 0 -0.014918852615763027 4.9011257963917943e-05 0 -0.014918852615763027 4.9011257963917943e-05 0 -0.014929268198736882 5.5407317322653451e-05 0 -0.014946966214263382 3.309045466428285e-05 0 -0.014929268198736882 5.5407317322653451e-05 0 -0.014951931785902012 5.1410047918724582e-05 0 -0.014946966214263382 3.309045466428285e-05 0 -0.014951931785902012 5.1410047918724582e-05 0 -0.014955932561829373 6.8562009071423258e-05 0 -0.014966794759850421 5.1675968536375262e-05 0 -0.014951931785902012 5.1410047918724582e-05 0 -0.014955932561829373 6.8562009071423258e-05 0 -0.014930888954491389 7.5264411019611687e-05 0 -0.014929268198736882 5.5407317322653451e-05 0 -0.014951931785902012 5.1410047918724582e-05 0 -0.014930888954491389 7.5264411019611687e-05 0 -0.014947769826291942 0.00011053658736933598 0 -0.014955932561829373 6.8562009071423258e-05 0 -0.014930888954491389 7.5264411019611687e-05 0 -0.014947769826291942 0.00011053658736933598 0 -0.014901639116632103 0.00010315129481764763 0 -0.014930888954491389 7.5264411019611687e-05 0 -0.014477627966380704 0.00048983477245992488 0 -0.014447204159367479 0.00049545620804451556 0 -0.014423138338846467 0.00047568879319043482 0 -0.014727810221351167 0.00027672362276291257 0 -0.014763714872148722 0.0002441420282342244 0 -0.014477627966380704 0.00048983477245992488 0 -0.014484690053800094 0.00049236544143876849 0 -0.014447204159367479 0.00049545620804451556 0 -0.014947769826291942 0.00011053658736933598 0 -0.014955932561829373 6.8562009071423258e-05 0 -0.014983172399112009 5.7071145670450918e-05 0 -0.014477627966380704 0.00048983477245992488 0 -0.014484690053800094 0.00049236544143876849 0 -0.014491322691977938 0.00048010714424076946 0 -0.014983172399112009 5.7071145670450918e-05 0 -0.014966794759850421 5.1675968536375262e-05 0 -0.014975313971695275 2.9601528338168713e-05 0 -0.014955932561829373 6.8562009071423258e-05 0 -0.014983172399112009 5.7071145670450918e-05 0 -0.014966794759850421 5.1675968536375262e-05 0 -0.014951931785902012 5.1410047918724582e-05 0 -0.014966794759850421 5.1675968536375262e-05 0 -0.014975313971695275 2.9601528338168713e-05 0 -0.014983172399112009 5.7071145670450918e-05 0 -0.014975313971695275 2.9601528338168713e-05 0 -0.014998332842365092 2.42543921801438e-05 0 -0.014951931785902012 5.1410047918724582e-05 0 -0.014975313971695275 2.9601528338168713e-05 0 -0.014946966214263382 3.309045466428285e-05 0 -0.014975313971695275 2.9601528338168713e-05 0 -0.014946966214263382 3.309045466428285e-05 0 -0.014974991734287662 1.0870896056696408e-05 0 -0.014975313971695275 2.9601528338168713e-05 0 -0.014992043493872923 7.3854895974043965e-06 0 -0.014974991734287662 1.0870896056696408e-05 0 -0.014975313971695275 2.9601528338168713e-05 0 -0.014992043493872923 7.3854895974043965e-06 0 -0.014998332842365092 2.42543921801438e-05 0 -0.014915335866641529 3.4488204672048162e-05 0 -0.014931223259743295 3.3977395475095343e-05 0 -0.014952212514618632 1.7664837939869908e-05 0 -0.014915335866641529 3.4488204672048162e-05 0 -0.014910483153612847 4.6930914808464928e-05 0 -0.014931223259743295 3.3977395475095343e-05 0 -0.014910483153612847 4.6930914808464928e-05 0 -0.014918852615763027 4.9011257963917943e-05 0 -0.014931223259743295 3.3977395475095343e-05 0 -0.014931223259743295 3.3977395475095343e-05 0 -0.014946966214263382 3.309045466428285e-05 0 -0.014952212514618632 1.7664837939869908e-05 0 -0.014918852615763027 4.9011257963917943e-05 0 -0.014931223259743295 3.3977395475095343e-05 0 -0.014946966214263382 3.309045466428285e-05 0 -0.014946966214263382 3.309045466428285e-05 0 -0.014952212514618632 1.7664837939869908e-05 0 -0.014974991734287662 1.0870896056696408e-05 0 -0.014960190946657549 9.5332797949691675e-06 0 -0.014915335866641529 3.4488204672048162e-05 0 -0.014952212514618632 1.7664837939869908e-05 0 -0.014960190946657549 9.5332797949691675e-06 0 -0.014952212514618632 1.7664837939869908e-05 0 -0.014977901213555406 5.1552247489331531e-06 0 -0.014952212514618632 1.7664837939869908e-05 0 -0.014977901213555406 5.1552247489331531e-06 0 -0.014974991734287662 1.0870896056696408e-05 0 -0.014977901213555406 5.1552247489331531e-06 0 -0.014999969217808209 6.797841345349482e-09 0 -0.014999983130327263 -3.7564367747745566e-09 0 -0.014999958478986568 -2.3411062022278096e-09 0 -0.014960190946657549 9.5332797949691675e-06 0 -0.014977901213555406 5.1552247489331531e-06 0 -0.014999958478986568 -2.3411062022278096e-09 0 -0.014977901213555406 5.1552247489331531e-06 0 -0.014999969217808209 6.797841345349482e-09 0 -0.014977901213555406 5.1552247489331531e-06 0 -0.014974991734287662 1.0870896056696408e-05 0 -0.014999983130327263 -3.7564367747745566e-09 0 -0.014992043493872923 7.3854895974043965e-06 0 -0.014974991734287662 1.0870896056696408e-05 0 -0.014999983130327263 -3.7564367747745566e-09 0 -0.014992043493872923 7.3854895974043965e-06 0 -0.014999983130327263 -3.7564367747745566e-09 0 -0.014999997840908818 1.9877649441333043e-09 0 -0.014992043493872923 7.3854895974043965e-06 0 -0.014999997840908818 1.9877649441333043e-09 0 -0.015002778636439548 6.1888274279339915e-06 0 -0.01491512086661221 7.5054324835796272e-05 0 -0.014999877390100263 6.8658902677013035e-08 0 -0.014999997840908818 1.9877649441333043e-09 0 -0.015002778636439548 6.1888274279339915e-06 0 -0.015000007917519386 1.7107229013529e-09 0 -0.014824546362312068 7.8405426719956603e-05 0 -0.014999799156792424 -2.8687110914436536e-08 0 -0.014965492532298872 4.9629322369317847e-05 0 -0.014999799156792424 -2.8687110914436536e-08 0 -0.015000006099602352 3.1398655450084438e-08 0 -0.014965492532298872 4.9629322369317847e-05 0 -0.015000006099602352 3.1398655450084438e-08 0 -0.015013849651725985 5.1545992056876056e-05 0 -0.015000119884208938 -5.5483803689731359e-09 0 -0.015000006099602352 3.1398655450084438e-08 0 -0.015013849651725985 5.1545992056876056e-05 0 -0.014965492532298872 4.9629322369317847e-05 0 -0.015013849651725985 5.1545992056876056e-05 0 -0.014982018036280692 0.00011980288753285621 0 -0.014965492532298872 4.9629322369317847e-05 0 -0.015013849651725985 5.1545992056876056e-05 0 -0.014982018036280692 0.00011980288753285621 0 -0.015048670470886741 0.00016794025937192047 0 -0.014824546362312068 7.8405426719956603e-05 0 -0.014965492532298872 4.9629322369317847e-05 0 -0.014885286714154879 0.00017286472522036952 0 -0.014982018036280692 0.00011980288753285621 0 -0.014965492532298872 4.9629322369317847e-05 0 -0.014885286714154879 0.00017286472522036952 0 -0.014885286714154879 0.00017286472522036952 0 -0.014975218315059968 0.00020664830248406785 0 -0.014918065879470123 0.00028770404696943318 0 -0.014982018036280692 0.00011980288753285621 0 -0.014885286714154879 0.00017286472522036952 0 -0.014975218315059968 0.00020664830248406785 0 -0.014975218315059968 0.00020664830248406785 0 -0.015036250106254458 0.00027674359092730462 0 -0.015048670470886741 0.00016794025937192047 0 -0.014982018036280692 0.00011980288753285621 0 -0.014975218315059968 0.00020664830248406785 0 -0.015048670470886741 0.00016794025937192047 0 -0.014975218315059968 0.00020664830248406785 0 -0.015036250106254458 0.00027674359092730462 0 -0.014918065879470123 0.00028770404696943318 0 -0.015036250106254458 0.00027674359092730462 0 -0.014918065879470123 0.00028770404696943318 0 -0.014988215581767493 0.00039107920632555458 0 -0.014885286714154879 0.00017286472522036952 0 -0.014918065879470123 0.00028770404696943318 0 -0.014802594781996586 0.00031126210591669276 0 -0.014918065879470123 0.00028770404696943318 0 -0.014802594781996586 0.00031126210591669276 0 -0.014852357990070647 0.00037228431886740011 0 -0.014885286714154879 0.00017286472522036952 0 -0.014802594781996586 0.00031126210591669276 0 -0.014670870539682307 0.00022911054684081325 0 -0.014763714872148722 0.0002441420282342244 0 -0.014836736812374006 0.0001552258005652047 0 -0.014802594781996586 0.00031126210591669276 0 -0.014670870539682307 0.00022911054684081325 0 -0.014677398655808312 0.00038561338162070626 0 -0.014491322691977938 0.00048010714424076946 0 -0.014670870539682307 0.00022911054684081325 0 -0.014677398655808312 0.00038561338162070626 0 -0.014992043493872923 7.3854895974043965e-06 0 -0.015002778636439548 6.1888274279339915e-06 0 -0.014998332842365092 2.42543921801438e-05 0 -0.01491512086661221 7.5054324835796272e-05 0 -0.014836736812374006 0.0001552258005652047 0 -0.014824546362312068 7.8405426719956603e-05 0 -0.014885286714154879 0.00017286472522036952 0 -0.014670870539682307 0.00022911054684081325 0 -0.014991652716855253 7.9488569069765447e-06 0 -0.014995456035318001 1.6516493023577014e-05 0 -0.015000484305974532 9.5020618592226696e-06 0 -0.015000009023135379 -1.8327599858127029e-09 0 -0.014991652716855253 7.9488569069765447e-06 0 -0.015000484305974532 9.5020618592226696e-06 0 -0.014999557590684887 1.9786062632298697e-07 0 -0.014695437882480447 9.2451836405345564e-05 0 -0.014999715561850915 1.7766287040084928e-08 0 -0.01485293022405065 2.4586632948915527e-05 0 -0.015000009994135689 1.6064750637231622e-09 0 -0.015003152382836123 6.7569965893348695e-06 0 -0.014998933587831513 2.5744139569543191e-06 0 -0.015000009023135379 -1.8327599858127029e-09 0 -0.01499998167465694 4.6501572542994738e-09 0 -0.014991652716855253 7.9488569069765447e-06 0 -0.015003152382836123 6.7569965893348695e-06 0 -0.014998933587831513 2.5744139569543191e-06 0 -0.014994091919105385 6.9512394164528241e-06 0 -0.015003152382836123 6.7569965893348695e-06 0 -0.014994091919105385 6.9512394164528241e-06 0 -0.014998197332352647 1.4155206582396881e-05 0 -0.015000009994135689 1.6064750637231622e-09 0 -0.014998933587831513 2.5744139569543191e-06 0 -0.014999985921447133 1.3091280270373822e-09 0 -0.0149998303941682 1.403375235827766e-07 0 -0.01490799941867089 0.00010505320921711763 0 -0.014998933587831513 2.5744139569543191e-06 0 -0.014999985921447133 1.3091280270373822e-09 0 -0.014994091919105385 6.9512394164528241e-06 0 -0.015013849651725985 5.1545992056876056e-05 0 -0.015000119884208938 -5.5483803689731359e-09 0 -0.015099212250809329 9.5312114220847202e-05 0 -0.015013849651725985 5.1545992056876056e-05 0 -0.015099212250809329 9.5312114220847202e-05 0 -0.015048670470886741 0.00016794025937192047 0 -0.015099212250809329 9.5312114220847202e-05 0 -0.015048670470886741 0.00016794025937192047 0 -0.015152890800676498 0.0002444726591033327 0 -0.015036250106254458 0.00027674359092730462 0 -0.015048670470886741 0.00016794025937192047 0 -0.015152890800676498 0.0002444726591033327 0 -0.015036250106254458 0.00027674359092730462 0 -0.015152890800676498 0.0002444726591033327 0 -0.015120353427760263 0.00035286014768515244 0 -0.014992181061928737 2.4700067902363183e-05 0 -0.015003977436536947 2.310625547052647e-05 0 -0.015001762320054452 4.6460828968656366e-05 0 -0.014733368004244265 0.00022555926066253771 0 -0.014355532282265843 0.00037946658477796635 0 -0.01490799941867089 0.00010505320921711763 0 -0.014733368004244265 0.00022555926066253771 0 -0.014994091919105385 6.9512394164528241e-06 0 -0.014992181061928737 2.4700067902363183e-05 0 -0.014998197332352647 1.4155206582396881e-05 0 -0.014992181061928737 2.4700067902363183e-05 0 -0.014998197332352647 1.4155206582396881e-05 0 -0.015003977436536947 2.310625547052647e-05 0 -0.014991652716855253 7.9488569069765447e-06 0 -0.014986171810358887 1.9579483058744284e-05 0 -0.014995456035318001 1.6516493023577014e-05 0 -0.01485293022405065 2.4586632948915527e-05 0 -0.014634175334862543 9.4288200998305567e-05 0 -0.015003152382836123 6.7569965893348695e-06 0 -0.014998197332352647 1.4155206582396881e-05 0 -0.015003977436536947 2.310625547052647e-05 0 -0.014634175334862543 9.4288200998305567e-05 0 -0.014233252760365132 0.00037215127167641263 0 -0.014986171810358887 1.9579483058744284e-05 0 -0.014994947805141157 2.6380397337464304e-05 0 -0.014983142982803219 3.3200577966593815e-05 0 -0.014986171810358887 1.9579483058744284e-05 0 -0.014994947805141157 2.6380397337464304e-05 0 -0.014995456035318001 1.6516493023577014e-05 0 -0.012310947822147157 0.00033847648253478968 0 -0.01230854237448996 0.00033455563801356911 0 -0.012303999256759153 0.00033630935146651152 0 -0.012310947822147157 0.00033847648253478968 0 -0.012316606588836754 0.0003349274417597309 0 -0.01230854237448996 0.00033455563801356911 0 -0.012312547792988454 0.00034300361831480347 0 -0.012310947822147157 0.00033847648253478968 0 -0.012306921583778026 0.00034084578963439985 0 -0.012312547792988454 0.00034300361831480347 0 -0.012310947822147157 0.00033847648253478968 0 -0.012319060515936224 0.00034068432606173057 0 -0.0139031313873776 0.00027466656112035809 0 -0.014233252760365132 0.00037215127167641263 0 -0.014233252760365132 0.00037215127167641263 0 -0.014355532282265843 0.00037946658477796635 0 -0.014060053135655158 0.0002936355022599714 0 -0.014055893360976056 0.00040699852176302709 0 -0.014027885169246003 0.00030893202318114905 0 -0.012310947822147157 0.00033847648253478968 0 -0.012319060515936224 0.00034068432606173057 0 -0.012316606588836754 0.0003349274417597309 0 -0.014233252760365132 0.00037215127167641263 0 -0.01388619924111871 0.00035604477174573646 0 -0.01388619924111871 0.00035604477174573646 0 -0.014355532282265843 0.00037946658477796635 0 -0.015193863130813093 0.00046305278745008532 0 -0.015157445141028451 0.00041113752656343278 0 -0.015177032227978711 0.00037842104761918517 0 -0.015193863130813093 0.00046305278745008532 0 -0.01513669824017729 0.00044734512062974413 0 -0.015157445141028451 0.00041113752656343278 0 -0.01513669824017729 0.00044734512062974413 0 -0.01512221252722132 0.00040258401945207639 0 -0.015096031898474176 0.00044401987764724912 0 -0.01513669824017729 0.00044734512062974413 0 -0.015096031898474176 0.00044401987764724912 0 -0.015115007418578356 0.00046792375596532422 0 -0.01513669824017729 0.00044734512062974413 0 -0.01512221252722132 0.00040258401945207639 0 -0.015157445141028451 0.00041113752656343278 0 -0.01512221252722132 0.00040258401945207639 0 -0.015157445141028451 0.00041113752656343278 0 -0.015144602856708073 0.00039191451461586543 0 -0.015157445141028451 0.00041113752656343278 0 -0.015168068855716471 0.00038316896680034857 0 -0.015144602856708073 0.00039191451461586543 0 -0.015179712301171084 0.00037826362606779217 0 -0.015168068855716471 0.00038316896680034857 0 -0.015120353427760263 0.00035286014768515244 0 -0.015152890800676498 0.0002444726591033327 0 -0.015179712301171084 0.00037826362606779217 0 -0.015120353427760263 0.00035286014768515244 0 -0.014992181061928737 2.4700067902363183e-05 0 -0.015001762320054452 4.6460828968656366e-05 0 -0.014995667781797097 4.9470029831236262e-05 0 -0.014355532282265843 0.00037946658477796635 0 -0.014362321006498747 0.0003771794400317664 0 -0.015157445141028451 0.00041113752656343278 0 -0.015177032227978711 0.00037842104761918517 0 -0.015168068855716471 0.00038316896680034857 0 -0.01512221252722132 0.00040258401945207639 0 -0.015120353427760263 0.00035286014768515244 0 -0.015144602856708073 0.00039191451461586543 0 -0.015168068855716471 0.00038316896680034857 0 -0.015120353427760263 0.00035286014768515244 0 -0.015144602856708073 0.00039191451461586543 0 -0.015120353427760263 0.00035286014768515244 0 -0.015053915975314212 0.00039844416340151288 0 -0.015091381424193438 0.00040686235304901398 0 -0.015120353427760263 0.00035286014768515244 0 -0.015053915975314212 0.00039844416340151288 0 -0.014994137274551959 0.00036562158045337287 0 -0.015036250106254458 0.00027674359092730462 0 -0.015120353427760263 0.00035286014768515244 0 -0.014988215581767493 0.00039107920632555458 0 -0.015020409601871424 0.00038570513379273527 0 -0.014927514814392759 0.00040185456017891735 0 -0.01512221252722132 0.00040258401945207639 0 -0.015120353427760263 0.00035286014768515244 0 -0.015091381424193438 0.00040686235304901398 0 -0.015053915975314212 0.00039844416340151288 0 -0.015091381424193438 0.00040686235304901398 0 -0.015070700816382815 0.00043700723955089767 0 -0.015091381424193438 0.00040686235304901398 0 -0.015096031898474176 0.00044401987764724912 0 -0.015070700816382815 0.00043700723955089767 0 -0.01512221252722132 0.00040258401945207639 0 -0.015091381424193438 0.00040686235304901398 0 -0.015096031898474176 0.00044401987764724912 0 -0.015096031898474176 0.00044401987764724912 0 -0.015070700816382815 0.00043700723955089767 0 -0.01507340142306182 0.00046975956636868268 0 -0.015053915975314212 0.00039844416340151288 0 -0.015070700816382815 0.00043700723955089767 0 -0.015038483630623909 0.0004653625635044306 0 -0.015070700816382815 0.00043700723955089767 0 -0.01507340142306182 0.00046975956636868268 0 -0.015038483630623909 0.0004653625635044306 0 -0.01507340142306182 0.00046975956636868268 0 -0.015081602436566199 0.00053227551702813159 0 -0.015038483630623909 0.0004653625635044306 0 -0.015096031898474176 0.00044401987764724912 0 -0.01509509611008927 0.00048842256392082081 0 -0.015115007418578356 0.00046792375596532422 0 -0.01507340142306182 0.00046975956636868268 0 -0.01509509611008927 0.00048842256392082081 0 -0.015081602436566199 0.00053227551702813159 0 -0.015096031898474176 0.00044401987764724912 0 -0.01507340142306182 0.00046975956636868268 0 -0.01509509611008927 0.00048842256392082081 0 -0.01509509611008927 0.00048842256392082081 0 -0.015081602436566199 0.00053227551702813159 0 -0.015107217624031761 0.00050912314903697677 0 -0.015081602436566199 0.00053227551702813159 0 -0.015107217624031761 0.00050912314903697677 0 -0.015120561834973094 0.00052403359472155003 0 -0.014138965228605544 0.00044416072349347696 0 -0.014128961560996824 0.00041139667576026449 0 -0.014176571069692927 0.00040897997048521369 0 -0.014128961560996824 0.00041139667576026449 0 -0.014128499355363705 0.00038473747744147504 0 -0.014176571069692927 0.00040897997048521369 0 -0.014128499355363705 0.00038473747744147504 0 -0.014071012089316872 0.00040781021021886688 0 -0.014093435034867628 0.00036510667908375963 0 -0.014128961560996824 0.00041139667576026449 0 -0.014128499355363705 0.00038473747744147504 0 -0.014071012089316872 0.00040781021021886688 0 -0.013934956010084281 0.00048503158686579465 0 -0.013876806367832756 0.00046578692446822418 0 -0.014138965228605544 0.00044416072349347696 0 -0.014128961560996824 0.00041139667576026449 0 -0.014071012089316872 0.00040781021021886688 0 -0.014116356195208637 0.00044126884926290423 0 -0.014138965228605544 0.00044416072349347696 0 -0.014072713262478788 0.00040392744507335615 0 -0.015138197964180183 0.0005513916030722597 0 -0.015156244433631436 0.00052239345586861164 0 -0.015120561834973094 0.00052403359472155003 0 -0.015081602436566199 0.00053227551702813159 0 -0.015138197964180183 0.0005513916030722597 0 -0.015120561834973094 0.00052403359472155003 0 -0.014379568901673185 0.00056572516810348826 0 -0.013693826617655308 0.00040586582099400254 0 -0.015081602436566199 0.00053227551702813159 0 -0.015138197964180183 0.0005513916030722597 0 -0.015172761011535921 0.00059955612990883597 0 -0.014116356195208637 0.00044126884926290423 0 -0.014072713262478788 0.00040392744507335615 0 -0.014006142792027103 0.00036262794545205228 0 -0.013876806367832756 0.00046578692446822418 0 -0.013693826617655308 0.00040586582099400254 0 -0.015138197964180183 0.0005513916030722597 0 -0.015166654655143956 0.00056572377649951125 0 -0.015172761011535921 0.00059955612990883597 0 -0.015166654655143956 0.00056572377649951125 0 -0.015156244433631436 0.00052239345586861164 0 -0.015186666145707219 0.00053614249042845108 0 -0.015138197964180183 0.0005513916030722597 0 -0.015166654655143956 0.00056572377649951125 0 -0.015156244433631436 0.00052239345586861164 0 -0.015156244433631436 0.00052239345586861164 0 -0.015120561834973094 0.00052403359472155003 0 -0.015132003877558892 0.00049148489895908679 0 -0.015107217624031761 0.00050912314903697677 0 -0.015120561834973094 0.00052403359472155003 0 -0.015132003877558892 0.00049148489895908679 0 -0.01509509611008927 0.00048842256392082081 0 -0.015115007418578356 0.00046792375596532422 0 -0.015132003877558892 0.00049148489895908679 0 -0.01509509611008927 0.00048842256392082081 0 -0.015107217624031761 0.00050912314903697677 0 -0.015132003877558892 0.00049148489895908679 0 -0.01513669824017729 0.00044734512062974413 0 -0.015115007418578356 0.00046792375596532422 0 -0.015132003877558892 0.00049148489895908679 0 -0.015193863130813093 0.00046305278745008532 0 -0.015156244433631436 0.00052239345586861164 0 -0.015132003877558892 0.00049148489895908679 0 -0.015193863130813093 0.00046305278745008532 0 -0.01513669824017729 0.00044734512062974413 0 -0.015132003877558892 0.00049148489895908679 0 -0.013466160916235754 0.00038770392623022618 0 -0.013440229259070121 0.00030848603590203169 0 -0.013466006637566889 0.00032491706607801484 0 -0.01388619924111871 0.00035604477174573646 0 -0.013289990079492889 0.00021520388134200306 0 -0.015193863130813093 0.00046305278745008532 0 -0.015156244433631436 0.00052239345586861164 0 -0.015186666145707219 0.00053614249042845108 0 -0.01388619924111871 0.00035604477174573646 0 -0.013766172513223325 0.00037107419057033484 0 -0.012316606588836754 0.0003349274417597309 0 -0.012310985283624874 0.00032868619992079375 0 -0.012307522387520422 0.00033126373166926531 0 -0.013766172513223325 0.00037107419057033484 0 -0.01350769543906785 0.00033610349713463546 0 -0.013440229259070121 0.00030848603590203169 0 -0.013466006637566889 0.00032491706607801484 0 -0.013466651639519558 0.00026104635885799895 0 -0.015166654655143956 0.00056572377649951125 0 -0.015186666145707219 0.00053614249042845108 0 -0.015181308082752813 0.00060650535288332501 0 -0.015166654655143956 0.00056572377649951125 0 -0.015172761011535921 0.00059955612990883597 0 -0.015181308082752813 0.00060650535288332501 0 -0.012301256138473771 0.00032679867828927912 0 -0.012307522387520422 0.00033126373166926531 0 -0.012300814926385949 0.00033050903827017456 0 -0.012310985283624874 0.00032868619992079375 0 -0.012301256138473771 0.00032679867828927912 0 -0.012304459663840807 0.00031942044761674635 0 -0.012310985283624874 0.00032868619992079375 0 -0.012301256138473771 0.00032679867828927912 0 -0.012307522387520422 0.00033126373166926531 0 -0.012316606588836754 0.0003349274417597309 0 -0.012307522387520422 0.00033126373166926531 0 -0.01230854237448996 0.00033455563801356911 0 -0.012307522387520422 0.00033126373166926531 0 -0.01230854237448996 0.00033455563801356911 0 -0.012300814926385949 0.00033050903827017456 0 -0.014366291146582231 0.00052902899113818592 0 -0.014408231658319793 0.00054618126467487844 0 -0.014332882328134636 0.00056546350376499206 0 -0.014366291146582231 0.00052902899113818592 0 -0.014315879817963808 0.00051596992395674284 0 -0.014332882328134636 0.00056546350376499206 0 -0.014315879817963808 0.00051596992395674284 0 -0.014362180701740817 0.00049665257083439168 0 -0.014298803006001505 0.00047028415242180474 0 -0.014366291146582231 0.00052902899113818592 0 -0.014315879817963808 0.00051596992395674284 0 -0.014362180701740817 0.00049665257083439168 0 -0.014366291146582231 0.00052902899113818592 0 -0.014362180701740817 0.00049665257083439168 0 -0.014399604163268149 0.00051039663539356273 0 -0.014362180701740817 0.00049665257083439168 0 -0.014399604163268149 0.00051039663539356273 0 -0.014423138338846467 0.00047568879319043482 0 -0.014484690053800094 0.00049236544143876849 0 -0.014447204159367479 0.00049545620804451556 0 -0.014408231658319793 0.00054618126467487844 0 -0.014447204159367479 0.00049545620804451556 0 -0.014399604163268149 0.00051039663539356273 0 -0.014423138338846467 0.00047568879319043482 0 -0.014447204159367479 0.00049545620804451556 0 -0.014399604163268149 0.00051039663539356273 0 -0.014408231658319793 0.00054618126467487844 0 -0.014366291146582231 0.00052902899113818592 0 -0.014399604163268149 0.00051039663539356273 0 -0.014408231658319793 0.00054618126467487844 0 -0.014644285685464492 0.00051286803663138693 0 -0.014677398655808312 0.00038561338162070626 0 -0.014776450017733544 0.00044412460283051658 0 -0.014547014735061059 0.00047486604985696193 0 -0.01457182945554996 0.00046945758316277621 0 -0.014484690053800094 0.00049236544143876849 0 -0.014491322691977938 0.00048010714424076946 0 -0.014644285685464492 0.00051286803663138693 0 -0.014491322691977938 0.00048010714424076946 0 -0.014644285685464492 0.00051286803663138693 0 -0.014677398655808312 0.00038561338162070626 0 -0.01457182945554996 0.00046945758316277621 0 -0.01464758107856742 0.00044823540996846608 0 -0.014644285685464492 0.00051286803663138693 0 -0.014776450017733544 0.00044412460283051658 0 -0.014822274356884076 0.00047684060420713644 0 -0.014802594781996586 0.00031126210591669276 0 -0.014677398655808312 0.00038561338162070626 0 -0.014776450017733544 0.00044412460283051658 0 -0.014776450017733544 0.00044412460283051658 0 -0.014810405674823801 0.00045661418366909495 0 -0.014852357990070647 0.00037228431886740011 0 -0.014651390145795529 0.00045005379825872627 0 -0.01464758107856742 0.00044823540996846608 0 -0.014802594781996586 0.00031126210591669276 0 -0.014776450017733544 0.00044412460283051658 0 -0.014852357990070647 0.00037228431886740011 0 -0.014810405674823801 0.00045661418366909495 0 -0.014852357990070647 0.00037228431886740011 0 -0.014988215581767493 0.00039107920632555458 0 -0.01464758107856742 0.00044823540996846608 0 -0.014927514814392759 0.00040185456017891735 0 -0.014918065879470123 0.00028770404696943318 0 -0.014852357990070647 0.00037228431886740011 0 -0.014988215581767493 0.00039107920632555458 0 -0.015053915975314212 0.00039844416340151288 0 -0.014994137274551959 0.00036562158045337287 0 -0.014977074536655784 0.00045943941220210005 0 -0.015053915975314212 0.00039844416340151288 0 -0.014977074536655784 0.00045943941220210005 0 -0.015038483630623909 0.0004653625635044306 0 -0.014868990404436183 0.00038011498066370879 0 -0.014994137274551959 0.00036562158045337287 0 -0.014977074536655784 0.00045943941220210005 0 -0.01464758107856742 0.00044823540996846608 0 -0.01455291836374961 0.00051281859710031207 0 -0.014315879817963808 0.00051596992395674284 0 -0.014332882328134636 0.00056546350376499206 0 -0.014227203453260699 0.00050644546412279608 0 -0.014315879817963808 0.00051596992395674284 0 -0.014227203453260699 0.00050644546412279608 0 -0.014298803006001505 0.00047028415242180474 0 -0.014227203453260699 0.00050644546412279608 0 -0.014298803006001505 0.00047028415242180474 0 -0.014229584749343516 0.00043799818992308587 0 -0.014298803006001505 0.00047028415242180474 0 -0.014229584749343516 0.00043799818992308587 0 -0.014297764411581905 0.00041332373793901474 0 -0.015081602436566199 0.00053227551702813159 0 -0.014977074536655784 0.00045943941220210005 0 -0.015038483630623909 0.0004653625635044306 0 -0.014116356195208637 0.00044126884926290423 0 -0.014138965228605544 0.00044416072349347696 0 -0.014227203453260699 0.00050644546412279608 0 -0.014138965228605544 0.00044416072349347696 0 -0.014227203453260699 0.00050644546412279608 0 -0.014229584749343516 0.00043799818992308587 0 -0.014379568901673185 0.00056572516810348826 0 -0.01455291836374961 0.00051281859710031207 0 -0.014229584749343516 0.00043799818992308587 0 -0.014176571069692927 0.00040897997048521369 0 -0.014232626057269271 0.00037104163535605771 0 -0.014138965228605544 0.00044416072349347696 0 -0.014229584749343516 0.00043799818992308587 0 -0.014176571069692927 0.00040897997048521369 0 -0.014176571069692927 0.00040897997048521369 0 -0.014232626057269271 0.00037104163535605771 0 -0.014169824597473431 0.00035746001260189201 0 -0.014128499355363705 0.00038473747744147504 0 -0.014176571069692927 0.00040897997048521369 0 -0.014169824597473431 0.00035746001260189201 0 -0.014229584749343516 0.00043799818992308587 0 -0.014297764411581905 0.00041332373793901474 0 -0.014232626057269271 0.00037104163535605771 0 -0.014297764411581905 0.00041332373793901474 0 -0.014232626057269271 0.00037104163535605771 0 -0.01430230774544475 0.00034609349748304218 0 -0.014297764411581905 0.00041332373793901474 0 -0.014367131280416275 0.00039199878974434729 0 -0.01430230774544475 0.00034609349748304218 0 -0.014297764411581905 0.00041332373793901474 0 -0.014367131280416275 0.00039199878974434729 0 -0.014356552592417145 0.00045034682232203871 0 -0.014298803006001505 0.00047028415242180474 0 -0.014297764411581905 0.00041332373793901474 0 -0.014356552592417145 0.00045034682232203871 0 -0.014362180701740817 0.00049665257083439168 0 -0.014298803006001505 0.00047028415242180474 0 -0.014356552592417145 0.00045034682232203871 0 -0.014362180701740817 0.00049665257083439168 0 -0.014356552592417145 0.00045034682232203871 0 -0.014423138338846467 0.00047568879319043482 0 -0.014356552592417145 0.00045034682232203871 0 -0.014423138338846467 0.00047568879319043482 0 -0.014406469527557411 0.00043996968029143442 0 -0.0144446150856949 0.00045285060754101557 0 -0.014423138338846467 0.00047568879319043482 0 -0.014406469527557411 0.00043996968029143442 0 -0.014432418909377466 0.00040901413506352641 0 -0.014367131280416275 0.00039199878974434729 0 -0.014406469527557411 0.00043996968029143442 0 -0.014432418909377466 0.00040901413506352641 0 -0.014367131280416275 0.00039199878974434729 0 -0.014418036789164621 0.00035922355752749968 0 -0.014367131280416275 0.00039199878974434729 0 -0.014356552592417145 0.00045034682232203871 0 -0.014406469527557411 0.00043996968029143442 0 -0.0144446150856949 0.00045285060754101557 0 -0.014432418909377466 0.00040901413506352641 0 -0.014406469527557411 0.00043996968029143442 0 -0.014469122558346521 0.00030599660093304047 0 -0.014418036789164621 0.00035922355752749968 0 -0.014372723446431987 0.0003015380349668364 0 -0.014367131280416275 0.00039199878974434729 0 -0.014418036789164621 0.00035922355752749968 0 -0.014372723446431987 0.0003015380349668364 0 -0.01430230774544475 0.00034609349748304218 0 -0.014372723446431987 0.0003015380349668364 0 -0.014290819294038207 0.00027518546730239394 0 -0.014367131280416275 0.00039199878974434729 0 -0.01430230774544475 0.00034609349748304218 0 -0.014372723446431987 0.0003015380349668364 0 -0.014372723446431987 0.0003015380349668364 0 -0.014329991517612344 0.00021581077855851752 0 -0.014290819294038207 0.00027518546730239394 0 -0.014372723446431987 0.0003015380349668364 0 -0.014399664098633009 0.00020459732898993856 0 -0.014329991517612344 0.00021581077855851752 0 -0.014469122558346521 0.00030599660093304047 0 -0.014372723446431987 0.0003015380349668364 0 -0.014399664098633009 0.00020459732898993856 0 -0.014399664098633009 0.00020459732898993856 0 -0.014329991517612344 0.00021581077855851752 0 -0.0143212676217046 0.00010420265917063549 0 -0.014329991517612344 0.00021581077855851752 0 -0.0143212676217046 0.00010420265917063549 0 -0.014265840925022109 0.00019002716040676383 0 -0.014329991517612344 0.00021581077855851752 0 -0.014265840925022109 0.00019002716040676383 0 -0.014290819294038207 0.00027518546730239394 0 -0.014199666740387007 -0.00031536162553536873 0 -0.01407485720354352 -5.1469863326436563e-05 0 -0.014044337592583769 -0.00026792613401892745 0 -0.01407485720354352 -5.1469863326436563e-05 0 -0.013906649260901823 -0.00028358324890433856 0 -0.014044337592583769 -0.00026792613401892745 0 -0.013994874120880997 0.00026084139744190035 0 -0.013580017867492947 0.00029683841163731257 0 -0.01418570296415389 0.00013192562359013333 0 -0.014091105110395056 0.00013042564872748971 0 -0.014171299480730364 6.149731935747361e-05 0 -0.01418570296415389 0.00013192562359013333 0 -0.014240089070234973 8.9821138340389904e-05 0 -0.014171299480730364 6.149731935747361e-05 0 -0.0143212676217046 0.00010420265917063549 0 -0.014265840925022109 0.00019002716040676383 0 -0.014240089070234973 8.9821138340389904e-05 0 -0.01418570296415389 0.00013192562359013333 0 -0.014265840925022109 0.00019002716040676383 0 -0.014240089070234973 8.9821138340389904e-05 0 -0.014265840925022109 0.00019002716040676383 0 -0.014198802602901723 0.00020143437125747632 0 -0.014212785999811203 0.00026791537850958801 0 -0.01418570296415389 0.00013192562359013333 0 -0.014265840925022109 0.00019002716040676383 0 -0.014198802602901723 0.00020143437125747632 0 -0.01418570296415389 0.00013192562359013333 0 -0.014198802602901723 0.00020143437125747632 0 -0.014133201070681637 0.00018937398359641726 0 -0.014198802602901723 0.00020143437125747632 0 -0.014140729583757615 0.00025238385454385388 0 -0.014133201070681637 0.00018937398359641726 0 -0.014198802602901723 0.00020143437125747632 0 -0.014212785999811203 0.00026791537850958801 0 -0.014140729583757615 0.00025238385454385388 0 -0.014212785999811203 0.00026791537850958801 0 -0.014160380659267431 0.00030192967831482455 0 -0.014202764469266514 0.00032316869979065216 0 -0.014212785999811203 0.00026791537850958801 0 -0.01424753627133663 0.00031751889845815291 0 -0.014202764469266514 0.00032316869979065216 0 -0.014212785999811203 0.00026791537850958801 0 -0.014160380659267431 0.00030192967831482455 0 -0.014140729583757615 0.00025238385454385388 0 -0.014212785999811203 0.00026791537850958801 0 -0.014290819294038207 0.00027518546730239394 0 -0.01424753627133663 0.00031751889845815291 0 -0.014265840925022109 0.00019002716040676383 0 -0.014212785999811203 0.00026791537850958801 0 -0.014290819294038207 0.00027518546730239394 0 -0.014232626057269271 0.00037104163535605771 0 -0.01430230774544475 0.00034609349748304218 0 -0.01424753627133663 0.00031751889845815291 0 -0.01430230774544475 0.00034609349748304218 0 -0.014290819294038207 0.00027518546730239394 0 -0.01424753627133663 0.00031751889845815291 0 -0.014232626057269271 0.00037104163535605771 0 -0.01424753627133663 0.00031751889845815291 0 -0.014202764469266514 0.00032316869979065216 0 -0.014160380659267431 0.00030192967831482455 0 -0.014202764469266514 0.00032316869979065216 0 -0.014169824597473431 0.00035746001260189201 0 -0.014232626057269271 0.00037104163535605771 0 -0.014202764469266514 0.00032316869979065216 0 -0.014169824597473431 0.00035746001260189201 0 -0.014128499355363705 0.00038473747744147504 0 -0.014169824597473431 0.00035746001260189201 0 -0.014118745159879469 0.0003408372489850004 0 -0.014160380659267431 0.00030192967831482455 0 -0.014169824597473431 0.00035746001260189201 0 -0.014118745159879469 0.0003408372489850004 0 -0.014160380659267431 0.00030192967831482455 0 -0.014118745159879469 0.0003408372489850004 0 -0.014106056782043231 0.00029820901539533048 0 -0.014118745159879469 0.0003408372489850004 0 -0.014055234240798813 0.00032746251177500919 0 -0.014106056782043231 0.00029820901539533048 0 -0.014118745159879469 0.0003408372489850004 0 -0.014093435034867628 0.00036510667908375963 0 -0.014055234240798813 0.00032746251177500919 0 -0.014128499355363705 0.00038473747744147504 0 -0.014118745159879469 0.0003408372489850004 0 -0.014093435034867628 0.00036510667908375963 0 -0.014071012089316872 0.00040781021021886688 0 -0.014093435034867628 0.00036510667908375963 0 -0.014055234240798813 0.00032746251177500919 0 -0.014055234240798813 0.00032746251177500919 0 -0.013995978643985286 0.00036074092690030875 0 -0.013994136045161334 0.00022726250752830635 0 -0.014071012089316872 0.00040781021021886688 0 -0.014055234240798813 0.00032746251177500919 0 -0.014006413191400778 0.00036837508173012342 0 -0.014055234240798813 0.00032746251177500919 0 -0.014006413191400778 0.00036837508173012342 0 -0.013995978643985286 0.00036074092690030875 0 -0.014055234240798813 0.00032746251177500919 0 -0.014079589169932856 0.0002384707194957884 0 -0.013994136045161334 0.00022726250752830635 0 -0.014055234240798813 0.00032746251177500919 0 -0.014079589169932856 0.0002384707194957884 0 -0.014106056782043231 0.00029820901539533048 0 -0.014079589169932856 0.0002384707194957884 0 -0.014140729583757615 0.00025238385454385388 0 -0.014106056782043231 0.00029820901539533048 0 -0.014160380659267431 0.00030192967831482455 0 -0.014140729583757615 0.00025238385454385388 0 -0.014106056782043231 0.00029820901539533048 0 -0.012304459663840807 0.00031942044761674635 0 -0.012286363337978327 0.00032387037846712068 0 -0.012294051553387385 0.00032419994760403843 0 -0.012301256138473771 0.00032679867828927912 0 -0.012304459663840807 0.00031942044761674635 0 -0.012294051553387385 0.00032419994760403843 0 -0.011840475134425888 0.00010636010225904055 0 -0.011671014652234768 -2.9512172626938715e-06 0 -0.011666676472967537 0.00038751401582150837 0 -0.013440229259070121 0.00030848603590203169 0 -0.013414800296187922 0.00022866280191099795 0 -0.013466651639519558 0.00026104635885799895 0 -0.013289990079492889 0.00021520388134200306 0 -0.012879373037413091 5.8257768951403563e-05 0 -0.012879373037413091 5.8257768951403563e-05 0 -0.01350769543906785 0.00033610349713463546 0 -0.013693826617655308 0.00040586582099400254 0 -0.01350769543906785 0.00033610349713463546 0 -0.011840475134425888 0.00010636010225904055 0 -0.011720529537676714 0.00037545098120974371 0 -0.011666676472967537 0.00038751401582150837 0 -0.011840475134425888 0.00010636010225904055 0 -0.011882510297639152 0.00028961621824444918 0 -0.011720529537676714 0.00037545098120974371 0 -0.01350769543906785 0.00033610349713463546 0 -0.012789202666309764 0.00024797954345010431 0 -0.011882510297639152 0.00028961621824444918 0 -0.011972919363746381 0.00045497020031977695 0 -0.011720529537676714 0.00037545098120974371 0 -0.011809185278448877 4.795314515622678e-05 0 -0.012028123757593745 0.00023034705073783643 0 -0.012274654411808633 0.00033020166251297538 0 -0.012304459663840807 0.00031942044761674635 0 -0.012286363337978327 0.00032387037846712068 0 -0.012274654411808633 0.00033020166251297538 0 -0.012879373037413091 5.8257768951403563e-05 0 -0.012535855501423599 1.7543063181893387e-05 0 -0.011840475134425888 0.00010636010225904055 0 -0.011882510297639152 0.00028961621824444918 0 -0.012028123757593745 0.00023034705073783643 0 -0.012879373037413091 5.8257768951403563e-05 0 -0.012704033185028709 -1.4559525015791142e-05 0 -0.011882510297639152 0.00028961621824444918 0 -0.012028123757593745 0.00023034705073783643 0 -0.011972919363746381 0.00045497020031977695 0 -0.012028123757593745 0.00023034705073783643 0 -0.011972919363746381 0.00045497020031977695 0 -0.012168233960640968 0.00039822766835214557 0 -0.011599062382104463 0.00033966566789361011 0 -0.011586940136950847 0.00027712603911706369 0 -0.011520799758072145 0.00037134905761809967 0 -0.011601298672585891 0.00038766798772161599 0 -0.011656077370770032 0.00035081451570866546 0 -0.011720529537676714 0.00037545098120974371 0 -0.011599062382104463 0.00033966566789361011 0 -0.011601298672585891 0.00038766798772161599 0 -0.011520799758072145 0.00037134905761809967 0 -0.011584059856515706 0.00037046014940331321 0 -0.011634160986883323 0.00037920231358795419 0 -0.011599062382104463 0.00033966566789361011 0 -0.011656077370770032 0.00035081451570866546 0 -0.011637337893294157 0.00031208168380124997 0 -0.011599062382104463 0.00033966566789361011 0 -0.011601298672585891 0.00038766798772161599 0 -0.011656077370770032 0.00035081451570866546 0 -0.011656077370770032 0.00035081451570866546 0 -0.011684198936008585 0.00032748187650767158 0 -0.011637337893294157 0.00031208168380124997 0 -0.011656077370770032 0.00035081451570866546 0 -0.011686876785672748 0.00036447801386519074 0 -0.011684198936008585 0.00032748187650767158 0 -0.011656077370770032 0.00035081451570866546 0 -0.011720529537676714 0.00037545098120974371 0 -0.011686876785672748 0.00036447801386519074 0 -0.011720529537676714 0.00037545098120974371 0 -0.011686876785672748 0.00036447801386519074 0 -0.011666676472967537 0.00038751401582150837 0 -0.011686876785672748 0.00036447801386519074 0 -0.011666676472967537 0.00038751401582150837 0 -0.011684198936008585 0.00032748187650767158 0 -0.012789202666309764 0.00024797954345010431 0 -0.012033137451317453 0.00012743782502472252 0 -0.011666676472967537 0.00038751401582150837 0 -0.011684198936008585 0.00032748187650767158 0 -0.011733196489889347 0.00026097731772842779 0 -0.011684198936008585 0.00032748187650767158 0 -0.011656310341042237 0.00027682720567186848 0 -0.011733196489889347 0.00026097731772842779 0 -0.011684198936008585 0.00032748187650767158 0 -0.011656310341042237 0.00027682720567186848 0 -0.011637337893294157 0.00031208168380124997 0 -0.011599062382104463 0.00033966566789361011 0 -0.011637337893294157 0.00031208168380124997 0 -0.011586940136950847 0.00027712603911706369 0 -0.011656310341042237 0.00027682720567186848 0 -0.011637337893294157 0.00031208168380124997 0 -0.011586940136950847 0.00027712603911706369 0 -0.011656310341042237 0.00027682720567186848 0 -0.011586940136950847 0.00027712603911706369 0 -0.011631802658481004 0.00020394964504406166 0 -0.014079589169932856 0.0002384707194957884 0 -0.014133201070681637 0.00018937398359641726 0 -0.014091105110395056 0.00013042564872748971 0 -0.014079589169932856 0.0002384707194957884 0 -0.014140729583757615 0.00025238385454385388 0 -0.014133201070681637 0.00018937398359641726 0 -0.014079589169932856 0.0002384707194957884 0 -0.013994136045161334 0.00022726250752830635 0 -0.014091105110395056 0.00013042564872748971 0 -0.013994136045161334 0.00022726250752830635 0 -0.014091105110395056 0.00013042564872748971 0 -0.013988201437861777 9.1364193080038938e-05 0 -0.01418570296415389 0.00013192562359013333 0 -0.014133201070681637 0.00018937398359641726 0 -0.014091105110395056 0.00013042564872748971 0 -0.014091105110395056 0.00013042564872748971 0 -0.014112421511082277 -2.2242866335669491e-05 0 -0.013988201437861777 9.1364193080038938e-05 0 -0.014091105110395056 0.00013042564872748971 0 -0.014112421511082277 -2.2242866335669491e-05 0 -0.014171299480730364 6.149731935747361e-05 0 -0.013983472639200517 -4.9644321600327872e-05 0 -0.014112421511082277 -2.2242866335669491e-05 0 -0.013988201437861777 9.1364193080038938e-05 0 -0.010604803603805198 -2.1136454718759275e-05 0 -0.012015560742660327 0.00029584388199558367 0 -0.0094038469434142048 0.00049899757768186669 0 -0.010284554799325375 0.00069689151158213445 0 -0.0099940558176056966 0.0003782954617584016 0 -0.011631802658481004 0.00020394964504406166 0 -0.01148950128215109 7.7962638416426749e-05 0 -0.011325203286405575 0.00019414521204142799 0 -0.011586940136950847 0.00027712603911706369 0 -0.011631802658481004 0.00020394964504406166 0 -0.011492987622346656 0.00019756908426423717 0 -0.011089964081666001 0.00021319021485396192 0 -0.01002300103931909 0.00014987316610130341 0 -0.011631802658481004 0.00020394964504406166 0 -0.011733196489889347 0.00026097731772842779 0 -0.011633263085471864 7.3481997161434746e-05 0 -0.010604803603805198 -2.1136454718759275e-05 0 -0.012033137451317453 0.00012743782502472252 0 -0.011656310341042237 0.00027682720567186848 0 -0.011631802658481004 0.00020394964504406166 0 -0.011733196489889347 0.00026097731772842779 0 -0.011752132216046629 -8.6605871420669756e-06 0 -0.011733196489889347 0.00026097731772842779 0 -0.011633263085471864 7.3481997161434746e-05 0 -0.011752132216046629 -8.6605871420669756e-06 0 -0.011633263085471864 7.3481997161434746e-05 0 -0.011547531254856766 -6.4398126958254255e-05 0 -0.011631802658481004 0.00020394964504406166 0 -0.011633263085471864 7.3481997161434746e-05 0 -0.01148950128215109 7.7962638416426749e-05 0 -0.011633263085471864 7.3481997161434746e-05 0 -0.01148950128215109 7.7962638416426749e-05 0 -0.011547531254856766 -6.4398126958254255e-05 0 -0.007456274830694702 -0.00027125850343163511 0 -0.0074297439904210932 -0.00039146612645292472 0 -0.0073184219692469755 -0.00030138174359859652 0 -0.01148950128215109 7.7962638416426749e-05 0 -0.011547531254856766 -6.4398126958254255e-05 0 -0.011322727711384466 -0.00011679203533310935 0 -0.0075960192049725666 -0.00024097664179291352 0 -0.007456274830694702 -0.00027125850343163511 0 -0.007594398709776861 -0.00040719483726095132 0 -0.010604803603805198 -2.1136454718759275e-05 0 -0.0093496043333360038 -0.00025602912698244367 0 -0.0074297439904210932 -0.00039146612645292472 0 -0.007594398709776861 -0.00040719483726095132 0 -0.0074447229314851017 -0.00052310405197137277 0 -0.007456274830694702 -0.00027125850343163511 0 -0.0074297439904210932 -0.00039146612645292472 0 -0.007594398709776861 -0.00040719483726095132 0 -0.010284554799325375 0.00069689151158213445 0 -0.010161693523373937 0.00025132567269367794 0 -0.010745375681158058 0.00034198724807192528 0 -0.010168761153772334 4.0106148043759521e-05 0 -0.010161693523373937 0.00025132567269367794 0 -0.010745375681158058 0.00034198724807192528 0 -0.010168761153772334 4.0106148043759521e-05 0 -0.010296953878267893 -0.00020545912613445063 0 -0.010745375681158058 0.00034198724807192528 0 -0.0099503703621096062 0.00011152711959043969 0 -0.010154562918059825 5.6264549516134292e-05 0 -0.0098749159679044126 -0.00018869286485620444 0 -0.0099503703621096062 0.00011152711959043969 0 -0.010154562918059825 5.6264549516134292e-05 0 -0.0099940558176056966 0.0003782954617584016 0 -0.0093747104225481628 -9.1533551688127045e-05 0 -0.0093861768760308099 -7.6810474385779985e-05 0 -0.010284554799325375 0.00069689151158213445 0 -0.0099940558176056966 0.0003782954617584016 0 -0.010161693523373937 0.00025132567269367794 0 -0.0093747104225481628 -9.1533551688127045e-05 0 -0.0094063922710401673 -7.3417988333903655e-05 0 -0.010167781214304701 3.993412968115421e-05 0 -0.0099940558176056966 0.0003782954617584016 0 -0.010161693523373937 0.00025132567269367794 0 -0.010604803603805198 -2.1136454718759275e-05 0 -0.0089042261280382617 -0.00030333526972707749 0 -0.0094038469434142048 0.00049899757768186669 0 -0.0097412372722544653 0.00010607138377609687 0 -0.0094323645204935358 -0.00034466119324649044 0 -0.0094038469434142048 0.00049899757768186669 0 -0.0099940558176056966 0.0003782954617584016 0 -0.0097412372722544653 0.00010607138377609687 0 -0.0099503703621096062 0.00011152711959043969 0 -0.0097412372722544653 0.00010607138377609687 0 -0.0098749159679044126 -0.00018869286485620444 0 -0.0099503703621096062 0.00011152711959043969 0 -0.0099940558176056966 0.0003782954617584016 0 -0.0097412372722544653 0.00010607138377609687 0 -0.0098749159679044126 -0.00018869286485620444 0 -0.0094323645204935358 -0.00034466119324649044 0 -0.0098074525815770273 -0.00074571303040705758 0 -0.0097412372722544653 0.00010607138377609687 0 -0.0098749159679044126 -0.00018869286485620444 0 -0.0094323645204935358 -0.00034466119324649044 0 -0.0087146360985256004 -0.00053874333594067909 0 -0.008748165166892705 -0.00049683309644248726 0 -0.0086047968240193558 -0.00033176001611568724 0 -0.0098749159679044126 -0.00018869286485620444 0 -0.010163857914157987 -0.0003119430994085804 0 -0.0098074525815770273 -0.00074571303040705758 0 -0.0090561877701424084 -0.00020128959526683865 0 -0.0082942974849741311 -0.0002927882308300127 0 -0.010154562918059825 5.6264549516134292e-05 0 -0.0098749159679044126 -0.00018869286485620444 0 -0.010163857914157987 -0.0003119430994085804 0 -0.0091004785115257874 -0.00039590608034948056 0 -0.0088754109529800597 3.2856781565893945e-05 0 -0.009076248218173058 0.00028111311781857563 0 -0.0093747104225481628 -9.1533551688127045e-05 0 -0.0090561877701424084 -0.00020128959526683865 0 -0.0093747104225481628 -9.1533551688127045e-05 0 -0.0095715819549367989 -0.00013174477233370927 0 -0.0095715819549367989 -0.00013174477233370927 0 -0.0090561877701424084 -0.00020128959526683865 0 -0.013784823470396109 -0.00055740353308971835 0 -0.013837706959928473 -0.00056240099068060473 0 -0.013821798605714601 -0.0006074414881353027 0 -0.0095715819549367989 -0.00013174477233370927 0 -0.010281092329355814 -0.00060858602371415623 0 -0.013784823470396109 -0.00055740353308971835 0 -0.013837706959928473 -0.00056240099068060473 0 -0.013817739401951308 -0.0005133115817556852 0 -0.0095715819549367989 -0.00013174477233370927 0 -0.011423764651690578 0.00025517746861681775 0 -0.013837706959928473 -0.00056240099068060473 0 -0.013817739401951308 -0.0005133115817556852 0 -0.013882684702205198 -0.00053934755482742502 0 -0.013817739401951308 -0.0005133115817556852 0 -0.013882684702205198 -0.00053934755482742502 0 -0.013876974903183088 -0.0004924637195373447 0 -0.013837706959928473 -0.00056240099068060473 0 -0.013882684702205198 -0.00053934755482742502 0 -0.013881275135851984 -0.00058802192751407399 0 -0.013837706959928473 -0.00056240099068060473 0 -0.013881275135851984 -0.00058802192751407399 0 -0.013821798605714601 -0.0006074414881353027 0 -0.013881275135851984 -0.00058802192751407399 0 -0.013930054055904252 -0.00056144023427058749 0 -0.013938942369871372 -0.00059539036105127916 0 -0.013882684702205198 -0.00053934755482742502 0 -0.013881275135851984 -0.00058802192751407399 0 -0.013930054055904252 -0.00056144023427058749 0 -0.013980323031452606 -0.00057751224135520012 0 -0.013990409583250044 -0.00055311549390749484 0 -0.013938942369871372 -0.00059539036105127916 0 -0.013930054055904252 -0.00056144023427058749 0 -0.013990409583250044 -0.00055311549390749484 0 -0.013938942369871372 -0.00059539036105127916 0 -0.013930054055904252 -0.00056144023427058749 0 -0.013990409583250044 -0.00055311549390749484 0 -0.013948978062077391 -0.00051394827733177589 0 -0.014074618798419593 -0.00051445717706977004 0 -0.013990409583250044 -0.00055311549390749484 0 -0.013948978062077391 -0.00051394827733177589 0 -0.013882684702205198 -0.00053934755482742502 0 -0.013930054055904252 -0.00056144023427058749 0 -0.013948978062077391 -0.00051394827733177589 0 -0.013882684702205198 -0.00053934755482742502 0 -0.013948978062077391 -0.00051394827733177589 0 -0.013876974903183088 -0.0004924637195373447 0 -0.013948978062077391 -0.00051394827733177589 0 -0.013875299520351356 -0.00043906214482907781 0 -0.013876974903183088 -0.0004924637195373447 0 -0.013948978062077391 -0.00051394827733177589 0 -0.013875299520351356 -0.00043906214482907781 0 -0.013995962355482536 -0.00040518188360574148 0 -0.014074618798419593 -0.00051445717706977004 0 -0.013948978062077391 -0.00051394827733177589 0 -0.013995962355482536 -0.00040518188360574148 0 -0.014199666740387007 -0.00031536162553536873 0 -0.014074618798419593 -0.00051445717706977004 0 -0.013995962355482536 -0.00040518188360574148 0 -0.014199666740387007 -0.00031536162553536873 0 -0.014044337592583769 -0.00026792613401892745 0 -0.013995962355482536 -0.00040518188360574148 0 -0.013906649260901823 -0.00028358324890433856 0 -0.014044337592583769 -0.00026792613401892745 0 -0.013995962355482536 -0.00040518188360574148 0 -0.013906649260901823 -0.00028358324890433856 0 -0.013875299520351356 -0.00043906214482907781 0 -0.013995962355482536 -0.00040518188360574148 0 -0.0143212676217046 0.00010420265917063549 0 -0.014240089070234973 8.9821138340389904e-05 0 -0.014238904940455526 4.7970740977490979e-06 0 -0.013906649260901823 -0.00028358324890433856 0 -0.013875299520351356 -0.00043906214482907781 0 -0.013804110233997535 -0.0004573304579333555 0 -0.013580017867492947 0.00029683841163731257 0 -0.012718966970329456 0.00045921110347666095 0 -0.014240089070234973 8.9821138340389904e-05 0 -0.014171299480730364 6.149731935747361e-05 0 -0.014238904940455526 4.7970740977490979e-06 0 -0.010284554799325375 0.00069689151158213445 0 -0.010745375681158058 0.00034198724807192528 0 -0.011199081949022308 0.0008963802900819808 0 -0.012015560742660327 0.00029584388199558367 0 -0.012718966970329456 0.00045921110347666095 0 -0.011423764651690578 0.00025517746861681775 0 -0.012718966970329456 0.00045921110347666095 0 -0.014112421511082277 -2.2242866335669491e-05 0 -0.014171299480730364 6.149731935747361e-05 0 -0.014238904940455526 4.7970740977490979e-06 0 -0.013817739401951308 -0.0005133115817556852 0 -0.013876974903183088 -0.0004924637195373447 0 -0.013849507398925414 -0.00045620115810269559 0 -0.013875299520351356 -0.00043906214482907781 0 -0.013876974903183088 -0.0004924637195373447 0 -0.013849507398925414 -0.00045620115810269559 0 -0.012861835728017041 0.00044442730238804365 0 -0.012718966970329456 0.00045921110347666095 0 -0.0093195924002008358 -0.00028548998431278882 0 -0.009179653722897356 -0.00041594152993526605 0 -0.0091784850622160675 -0.0001442546976844796 0 -0.0093195924002008358 -0.00028548998431278882 0 -0.0094221445476617687 -0.00024712024805043716 0 -0.0091784850622160675 -0.0001442546976844796 0 -0.0093195924002008358 -0.00028548998431278882 0 -0.009179653722897356 -0.00041594152993526605 0 -0.0094630817697272541 -0.0003327434973623691 0 -0.0089705849710178202 -0.00030602772369258264 0 -0.009179653722897356 -0.00041594152993526605 0 -0.0088067886128462905 -0.00047564380097307675 0 -0.0089705849710178202 -0.00030602772369258264 0 -0.0091784850622160675 -0.0001442546976844796 0 -0.0086957375733397978 -0.00018435367497951618 0 -0.0089705849710178202 -0.00030602772369258264 0 -0.009179653722897356 -0.00041594152993526605 0 -0.0091784850622160675 -0.0001442546976844796 0 -0.009945285850666747 -0.00020744264264641821 0 -0.0097531594246619106 -0.00038225235506861749 0 -0.010152137466702406 -0.00035507245612531894 0 -0.0094674185568409241 -0.00030455559517926446 0 -0.0094858304988587328 -0.00025501902802429842 0 -0.009945285850666747 -0.00020744264264641821 0 -0.0097077348867081088 -0.00021939620074606702 0 -0.0097531594246619106 -0.00038225235506861749 0 -0.0094674185568409241 -0.00030455559517926446 0 -0.0094657559427283305 -0.00031389942338726603 0 -0.0095631099966836386 -0.00029305461387090675 0 -0.0094977624112964742 -0.00027762190580654054 0 -0.0096031348163386696 -0.00022317832242838316 0 -0.0097531594246619106 -0.00038225235506861749 0 -0.0095631099966836386 -0.00029305461387090675 0 -0.0094630817697272541 -0.0003327434973623691 0 -0.0097077348867081088 -0.00021939620074606702 0 -0.0097531594246619106 -0.00038225235506861749 0 -0.0095631099966836386 -0.00029305461387090675 0 -0.0097077348867081088 -0.00021939620074606702 0 -0.0095631099966836386 -0.00029305461387090675 0 -0.0096799485663847384 -4.5060362625804214e-05 0 -0.010995197774904993 -0.00015066462635495638 0 -0.011314877870458383 0.00014040866440577493 0 -0.0094977624112964742 -0.00027762190580654054 0 -0.0095215037294272518 -0.00032257992899276062 0 -0.0094630817697272541 -0.0003327434973623691 0 -0.0095631099966836386 -0.00029305461387090675 0 -0.0094977624112964742 -0.00027762190580654054 0 -0.0094630817697272541 -0.0003327434973623691 0 -0.011706691005606498 -2.3614868465224073e-05 0 -0.011863362650711372 -0.00017754617639820547 0 -0.0095215037294272518 -0.00032257992899276062 0 -0.0095212268058388928 -0.00026339105670624124 0 -0.0094630817697272541 -0.0003327434973623691 0 -0.0095212268058388928 -0.00026339105670624124 0 -0.0094630817697272541 -0.0003327434973623691 0 -0.0094221445476617687 -0.00024712024805043716 0 -0.0095212268058388928 -0.00026339105670624124 0 -0.0094221445476617687 -0.00024712024805043716 0 -0.0094695647382387841 -0.00017217450016239521 0 -0.0093195924002008358 -0.00028548998431278882 0 -0.0094630817697272541 -0.0003327434973623691 0 -0.0094221445476617687 -0.00024712024805043716 0 -0.0094221445476617687 -0.00024712024805043716 0 -0.0094695647382387841 -0.00017217450016239521 0 -0.0091784850622160675 -0.0001442546976844796 0 -0.0032947644054006123 -0.0012624446993124096 0 -0.003452841152927124 -0.0010644389184656879 0 -0.0036741288116154801 -0.0012027152919841838 0 -0.0095212268058388928 -0.00026339105670624124 0 -0.0094695647382387841 -0.00017217450016239521 0 -0.0095936150261684474 -0.00017420991056876106 0 -0.006491713597530935 -0.00081745712067086908 0 -0.007441037082473019 -0.00094435229526703606 0 -0.0032947644054006123 -0.0012624446993124096 0 -0.003452841152927124 -0.0010644389184656879 0 -0.0032623132555837727 -0.00094056787647929258 0 -0.0032947644054006123 -0.0012624446993124096 0 -0.0030180988726721649 -0.0010546123915145778 0 -0.0032623132555837727 -0.00094056787647929258 0 -0.006491713597530935 -0.00081745712067086908 0 -0.0060689426739236104 -0.00068974079134427602 0 -0.0032947644054006123 -0.0012624446993124096 0 -0.0030180988726721649 -0.0010546123915145778 0 -0.0029096571014359516 -0.0013012089165294607 0 -0.0029096571014359516 -0.0013012089165294607 0 -0.0027941015709946754 -0.0010930375410386603 0 -0.0026954306905416997 -0.0012320631503838753 0 -0.0030180988726721649 -0.0010546123915145778 0 -0.0029096571014359516 -0.0013012089165294607 0 -0.0027941015709946754 -0.0010930375410386603 0 -0.0060689426739236104 -0.00068974079134427602 0 -0.0058137786348631147 -0.00051152528530673297 0 -0.0030180988726721649 -0.0010546123915145778 0 -0.0027941015709946754 -0.0010930375410386603 0 -0.0028376300870847811 -0.00089910480145905913 0 -0.0027941015709946754 -0.0010930375410386603 0 -0.0026703218698867987 -0.00094598794102608271 0 -0.0028376300870847811 -0.00089910480145905913 0 -0.0026735807146069171 -0.0010654062157751272 0 -0.0025671462051621617 -0.0010036661663115961 0 -0.0026954306905416997 -0.0012320631503838753 0 -0.0027941015709946754 -0.0010930375410386603 0 -0.0026703218698867987 -0.00094598794102608271 0 -0.0026735807146069171 -0.0010654062157751272 0 -0.0026703218698867987 -0.00094598794102608271 0 -0.0026735807146069171 -0.0010654062157751272 0 -0.0025671462051621617 -0.0010036661663115961 0 -0.0025671462051621617 -0.0010036661663115961 0 -0.0023688419856514979 -0.0009777458302646445 0 -0.0026954306905416997 -0.0012320631503838753 0 -0.0027941015709946754 -0.0010930375410386603 0 -0.0026735807146069171 -0.0010654062157751272 0 -0.0026954306905416997 -0.0012320631503838753 0 -0.0026782265342101467 -0.0012530072208179429 0 -0.0026765620422668154 -0.0012489949224178435 0 -0.002680240065000073 -0.001249893803197065 0 -0.0026782265342101467 -0.0012530072208179429 0 -0.002680240065000073 -0.001249893803197065 0 -0.002683908041942878 -0.0012511087488689592 0 -0.0031153612057831658 -0.00070002563216356429 0 -0.0029745032245132468 -0.00083637591834452574 0 -0.0026765620422668154 -0.0012489949224178435 0 -0.0026824165329454221 -0.0012496551295887656 0 -0.0026646202983980701 -0.0012735511547968942 0 -0.0026782265342101467 -0.0012530072208179429 0 -0.0026765620422668154 -0.0012489949224178435 0 -0.0026954306905416997 -0.0012320631503838753 0 -0.0026765620422668154 -0.0012489949224178435 0 -0.002680240065000073 -0.001249893803197065 0 -0.0026824165329454221 -0.0012496551295887656 0 -0.0026765620422668154 -0.0012489949224178435 0 -0.0026954306905416997 -0.0012320631503838753 0 -0.0026646202983980701 -0.0012735511547968942 0 -0.0029096571014359516 -0.0013012089165294607 0 -0.0026954306905416997 -0.0012320631503838753 0 -0.0026646202983980701 -0.0012735511547968942 0 -0.0074297439904210932 -0.00039146612645292472 0 -0.0073160390344081446 -0.00044134950843179288 0 -0.0073184219692469755 -0.00030138174359859652 0 -0.0062554588587042824 -0.00063686780239085661 0 -0.0077788809952462172 -0.00058136393104146419 0 -0.0057786400321855596 -0.00082221464391743525 0 -0.0059476779780602345 -0.00084205126312179781 0 -0.0057864562284220145 -0.0014075546134544837 0 -0.0026881808817107522 -0.0012511562020822767 0 -0.0026947746499323627 -0.0012543544664725692 0 -0.0026893162999345713 -0.0012502947595291042 0 -0.0051163857780408221 -0.00084416716560915697 0 -0.0062768606465289948 -0.0008346129559995292 0 -0.0026782265342101467 -0.0012530072208179429 0 -0.0026947746499323627 -0.0012543544664725692 0 -0.002683908041942878 -0.0012511087488689592 0 -0.0026881808817107522 -0.0012511562020822767 0 -0.0026947746499323627 -0.0012543544664725692 0 -0.002683908041942878 -0.0012511087488689592 0 -0.0026824165329454221 -0.0012496551295887656 0 -0.0026893162999345713 -0.0012502947595291042 0 -0.0026912624559262818 -0.0012384845545523355 0 -0.0059476779780602345 -0.00084205126312179781 0 -0.0060267288128319644 -0.0013556780287516021 0 -0.0057864562284220145 -0.0014075546134544837 0 -0.0062768606465289948 -0.0008346129559995292 0 -0.0062208931457897396 -6.7996029058914703e-05 0 -0.0080843035364048035 9.4958747603485311e-05 0 -0.0078988930506144941 5.482154883909978e-05 0 -0.0080305549253743974 -0.00027504560784789817 0 -0.002680240065000073 -0.001249893803197065 0 -0.0026842919799646954 -0.001250227178524728 0 -0.0026824165329454221 -0.0012496551295887656 0 -0.0026881808817107522 -0.0012511562020822767 0 -0.0026842919799646954 -0.001250227178524728 0 -0.0026893162999345713 -0.0012502947595291042 0 -0.002680240065000073 -0.001249893803197065 0 -0.002683908041942878 -0.0012511087488689592 0 -0.0026842919799646954 -0.001250227178524728 0 -0.0026881808817107522 -0.0012511562020822767 0 -0.002683908041942878 -0.0012511087488689592 0 -0.0026842919799646954 -0.001250227178524728 0 -0.0026842919799646954 -0.001250227178524728 0 -0.0026824165329454221 -0.0012496551295887656 0 -0.0026893162999345713 -0.0012502947595291042 0 -0.0093496043333360038 -0.00025602912698244367 0 -0.0077788809952462172 -0.00058136393104146419 0 -0.0062768606465289948 -0.0008346129559995292 0 -0.0077788809952462172 -0.00058136393104146419 0 -0.0077788809952462172 -0.00058136393104146419 0 -0.01002300103931909 0.00014987316610130341 0 -0.01148950128215109 7.7962638416426749e-05 0 -0.011322727711384466 -0.00011679203533310935 0 -0.011325203286405575 0.00019414521204142799 0 -0.0078988930506144941 5.482154883909978e-05 0 -0.0080305549253743974 -0.00027504560784789817 0 -0.0079093481314121451 -0.00055349535122497303 0 -0.0080843035364048035 9.4958747603485311e-05 0 -0.0080305549253743974 -0.00027504560784789817 0 -0.0081374643361021466 -0.00025571349228920985 0 -0.0062208931457897396 -6.7996029058914703e-05 0 -0.0063356232497524959 -0.00017190264906639699 0 -0.0080305549253743974 -0.00027504560784789817 0 -0.0081385900272672208 -0.00025562367297549951 0 -0.0081753573268376779 -0.00049312632217213856 0 -0.00630043716600535 -5.9871576832157889e-05 0 -0.0062208931457897396 -6.7996029058914703e-05 0 -0.0081446300731724854 -0.00026589956503402342 0 -0.0081753573268376779 -0.00049312632217213856 0 -0.0083958021257003381 -0.00036957342326679444 0 -0.01002300103931909 0.00014987316610130341 0 -0.0095754571014965272 -0.0001291604059499005 0 -0.0081753573268376779 -0.00049312632217213856 0 -0.0079093481314121451 -0.00055349535122497303 0 -0.0083722789648641369 -0.0005201511635860728 0 -0.010874641911412514 -0.00028772107434935545 0 -0.010517961935358951 -0.00031791268969997622 0 -0.010689982750945111 -0.000141855420252523 0 -0.0081753573268376779 -0.00049312632217213856 0 -0.0083958021257003381 -0.00036957342326679444 0 -0.0083722789648641369 -0.0005201511635860728 0 -0.010517961935358951 -0.00031791268969997622 0 -0.010513028534289426 -9.4361514395208381e-05 0 -0.010689982750945111 -0.000141855420252523 0 -0.0080305549253743974 -0.00027504560784789817 0 -0.0081753573268376779 -0.00049312632217213856 0 -0.0079093481314121451 -0.00055349535122497303 0 -0.010874641911412514 -0.00028772107434935545 0 -0.010874308891034287 -2.5516716446486055e-05 0 -0.010689982750945111 -0.000141855420252523 0 -0.01002300103931909 0.00014987316610130341 0 -0.010677475131557972 0.0001949950107754261 0 -0.0089705849710178202 -0.00030602772369258264 0 -0.0086957375733397978 -0.00018435367497951618 0 -0.0088067886128462905 -0.00047564380097307675 0 -0.0086957375733397978 -0.00018435367497951618 0 -0.008582690898402039 -0.00039261880851718789 0 -0.0088067886128462905 -0.00047564380097307675 0 -0.0026824165329454221 -0.0012496551295887656 0 -0.0026912624559262818 -0.0012384845545523355 0 -0.0026646202983980701 -0.0012735511547968942 0 -0.0062208931457897396 -6.7996029058914703e-05 0 -0.0058137786348631147 -0.00051152528530673297 0 -0.0081446300731724854 -0.00026589956503402342 0 -0.0086957375733397978 -0.00018435367497951618 0 -0.0083958021257003381 -0.00036957342326679444 0 -0.0083958021257003381 -0.00036957342326679444 0 -0.008582690898402039 -0.00039261880851718789 0 -0.0083722789648641369 -0.0005201511635860728 0 -0.0086957375733397978 -0.00018435367497951618 0 -0.0083958021257003381 -0.00036957342326679444 0 -0.008582690898402039 -0.00039261880851718789 0 -0.0095754571014965272 -0.0001291604059499005 0 -0.0094858304988587328 -0.00025501902802429842 0 -0.010517961935358951 -0.00031791268969997622 0 -0.010371363948277602 -0.00021408670012221023 0 -0.010152137466702406 -0.00035507245612531894 0 -0.008582690898402039 -0.00039261880851718789 0 -0.0083722789648641369 -0.0005201511635860728 0 -0.0088067886128462905 -0.00047564380097307675 0 -0.010517961935358951 -0.00031791268969997622 0 -0.010371363948277602 -0.00021408670012221023 0 -0.010513028534289426 -9.4361514395208381e-05 0 -0.010152137466702406 -0.00035507245612531894 0 -0.01009983067723944 -0.00010338956382445007 0 -0.010298994614078221 -9.1841939652414774e-05 0 -0.010371363948277602 -0.00021408670012221023 0 -0.010152137466702406 -0.00035507245612531894 0 -0.010298994614078221 -9.1841939652414774e-05 0 -0.009945285850666747 -0.00020744264264641821 0 -0.010152137466702406 -0.00035507245612531894 0 -0.01009983067723944 -0.00010338956382445007 0 -0.010115755271363141 9.6467484524716135e-05 0 -0.010298994614078221 -9.1841939652414774e-05 0 -0.01049479672446599 0.00016464917935112399 0 -0.01009983067723944 -0.00010338956382445007 0 -0.010115755271363141 9.6467484524716135e-05 0 -0.010298994614078221 -9.1841939652414774e-05 0 -0.010298994614078221 -9.1841939652414774e-05 0 -0.010513028534289426 -9.4361514395208381e-05 0 -0.01049479672446599 0.00016464917935112399 0 -0.010371363948277602 -0.00021408670012221023 0 -0.010298994614078221 -9.1841939652414774e-05 0 -0.010513028534289426 -9.4361514395208381e-05 0 -0.010115755271363141 9.6467484524716135e-05 0 -0.010262200461418675 0.0004243673828068487 0 -0.0098834609445480909 0.00034759619035149892 0 -0.010115755271363141 9.6467484524716135e-05 0 -0.010559776899676342 0.00017730590861201006 0 -0.010262200461418675 0.0004243673828068487 0 -0.010414023142711984 0.00015304771476566396 0 -0.010644371491471117 0.00019803775442358792 0 -0.011586940136950847 0.00027712603911706369 0 -0.011492987622346656 0.00019756908426423717 0 -0.011492649282025695 0.00028494502312755753 0 -0.010874308891034287 -2.5516716446486055e-05 0 -0.01068932698722287 2.8076006919303082e-05 0 -0.010873728059572629 0.00023722218347877708 0 -0.011586940136950847 0.00027712603911706369 0 -0.011492649282025695 0.00028494502312755753 0 -0.011505040908322366 0.00037691514570898271 0 -0.011416489468096216 0.00027387102646288816 0 -0.01133409469546439 0.00032146203060259804 0 -0.010513028534289426 -9.4361514395208381e-05 0 -0.01049479672446599 0.00016464917935112399 0 -0.01068932698722287 2.8076006919303082e-05 0 -0.010874308891034287 -2.5516716446486055e-05 0 -0.01068932698722287 2.8076006919303082e-05 0 -0.010689982750945111 -0.000141855420252523 0 -0.010513028534289426 -9.4361514395208381e-05 0 -0.01068932698722287 2.8076006919303082e-05 0 -0.010689982750945111 -0.000141855420252523 0 -0.010559776899676342 0.00017730590861201006 0 -0.010994531083428067 0.00032563340614082825 0 -0.010994876246323129 0.00026155349445047241 0 -0.01049479672446599 0.00016464917935112399 0 -0.01068932698722287 2.8076006919303082e-05 0 -0.010873728059572629 0.00023722218347877708 0 -0.010644371491471117 0.00019803775442358792 0 -0.011213370916519081 0.00031084978327291135 0 -0.010677475131557972 0.0001949950107754261 0 -0.011213370916519081 0.00031084978327291135 0 -0.011492649282025695 0.00028494502312755753 0 -0.011491756513862333 0.00037430352695919398 0 -0.011505040908322366 0.00037691514570898271 0 -0.011972919363746381 0.00045497020031977695 0 -0.01225850069169835 0.00051491926415406252 0 -0.012168233960640968 0.00039822766835214557 0 -0.011584059856515706 0.00037046014940331321 0 -0.01133409469546439 0.00032146203060259804 0 -0.011420317461854261 0.0001285458229079256 0 -0.011416978303209122 0.00074392437773323236 0 -0.010988166983731977 0.00066033596442176712 0 -0.011306492714936979 0.00035145479997007533 0 -0.01133409469546439 0.00032146203060259804 0 -0.011306492714936979 0.00035145479997007533 0 -0.011213370916519081 0.00031084978327291135 0 -0.011213370916519081 0.00031084978327291135 0 -0.01133409469546439 0.00032146203060259804 0 -0.012304913108210812 0.00045617955943568525 0 -0.01225850069169835 0.00051491926415406252 0 -0.012168233960640968 0.00039822766835214557 0 -0.010559776899676342 0.00017730590861201006 0 -0.010994531083428067 0.00032563340614082825 0 -0.010654467747992632 0.00074340073196567575 0 -0.012028123757593745 0.00023034705073783643 0 -0.012168233960640968 0.00039822766835214557 0 -0.012274654411808633 0.00033020166251297538 0 -0.011306492714936979 0.00035145479997007533 0 -0.011334930021802079 0.00035163262706450573 0 -0.012286363337978327 0.00032387037846712068 0 -0.012274654411808633 0.00033020166251297538 0 -0.012289614499994083 0.0003223567685525019 0 -0.012304913108210812 0.00045617955943568525 0 -0.012274654411808633 0.00033020166251297538 0 -0.012289614499994083 0.0003223567685525019 0 -0.012304913108210812 0.00045617955943568525 0 -0.012168233960640968 0.00039822766835214557 0 -0.012274654411808633 0.00033020166251297538 0 -0.012286363337978327 0.00032387037846712068 0 -0.012289614499994083 0.0003223567685525019 0 -0.012291663735049725 0.00032386440388083995 0 -0.012289614499994083 0.0003223567685525019 0 -0.012291511646328218 0.00032421525264653952 0 -0.012291663735049725 0.00032386440388083995 0 -0.011306492714936979 0.00035145479997007533 0 -0.011673381410078206 0.00054946724748294537 0 -0.01228861138151335 0.00032206645918371116 0 -0.012289614499994083 0.0003223567685525019 0 -0.012291511646328218 0.00032421525264653952 0 -0.012291511646328218 0.00032421525264653952 0 -0.012291663735049725 0.00032386440388083995 0 -0.012294908673742265 0.00032612352471400737 0 -0.012301256138473771 0.00032679867828927912 0 -0.012294051553387385 0.00032419994760403843 0 -0.012294908673742265 0.00032612352471400737 0 -0.012291663735049725 0.00032386440388083995 0 -0.012294051553387385 0.00032419994760403843 0 -0.012294908673742265 0.00032612352471400737 0 -0.012286363337978327 0.00032387037846712068 0 -0.012291663735049725 0.00032386440388083995 0 -0.012294051553387385 0.00032419994760403843 0 -0.010559776899676342 0.00017730590861201006 0 -0.010654467747992632 0.00074340073196567575 0 -0.010262200461418675 0.0004243673828068487 0 -0.010262200461418675 0.0004243673828068487 0 -0.010101836451909688 0.00075400679669120367 0 -0.0098834609445480909 0.00034759619035149892 0 -0.010654467747992632 0.00074340073196567575 0 -0.010262200461418675 0.0004243673828068487 0 -0.010101836451909688 0.00075400679669120367 0 -0.010654467747992632 0.00074340073196567575 0 -0.010101836451909688 0.00075400679669120367 0 -0.010320480969653935 0.0011568726465390868 0 -0.014644198027310717 0.00021640112846616714 0 -0.01461716042077057 0.00024759446823030578 0 -0.014631257201111632 0.0002444276186989487 0 -0.014644198027310717 0.00021640112846616714 0 -0.01461716042077057 0.00024759446823030578 0 -0.014585165524669383 0.0001712797901363649 0 -0.01461716042077057 0.00024759446823030578 0 -0.014498448186483982 0.00014997781353937365 0 -0.014585165524669383 0.0001712797901363649 0 -0.014606636619576899 0.00021387683264059449 0 -0.014594493911793618 0.00019725277980750549 0 -0.014649154914078045 0.00025538338830494151 0 -0.014676286239462469 0.00027914045989850907 0 -0.014675425708991673 0.00026419324003934612 0 -0.01461716042077057 0.00024759446823030578 0 -0.014649154914078045 0.00025538338830494151 0 -0.014676286239462469 0.00027914045989850907 0 -0.014543127699072875 0.00013191741863093426 0 -0.01460440146027118 9.3227132442487973e-05 0 -0.014497750517396121 0.00010114612101063789 0 -0.014498448186483982 0.00014997781353937365 0 -0.014543127699072875 0.00013191741863093426 0 -0.014585165524669383 0.0001712797901363649 0 -0.014498448186483982 0.00014997781353937365 0 -0.014543127699072875 0.00013191741863093426 0 -0.014497750517396121 0.00010114612101063789 0 -0.014644198027310717 0.00021640112846616714 0 -0.014585165524669383 0.0001712797901363649 0 -0.01460440146027118 9.3227132442487973e-05 0 -0.012300552608203561 0.00042606175646526037 0 -0.011929553389198704 0.00031476602367142069 0 -0.014543127699072875 0.00013191741863093426 0 -0.014585165524669383 0.0001712797901363649 0 -0.01460440146027118 9.3227132442487973e-05 0 -0.010115755271363141 9.6467484524716135e-05 0 -0.0098834609445480909 0.00034759619035149892 0 -0.0098676587728807521 2.5527982297962458e-05 0 -0.011929553389198704 0.00031476602367142069 0 -0.011314877870458383 0.00014040866440577493 0 -0.01460440146027118 9.3227132442487973e-05 0 -0.014497750517396121 0.00010114612101063789 0 -0.014521855583011979 -0.00010705188308336593 0 -0.014497750517396121 0.00010114612101063789 0 -0.014521855583011979 -0.00010705188308336593 0 -0.014307362709787304 -6.6603354356503978e-05 0 -0.011314877870458383 0.00014040866440577493 0 -0.01104002465593021 6.2107768309956868e-05 0 -0.0097077348867081088 -0.00021939620074606702 0 -0.0096799485663847384 -4.5060362625804214e-05 0 -0.0098676587728807521 2.5527982297962458e-05 0 -0.009945285850666747 -0.00020744264264641821 0 -0.0097077348867081088 -0.00021939620074606702 0 -0.0098676587728807521 2.5527982297962458e-05 0 -0.0098834609445480909 0.00034759619035149892 0 -0.0096802871512853671 -4.438288394151903e-05 0 -0.0098676587728807521 2.5527982297962458e-05 0 -0.009945285850666747 -0.00020744264264641821 0 -0.01009983067723944 -0.00010338956382445007 0 -0.0098676587728807521 2.5527982297962458e-05 0 -0.01009983067723944 -0.00010338956382445007 0 -0.010115755271363141 9.6467484524716135e-05 0 -0.0098676587728807521 2.5527982297962458e-05 0 -0.011863362650711372 -0.00017754617639820547 0 -0.013385418826428873 0.00038973509922375291 0 -0.014530276020512949 0.00010643002384369096 0 -0.014502035435014195 0.00010538414736561504 0 -0.014545597379092999 0.00010827418321173143 0 -0.014325255271223705 -0.00019354068802330911 0 -0.014098923626454042 -0.00027509469317053782 0 -0.014307362709787304 -6.6603354356503978e-05 0 -0.011706691005606498 -2.3614868465224073e-05 0 -0.011314877870458383 0.00014040866440577493 0 -0.014325255271223705 -0.00019354068802330911 0 -0.014521855583011979 -0.00010705188308336593 0 -0.014307362709787304 -6.6603354356503978e-05 0 -0.013735546076354211 0.00046027338645359707 0 -0.013385418826428873 0.00038973509922375291 0 -0.014497750517396121 0.00010114612101063789 0 -0.014502035435014195 0.00010538414736561504 0 -0.014500289891150714 9.5041186293016685e-05 0 -0.014576507426109572 0.00016718895978370371 0 -0.014562138029031807 0.0001485189079691883 0 -0.014502035435014195 0.00010538414736561504 0 -0.014500289891150714 9.5041186293016685e-05 0 -0.014545597379092999 0.00010827418321173143 0 -0.014672995207454355 0.00021125110861926015 0 -0.014630461130118956 0.00024941672539983278 0 -0.014578037438781985 0.00018044753875162323 0 -0.014672995207454355 0.00021125110861926015 0 -0.014545597379092999 0.00010827418321173143 0 -0.014578037438781985 0.00018044753875162323 0 -0.014672995207454355 0.00021125110861926015 0 -0.014630461130118956 0.00024941672539983278 0 -0.014673286640290797 0.00026991320806010987 0 -0.014630461130118956 0.00024941672539983278 0 -0.014673286640290797 0.00026991320806010987 0 -0.014656707587680458 0.00030383774000031466 0 -0.014630461130118956 0.00024941672539983278 0 -0.014656707587680458 0.00030383774000031466 0 -0.014604531732278318 0.00029947095422552941 0 -0.014594493911793618 0.00019725277980750549 0 -0.014576507426109572 0.00016718895978370371 0 -0.014676286239462469 0.00027914045989850907 0 -0.014672995207454355 0.00021125110861926015 0 -0.014673286640290797 0.00026991320806010987 0 -0.014498448186483982 0.00014997781353937365 0 -0.014497750517396121 0.00010114612101063789 0 -0.014500289891150714 9.5041186293016685e-05 0 -0.014673286640290797 0.00026991320806010987 0 -0.014675425708991673 0.00026419324003934612 0 -0.014656707587680458 0.00030383774000031466 0 -0.014676286239462469 0.00027914045989850907 0 -0.014673286640290797 0.00026991320806010987 0 -0.014675425708991673 0.00026419324003934612 0 -0.014518949398269469 0.00041623205885295571 0 -0.014562976830884247 0.00040302565711198684 0 -0.014698740776173468 0.00037779130200049486 0 -0.014656707587680458 0.00030383774000031466 0 -0.01467698574796873 0.0003929408284646493 0 -0.014656707587680458 0.00030383774000031466 0 -0.01467698574796873 0.0003929408284646493 0 -0.014638251433144968 0.00037775643011579214 0 -0.01467698574796873 0.0003929408284646493 0 -0.014666040958121303 0.00042133769375821617 0 -0.014638251433144968 0.00037775643011579214 0 -0.014666040958121303 0.00042133769375821617 0 -0.014674666331536988 0.0003908260409444877 0 -0.014700537908798196 0.00035680703428690052 0 -0.014666040958121303 0.00042133769375821617 0 -0.014700537908798196 0.00035680703428690052 0 -0.014667342605511316 0.00041740007809335904 0 -0.01467698574796873 0.0003929408284646493 0 -0.014666040958121303 0.00042133769375821617 0 -0.014674666331536988 0.0003908260409444877 0 -0.014674666331536988 0.0003908260409444877 0 -0.014678818372724908 0.00038747212302493348 0 -0.014679436152221162 0.00039196386939902982 0 -0.014674666331536988 0.0003908260409444877 0 -0.014683638404303867 0.00038692659294784637 0 -0.014678818372724908 0.00038747212302493348 0 -0.01467698574796873 0.0003929408284646493 0 -0.014674666331536988 0.0003908260409444877 0 -0.014683638404303867 0.00038692659294784637 0 -0.014698740776173468 0.00037779130200049486 0 -0.01467698574796873 0.0003929408284646493 0 -0.014683638404303867 0.00038692659294784637 0 -0.014518949398269469 0.00041623205885295571 0 -0.014264810814740462 0.00040827730517639926 0 -0.014649154914078045 0.00025538338830494151 0 -0.014675425708991673 0.00026419324003934612 0 -0.014628352446767769 0.00023867981016890809 0 -0.014698740776173468 0.00037779130200049486 0 -0.014677307269988012 0.00038204454062940247 0 -0.014652719395062092 0.0003933783444568818 0 -0.014698740776173468 0.00037779130200049486 0 -0.014683638404303867 0.00038692659294784637 0 -0.014677307269988012 0.00038204454062940247 0 -0.014677307269988012 0.00038204454062940247 0 -0.014652719395062092 0.0003933783444568818 0 -0.014650521399923138 0.00034519245345213513 0 -0.014628352446767769 0.00023867981016890809 0 -0.014629404773770411 0.00024740966644660458 0 -0.014631859637531778 0.00025801021618996315 0 -0.014264810814740462 0.00040827730517639926 0 -0.013307040742054769 0.00017593534856446549 0 -0.014625006290833815 0.00024414117507567154 0 -0.014629404773770411 0.00024740966644660458 0 -0.014631257201111632 0.0002444276186989487 0 -0.014625006290833815 0.00024414117507567154 0 -0.014628352446767769 0.00023867981016890809 0 -0.014629404773770411 0.00024740966644660458 0 -0.01461716042077057 0.00024759446823030578 0 -0.014625006290833815 0.00024414117507567154 0 -0.014631257201111632 0.0002444276186989487 0 -0.01461716042077057 0.00024759446823030578 0 -0.014649154914078045 0.00025538338830494151 0 -0.014628352446767769 0.00023867981016890809 0 -0.01461716042077057 0.00024759446823030578 0 -0.014625006290833815 0.00024414117507567154 0 -0.014628352446767769 0.00023867981016890809 0 -0.014652719395062092 0.0003933783444568818 0 -0.014559464160759419 0.00032012693729532751 0 -0.014501981482322464 0.0003345553385267355 0 -0.014559464160759419 0.00032012693729532751 0 -0.014614964603602461 0.00031997614271613825 0 -0.014581791225793936 0.00029384622798801226 0 -0.014652719395062092 0.0003933783444568818 0 -0.014559464160759419 0.00032012693729532751 0 -0.014614964603602461 0.00031997614271613825 0 -0.014652719395062092 0.0003933783444568818 0 -0.014614964603602461 0.00031997614271613825 0 -0.014650521399923138 0.00034519245345213513 0 -0.014614964603602461 0.00031997614271613825 0 -0.014635660650121987 0.00029710580990470578 0 -0.014650521399923138 0.00034519245345213513 0 -0.014614964603602461 0.00031997614271613825 0 -0.014603990637942882 0.00026202108529385458 0 -0.014635660650121987 0.00029710580990470578 0 -0.014603990637942882 0.00026202108529385458 0 -0.014635660650121987 0.00029710580990470578 0 -0.014672080980673149 0.00025970044708448057 0 -0.014614964603602461 0.00031997614271613825 0 -0.014603990637942882 0.00026202108529385458 0 -0.014581791225793936 0.00029384622798801226 0 -0.014603990637942882 0.00026202108529385458 0 -0.014581791225793936 0.00029384622798801226 0 -0.014548419122107366 0.00027305921350089223 0 -0.014559464160759419 0.00032012693729532751 0 -0.014581791225793936 0.00029384622798801226 0 -0.014548419122107366 0.00027305921350089223 0 -0.014709054969124556 0.00031705268128900645 0 -0.014710562343270233 0.00028653202641764974 0 -0.014677307269988012 0.00038204454062940247 0 -0.014678818372724908 0.00038747212302493348 0 -0.014681977671224778 0.00038975967940487133 0 -0.014677307269988012 0.00038204454062940247 0 -0.014650521399923138 0.00034519245345213513 0 -0.014672080980673149 0.00025970044708448057 0 -0.014683638404303867 0.00038692659294784637 0 -0.014677307269988012 0.00038204454062940247 0 -0.014678818372724908 0.00038747212302493348 0 -0.014635660650121987 0.00029710580990470578 0 -0.014650521399923138 0.00034519245345213513 0 -0.014672080980673149 0.00025970044708448057 0 -0.014679436152221162 0.00039196386939902982 0 -0.014681977671224778 0.00038975967940487133 0 -0.014682811642436603 0.0003947626300999722 0 -0.014710562343270233 0.00028653202641764974 0 -0.014717987771944559 0.00020777054548586343 0 -0.014678818372724908 0.00038747212302493348 0 -0.014679436152221162 0.00039196386939902982 0 -0.014681977671224778 0.00038975967940487133 0 -0.014723750304853709 0.00027471423981111515 0 -0.014717987771944559 0.00020777054548586343 0 -0.014672080980673149 0.00025970044708448057 0 -0.014604412331843463 0.00019200122242795645 0 -0.014649413699623953 0.00012275443262855064 0 -0.014603990637942882 0.00026202108529385458 0 -0.014604412331843463 0.00019200122242795645 0 -0.014539674759469439 0.00020384108208766708 0 -0.014603990637942882 0.00026202108529385458 0 -0.014548419122107366 0.00027305921350089223 0 -0.014539674759469439 0.00020384108208766708 0 -0.014603990637942882 0.00026202108529385458 0 -0.014672080980673149 0.00025970044708448057 0 -0.014604412331843463 0.00019200122242795645 0 -0.014604412331843463 0.00019200122242795645 0 -0.0145530409508174 0.00012763831194971531 0 -0.014539674759469439 0.00020384108208766708 0 -0.014717987771944559 0.00020777054548586343 0 -0.014661973566961164 7.4508582930352303e-05 0 -0.0145530409508174 0.00012763831194971531 0 -0.014649413699623953 0.00012275443262855064 0 -0.014532047525313427 2.3272582157960791e-06 0 -0.014604412331843463 0.00019200122242795645 0 -0.0145530409508174 0.00012763831194971531 0 -0.014649413699623953 0.00012275443262855064 0 -0.014622378148446068 0.00033397628588745205 0 -0.014658057806201812 0.00032214928981421081 0 -0.01461420198077451 0.00028494349898025199 0 -0.014646802104324761 0.0003601650061456541 0 -0.014622378148446068 0.00033397628588745205 0 -0.014658057806201812 0.00032214928981421081 0 -0.014797353230560964 0.00021585418498538847 0 -0.01476359608685506 0.00025945859977762704 0 -0.014700537908798196 0.00035680703428690052 0 -0.014784474228813451 0.00023375884898178673 0 -0.014786097007759763 0.00027458762394207495 0 -0.01476359608685506 0.00025945859977762704 0 -0.014700537908798196 0.00035680703428690052 0 -0.014728055912492433 0.00031144547697431148 0 -0.01476359608685506 0.00025945859977762704 0 -0.014792836708382306 0.00022324050651475756 0 -0.014728055912492433 0.00031144547697431148 0 -0.014658057806201812 0.00032214928981421081 0 -0.014700537908798196 0.00035680703428690052 0 -0.014670055371608669 0.00035659457534491435 0 -0.014646802104324761 0.0003601650061456541 0 -0.014658057806201812 0.00032214928981421081 0 -0.014670055371608669 0.00035659457534491435 0 -0.014674666331536988 0.0003908260409444877 0 -0.014700537908798196 0.00035680703428690052 0 -0.014670055371608669 0.00035659457534491435 0 -0.014725294257076787 0.00029516123631660203 0 -0.014723750304853709 0.00027471423981111515 0 -0.014674666331536988 0.0003908260409444877 0 -0.014646802104324761 0.0003601650061456541 0 -0.014670055371608669 0.00035659457534491435 0 -0.012300814926385949 0.00033050903827017456 0 -0.012299271763938992 0.00033245764412858373 0 -0.012303999256759153 0.00033630935146651152 0 -0.01230854237448996 0.00033455563801356911 0 -0.012300814926385949 0.00033050903827017456 0 -0.012303999256759153 0.00033630935146651152 0 -0.012300814926385949 0.00033050903827017456 0 -0.012294908673742265 0.00032612352471400737 0 -0.012295223155950732 0.00032846846570229341 0 -0.012301256138473771 0.00032679867828927912 0 -0.012300814926385949 0.00033050903827017456 0 -0.012294908673742265 0.00032612352471400737 0 -0.012291511646328218 0.00032421525264653952 0 -0.012294908673742265 0.00032612352471400737 0 -0.012295223155950732 0.00032846846570229341 0 -0.012300814926385949 0.00033050903827017456 0 -0.012295223155950732 0.00032846846570229341 0 -0.012299271763938992 0.00033245764412858373 0 -0.012295223155950732 0.00032846846570229341 0 -0.012299271763938992 0.00033245764412858373 0 -0.01229570362367941 0.00033138043040662184 0 -0.012299271763938992 0.00033245764412858373 0 -0.01229570362367941 0.00033138043040662184 0 -0.012298105293075498 0.00033489475846786536 0 -0.012293906569922816 0.00033313085246995558 0 -0.01229570362367941 0.00033138043040662184 0 -0.012291045530797261 0.00032875553263834892 0 -0.013013497833513934 0.00029540739323291278 0 -0.012544660538314111 0.00034216977703597319 0 -0.012293906569922816 0.00033313085246995558 0 -0.01229570362367941 0.00033138043040662184 0 -0.012298105293075498 0.00033489475846786536 0 -0.013013497833513934 0.00029540739323291278 0 -0.012922431171564688 0.00026520835141206239 0 -0.012295223155950732 0.00032846846570229341 0 -0.01229570362367941 0.00033138043040662184 0 -0.012291045530797261 0.00032875553263834892 0 -0.011673381410078206 0.00054946724748294537 0 -0.012544660538314111 0.00034216977703597319 0 -0.012291511646328218 0.00032421525264653952 0 -0.012295223155950732 0.00032846846570229341 0 -0.012291045530797261 0.00032875553263834892 0 -0.014644198027310717 0.00021640112846616714 0 -0.014640030886386416 0.00025421932461766714 0 -0.014631257201111632 0.0002444276186989487 0 -0.012300552608203561 0.00042606175646526037 0 -0.012544660538314111 0.00034216977703597319 0 -0.014640030886386416 0.00025421932461766714 0 -0.0146334760275593 0.00025232364821918324 0 -0.014631859637531778 0.00025801021618996315 0 -0.014629404773770411 0.00024740966644660458 0 -0.0146334760275593 0.00025232364821918324 0 -0.014631859637531778 0.00025801021618996315 0 -0.014640030886386416 0.00025421932461766714 0 -0.014631257201111632 0.0002444276186989487 0 -0.0146334760275593 0.00025232364821918324 0 -0.014629404773770411 0.00024740966644660458 0 -0.014631257201111632 0.0002444276186989487 0 -0.0146334760275593 0.00025232364821918324 0 -0.012927847852718354 0.00049676852586402179 0 -0.012663816052412067 -3.5220503269912044e-06 0 -0.012456439932396051 0.00025200202821958073 0 -0.014559464160759419 0.00032012693729532751 0 -0.014529148399146012 0.00032313909959966067 0 -0.014501981482322464 0.0003345553385267355 0 -0.014559464160759419 0.00032012693729532751 0 -0.014529148399146012 0.00032313909959966067 0 -0.014524147302621419 0.00029941933546766221 0 -0.014529148399146012 0.00032313909959966067 0 -0.014501981482322464 0.0003345553385267355 0 -0.014524147302621419 0.00029941933546766221 0 -0.012544660538314111 0.00034216977703597319 0 -0.013307040742054769 0.00017593534856446549 0 -0.014397009991226442 0.00028191097590769945 0 -0.014501981482322464 0.0003345553385267355 0 -0.01447956108008114 0.00026424533445992062 0 -0.013013497833513934 0.00029540739323291278 0 -0.013307040742054769 0.00017593534856446549 0 -0.01447956108008114 0.00026424533445992062 0 -0.014548419122107366 0.00027305921350089223 0 -0.014524147302621419 0.00029941933546766221 0 -0.014501981482322464 0.0003345553385267355 0 -0.01447956108008114 0.00026424533445992062 0 -0.014524147302621419 0.00029941933546766221 0 -0.014559464160759419 0.00032012693729532751 0 -0.014548419122107366 0.00027305921350089223 0 -0.014524147302621419 0.00029941933546766221 0 -0.0145530409508174 0.00012763831194971531 0 -0.014539674759469439 0.00020384108208766708 0 -0.014431587252193907 0.0001506218369471102 0 -0.01447956108008114 0.00026424533445992062 0 -0.014539674759469439 0.00020384108208766708 0 -0.014431587252193907 0.0001506218369471102 0 -0.01447956108008114 0.00026424533445992062 0 -0.014548419122107366 0.00027305921350089223 0 -0.014539674759469439 0.00020384108208766708 0 -0.014431587252193907 0.0001506218369471102 0 -0.014393723965314987 2.2784431179885098e-05 0 -0.014532047525313427 2.3272582157960791e-06 0 -0.0145530409508174 0.00012763831194971531 0 -0.014431587252193907 0.0001506218369471102 0 -0.014532047525313427 2.3272582157960791e-06 0 -0.014431587252193907 0.0001506218369471102 0 -0.014314300606760328 0.00012557994033781514 0 -0.014393723965314987 2.2784431179885098e-05 0 -0.012296515928856125 0.00033373600483629115 0 -0.012298105293075498 0.00033489475846786536 0 -0.012300969951199194 0.00033932443615827541 0 -0.013013497833513934 0.00029540739323291278 0 -0.013473053973541078 0.00016708923226844616 0 -0.014397009991226442 0.00028191097590769945 0 -0.014431587252193907 0.0001506218369471102 0 -0.014314300606760328 0.00012557994033781514 0 -0.014397009991226442 0.00028191097590769945 0 -0.01447956108008114 0.00026424533445992062 0 -0.014431587252193907 0.0001506218369471102 0 -0.012300545085756027 0.00033576486349029734 0 -0.012300969951199194 0.00033932443615827541 0 -0.012303999256759153 0.00033630935146651152 0 -0.012298105293075498 0.00033489475846786536 0 -0.012300545085756027 0.00033576486349029734 0 -0.012300969951199194 0.00033932443615827541 0 -0.012299271763938992 0.00033245764412858373 0 -0.012298105293075498 0.00033489475846786536 0 -0.012300545085756027 0.00033576486349029734 0 -0.012299271763938992 0.00033245764412858373 0 -0.012300545085756027 0.00033576486349029734 0 -0.012303999256759153 0.00033630935146651152 0 -0.012300969951199194 0.00033932443615827541 0 -0.012306921583778026 0.00034084578963439985 0 -0.01230810862333784 0.00034550112551481958 0 -0.012300969951199194 0.00033932443615827541 0 -0.012306921583778026 0.00034084578963439985 0 -0.012303999256759153 0.00033630935146651152 0 -0.012310947822147157 0.00033847648253478968 0 -0.012306921583778026 0.00034084578963439985 0 -0.012303999256759153 0.00033630935146651152 0 -0.014995456035318001 1.6516493023577014e-05 0 -0.015003567274766689 2.0606605317340183e-05 0 -0.015000484305974532 9.5020618592226696e-06 0 -0.014058683960535369 4.9477206214286858e-05 0 -0.014695437882480447 9.2451836405345564e-05 0 -0.014990609256847115 -2.6610468565337597e-05 0 -0.014991395475631088 -1.3078557292782238e-05 0 -0.014999234324722886 -9.4060822829226827e-06 0 -0.012312547792988454 0.00034300361831480347 0 -0.012306921583778026 0.00034084578963439985 0 -0.01230810862333784 0.00034550112551481958 0 -0.014994947805141157 2.6380397337464304e-05 0 -0.014995456035318001 1.6516493023577014e-05 0 -0.015003567274766689 2.0606605317340183e-05 0 -0.0139031313873776 0.00027466656112035809 0 -0.014058683960535369 4.9477206214286858e-05 0 -0.014314300606760328 0.00012557994033781514 0 -0.014231922375647431 -3.0640580052745363e-05 0 -0.014393723965314987 2.2784431179885098e-05 0 -0.013473053973541078 0.00016708923226844616 0 -0.014058683960535369 4.9477206214286858e-05 0 -0.014058683960535369 4.9477206214286858e-05 0 -0.014676779889810712 8.9224336827594162e-06 0 -0.014990609256847115 -2.6610468565337597e-05 0 -0.014973645317071039 -1.9026520894042791e-05 0 -0.014991395475631088 -1.3078557292782238e-05 0 -0.014231922375647431 -3.0640580052745363e-05 0 -0.014415280602727164 -0.00011751219346235495 0 -0.014393723965314987 2.2784431179885098e-05 0 -0.014415280602727164 -0.00011751219346235495 0 -0.014393723965314987 2.2784431179885098e-05 0 -0.014532047525313427 2.3272582157960791e-06 0 -0.014676779889810712 8.9224336827594162e-06 0 -0.014661973566961164 7.4508582930352303e-05 0 -0.014990961024786304 -1.8787725515323994e-05 0 -0.01497658075155173 -1.1904714938738104e-05 0 -0.014949172197292512 -5.3251354848714583e-05 0 -0.014734649504006228 0.00010764289552062777 0 -0.014728082327512135 8.7224399926336599e-05 0 -0.014746588275660399 0.00010255084482603962 0 -0.014719080153268187 9.1461313359864706e-05 0 -0.014734649504006228 0.00010764289552062777 0 -0.014728082327512135 8.7224399926336599e-05 0 -0.014676779889810712 8.9224336827594162e-06 0 -0.014795537692532531 2.8323594445432764e-06 0 -0.014795537692532531 2.8323594445432764e-06 0 -0.014810541907366344 -2.5611052873659387e-06 0 -0.014987920071199838 -1.3298945654019277e-05 0 -0.014992134610957566 3.5955459124982538e-06 0 -0.014979834719670038 2.4611482575652095e-06 0 -0.014987920071199838 -1.3298945654019277e-05 0 -0.01497658075155173 -1.1904714938738104e-05 0 -0.014979834719670038 2.4611482575652095e-06 0 -0.014992134610957566 3.5955459124982538e-06 0 -0.014979834719670038 2.4611482575652095e-06 0 -0.014988257865554463 9.8522520681804187e-06 0 -0.014988257865554463 9.8522520681804187e-06 0 -0.015000004946589769 6.8797570520036239e-09 0 -0.014999918151215192 2.8614963963189298e-08 0 -0.014992134610957566 3.5955459124982538e-06 0 -0.014988257865554463 9.8522520681804187e-06 0 -0.015000004946589769 6.8797570520036239e-09 0 -0.014979834719670038 2.4611482575652095e-06 0 -0.014988257865554463 9.8522520681804187e-06 0 -0.014958764766964032 2.0851593034056291e-05 0 -0.014992134610957566 3.5955459124982538e-06 0 -0.015000004946589769 6.8797570520036239e-09 0 -0.015000424840344138 1.7332522114886852e-06 0 -0.014987920071199838 -1.3298945654019277e-05 0 -0.014992134610957566 3.5955459124982538e-06 0 -0.015000424840344138 1.7332522114886852e-06 0 -0.014970107634779139 -2.4539569251995283e-05 0 -0.014960137414137546 -1.9946219060976541e-05 0 -0.0149815397714009 -4.238665748798606e-06 0 -0.014970107634779139 -2.4539569251995283e-05 0 -0.0149815397714009 -4.238665748798606e-06 0 -0.014984707469350676 -9.5372241859231963e-06 0 -0.014795537692532531 2.8323594445432764e-06 0 -0.014939238455916323 1.695462855680662e-05 0 -0.014676779889810712 8.9224336827594162e-06 0 -0.014768503692709541 5.0408056209936441e-05 0 -0.014973645317071039 -1.9026520894042791e-05 0 -0.014991395475631088 -1.3078557292782238e-05 0 -0.014984707469350676 -9.5372241859231963e-06 0 -0.0149815397714009 -4.238665748798606e-06 0 -0.014984707469350676 -9.5372241859231963e-06 0 -0.014995619628493721 -5.1300370960501282e-06 0 -0.014991395475631088 -1.3078557292782238e-05 0 -0.014984707469350676 -9.5372241859231963e-06 0 -0.014995619628493721 -5.1300370960501282e-06 0 -0.0149815397714009 -4.238665748798606e-06 0 -0.014999969942324389 -6.7499495473462082e-10 0 -0.014995619628493721 -5.1300370960501282e-06 0 -0.015000004946589769 6.8797570520036239e-09 0 -0.015000424840344138 1.7332522114886852e-06 0 -0.014999996424710048 -2.8373867553597962e-09 0 -0.014939238455916323 1.695462855680662e-05 0 -0.014999922011935816 5.3045317854978654e-08 0 -0.01500002228027209 1.411307500062399e-12 0 -0.014999969942324389 -6.7499495473462082e-10 0 -0.014995619628493721 -5.1300370960501282e-06 0 -0.01500002228027209 1.411307500062399e-12 0 -0.014995619628493721 -5.1300370960501282e-06 0 -0.014999234324722886 -9.4060822829226827e-06 0 -0.014991395475631088 -1.3078557292782238e-05 0 -0.014995619628493721 -5.1300370960501282e-06 0 -0.014999234324722886 -9.4060822829226827e-06 0 -0.014887059466866245 0.00011557947682260156 0 -0.014832613102682041 0.0001774278470634439 0 -0.014884948409324313 0.00011236705554003095 0 -0.014887059466866245 0.00011557947682260156 0 -0.014857386826487042 0.00014892173320281757 0 -0.014832613102682041 0.0001774278470634439 0 -0.014857386826487042 0.00014892173320281757 0 -0.014792836708382306 0.00022324050651475756 0 -0.014832613102682041 0.0001774278470634439 0 -0.01476359608685506 0.00025945859977762704 0 -0.014792836708382306 0.00022324050651475756 0 -0.014832613102682041 0.0001774278470634439 0 -0.014857386826487042 0.00014892173320281757 0 -0.014792836708382306 0.00022324050651475756 0 -0.014817694414285716 0.00019315421846992429 0 -0.014797353230560964 0.00021585418498538847 0 -0.01476359608685506 0.00025945859977762704 0 -0.014832613102682041 0.0001774278470634439 0 -0.014797353230560964 0.00021585418498538847 0 -0.014832613102682041 0.0001774278470634439 0 -0.014848665259701565 0.00014847096957599536 0 -0.014784474228813451 0.00023375884898178673 0 -0.01478753484320732 0.00013471248680419219 0 -0.01475038905320974 0.00012409202596957807 0 -0.014734649504006228 0.00010764289552062777 0 -0.014746588275660399 0.00010255084482603962 0 -0.014717987771944559 0.00020777054548586343 0 -0.01478753484320732 0.00013471248680419219 0 -0.014795537692532531 2.8323594445432764e-06 0 -0.01478753484320732 0.00013471248680419219 0 -0.01478753484320732 0.00013471248680419219 0 -0.014825782442317017 9.7443760398643799e-05 0 -0.01497658075155173 -1.1904714938738104e-05 0 -0.014949172197292512 -5.3251354848714583e-05 0 -0.014955947500510073 -1.747562975586993e-05 0 -0.014848665259701565 0.00014847096957599536 0 -0.014880069792233776 9.6340176130593281e-05 0 -0.014884948409324313 0.00011236705554003095 0 -0.014832613102682041 0.0001774278470634439 0 -0.014848665259701565 0.00014847096957599536 0 -0.014884948409324313 0.00011236705554003095 0 -0.014887059466866245 0.00011557947682260156 0 -0.014884948409324313 0.00011236705554003095 0 -0.01493258062322422 6.1871624811318424e-05 0 -0.014884948409324313 0.00011236705554003095 0 -0.01492503690708985 5.9667690418439274e-05 0 -0.01493258062322422 6.1871624811318424e-05 0 -0.01492503690708985 5.9667690418439274e-05 0 -0.01493258062322422 6.1871624811318424e-05 0 -0.014960310621245563 2.8229838502519354e-05 0 -0.014880069792233776 9.6340176130593281e-05 0 -0.01492503690708985 5.9667690418439274e-05 0 -0.014958764766964032 2.0851593034056291e-05 0 -0.014979834719670038 2.4611482575652095e-06 0 -0.014955947500510073 -1.747562975586993e-05 0 -0.014958764766964032 2.0851593034056291e-05 0 -0.014825782442317017 9.7443760398643799e-05 0 -0.014840057774600934 8.8704361168775696e-05 0 -0.01497658075155173 -1.1904714938738104e-05 0 -0.014979834719670038 2.4611482575652095e-06 0 -0.014955947500510073 -1.747562975586993e-05 0 -0.014880069792233776 9.6340176130593281e-05 0 -0.014884948409324313 0.00011236705554003095 0 -0.01492503690708985 5.9667690418439274e-05 0 -0.01492503690708985 5.9667690418439274e-05 0 -0.014958764766964032 2.0851593034056291e-05 0 -0.014960310621245563 2.8229838502519354e-05 0 -0.014988257865554463 9.8522520681804187e-06 0 -0.014958764766964032 2.0851593034056291e-05 0 -0.014999918151215192 2.8614963963189298e-08 0 -0.014958764766964032 2.0851593034056291e-05 0 -0.014999918151215192 2.8614963963189298e-08 0 -0.014960310621245563 2.8229838502519354e-05 0 -0.014999918151215192 2.8614963963189298e-08 0 -0.014960310621245563 2.8229838502519354e-05 0 -0.014999890311633434 5.0333218388374177e-08 0 -0.01493258062322422 6.1871624811318424e-05 0 -0.014960310621245563 2.8229838502519354e-05 0 -0.014999890311633434 5.0333218388374177e-08 0 -0.014999890311633434 5.0333218388374177e-08 0 -0.014929052503592458 7.1143854524158647e-05 0 -0.014999923854896305 1.8517039147147724e-08 0 -0.01493258062322422 6.1871624811318424e-05 0 -0.014999890311633434 5.0333218388374177e-08 0 -0.014929052503592458 7.1143854524158647e-05 0 -0.014887059466866245 0.00011557947682260156 0 -0.014857386826487042 0.00014892173320281757 0 -0.014929052503592458 7.1143854524158647e-05 0 -0.014887059466866245 0.00011557947682260156 0 -0.01493258062322422 6.1871624811318424e-05 0 -0.014929052503592458 7.1143854524158647e-05 0 -0.014857386826487042 0.00014892173320281757 0 -0.014929052503592458 7.1143854524158647e-05 0 -0.014904666669704051 9.9903830808933093e-05 0 -0.014929052503592458 7.1143854524158647e-05 0 -0.014999923854896305 1.8517039147147724e-08 0 -0.014904666669704051 9.9903830808933093e-05 0 -0.014999923854896305 1.8517039147147724e-08 0 -0.014999803393409313 1.8468219638747166e-07 0 -0.014904666669704051 9.9903830808933093e-05 0 -0.014999803393409313 1.8468219638747166e-07 0 -0.014908942942280226 9.9360854037640965e-05 0 -0.014904666669704051 9.9903830808933093e-05 0 -0.014908942942280226 9.9360854037640965e-05 0 -0.014904666669704051 9.9903830808933093e-05 0 -0.014849462910100052 0.00015969795235669528 0 -0.014857386826487042 0.00014892173320281757 0 -0.014904666669704051 9.9903830808933093e-05 0 -0.014817694414285716 0.00019315421846992429 0 -0.014904666669704051 9.9903830808933093e-05 0 -0.014849462910100052 0.00015969795235669528 0 -0.014817694414285716 0.00019315421846992429 0 -0.014849462910100052 0.00015969795235669528 0 -0.01478461289838741 0.00023557251417240566 0 -0.014817694414285716 0.00019315421846992429 0 -0.014792836708382306 0.00022324050651475756 0 -0.014817694414285716 0.00019315421846992429 0 -0.014728055912492433 0.00031144547697431148 0 -0.01478461289838741 0.00023557251417240566 0 -0.014817694414285716 0.00019315421846992429 0 -0.014728055912492433 0.00031144547697431148 0 -0.014819482876682473 0.00020319397460221076 0 -0.014891229857022981 0.00016996335104258484 0 -0.01481643081610092 0.00024845167412824185 0 -0.014891229857022981 0.00016996335104258484 0 -0.014883692314542245 0.00023442654781068235 0 -0.01481643081610092 0.00024845167412824185 0 -0.014849462910100052 0.00015969795235669528 0 -0.01478461289838741 0.00023557251417240566 0 -0.014819482876682473 0.00020319397460221076 0 -0.01478461289838741 0.00023557251417240566 0 -0.014819482876682473 0.00020319397460221076 0 -0.014706434659221919 0.00033770344954880765 0 -0.014908942942280226 9.9360854037640965e-05 0 -0.014849462910100052 0.00015969795235669528 0 -0.014877368898357489 0.00013298657545546583 0 -0.014849462910100052 0.00015969795235669528 0 -0.014819482876682473 0.00020319397460221076 0 -0.014877368898357489 0.00013298657545546583 0 -0.014819482876682473 0.00020319397460221076 0 -0.014877368898357489 0.00013298657545546583 0 -0.014891229857022981 0.00016996335104258484 0 -0.014877368898357489 0.00013298657545546583 0 -0.014903491307593105 0.00012028990741997339 0 -0.014891229857022981 0.00016996335104258484 0 -0.014968009832141633 2.7003482377146526e-05 0 -0.014970866626459679 6.3001214064827146e-05 0 -0.015000023863797439 -8.949266765573352e-09 0 -0.014993920601889206 7.9890276760527228e-06 0 -0.014999924634755316 2.8312312730691327e-08 0 -0.014877368898357489 0.00013298657545546583 0 -0.014912053607300356 9.067128673822843e-05 0 -0.014903491307593105 0.00012028990741997339 0 -0.014908942942280226 9.9360854037640965e-05 0 -0.014877368898357489 0.00013298657545546583 0 -0.014912053607300356 9.067128673822843e-05 0 -0.014999803393409313 1.8468219638747166e-07 0 -0.014908942942280226 9.9360854037640965e-05 0 -0.014912053607300356 9.067128673822843e-05 0 -0.014999919867282699 4.7928054122124702e-08 0 -0.014968009832141633 2.7003482377146526e-05 0 -0.014993920601889206 7.9890276760527228e-06 0 -0.014999924634755316 2.8312312730691327e-08 0 -0.014971578493638064 3.5574095804874093e-05 0 -0.014999924634755316 2.8312312730691327e-08 0 -0.014975764451177558 4.4974803005226576e-05 0 -0.015000060210722777 1.7873376520218577e-08 0 -0.014999924634755316 2.8312312730691327e-08 0 -0.014975764451177558 4.4974803005226576e-05 0 -0.014971578493638064 3.5574095804874093e-05 0 -0.014975764451177558 4.4974803005226576e-05 0 -0.015000060210722777 1.7873376520218577e-08 0 -0.014993585965049972 4.849111373373959e-05 0 -0.015000060210722777 1.7873376520218577e-08 0 -0.014993585965049972 4.849111373373959e-05 0 -0.014962998778667354 3.5542775668859885e-05 0 -0.014881083022126601 0.00021606534020069505 0 -0.01485835282221401 0.00016591569759821955 0 -0.014803716225102428 0.00018048648004041122 0 -0.014881083022126601 0.00021606534020069505 0 -0.014922535187393525 0.00017393329747188182 0 -0.014957087718610077 0.0001339871415355799 0 -0.014975764451177558 4.4974803005226576e-05 0 -0.014993585965049972 4.849111373373959e-05 0 -0.014957087718610077 0.0001339871415355799 0 -0.014902217032218345 0.00011771540066306649 0 -0.014909618608754947 0.0001220657151006559 0 -0.014922535187393525 0.00017393329747188182 0 -0.01485835282221401 0.00016591569759821955 0 -0.014917432431307843 0.00018030514775389786 0 -0.014933748012886302 0.00017774624897694461 0 -0.014922535187393525 0.00017393329747188182 0 -0.014942725215475293 0.00016184498501846606 0 -0.014922535187393525 0.00017393329747188182 0 -0.014957087718610077 0.0001339871415355799 0 -0.014942725215475293 0.00016184498501846606 0 -0.014933748012886302 0.00017774624897694461 0 -0.014922535187393525 0.00017393329747188182 0 -0.014917432431307843 0.00018030514775389786 0 -0.014933748012886302 0.00017774624897694461 0 -0.014935935157974277 0.00019752637031073212 0 -0.014917432431307843 0.00018030514775389786 0 -0.014881083022126601 0.00021606534020069505 0 -0.014922535187393525 0.00017393329747188182 0 -0.01485835282221401 0.00016591569759821955 0 -0.014903491307593105 0.00012028990741997339 0 -0.014918626120846172 0.00014386455964625824 0 -0.014891229857022981 0.00016996335104258484 0 -0.014903491307593105 0.00012028990741997339 0 -0.014918626120846172 0.00014386455964625824 0 -0.014952197716525997 0.00012647107024968767 0 -0.014970866626459679 6.3001214064827146e-05 0 -0.014981416432068431 8.3627123125367396e-05 0 -0.014918626120846172 0.00014386455964625824 0 -0.014934589684157026 0.00015043110964815931 0 -0.014917013810816051 0.00017832346111401761 0 -0.014975764451177558 4.4974803005226576e-05 0 -0.014957087718610077 0.0001339871415355799 0 -0.014952197716525997 0.00012647107024968767 0 -0.014975764451177558 4.4974803005226576e-05 0 -0.014971578493638064 3.5574095804874093e-05 0 -0.014952197716525997 0.00012647107024968767 0 -0.014957087718610077 0.0001339871415355799 0 -0.014947379766487747 0.00014595342828907097 0 -0.014942725215475293 0.00016184498501846606 0 -0.014957087718610077 0.0001339871415355799 0 -0.014952197716525997 0.00012647107024968767 0 -0.014947379766487747 0.00014595342828907097 0 -0.014918626120846172 0.00014386455964625824 0 -0.014952197716525997 0.00012647107024968767 0 -0.014934589684157026 0.00015043110964815931 0 -0.014947379766487747 0.00014595342828907097 0 -0.014934589684157026 0.00015043110964815931 0 -0.014941786375206203 0.00015843963666083675 0 -0.014952197716525997 0.00012647107024968767 0 -0.014947379766487747 0.00014595342828907097 0 -0.014934589684157026 0.00015043110964815931 0 -0.014934589684157026 0.00015043110964815931 0 -0.014933985932728613 0.00017531557675311358 0 -0.014917013810816051 0.00017832346111401761 0 -0.014934589684157026 0.00015043110964815931 0 -0.014933985932728613 0.00017531557675311358 0 -0.014941786375206203 0.00015843963666083675 0 -0.014947379766487747 0.00014595342828907097 0 -0.014942725215475293 0.00016184498501846606 0 -0.014941786375206203 0.00015843963666083675 0 -0.014942725215475293 0.00016184498501846606 0 -0.014941786375206203 0.00015843963666083675 0 -0.014939016962791598 0.00017412879764726119 0 -0.014933985932728613 0.00017531557675311358 0 -0.014941786375206203 0.00015843963666083675 0 -0.014939016962791598 0.00017412879764726119 0 -0.014933748012886302 0.00017774624897694461 0 -0.014942725215475293 0.00016184498501846606 0 -0.014939016962791598 0.00017412879764726119 0 -0.014933748012886302 0.00017774624897694461 0 -0.014939016962791598 0.00017412879764726119 0 -0.014935935157974277 0.00019752637031073212 0 -0.014933985932728613 0.00017531557675311358 0 -0.014939016962791598 0.00017412879764726119 0 -0.014935935157974277 0.00019752637031073212 0 -0.014933985932728613 0.00017531557675311358 0 -0.014935935157974277 0.00019752637031073212 0 -0.014926260833782552 0.00021077404637265108 0 -0.014933985932728613 0.00017531557675311358 0 -0.014926260833782552 0.00021077404637265108 0 -0.014917013810816051 0.00017832346111401761 0 -0.014926260833782552 0.00021077404637265108 0 -0.014917013810816051 0.00017832346111401761 0 -0.014883692314542245 0.00023442654781068235 0 -0.014918626120846172 0.00014386455964625824 0 -0.014917013810816051 0.00017832346111401761 0 -0.014891229857022981 0.00016996335104258484 0 -0.014917013810816051 0.00017832346111401761 0 -0.014891229857022981 0.00016996335104258484 0 -0.014883692314542245 0.00023442654781068235 0 -0.014926260833782552 0.00021077404637265108 0 -0.014936870401671463 0.00023639726961268481 0 -0.014918083640718904 0.00034797280899610003 0 -0.014926260833782552 0.00021077404637265108 0 -0.014883692314542245 0.00023442654781068235 0 -0.014918083640718904 0.00034797280899610003 0 -0.014935935157974277 0.00019752637031073212 0 -0.014926260833782552 0.00021077404637265108 0 -0.014936870401671463 0.00023639726961268481 0 -0.014935935157974277 0.00019752637031073212 0 -0.014936870401671463 0.00023639726961268481 0 -0.014917432431307843 0.00018030514775389786 0 -0.015293143420991896 0.00044890156290765075 0 -0.014918083640718904 0.00034797280899610003 0 -0.015215504865051119 0.00070235274776131072 0 -0.014941438200989464 0.0003508099784784171 0 -0.014941984085430068 0.0003478457238200247 0 -0.014936870401671463 0.00023639726961268481 0 -0.014932340999344349 0.00021866300734584685 0 -0.014918083640718904 0.00034797280899610003 0 -0.014936870401671463 0.00023639726961268481 0 -0.014932340999344349 0.00021866300734584685 0 -0.014915347830296523 0.00019172662565879509 0 -0.014917432431307843 0.00018030514775389786 0 -0.014915347830296523 0.00019172662565879509 0 -0.014865407057784432 0.00015506596627579508 0 -0.01485835282221401 0.00016591569759821955 0 -0.014917432431307843 0.00018030514775389786 0 -0.014865407057784432 0.00015506596627579508 0 -0.014936870401671463 0.00023639726961268481 0 -0.014917432431307843 0.00018030514775389786 0 -0.014915347830296523 0.00019172662565879509 0 -0.014932340999344349 0.00021866300734584685 0 -0.014915347830296523 0.00019172662565879509 0 -0.014903324831195509 0.00017179193795264168 0 -0.014941438200989464 0.0003508099784784171 0 -0.014651638193942334 0.00030563940460731317 0 -0.014607732347481753 0.00016640809194207683 0 -0.014619332677957573 0.00015353192644986709 0 -0.014619351205934911 0.00017016473850914768 0 -0.014651638193942334 0.00030563940460731317 0 -0.014709148902278979 0.00020586177572043672 0 -0.014915347830296523 0.00019172662565879509 0 -0.014903324831195509 0.00017179193795264168 0 -0.014865407057784432 0.00015506596627579508 0 -0.014393352260050526 0.00012393749590521106 0 -0.014409646575961015 0.00019459850870510195 0 -0.014512926841122719 0.00015305519363116072 0 -0.014651638193942334 0.00030563940460731317 0 -0.014585505739152993 0.00024399765911042293 0 -0.014409646575961015 0.00019459850870510195 0 -0.014425704841653196 0.00026656589548136291 0 -0.014512926841122719 0.00015305519363116072 0 -0.015664764685739282 0.00054087613705764055 0 -0.015392535600254781 0.00089182392322775643 0 -0.015215504865051119 0.00070235274776131072 0 -0.014393352260050526 0.00012393749590521106 0 -0.014409646575961015 0.00019459850870510195 0 -0.014306162972007751 0.00023510220156142676 0 -0.014651638193942334 0.00030563940460731317 0 -0.014083704456552274 0.00049513827040180848 0 -0.015293143420991896 0.00044890156290765075 0 -0.015664764685739282 0.00054087613705764055 0 -0.015215504865051119 0.00070235274776131072 0 -0.014083704456552274 0.00049513827040180848 0 -0.01326686121874885 0.00032546834504380763 0 -0.012461840319666828 0.00086947674630016641 0 -0.012807007496876986 0.0010862112206849878 0 -0.012796905773885465 0.00056444854148216873 0 -0.014409646575961015 0.00019459850870510195 0 -0.014306162972007751 0.00023510220156142676 0 -0.014425704841653196 0.00026656589548136291 0 -0.012723982102237462 0.0011988443117236553 0 -0.012461840319666828 0.00086947674630016641 0 -0.011810977319494471 0.0011104989735582897 0 -0.014083704456552274 0.00049513827040180848 0 -0.014070731481019731 0.00050805308198361419 0 -0.012723982102237462 0.0011988443117236553 0 -0.012461840319666828 0.00086947674630016641 0 -0.012807007496876986 0.0010862112206849878 0 -0.014918083640718904 0.00034797280899610003 0 -0.014961225699746891 0.00077765429786037289 0 -0.015215504865051119 0.00070235274776131072 0 -0.015392535600254781 0.00089182392322775643 0 -0.014961225699746891 0.00077765429786037289 0 -0.015215504865051119 0.00070235274776131072 0 -0.014083704456552274 0.00049513827040180848 0 -0.014221017019566701 0.0006633560631288661 0 -0.012807007496876986 0.0010862112206849878 0 -0.013387184780788527 0.00076565670866867884 0 -0.012796905773885465 0.00056444854148216873 0 -0.012743657378543062 0.0011725500871874912 0 -0.013687096194537011 0.001061325275080719 0 -0.012807007496876986 0.0010862112206849878 0 -0.013687096194537011 0.001061325275080719 0 -0.012807007496876986 0.0010862112206849878 0 -0.013387184780788527 0.00076565670866867884 0 -0.013687096194537011 0.001061325275080719 0 -0.013387184780788527 0.00076565670866867884 0 -0.014061395391118864 0.00061540453019555896 0 -0.014918083640718904 0.00034797280899610003 0 -0.014961225699746891 0.00077765429786037289 0 -0.01452093526490808 0.00067872077062542053 0 -0.013687096194537011 0.001061325275080719 0 -0.014061395391118864 0.00061540453019555896 0 -0.01452093526490808 0.00067872077062542053 0 -0.014221017019566701 0.0006633560631288661 0 -0.014280744426133352 0.0006869177248035749 0 -0.01452093526490808 0.00067872077062542053 0 -0.014467092431290237 0.00055350947941044677 0 -0.014599231503488458 0.00050514714385328687 0 -0.014467092431290237 0.00055350947941044677 0 -0.014578657482446567 0.00042755164526989722 0 -0.014401944437942567 0.00038716058591567546 0 -0.014061395391118864 0.00061540453019555896 0 -0.01452093526490808 0.00067872077062542053 0 -0.014467092431290237 0.00055350947941044677 0 -0.014061395391118864 0.00061540453019555896 0 -0.014467092431290237 0.00055350947941044677 0 -0.014401944437942567 0.00038716058591567546 0 -0.014467092431290237 0.00055350947941044677 0 -0.014578657482446567 0.00042755164526989722 0 -0.014599231503488458 0.00050514714385328687 0 -0.014666040958121303 0.00042133769375821617 0 -0.014578657482446567 0.00042755164526989722 0 -0.014599231503488458 0.00050514714385328687 0 -0.014666040958121303 0.00042133769375821617 0 -0.014578657482446567 0.00042755164526989722 0 -0.014638251433144968 0.00037775643011579214 0 -0.014666040958121303 0.00042133769375821617 0 -0.014599231503488458 0.00050514714385328687 0 -0.014667342605511316 0.00041740007809335904 0 -0.01452093526490808 0.00067872077062542053 0 -0.014599231503488458 0.00050514714385328687 0 -0.01464640791750664 0.00043944406762112749 0 -0.014599231503488458 0.00050514714385328687 0 -0.01464640791750664 0.00043944406762112749 0 -0.014667342605511316 0.00041740007809335904 0 -0.014700537908798196 0.00035680703428690052 0 -0.014667342605511316 0.00041740007809335904 0 -0.014728055912492433 0.00031144547697431148 0 -0.01464640791750664 0.00043944406762112749 0 -0.014667342605511316 0.00041740007809335904 0 -0.014728055912492433 0.00031144547697431148 0 -0.01464640791750664 0.00043944406762112749 0 -0.014728055912492433 0.00031144547697431148 0 -0.014706434659221919 0.00033770344954880765 0 -0.01478461289838741 0.00023557251417240566 0 -0.014728055912492433 0.00031144547697431148 0 -0.014706434659221919 0.00033770344954880765 0 -0.014819482876682473 0.00020319397460221076 0 -0.014706434659221919 0.00033770344954880765 0 -0.01481643081610092 0.00024845167412824185 0 -0.014883692314542245 0.00023442654781068235 0 -0.014918083640718904 0.00034797280899610003 0 -0.014757178652961115 0.00035659659697644222 0 -0.014706434659221919 0.00033770344954880765 0 -0.01481643081610092 0.00024845167412824185 0 -0.014757178652961115 0.00035659659697644222 0 -0.014883692314542245 0.00023442654781068235 0 -0.01481643081610092 0.00024845167412824185 0 -0.014757178652961115 0.00035659659697644222 0 -0.014918083640718904 0.00034797280899610003 0 -0.01452093526490808 0.00067872077062542053 0 -0.014757178652961115 0.00035659659697644222 0 -0.01452093526490808 0.00067872077062542053 0 -0.01464640791750664 0.00043944406762112749 0 -0.014706434659221919 0.00033770344954880765 0 -0.01452093526490808 0.00067872077062542053 0 -0.014706434659221919 0.00033770344954880765 0 -0.014757178652961115 0.00035659659697644222 0 -0.01499879020704932 -8.5400861384623232e-08 0 -0.014855837191149692 2.5354335217125347e-05 0 -0.014999648823837296 1.5901203839515913e-07 0 -0.01499879020704932 -8.5400861384623232e-08 0 -0.014370997053378687 -2.7724342021311393e-05 0 -0.012004125361242844 -9.3580370272639048e-08 0 -0.012766953720289105 4.1219564858677037e-05 0 -0.014370997053378687 -2.7724342021311393e-05 0 -0.012004125361242844 -9.3580370272639048e-08 0 -0.012766953720289105 4.1219564858677037e-05 0 -0.013223278858355577 -7.2014437421198565e-05 0 -0.014370997053378687 -2.7724342021311393e-05 0 -0.01499879020704932 -8.5400861384623232e-08 0 -0.014370997053378687 -2.7724342021311393e-05 0 -0.014855837191149692 2.5354335217125347e-05 0 -0.01473875719567784 -6.5708640933882223e-05 0 -0.014370997053378687 -2.7724342021311393e-05 0 -0.014855837191149692 2.5354335217125347e-05 0 -0.014027414793953525 6.7594303456809421e-05 0 -0.014067658590128488 4.7213257584356009e-05 0 -0.014855837191149692 2.5354335217125347e-05 0 -0.014820369690379817 7.0407245965195821e-05 0 -0.014800658538925928 3.0585501075749733e-05 0 -0.014027414793953525 6.7594303456809421e-05 0 -0.0140821187308865 8.7571462767932243e-05 0 -0.01473875719567784 -6.5708640933882223e-05 0 -0.014855837191149692 2.5354335217125347e-05 0 -0.014820369690379817 7.0407245965195821e-05 0 -0.012766953720289105 4.1219564858677037e-05 0 -0.013223278858355577 -7.2014437421198565e-05 0 -0.013043374031862228 0.0003064750685760248 0 -0.012766953720289105 4.1219564858677037e-05 0 -0.013043374031862228 0.0003064750685760248 0 -0.012974799730474558 -7.0822556214499054e-05 0 -0.013043374031862228 0.0003064750685760248 0 -0.013666567088570518 -5.0876970900068877e-05 0 -0.012974799730474558 -7.0822556214499054e-05 0 -0.0140821187308865 8.7571462767932243e-05 0 -0.014190692152644057 6.8124627927114141e-05 0 -0.013043374031862228 0.0003064750685760248 0 -0.014280640962798418 0.0002142345237961249 0 -0.013666567088570518 -5.0876970900068877e-05 0 -0.014820369690379817 7.0407245965195821e-05 0 -0.014280640962798418 0.0002142345237961249 0 -0.014608272248449402 0.00011786003812016172 0 -0.014280640962798418 0.0002142345237961249 0 -0.01461358764044054 0.00017471261719772263 0 -0.014608272248449402 0.00011786003812016172 0 -0.014280640962798418 0.0002142345237961249 0 -0.01461358764044054 0.00017471261719772263 0 -0.014633886056827 0.00014528853227244819 0 -0.014280640962798418 0.0002142345237961249 0 -0.014633886056827 0.00014528853227244819 0 -0.014283032116875654 -0.00013034384067815173 0 -0.01461358764044054 0.00017471261719772263 0 -0.014608272248449402 0.00011786003812016172 0 -0.014698844544081338 0.00015925548962132695 0 -0.014608272248449402 0.00011786003812016172 0 -0.014798374446156353 4.1251673576188534e-05 0 -0.014698844544081338 0.00015925548962132695 0 -0.014608272248449402 0.00011786003812016172 0 -0.014800658538925928 3.0585501075749733e-05 0 -0.014798374446156353 4.1251673576188534e-05 0 -0.014820369690379817 7.0407245965195821e-05 0 -0.014608272248449402 0.00011786003812016172 0 -0.014800658538925928 3.0585501075749733e-05 0 -0.014999648823837296 1.5901203839515913e-07 0 -0.014798374446156353 4.1251673576188534e-05 0 -0.014962998778667354 3.5542775668859885e-05 0 -0.014855837191149692 2.5354335217125347e-05 0 -0.014800658538925928 3.0585501075749733e-05 0 -0.014999648823837296 1.5901203839515913e-07 0 -0.014800658538925928 3.0585501075749733e-05 0 -0.014999648823837296 1.5901203839515913e-07 0 -0.014798374446156353 4.1251673576188534e-05 0 -0.015000060210722777 1.7873376520218577e-08 0 -0.014999648823837296 1.5901203839515913e-07 0 -0.014962998778667354 3.5542775668859885e-05 0 -0.014855243923055147 9.9428908592107433e-05 0 -0.01487191313583911 0.00010824250953577807 0 -0.014881083022126601 0.00021606534020069505 0 -0.014803716225102428 0.00018048648004041122 0 -0.014719992937314659 0.00019807239937539071 0 -0.014803716225102428 0.00018048648004041122 0 -0.014719992937314659 0.00019807239937539071 0 -0.014775990460942046 0.00015212455650630245 0 -0.014902217032218345 0.00011771540066306649 0 -0.01487191313583911 0.00010824250953577807 0 -0.014798374446156353 4.1251673576188534e-05 0 -0.014719992937314659 0.00019807239937539071 0 -0.014698844544081338 0.00015925548962132695 0 -0.014719992937314659 0.00019807239937539071 0 -0.014698844544081338 0.00015925548962132695 0 -0.014775990460942046 0.00015212455650630245 0 -0.014700961751219276 0.00018834094558876338 0 -0.014706593041094021 0.0001884322918265603 0 -0.01461358764044054 0.00017471261719772263 0 -0.014633886056827 0.00014528853227244819 0 -0.014641612819966461 0.00014872511511962067 0 -0.01461358764044054 0.00017471261719772263 0 -0.014698844544081338 0.00015925548962132695 0 -0.014641612819966461 0.00014872511511962067 0 -0.01485835282221401 0.00016591569759821955 0 -0.014775990460942046 0.00015212455650630245 0 -0.014865407057784432 0.00015506596627579508 0 -0.01485835282221401 0.00016591569759821955 0 -0.014803716225102428 0.00018048648004041122 0 -0.014775990460942046 0.00015212455650630245 0 -0.014641612819966461 0.00014872511511962067 0 -0.014619332677957573 0.00015353192644986709 0 -0.014631778363359235 0.00015134403890379713 0 -0.014706593041094021 0.0001884322918265603 0 -0.014709148902278979 0.00020586177572043672 0 -0.014633886056827 0.00014528853227244819 0 -0.014641612819966461 0.00014872511511962067 0 -0.014631778363359235 0.00015134403890379713 0 -0.014633886056827 0.00014528853227244819 0 -0.014631778363359235 0.00015134403890379713 0 -0.014637204436103902 0.00015496587390542675 0 -0.014625994789804905 0.00016156843263038771 0 -0.014627883955304238 0.00018881287530619093 0 -0.014637204436103902 0.00015496587390542675 0 -0.014631778363359235 0.00015134403890379713 0 -0.014625994789804905 0.00016156843263038771 0 -0.014637204436103902 0.00015496587390542675 0 -0.014619332677957573 0.00015353192644986709 0 -0.014625994789804905 0.00016156843263038771 0 -0.014619351205934911 0.00017016473850914768 0 -0.014619332677957573 0.00015353192644986709 0 -0.014631778363359235 0.00015134403890379713 0 -0.014625994789804905 0.00016156843263038771 0 -0.011810977319494471 0.0011104989735582897 0 -0.010948787426370891 0.0009207663495700456 0 -0.011022115502472027 0.00088201243294421395 0 -0.014425704841653196 0.00026656589548136291 0 -0.014558029914813871 0.00022144391336377487 0 -0.014543270057914941 0.0002939437967843868 0 -0.01326686121874885 0.00032546834504380763 0 -0.012658233500757893 3.8180546062612578e-05 0 -0.014425704841653196 0.00026656589548136291 0 -0.014512926841122719 0.00015305519363116072 0 -0.014558029914813871 0.00022144391336377487 0 -0.012615614453908139 -0.00020595475383732839 0 -0.012658233500757893 3.8180546062612578e-05 0 -0.014558029914813871 0.00022144391336377487 0 -0.014627883955304238 0.00018881287530619093 0 -0.014650443343905204 0.00022181744706964296 0 -0.012317677777080854 8.2700847885125911e-05 0 -0.012314959130045251 6.6181579515408408e-05 0 -0.012338741440044411 7.3309284226971046e-05 0 -0.014558029914813871 0.00022144391336377487 0 -0.014650443343905204 0.00022181744706964296 0 -0.014543270057914941 0.0002939437967843868 0 -0.014512926841122719 0.00015305519363116072 0 -0.014558029914813871 0.00022144391336377487 0 -0.014627883955304238 0.00018881287530619093 0 -0.014625994789804905 0.00016156843263038771 0 -0.014619351205934911 0.00017016473850914768 0 -0.014627883955304238 0.00018881287530619093 0 -0.014585505739152993 0.00024399765911042293 0 -0.014592669569109639 0.00023325198839986734 0 -0.012615614453908139 -0.00020595475383732839 0 -0.013599411569551443 -0.0001785074056030409 0 -0.014627883955304238 0.00018881287530619093 0 -0.014650443343905204 0.00022181744706964296 0 -0.014637204436103902 0.00015496587390542675 0 -0.014126757144349725 -0.0012454946569398172 0 -0.014488244877110999 -0.0019165890641002774 0 -0.014599018412092513 -0.00070357571989932257 0 -0.012615614453908139 -0.00020595475383732839 0 -0.011655887479679385 -0.0002668749932267276 0 -0.010448157165546116 -0.00045692224338790929 0 -0.01066069615394011 -0.000348303680174086 0 -0.010522045088445545 -0.00027631916581297053 0 -0.010448157165546116 -0.00045692224338790929 0 -0.01066069615394011 -0.000348303680174086 0 -0.010775786648855786 -0.00067738828187605181 0 -0.01066069615394011 -0.000348303680174086 0 -0.010775786648855786 -0.00067738828187605181 0 -0.010926022147396131 -0.00040878330756615036 0 -0.012615614453908139 -0.00020595475383732839 0 -0.012355778143430387 -0.00050454202082757986 0 -0.014126757144349725 -0.0012454946569398172 0 -0.014488244877110999 -0.0019165890641002774 0 -0.013488292600363286 -0.0014752000149534106 0 -0.014126757144349725 -0.0012454946569398172 0 -0.013488292600363286 -0.0014752000149534106 0 -0.013789124866334775 -0.00085970215600703938 0 -0.013488292600363286 -0.0014752000149534106 0 -0.013789124866334775 -0.00085970215600703938 0 -0.013137908488735939 -0.00056738927845863285 0 -0.013789124866334775 -0.00085970215600703938 0 -0.013837333872421595 -0.00038884008929079345 0 -0.013137908488735939 -0.00056738927845863285 0 -0.014126757144349725 -0.0012454946569398172 0 -0.013789124866334775 -0.00085970215600703938 0 -0.014599018412092513 -0.00070357571989932257 0 -0.013789124866334775 -0.00085970215600703938 0 -0.014599018412092513 -0.00070357571989932257 0 -0.013837333872421595 -0.00038884008929079345 0 -0.014633886056827 0.00014528853227244819 0 -0.014599018412092513 -0.00070357571989932257 0 -0.014283032116875654 -0.00013034384067815173 0 -0.013880005978109723 -1.3090505374791847e-05 0 -0.013599411569551443 -0.0001785074056030409 0 -0.014599018412092513 -0.00070357571989932257 0 -0.014283032116875654 -0.00013034384067815173 0 -0.013837333872421595 -0.00038884008929079345 0 -0.013666567088570518 -5.0876970900068877e-05 0 -0.013837333872421595 -0.00038884008929079345 0 -0.012974799730474558 -7.0822556214499054e-05 0 -0.014280640962798418 0.0002142345237961249 0 -0.014283032116875654 -0.00013034384067815173 0 -0.013666567088570518 -5.0876970900068877e-05 0 -0.014283032116875654 -0.00013034384067815173 0 -0.013666567088570518 -5.0876970900068877e-05 0 -0.013837333872421595 -0.00038884008929079345 0 -0.013837333872421595 -0.00038884008929079345 0 -0.012974799730474558 -7.0822556214499054e-05 0 -0.013137908488735939 -0.00056738927845863285 0 -0.012766953720289105 4.1219564858677037e-05 0 -0.012630715649010039 -0.00013263542598191883 0 -0.012249677983050933 -0.00023186860685751534 0 -0.012766953720289105 4.1219564858677037e-05 0 -0.012974799730474558 -7.0822556214499054e-05 0 -0.012630715649010039 -0.00013263542598191883 0 -0.012974799730474558 -7.0822556214499054e-05 0 -0.012630715649010039 -0.00013263542598191883 0 -0.012566092734830687 -0.0002714029979215746 0 -0.012566092734830687 -0.0002714029979215746 0 -0.012249677983050933 -0.00023186860685751534 0 -0.012077317271912353 -0.00065173665128912244 0 -0.012630715649010039 -0.00013263542598191883 0 -0.012566092734830687 -0.0002714029979215746 0 -0.012249677983050933 -0.00023186860685751534 0 -0.012249677983050933 -0.00023186860685751534 0 -0.012077317271912353 -0.00065173665128912244 0 -0.011601214349801735 -0.00062955013262865739 0 -0.012974799730474558 -7.0822556214499054e-05 0 -0.012566092734830687 -0.0002714029979215746 0 -0.013137908488735939 -0.00056738927845863285 0 -0.012566092734830687 -0.0002714029979215746 0 -0.012077317271912353 -0.00065173665128912244 0 -0.013137908488735939 -0.00056738927845863285 0 -0.013488292600363286 -0.0014752000149534106 0 -0.012077317271912353 -0.00065173665128912244 0 -0.013137908488735939 -0.00056738927845863285 0 -0.010775786648855786 -0.00067738828187605181 0 -0.011351725604835116 -0.00053309248926758769 0 -0.010926022147396131 -0.00040878330756615036 0 -0.010775786648855786 -0.00067738828187605181 0 -0.012077317271912353 -0.00065173665128912244 0 -0.011351725604835116 -0.00053309248926758769 0 -0.012355778143430387 -0.00050454202082757986 0 -0.012197008802907817 -0.00051661477172539353 0 -0.011351725604835116 -0.00053309248926758769 0 -0.010926022147396131 -0.00040878330756615036 0 -0.011057844211160199 -0.00039542637458701174 0 -0.010926022147396131 -0.00040878330756615036 0 -0.011057844211160199 -0.00039542637458701174 0 -0.010746889591365655 -0.00031690132393418966 0 -0.01066069615394011 -0.000348303680174086 0 -0.010926022147396131 -0.00040878330756615036 0 -0.010746889591365655 -0.00031690132393418966 0 -0.011057844211160199 -0.00039542637458701174 0 -0.011601214349801735 -0.00062955013262865739 0 -0.010977092091101299 -0.00026903281038609649 0 -0.011351725604835116 -0.00053309248926758769 0 -0.011057844211160199 -0.00039542637458701174 0 -0.011601214349801735 -0.00062955013262865739 0 -0.011313365451966579 -0.00025370126617210584 0 -0.011034640551261424 -0.00014350998182972353 0 -0.012077317271912353 -0.00065173665128912244 0 -0.011351725604835116 -0.00053309248926758769 0 -0.011601214349801735 -0.00062955013262865739 0 -0.011447290637602865 -0.0002685064062113366 0 -0.011313365451966579 -0.00025370126617210584 0 -0.012249677983050933 -0.00023186860685751534 0 -0.011673037286409138 -4.0947545246796361e-05 0 -0.012004125361242844 -9.3580370272639048e-08 0 -0.011673037286409138 -4.0947545246796361e-05 0 -0.012004125361242844 -9.3580370272639048e-08 0 -0.011080351458514725 1.8262331623281918e-05 0 -0.012766953720289105 4.1219564858677037e-05 0 -0.012249677983050933 -0.00023186860685751534 0 -0.012004125361242844 -9.3580370272639048e-08 0 -0.012004125361242844 -9.3580370272639048e-08 0 -0.0097639662435634808 -1.4752544972440243e-08 0 -0.010395251166248613 2.3687414246754543e-05 0 -0.0097639662435634808 -1.4752544972440243e-08 0 -0.010395251166248613 2.3687414246754543e-05 0 -0.0093218847867984275 1.7912378722385122e-05 0 -0.010395251166248613 2.3687414246754543e-05 0 -0.0098508047402974183 3.5487020611651994e-05 0 -0.0093218847867984275 1.7912378722385122e-05 0 -0.010395251166248613 2.3687414246754543e-05 0 -0.010461158547586167 2.344882402027845e-05 0 -0.0098508047402974183 3.5487020611651994e-05 0 -0.012004125361242844 -9.3580370272639048e-08 0 -0.010395251166248613 2.3687414246754543e-05 0 -0.011080351458514725 1.8262331623281918e-05 0 -0.010395251166248613 2.3687414246754543e-05 0 -0.010461158547586167 2.344882402027845e-05 0 -0.011080351458514725 1.8262331623281918e-05 0 -0.010393341142411205 -4.4890962657603072e-05 0 -0.010977092091101299 -0.00026903281038609649 0 -0.010326310310050872 -8.0453455246192167e-05 0 -0.010393341142411205 -4.4890962657603072e-05 0 -0.010326310310050872 -8.0453455246192167e-05 0 -0.010093069902190135 3.8572727009605218e-06 0 -0.011057844211160199 -0.00039542637458701174 0 -0.010977092091101299 -0.00026903281038609649 0 -0.010326310310050872 -8.0453455246192167e-05 0 -0.010758019717012894 -3.8544147604558393e-05 0 -0.011034640551261424 -0.00014350998182972353 0 -0.010546732924977903 -0.00025744888979995813 0 -0.010746889591365655 -0.00031690132393418966 0 -0.010531271761909058 -0.00018840317693813246 0 -0.010466272487903976 -0.00025635271352741321 0 -0.010315624766705648 -0.00015318281716173224 0 -0.01066069615394011 -0.000348303680174086 0 -0.010546732924977903 -0.00025744888979995813 0 -0.010746889591365655 -0.00031690132393418966 0 -0.011057844211160199 -0.00039542637458701174 0 -0.010746889591365655 -0.00031690132393418966 0 -0.010531271761909058 -0.00018840317693813246 0 -0.010546732924977903 -0.00025744888979995813 0 -0.010531271761909058 -0.00018840317693813246 0 -0.01026807559627114 -0.0001383872623306423 0 -0.010066228765042014 -0.00010971933941960391 0 -0.010073559182113449 -0.0001303584288971488 0 -0.01026807559627114 -0.0001383872623306423 0 -0.010326310310050872 -8.0453455246192167e-05 0 -0.010093069902190135 3.8572727009605218e-06 0 -0.0097893101546175313 6.2145296101472953e-05 0 -0.010531271761909058 -0.00018840317693813246 0 -0.010066228765042014 -0.00010971933941960391 0 -0.01026807559627114 -0.0001383872623306423 0 -0.010315624766705648 -0.00015318281716173224 0 -0.010070462997573313 -9.5814199900847016e-05 0 -0.010758019717012894 -3.8544147604558393e-05 0 -0.010627335521087973 9.2531590265383314e-07 0 -0.010393341142411205 -4.4890962657603072e-05 0 -0.010093069902190135 3.8572727009605218e-06 0 -0.0098508047402974183 3.5487020611651994e-05 0 -0.010093069902190135 3.8572727009605218e-06 0 -0.0098508047402974183 3.5487020611651994e-05 0 -0.0097893101546175313 6.2145296101472953e-05 0 -0.0098508047402974183 3.5487020611651994e-05 0 -0.0094926818343358272 -7.0107645070156692e-06 0 -0.0093218847867984275 1.7912378722385122e-05 0 -0.0098508047402974183 3.5487020611651994e-05 0 -0.0097893101546175313 6.2145296101472953e-05 0 -0.0094926818343358272 -7.0107645070156692e-06 0 -0.010066228765042014 -0.00010971933941960391 0 -0.0099456091580261956 -0.00014321535150133084 0 -0.0097520188852362917 -0.00016374069443590291 0 -0.010066228765042014 -0.00010971933941960391 0 -0.010073559182113449 -0.0001303584288971488 0 -0.0099456091580261956 -0.00014321535150133084 0 -0.010073559182113449 -0.0001303584288971488 0 -0.010138561308735236 -0.00022745910389210489 0 -0.009963658066743937 -0.00020190023404511096 0 -0.010073559182113449 -0.0001303584288971488 0 -0.0099456091580261956 -0.00014321535150133084 0 -0.009963658066743937 -0.00020190023404511096 0 -0.0099456091580261956 -0.00014321535150133084 0 -0.009963658066743937 -0.00020190023404511096 0 -0.0097520188852362917 -0.00016374069443590291 0 -0.010138561308735236 -0.00022745910389210489 0 -0.010141019266166314 -0.00031748366445678546 0 -0.009963658066743937 -0.00020190023404511096 0 -0.010138561308735236 -0.00022745910389210489 0 -0.010300804930554399 -0.00039331648539705832 0 -0.010141019266166314 -0.00031748366445678546 0 -0.010300804930554399 -0.00039331648539705832 0 -0.010305043506403783 -0.00043603423529971555 0 -0.010141019266166314 -0.00031748366445678546 0 -0.010138561308735236 -0.00022745910389210489 0 -0.010320876446296199 -0.00017812276800817229 0 -0.010300804930554399 -0.00039331648539705832 0 -0.010073559182113449 -0.0001303584288971488 0 -0.010138561308735236 -0.00022745910389210489 0 -0.010157324428734273 -9.5513184359856217e-05 0 -0.010138561308735236 -0.00022745910389210489 0 -0.010320876446296199 -0.00017812276800817229 0 -0.010157324428734273 -9.5513184359856217e-05 0 -0.010320876446296199 -0.00017812276800817229 0 -0.010157324428734273 -9.5513184359856217e-05 0 -0.010452965410180495 8.2749962361505037e-05 0 -0.010073559182113449 -0.0001303584288971488 0 -0.010157324428734273 -9.5513184359856217e-05 0 -0.01026807559627114 -0.0001383872623306423 0 -0.010157324428734273 -9.5513184359856217e-05 0 -0.01026807559627114 -0.0001383872623306423 0 -0.010275469247363153 -0.00019755397436022342 0 -0.010546732924977903 -0.00025744888979995813 0 -0.01026807559627114 -0.0001383872623306423 0 -0.010275469247363153 -0.00019755397436022342 0 -0.01066069615394011 -0.000348303680174086 0 -0.010546732924977903 -0.00025744888979995813 0 -0.010522045088445545 -0.00027631916581297053 0 -0.010546732924977903 -0.00025744888979995813 0 -0.010275469247363153 -0.00019755397436022342 0 -0.010125579471234995 -0.00037990532865925919 0 -0.010959448727186257 -0.00039185799602870581 0 -0.011655887479679385 -0.0002668749932267276 0 -0.010157324428734273 -9.5513184359856217e-05 0 -0.010275469247363153 -0.00019755397436022342 0 -0.010125579471234995 -0.00037990532865925919 0 -0.010157324428734273 -9.5513184359856217e-05 0 -0.010203590357837553 0.00064813495168831179 0 -0.010452965410180495 8.2749962361505037e-05 0 -0.011230821764353183 -0.00015730079957375191 0 -0.011655887479679385 -0.0002668749932267276 0 -0.010203590357837553 0.00064813495168831179 0 -0.010452965410180495 8.2749962361505037e-05 0 -0.010678456419962059 0.00032913006940532026 0 -0.010452965410180495 8.2749962361505037e-05 0 -0.01069494060850051 8.3261708027377505e-05 0 -0.010678456419962059 0.00032913006940532026 0 -0.01069494060850051 8.3261708027377505e-05 0 -0.011012451190145678 8.5241023146822505e-05 0 -0.010653049983113245 -0.00014624493650592095 0 -0.01069494060850051 8.3261708027377505e-05 0 -0.010678456419962059 0.00032913006940532026 0 -0.011012451190145678 8.5241023146822505e-05 0 -0.010203590357837553 0.00064813495168831179 0 -0.010678456419962059 0.00032913006940532026 0 -0.010871797643660589 0.00066428037244748122 0 -0.011655887479679385 -0.0002668749932267276 0 -0.012658233500757893 3.8180546062612578e-05 0 -0.010203590357837553 0.00064813495168831179 0 -0.010871797643660589 0.00066428037244748122 0 -0.010955206968361431 0.00090680160311034351 0 -0.010678456419962059 0.00032913006940532026 0 -0.010871797643660589 0.00066428037244748122 0 -0.011084238765478916 0.00041322605882588794 0 -0.011810977319494471 0.0011104989735582897 0 -0.011485387143005694 0.00068789313181844361 0 -0.011022115502472027 0.00088201243294421395 0 -0.011485387143005694 0.00068789313181844361 0 -0.011022115502472027 0.00088201243294421395 0 -0.011153628927009832 0.00062090798086183552 0 -0.010871797643660589 0.00066428037244748122 0 -0.011022115502472027 0.00088201243294421395 0 -0.011153628927009832 0.00062090798086183552 0 -0.010871797643660589 0.00066428037244748122 0 -0.010955206968361431 0.00090680160311034351 0 -0.011022115502472027 0.00088201243294421395 0 -0.012658233500757893 3.8180546062612578e-05 0 -0.012646703645735068 4.3943031967333365e-05 0 -0.010871797643660589 0.00066428037244748122 0 -0.011153628927009832 0.00062090798086183552 0 -0.011084238765478916 0.00041322605882588794 0 -0.011153628927009832 0.00062090798086183552 0 -0.011304703857663108 0.00048854121349566179 0 -0.011084238765478916 0.00041322605882588794 0 -0.011485387143005694 0.00068789313181844361 0 -0.011153628927009832 0.00062090798086183552 0 -0.011304703857663108 0.00048854121349566179 0 -0.011485387143005694 0.00068789313181844361 0 -0.011304703857663108 0.00048854121349566179 0 -0.011470145791160489 0.00026538976930958131 0 -0.011304703857663108 0.00048854121349566179 0 -0.011084238765478916 0.00041322605882588794 0 -0.011470145791160489 0.00026538976930958131 0 -0.011084238765478916 0.00041322605882588794 0 -0.011012451190145678 8.5241023146822505e-05 0 -0.011470145791160489 0.00026538976930958131 0 -0.010678456419962059 0.00032913006940532026 0 -0.011084238765478916 0.00041322605882588794 0 -0.011012451190145678 8.5241023146822505e-05 0 -0.011012451190145678 8.5241023146822505e-05 0 -0.011486155731174747 -5.0805028381336993e-05 0 -0.011470145791160489 0.00026538976930958131 0 -0.011012451190145678 8.5241023146822505e-05 0 -0.011288827648703608 -0.00039931304788225111 0 -0.011486155731174747 -5.0805028381336993e-05 0 -0.011012451190145678 8.5241023146822505e-05 0 -0.011288827648703608 -0.00039931304788225111 0 -0.010653049983113245 -0.00014624493650592095 0 -0.011288827648703608 -0.00039931304788225111 0 -0.010653049983113245 -0.00014624493650592095 0 -0.010300804930554399 -0.00039331648539705832 0 -0.010320876446296199 -0.00017812276800817229 0 -0.010653049983113245 -0.00014624493650592095 0 -0.010300804930554399 -0.00039331648539705832 0 -0.010320876446296199 -0.00017812276800817229 0 -0.010452965410180495 8.2749962361505037e-05 0 -0.010653049983113245 -0.00014624493650592095 0 -0.010452965410180495 8.2749962361505037e-05 0 -0.01069494060850051 8.3261708027377505e-05 0 -0.010653049983113245 -0.00014624493650592095 0 -0.011103834494159937 -0.00019470450256143845 0 -0.010300804930554399 -0.00039331648539705832 0 -0.010462907542608427 -0.00055809674565828729 0 -0.010300804930554399 -0.00039331648539705832 0 -0.010462907542608427 -0.00055809674565828729 0 -0.010305043506403783 -0.00043603423529971555 0 -0.011367263396515365 -0.00026446430803234107 0 -0.010911581256785544 -0.00041925665093379353 0 -0.010462907542608427 -0.00055809674565828729 0 -0.010188003379941366 -0.00051253552098500009 0 -0.009967441643224776 -0.00079763902690773553 0 -0.011103834494159937 -0.00019470450256143845 0 -0.010462907542608427 -0.00055809674565828729 0 -0.011591990168745504 -0.00076268572901986588 0 -0.010713412883085131 -0.00065392362944264183 0 -0.010853430221195821 -0.00064184613614975971 0 -0.010188003379941366 -0.00051253552098500009 0 -0.010333401616762343 -0.00042439482502542019 0 -0.010294680645165486 -0.00037550662585957495 0 -0.010462907542608427 -0.00055809674565828729 0 -0.010188003379941366 -0.00051253552098500009 0 -0.010333401616762343 -0.00042439482502542019 0 -0.010462907542608427 -0.00055809674565828729 0 -0.010305043506403783 -0.00043603423529971555 0 -0.010333401616762343 -0.00042439482502542019 0 -0.010305043506403783 -0.00043603423529971555 0 -0.010333401616762343 -0.00042439482502542019 0 -0.010184236498444387 -0.00039473628863889493 0 -0.0092755474330837653 -0.00073690575485887153 0 -0.0092366365816093678 -0.00083787047668758025 0 -0.010333401616762343 -0.00042439482502542019 0 -0.010198558978380274 -0.00065323765142859919 0 -0.010184236498444387 -0.00039473628863889493 0 -0.010333401616762343 -0.00042439482502542019 0 -0.010294680645165486 -0.00037550662585957495 0 -0.010198558978380274 -0.00065323765142859919 0 -0.0083568230475047599 -0.00099836620341880599 0 -0.0083574097869076429 -0.0011292073832958904 0 -0.008295910918166647 -0.0011418227790418506 0 -0.0083568230475047599 -0.00099836620341880599 0 -0.0083574097869076429 -0.0011292073832958904 0 -0.0085562131822933193 -0.0010544123849882414 0 -0.0083574097869076429 -0.0011292073832958904 0 -0.0085177633485234786 -0.001288610269984251 0 -0.0081747416310320002 -0.001166338478708062 0 -0.0083574097869076429 -0.0011292073832958904 0 -0.008295910918166647 -0.0011418227790418506 0 -0.0081747416310320002 -0.001166338478708062 0 -0.0083568230475047599 -0.00099836620341880599 0 -0.008295910918166647 -0.0011418227790418506 0 -0.0083734281350955272 -0.0012080585795205118 0 -0.008295910918166647 -0.0011418227790418506 0 -0.0085889008316459188 -0.00097923117561838084 0 -0.0084145746915759868 -0.00086339357781502072 0 -0.008295910918166647 -0.0011418227790418506 0 -0.0083734281350955272 -0.0012080585795205118 0 -0.0085889008316459188 -0.00097923117561838084 0 -0.0085889008316459188 -0.00097923117561838084 0 -0.0090377345525344283 -0.0010187035366857771 0 -0.0087593269977804013 -0.00095473630997601065 0 -0.010198558978380274 -0.00065323765142859919 0 -0.0090377345525344283 -0.0010187035366857771 0 -0.0095924560143001453 -0.00059138073465143698 0 -0.0092366365816093678 -0.00083787047668758025 0 -0.0091606817077956714 -0.00089749488823262177 0 -0.0083734281350955272 -0.0012080585795205118 0 -0.0085889008316459188 -0.00097923117561838084 0 -0.0090377345525344283 -0.0010187035366857771 0 -0.0090377345525344283 -0.0010187035366857771 0 -0.0095924560143001453 -0.00059138073465143698 0 -0.0092132760817605804 -0.00068737501843249961 0 -0.0095924560143001453 -0.00059138073465143698 0 -0.0095603267424276949 -0.00038567780672598795 0 -0.0092132760817605804 -0.00068737501843249961 0 -0.0095603267424276949 -0.00038567780672598795 0 -0.0092728388876162048 -0.00028340213390077543 0 -0.0092132760817605804 -0.00068737501843249961 0 -0.0095603267424276949 -0.00038567780672598795 0 -0.0095435722229465312 -0.00024831937451683301 0 -0.0097669861453945767 -0.00026900675681131709 0 -0.0095603267424276949 -0.00038567780672598795 0 -0.0095435722229465312 -0.00024831937451683301 0 -0.0092728388876162048 -0.00028340213390077543 0 -0.0095603267424276949 -0.00038567780672598795 0 -0.0098808648817392802 -0.00040176879947872638 0 -0.0097669861453945767 -0.00026900675681131709 0 -0.0095924560143001453 -0.00059138073465143698 0 -0.0095603267424276949 -0.00038567780672598795 0 -0.0098808648817392802 -0.00040176879947872638 0 -0.010198558978380274 -0.00065323765142859919 0 -0.0095924560143001453 -0.00059138073465143698 0 -0.0098808648817392802 -0.00040176879947872638 0 -0.010198558978380274 -0.00065323765142859919 0 -0.0098808648817392802 -0.00040176879947872638 0 -0.010184236498444387 -0.00039473628863889493 0 -0.0098808648817392802 -0.00040176879947872638 0 -0.0099830744958310947 -0.0002874297733012792 0 -0.010184236498444387 -0.00039473628863889493 0 -0.0099830744958310947 -0.0002874297733012792 0 -0.010184236498444387 -0.00039473628863889493 0 -0.010141019266166314 -0.00031748366445678546 0 -0.010305043506403783 -0.00043603423529971555 0 -0.010184236498444387 -0.00039473628863889493 0 -0.010141019266166314 -0.00031748366445678546 0 -0.0099830744958310947 -0.0002874297733012792 0 -0.010141019266166314 -0.00031748366445678546 0 -0.009963658066743937 -0.00020190023404511096 0 -0.0099830744958310947 -0.0002874297733012792 0 -0.009963658066743937 -0.00020190023404511096 0 -0.0097669861453945767 -0.00026900675681131709 0 -0.009963658066743937 -0.00020190023404511096 0 -0.0097520188852362917 -0.00016374069443590291 0 -0.0097669861453945767 -0.00026900675681131709 0 -0.0095435722229465312 -0.00024831937451683301 0 -0.0097520188852362917 -0.00016374069443590291 0 -0.0097669861453945767 -0.00026900675681131709 0 -0.0098808648817392802 -0.00040176879947872638 0 -0.0099830744958310947 -0.0002874297733012792 0 -0.0097669861453945767 -0.00026900675681131709 0 -0.0097893101546175313 6.2145296101472953e-05 0 -0.0094926818343358272 -7.0107645070156692e-06 0 -0.0094087658305305032 -0.00017568345058781412 0 -0.010070462997573313 -9.5814199900847016e-05 0 -0.0099412830168482836 -0.00013319375302471055 0 -0.010066228765042014 -0.00010971933941960391 0 -0.0097520188852362917 -0.00016374069443590291 0 -0.0094087658305305032 -0.00017568345058781412 0 -0.0094926818343358272 -7.0107645070156692e-06 0 -0.0093243557119823597 -8.9617594308380401e-05 0 -0.0094087658305305032 -0.00017568345058781412 0 -0.0095435722229465312 -0.00024831937451683301 0 -0.0097520188852362917 -0.00016374069443590291 0 -0.0094087658305305032 -0.00017568345058781412 0 -0.0094926818343358272 -7.0107645070156692e-06 0 -0.0092054750118928125 -4.2763803141556804e-05 0 -0.0093218847867984275 1.7912378722385122e-05 0 -0.0094926818343358272 -7.0107645070156692e-06 0 -0.0092054750118928125 -4.2763803141556804e-05 0 -0.0093243557119823597 -8.9617594308380401e-05 0 -0.0091593931032219328 -0.00014404969483738036 0 -0.0089115189364543362 -0.00010245776297034735 0 -0.0088063133069110656 -2.8519025804141521e-05 0 -0.0092054750118928125 -4.2763803141556804e-05 0 -0.0091593931032219328 -0.00014404969483738036 0 -0.0088063133069110656 -2.8519025804141521e-05 0 -0.0092054750118928125 -4.2763803141556804e-05 0 -0.0093243557119823597 -8.9617594308380401e-05 0 -0.0091593931032219328 -0.00014404969483738036 0 -0.0091593931032219328 -0.00014404969483738036 0 -0.0092728388876162048 -0.00028340213390077543 0 -0.0089115189364543362 -0.00010245776297034735 0 -0.0093243557119823597 -8.9617594308380401e-05 0 -0.0091593931032219328 -0.00014404969483738036 0 -0.0094087658305305032 -0.00017568345058781412 0 -0.0091593931032219328 -0.00014404969483738036 0 -0.0094087658305305032 -0.00017568345058781412 0 -0.0092728388876162048 -0.00028340213390077543 0 -0.0095435722229465312 -0.00024831937451683301 0 -0.0094087658305305032 -0.00017568345058781412 0 -0.0092728388876162048 -0.00028340213390077543 0 -0.008838780120492688 -0.00027731773535917304 0 -0.0087129028784222202 -0.00038159985545154434 0 -0.0090377345525344283 -0.0010187035366857771 0 -0.0092132760817605804 -0.00068737501843249961 0 -0.0088268363185103511 -0.0010707208674171139 0 -0.0092728388876162048 -0.00028340213390077543 0 -0.0086331598188373326 -1.9099017318456122e-05 0 -0.0089115189364543362 -0.00010245776297034735 0 -0.0092728388876162048 -0.00028340213390077543 0 -0.0092132760817605804 -0.00068737501843249961 0 -0.0088268363185103511 -0.0010707208674171139 0 -0.0090377345525344283 -0.0010187035366857771 0 -0.0088268363185103511 -0.0010707208674171139 0 -0.0087593269977804013 -0.00095473630997601065 0 -0.0086331598188373326 -1.9099017318456122e-05 0 -0.0085465453351175648 -6.9377436545746626e-06 0 -0.0082200777323571741 2.5973076614480548e-05 0 -0.0086331598188373326 -1.9099017318456122e-05 0 -0.0085465453351175648 -6.9377436545746626e-06 0 -0.0089115189364543362 -0.00010245776297034735 0 -0.0085465453351175648 -6.9377436545746626e-06 0 -0.0089115189364543362 -0.00010245776297034735 0 -0.0088063133069110656 -2.8519025804141521e-05 0 -0.0088063133069110656 -2.8519025804141521e-05 0 -0.008169383143196686 1.647042686310546e-05 0 -0.0081015262772304135 7.6545636944596934e-07 0 -0.0085465453351175648 -6.9377436545746626e-06 0 -0.0088063133069110656 -2.8519025804141521e-05 0 -0.008169383143196686 1.647042686310546e-05 0 -0.0097639662435634808 -1.4752544972440243e-08 0 -0.0081015262772304135 7.6545636944596934e-07 0 -0.0093218847867984275 1.7912378722385122e-05 0 -0.0088063133069110656 -2.8519025804141521e-05 0 -0.0081015262772304135 7.6545636944596934e-07 0 -0.0093218847867984275 1.7912378722385122e-05 0 -0.0092054750118928125 -4.2763803141556804e-05 0 -0.0088063133069110656 -2.8519025804141521e-05 0 -0.0093218847867984275 1.7912378722385122e-05 0 -0.014455844791473285 0.00015701379015282062 0 -0.014476992799214324 0.00016323890418977929 0 -0.014467205703326779 0.00018046952530586572 0 -0.012065894290533926 0.00022927863884521712 0 -0.012221894990286522 0.00025259796078932827 0 -0.012065894290533926 0.00022927863884521712 0 -0.011479836815138249 -0.00029261071273351983 0 -0.014514086151233733 -0.00029207356902772729 0 -0.013758830591235902 -0.00046340161053854095 0 -0.014097482302554821 -0.0001437231689279644 0 -0.009245453513802673 -0.00070533516126370646 0 -0.0091483749043717883 -0.00076136227408377165 0 -0.0092071687661221743 -0.00075289137523441255 0 -0.0091483749043717883 -0.00076136227408377165 0 -0.0092071687661221743 -0.00075289137523441255 0 -0.0091900586536802324 -0.00076225233115728079 0 -0.0092245107377427037 -0.00076904963161986281 0 -0.0092071687661221743 -0.00075289137523441255 0 -0.0091900586536802324 -0.00076225233115728079 0 -0.0092245107377427037 -0.00076904963161986281 0 -0.0092071687661221743 -0.00075289137523441255 0 -0.0092598849546490867 -0.00076684451760971662 0 -0.009245453513802673 -0.00070533516126370646 0 -0.0092071687661221743 -0.00075289137523441255 0 -0.0092598849546490867 -0.00076684451760971662 0 -0.012065894290533926 0.00022927863884521712 0 -0.011540315400223863 -0.00036819139735268686 0 -0.014459498006191068 0.00015996772603947207 0 -0.014469999498857451 0.00010173553025935371 0 -0.014482506677769872 0.00013602622909433414 0 -0.014469999498857451 0.00010173553025935371 0 -0.014503116114936846 9.4465162455362813e-05 0 -0.01449523869362368 0.00011398536894110056 0 -0.014503116114936846 9.4465162455362813e-05 0 -0.014517379304855485 0.00011007073631619292 0 -0.014524959097414003 9.7605550353741189e-05 0 -0.014503116114936846 9.4465162455362813e-05 0 -0.014517379304855485 0.00011007073631619292 0 -0.01449523869362368 0.00011398536894110056 0 -0.014517379304855485 0.00011007073631619292 0 -0.014501602085194083 0.00012927230665777715 0 -0.01449523869362368 0.00011398536894110056 0 -0.014517379304855485 0.00011007073631619292 0 -0.014501602085194083 0.00012927230665777715 0 -0.014527844001128854 0.00013523692068285239 0 -0.014501602085194083 0.00012927230665777715 0 -0.01449523869362368 0.00011398536894110056 0 -0.014482506677769872 0.00013602622909433414 0 -0.014469999498857451 0.00010173553025935371 0 -0.01449523869362368 0.00011398536894110056 0 -0.014482506677769872 0.00013602622909433414 0 -0.014530276020512949 0.00010643002384369096 0 -0.014545597379092999 0.00010827418321173143 0 -0.014524959097414003 9.7605550353741189e-05 0 -0.014517379304855485 0.00011007073631619292 0 -0.014545597379092999 0.00010827418321173143 0 -0.014524959097414003 9.7605550353741189e-05 0 -0.014517379304855485 0.00011007073631619292 0 -0.014545597379092999 0.00010827418321173143 0 -0.014527844001128854 0.00013523692068285239 0 -0.014545597379092999 0.00010827418321173143 0 -0.014527844001128854 0.00013523692068285239 0 -0.014578037438781985 0.00018044753875162323 0 -0.014527844001128854 0.00013523692068285239 0 -0.014578037438781985 0.00018044753875162323 0 -0.014530720389204239 0.00016867490803334394 0 -0.014578037438781985 0.00018044753875162323 0 -0.014530720389204239 0.00016867490803334394 0 -0.014563392897710135 0.00021405911072446118 0 -0.014482506677769872 0.00013602622909433414 0 -0.014500730782113096 0.00015150021072001367 0 -0.014476992799214324 0.00016323890418977929 0 -0.014459498006191068 0.00015996772603947207 0 -0.014482506677769872 0.00013602622909433414 0 -0.014476992799214324 0.00016323890418977929 0 -0.014501602085194083 0.00012927230665777715 0 -0.014482506677769872 0.00013602622909433414 0 -0.014500730782113096 0.00015150021072001367 0 -0.014501602085194083 0.00012927230665777715 0 -0.014527844001128854 0.00013523692068285239 0 -0.014500730782113096 0.00015150021072001367 0 -0.014527844001128854 0.00013523692068285239 0 -0.014500730782113096 0.00015150021072001367 0 -0.014530720389204239 0.00016867490803334394 0 -0.014509109443374602 0.00018416321902713466 0 -0.014530720389204239 0.00016867490803334394 0 -0.014563392897710135 0.00021405911072446118 0 -0.014500730782113096 0.00015150021072001367 0 -0.014509109443374602 0.00018416321902713466 0 -0.014530720389204239 0.00016867490803334394 0 -0.014500730782113096 0.00015150021072001367 0 -0.014509109443374602 0.00018416321902713466 0 -0.014476992799214324 0.00016323890418977929 0 -0.014509109443374602 0.00018416321902713466 0 -0.014476992799214324 0.00016323890418977929 0 -0.014467205703326779 0.00018046952530586572 0 -0.014509109443374602 0.00018416321902713466 0 -0.014467205703326779 0.00018046952530586572 0 -0.014524275911337124 0.00025708714052570704 0 -0.014509109443374602 0.00018416321902713466 0 -0.014524275911337124 0.00025708714052570704 0 -0.014563392897710135 0.00021405911072446118 0 -0.014467205703326779 0.00018046952530586572 0 -0.014524275911337124 0.00025708714052570704 0 -0.01441214669567323 0.00017379315968464305 0 -0.014630461130118956 0.00024941672539983278 0 -0.014578037438781985 0.00018044753875162323 0 -0.014563392897710135 0.00021405911072446118 0 -0.014524275911337124 0.00025708714052570704 0 -0.014563392897710135 0.00021405911072446118 0 -0.014604531732278318 0.00029947095422552941 0 -0.014630461130118956 0.00024941672539983278 0 -0.014563392897710135 0.00021405911072446118 0 -0.014604531732278318 0.00029947095422552941 0 -0.014578657482446567 0.00042755164526989722 0 -0.014638251433144968 0.00037775643011579214 0 -0.014604531732278318 0.00029947095422552941 0 -0.014656707587680458 0.00030383774000031466 0 -0.014638251433144968 0.00037775643011579214 0 -0.014604531732278318 0.00029947095422552941 0 -0.014578657482446567 0.00042755164526989722 0 -0.014524275911337124 0.00025708714052570704 0 -0.014604531732278318 0.00029947095422552941 0 -0.014578657482446567 0.00042755164526989722 0 -0.014524275911337124 0.00025708714052570704 0 -0.014401944437942567 0.00038716058591567546 0 -0.014401944437942567 0.00038716058591567546 0 -0.01441214669567323 0.00017379315968464305 0 -0.014100864409476575 0.00028767727777507233 0 -0.014524275911337124 0.00025708714052570704 0 -0.014401944437942567 0.00038716058591567546 0 -0.01441214669567323 0.00017379315968464305 0 -0.012065894290533926 0.00022927863884521712 0 -0.012324498439750491 9.4009835176487471e-05 0 -0.014455844791473285 0.00015701379015282062 0 -0.014467205703326779 0.00018046952530586572 0 -0.01441214669567323 0.00017379315968464305 0 -0.014514086151233733 -0.00029207356902772729 0 -0.014097482302554821 -0.0001437231689279644 0 -0.01441214669567323 0.00017379315968464305 0 -0.014097482302554821 -0.0001437231689279644 0 -0.014100864409476575 0.00028767727777507233 0 -0.013391101846655798 0.00032273144326971812 0 -0.014097482302554821 -0.0001437231689279644 0 -0.01441214669567323 0.00017379315968464305 0 -0.014100864409476575 0.00028767727777507233 0 -0.014061395391118864 0.00061540453019555896 0 -0.014401944437942567 0.00038716058591567546 0 -0.014100864409476575 0.00028767727777507233 0 -0.014061395391118864 0.00061540453019555896 0 -0.014100864409476575 0.00028767727777507233 0 -0.013391101846655798 0.00032273144326971812 0 -0.013387184780788527 0.00076565670866867884 0 -0.014061395391118864 0.00061540453019555896 0 -0.013391101846655798 0.00032273144326971812 0 -0.013387184780788527 0.00076565670866867884 0 -0.013391101846655798 0.00032273144326971812 0 -0.012796905773885465 0.00056444854148216873 0 -0.012720614315183511 0.00023711334988902566 0 -0.012208131409339929 3.8837830112776804e-05 0 -0.013391101846655798 0.00032273144326971812 0 -0.012319827555786632 0.00015222786411388931 0 -0.013030440472089478 -0.00011989815914926511 0 -0.013391101846655798 0.00032273144326971812 0 -0.012796905773885465 0.00056444854148216873 0 -0.012378588707819278 -0.00012102152842675501 0 -0.013758830591235902 -0.00046340161053854095 0 -0.014097482302554821 -0.0001437231689279644 0 -0.013391101846655798 0.00032273144326971812 0 -0.013758830591235902 -0.00046340161053854095 0 -0.013391101846655798 0.00032273144326971812 0 -0.013030440472089478 -0.00011989815914926511 0 -0.012461840319666828 0.00086947674630016641 0 -0.011810977319494471 0.0011104989735582897 0 -0.012067371259723165 0.00055773077201995826 0 -0.011485387143005694 0.00068789313181844361 0 -0.012067371259723165 0.00055773077201995826 0 -0.011470145791160489 0.00026538976930958131 0 -0.011810977319494471 0.0011104989735582897 0 -0.011485387143005694 0.00068789313181844361 0 -0.012067371259723165 0.00055773077201995826 0 -0.012796905773885465 0.00056444854148216873 0 -0.012067371259723165 0.00055773077201995826 0 -0.012378588707819278 -0.00012102152842675501 0 -0.012461840319666828 0.00086947674630016641 0 -0.012796905773885465 0.00056444854148216873 0 -0.012067371259723165 0.00055773077201995826 0 -0.012067371259723165 0.00055773077201995826 0 -0.012378588707819278 -0.00012102152842675501 0 -0.011470145791160489 0.00026538976930958131 0 -0.012378588707819278 -0.00012102152842675501 0 -0.011486155731174747 -5.0805028381336993e-05 0 -0.011470145791160489 0.00026538976930958131 0 -0.011103834494159937 -0.00019470450256143845 0 -0.01216676456784129 -0.00038473048425708399 0 -0.011591990168745504 -0.00076268572901986588 0 -0.011367263396515365 -0.00026446430803234107 0 -0.012208131409339929 3.8837830112776804e-05 0 -0.011288827648703608 -0.00039931304788225111 0 -0.012378588707819278 -0.00012102152842675501 0 -0.011486155731174747 -5.0805028381336993e-05 0 -0.011103834494159937 -0.00019470450256143845 0 -0.012319827555786632 0.00015222786411388931 0 -0.01216676456784129 -0.00038473048425708399 0 -0.012319827555786632 0.00015222786411388931 0 -0.01216676456784129 -0.00038473048425708399 0 -0.013030440472089478 -0.00011989815914926511 0 -0.01216676456784129 -0.00038473048425708399 0 -0.011591990168745504 -0.00076268572901986588 0 -0.01282235459031009 -0.00068038011575497588 0 -0.010853430221195821 -0.00064184613614975971 0 -0.011121306374938029 -0.00054483703834467829 0 -0.0096220304779079165 -0.00069706945794227202 0 -0.009967441643224776 -0.00079763902690773553 0 -0.0093388822253554979 -0.00087514708386393842 0 -0.011479836815138249 -0.00029261071273351983 0 -0.011121306374938029 -0.00054483703834467829 0 -0.013758830591235902 -0.00046340161053854095 0 -0.013030440472089478 -0.00011989815914926511 0 -0.01282235459031009 -0.00068038011575497588 0 -0.01216676456784129 -0.00038473048425708399 0 -0.013030440472089478 -0.00011989815914926511 0 -0.01282235459031009 -0.00068038011575497588 0 -0.0096220304779079165 -0.00069706945794227202 0 -0.0093388822253554979 -0.00087514708386393842 0 -0.0091388290071473741 -0.00068361338414901231 0 -0.0091483749043717883 -0.00076136227408377165 0 -0.0093388822253554979 -0.00087514708386393842 0 -0.0091388290071473741 -0.00068361338414901231 0 -0.0091483749043717883 -0.00076136227408377165 0 -0.0091388290071473741 -0.00068361338414901231 0 -0.0091900586536802324 -0.00076225233115728079 0 -0.0091388290071473741 -0.00068361338414901231 0 -0.0091616688461484339 -0.00081621432396034466 0 -0.0091900586536802324 -0.00076225233115728079 0 -0.0091388290071473741 -0.00068361338414901231 0 -0.009013375029279045 -0.00086816683492408199 0 -0.0091616688461484339 -0.00081621432396034466 0 -0.0091388290071473741 -0.00068361338414901231 0 -0.009013375029279045 -0.00086816683492408199 0 -0.0086801587944166387 -0.00077677768643804278 0 -0.0091870563617587782 -0.00068332675151649383 0 -0.0092285282040199083 -0.00068353724578674785 0 -0.009013375029279045 -0.00086816683492408199 0 -0.008782937606929709 -0.00097679396939068805 0 -0.0089221742174541221 -0.0010768031793716021 0 -0.009013375029279045 -0.00086816683492408199 0 -0.0091616688461484339 -0.00081621432396034466 0 -0.0091519887513561247 -0.00095362162514846087 0 -0.009013375029279045 -0.00086816683492408199 0 -0.0091519887513561247 -0.00095362162514846087 0 -0.0089221742174541221 -0.0010768031793716021 0 -0.010188003379941366 -0.00051253552098500009 0 -0.010294680645165486 -0.00037550662585957495 0 -0.0097489493467360407 -0.00038318492691519299 0 -0.010188003379941366 -0.00051253552098500009 0 -0.009967441643224776 -0.00079763902690773553 0 -0.0097489493467360407 -0.00038318492691519299 0 -0.0096220304779079165 -0.00069706945794227202 0 -0.009967441643224776 -0.00079763902690773553 0 -0.0097489493467360407 -0.00038318492691519299 0 -0.0096220304779079165 -0.00069706945794227202 0 -0.0091388290071473741 -0.00068361338414901231 0 -0.0097489493467360407 -0.00038318492691519299 0 -0.0086801587944166387 -0.00077677768643804278 0 -0.008782937606929709 -0.00097679396939068805 0 -0.0085562131822933193 -0.0010544123849882414 0 -0.009013375029279045 -0.00086816683492408199 0 -0.0086801587944166387 -0.00077677768643804278 0 -0.008782937606929709 -0.00097679396939068805 0 -0.0083568230475047599 -0.00099836620341880599 0 -0.0086801587944166387 -0.00077677768643804278 0 -0.0085562131822933193 -0.0010544123849882414 0 -0.0092755474330837653 -0.00073690575485887153 0 -0.0092285282040199083 -0.00068353724578674785 0 -0.008782937606929709 -0.00097679396939068805 0 -0.0085562131822933193 -0.0010544123849882414 0 -0.008724504455036081 -0.0011395808676263669 0 -0.008782937606929709 -0.00097679396939068805 0 -0.008724504455036081 -0.0011395808676263669 0 -0.0089221742174541221 -0.0010768031793716021 0 -0.008724504455036081 -0.0011395808676263669 0 -0.0088650557636271478 -0.0012846082140353786 0 -0.0085177633485234786 -0.001288610269984251 0 -0.0075697177417158928 -0.0014230388187929286 0 -0.0078283065084428158 -0.0013758846558575536 0 -0.0083574097869076429 -0.0011292073832958904 0 -0.0085562131822933193 -0.0010544123849882414 0 -0.0085177633485234786 -0.001288610269984251 0 -0.0085562131822933193 -0.0010544123849882414 0 -0.008724504455036081 -0.0011395808676263669 0 -0.0085177633485234786 -0.001288610269984251 0 -0.0093297980332459982 -0.0011398224118564634 0 -0.0091896087900857331 -0.0011583084103302793 0 -0.0091161708518480225 -0.0010134473572117355 0 -0.0089221742174541221 -0.0010768031793716021 0 -0.0091525705682165091 -0.0012240305005422312 0 -0.008724504455036081 -0.0011395808676263669 0 -0.0089221742174541221 -0.0010768031793716021 0 -0.0088650557636271478 -0.0012846082140353786 0 -0.0089221742174541221 -0.0010768031793716021 0 -0.0088650557636271478 -0.0012846082140353786 0 -0.0091525705682165091 -0.0012240305005422312 0 -0.0062840966523390251 -0.0017551554877968645 0 -0.005458365717580225 -0.0018800166361858345 0 -0.0058705536901417507 -0.0013318084330623909 0 -0.0075697177417158928 -0.0014230388187929286 0 -0.0073147016866316273 -0.0014142840367647608 0 -0.0091525705682165091 -0.0012240305005422312 0 -0.0094097219514475191 -0.001174539247516755 0 -0.0093056117979107896 -0.001075719422028243 0 -0.005458365717580225 -0.0018800166361858345 0 -0.0046920129722467256 -0.001995659872638735 0 -0.0049433423755297018 -0.0015498314104264799 0 -0.0073147016866316273 -0.0014142840367647608 0 -0.0071438614850048571 -0.0013045232568996022 0 -0.0046920129722467256 -0.001995659872638735 0 -0.0044220522109869181 -0.001535114097147721 0 -0.0049433423755297018 -0.0015498314104264799 0 -0.0094097219514475191 -0.001174539247516755 0 -0.009437069459752017 -0.0010862540488985493 0 -0.0095310615860620881 -0.0010890824391914914 0 -0.0094097219514475191 -0.001174539247516755 0 -0.009437069459752017 -0.0010862540488985493 0 -0.0093056117979107896 -0.001075719422028243 0 -0.0094067130757793903 -0.001008396085694811 0 -0.0093056117979107896 -0.001075719422028243 0 -0.0093074416824808059 -0.00094742418423242249 0 -0.009437069459752017 -0.0010862540488985493 0 -0.0094067130757793903 -0.001008396085694811 0 -0.0093056117979107896 -0.001075719422028243 0 -0.009437069459752017 -0.0010862540488985493 0 -0.0094067130757793903 -0.001008396085694811 0 -0.0094681452643041817 -0.001015804630605309 0 -0.0091161708518480225 -0.0010134473572117355 0 -0.0091525705682165091 -0.0012240305005422312 0 -0.0093056117979107896 -0.001075719422028243 0 -0.0091161708518480225 -0.0010134473572117355 0 -0.0093056117979107896 -0.001075719422028243 0 -0.0093074416824808059 -0.00094742418423242249 0 -0.0093297980332459982 -0.0011398224118564634 0 -0.0097534190226322651 -0.0010993463583555511 0 -0.0091616688461484339 -0.00081621432396034466 0 -0.0091519887513561247 -0.00095362162514846087 0 -0.0092372587127345744 -0.00086347567841636957 0 -0.0092372587127345744 -0.00086347567841636957 0 -0.0092441561736290589 -0.00079972520934609823 0 -0.0092850650374184558 -0.0008278517995663245 0 -0.0094067130757793903 -0.001008396085694811 0 -0.0093074416824808059 -0.00094742418423242249 0 -0.0094976273736953123 -0.00087966847663326054 0 -0.0097534190226322651 -0.0010993463583555511 0 -0.010871657512426412 -0.00093502986207030282 0 -0.0094067130757793903 -0.001008396085694811 0 -0.0094976273736953123 -0.00087966847663326054 0 -0.0094681452643041817 -0.001015804630605309 0 -0.0092598849546490867 -0.00076684451760971662 0 -0.0092441561736290589 -0.00079972520934609823 0 -0.0092850650374184558 -0.0008278517995663245 0 -0.0092245107377427037 -0.00076904963161986281 0 -0.0092598849546490867 -0.00076684451760971662 0 -0.0092441561736290589 -0.00079972520934609823 0 -0.0092245107377427037 -0.00076904963161986281 0 -0.0092441561736290589 -0.00079972520934609823 0 -0.0091900586536802324 -0.00076225233115728079 0 -0.0092372587127345744 -0.00086347567841636957 0 -0.0092441561736290589 -0.00079972520934609823 0 -0.0091900586536802324 -0.00076225233115728079 0 -0.0091616688461484339 -0.00081621432396034466 0 -0.0092372587127345744 -0.00086347567841636957 0 -0.0091900586536802324 -0.00076225233115728079 0 -0.014530276020512949 0.00010643002384369096 0 -0.014524959097414003 9.7605550353741189e-05 0 -0.014513438497555854 8.2386926526206323e-05 0 -0.011863362650711372 -0.00017754617639820547 0 -0.011003364557840954 -0.00064685415826676404 0 -0.014503116114936846 9.4465162455362813e-05 0 -0.014508927641560357 3.8525918115608341e-05 0 -0.014471810413010678 2.5075209365303858e-05 0 -0.011333605491783067 -0.00061540896972248668 0 -0.011003364557840954 -0.00064685415826676404 0 -0.014503116114936846 9.4465162455362813e-05 0 -0.014524959097414003 9.7605550353741189e-05 0 -0.014513438497555854 8.2386926526206323e-05 0 -0.011540315400223863 -0.00036819139735268686 0 -0.010871657512426412 -0.00093502986207030282 0 -0.014469999498857451 0.00010173553025935371 0 -0.014503116114936846 9.4465162455362813e-05 0 -0.014471810413010678 2.5075209365303858e-05 0 -0.011003364557840954 -0.00064685415826676404 0 -0.0099674583966233889 -0.00084247348280693912 0 -0.011003364557840954 -0.00064685415826676404 0 -0.010871657512426412 -0.00093502986207030282 0 -0.0094976273736953123 -0.00087966847663326054 0 -0.0094681452643041817 -0.001015804630605309 0 -0.0095310615860620881 -0.0010890824391914914 0 -0.00949987921251675 -0.00087384507987617386 0 -0.0096295595579345191 -0.00095303664340324202 0 -0.0095395058392083905 -0.0010476710334083334 0 -0.009600924163566513 -0.00083694641319591941 0 -0.00949987921251675 -0.00087384507987617386 0 -0.0096295595579345191 -0.00095303664340324202 0 -0.010871657512426412 -0.00093502986207030282 0 -0.010634232312894218 -0.00090022419792584545 0 -0.0099674583966233889 -0.00084247348280693912 0 -0.0098996014957555556 -0.00090017801312866565 0 -0.011863362650711372 -0.00017754617639820547 0 -0.0099674583966233889 -0.00084247348280693912 0 -0.011090552891334066 -0.00015646232110079513 0 -0.010518413241335581 -0.00036621947875680046 0 -0.010601422489421948 -0.00068840518251992735 0 -0.0095215037294272518 -0.00032257992899276062 0 -0.0095212268058388928 -0.00026339105670624124 0 -0.0096099109654296834 -0.00025470141759529816 0 -0.0099674583966233889 -0.00084247348280693912 0 -0.007441037082473019 -0.00094435229526703606 0 -0.0095212268058388928 -0.00026339105670624124 0 -0.0096099109654296834 -0.00025470141759529816 0 -0.0095936150261684474 -0.00017420991056876106 0 -0.0094097219514475191 -0.001174539247516755 0 -0.0096647848565063199 -0.0011261413805886838 0 -0.0095310615860620881 -0.0010890824391914914 0 -0.0096223801828214488 -0.00095704523449733963 0 -0.0096647848565063199 -0.0011261413805886838 0 -0.0095395058392083905 -0.0010476710334083334 0 -0.0071438614850048571 -0.0013045232568996022 0 -0.007441037082473019 -0.00094435229526703606 0 -0.00949987921251675 -0.00087384507987617386 0 -0.0095395058392083905 -0.0010476710334083334 0 -0.0095310615860620881 -0.0010890824391914914 0 -0.009437069459752017 -0.0010862540488985493 0 -0.0094681452643041817 -0.001015804630605309 0 -0.0095310615860620881 -0.0010890824391914914 0 -0.0096647848565063199 -0.0011261413805886838 0 -0.0095395058392083905 -0.0010476710334083334 0 -0.0095310615860620881 -0.0010890824391914914 0 -0.0046920129722467256 -0.001995659872638735 0 -0.0039426061903723381 -0.002123646097681225 0 -0.0044220522109869181 -0.001535114097147721 0 -0.007441037082473019 -0.00094435229526703606 0 -0.0054858905666277909 -0.00070372423049430287 0 -0.0039426061903723381 -0.002123646097681225 0 -0.0037311335905244026 -0.0013352364660875063 0 -0.0044220522109869181 -0.001535114097147721 0 -0.003452841152927124 -0.0010644389184656879 0 -0.0036741288116154801 -0.0012027152919841838 0 -0.0035790376238087648 -0.00085071468076587079 0 -0.0037311335905244026 -0.0013352364660875063 0 -0.0044220522109869181 -0.001535114097147721 0 -0.0044009600561261105 -0.0010596031051913818 0 -0.0044009600561261105 -0.0010596031051913818 0 -0.004128475613268171 -0.0006467531717156955 0 -0.0046894108137355509 -0.00064511339834565854 0 -0.0037311335905244026 -0.0013352364660875063 0 -0.0044009600561261105 -0.0010596031051913818 0 -0.004128475613268171 -0.0006467531717156955 0 -0.0037311335905244026 -0.0013352364660875063 0 -0.004128475613268171 -0.0006467531717156955 0 -0.0035247717439019811 -0.00051979426450116128 0 -0.004128475613268171 -0.0006467531717156955 0 -0.0039874011444214295 -0.00010309995623541763 0 -0.0035247717439019811 -0.00051979426450116128 0 -0.004128475613268171 -0.0006467531717156955 0 -0.0044344224510076717 -0.00029553716297661215 0 -0.0039874011444214295 -0.00010309995623541763 0 -0.004128475613268171 -0.0006467531717156955 0 -0.0044344224510076717 -0.00029553716297661215 0 -0.0046894108137355509 -0.00064511339834565854 0 -0.0044344224510076717 -0.00029553716297661215 0 -0.0039874011444214295 -0.00010309995623541763 0 -0.0046168522988137379 0.00015629019221358894 0 -0.0039874011444214295 -0.00010309995623541763 0 -0.0035247717439019811 -0.00051979426450116128 0 -0.0034975650403049566 -0.00015179064268251006 0 -0.0039874011444214295 -0.00010309995623541763 0 -0.0034975650403049566 -0.00015179064268251006 0 -0.003566700160718726 0.00027381671948219818 0 -0.0051895369359375929 5.1295910987642672e-05 0 -0.0048243549355156141 -0.00024491675380523804 0 -0.0051906976129362584 -0.00060053803949776938 0 -0.0044344224510076717 -0.00029553716297661215 0 -0.0048243549355156141 -0.00024491675380523804 0 -0.0046168522988137379 0.00015629019221358894 0 -0.0051895369359375929 5.1295910987642672e-05 0 -0.0048243549355156141 -0.00024491675380523804 0 -0.0046168522988137379 0.00015629019221358894 0 -0.0048243549355156141 -0.00024491675380523804 0 -0.0046894108137355509 -0.00064511339834565854 0 -0.0051906976129362584 -0.00060053803949776938 0 -0.0044344224510076717 -0.00029553716297661215 0 -0.0048243549355156141 -0.00024491675380523804 0 -0.0046894108137355509 -0.00064511339834565854 0 -0.0051895369359375929 5.1295910987642672e-05 0 -0.0051906976129362584 -0.00060053803949776938 0 -0.0057179544444424671 -0.00026818980286408392 0 -0.0051906976129362584 -0.00060053803949776938 0 -0.004816299695266266 -0.0011167053565443957 0 -0.0053426620104639931 -0.0012209291933491778 0 -0.0051906976129362584 -0.00060053803949776938 0 -0.0053426620104639931 -0.0012209291933491778 0 -0.0057713712772310601 -0.00080100875303663595 0 -0.0046894108137355509 -0.00064511339834565854 0 -0.0051906976129362584 -0.00060053803949776938 0 -0.004816299695266266 -0.0011167053565443957 0 -0.0044009600561261105 -0.0010596031051913818 0 -0.0046894108137355509 -0.00064511339834565854 0 -0.004816299695266266 -0.0011167053565443957 0 -0.0044220522109869181 -0.001535114097147721 0 -0.004816299695266266 -0.0011167053565443957 0 -0.0049433423755297018 -0.0015498314104264799 0 -0.0044220522109869181 -0.001535114097147721 0 -0.0044009600561261105 -0.0010596031051913818 0 -0.004816299695266266 -0.0011167053565443957 0 -0.004816299695266266 -0.0011167053565443957 0 -0.0049433423755297018 -0.0015498314104264799 0 -0.0053426620104639931 -0.0012209291933491778 0 -0.005458365717580225 -0.0018800166361858345 0 -0.0049433423755297018 -0.0015498314104264799 0 -0.0053426620104639931 -0.0012209291933491778 0 -0.005458365717580225 -0.0018800166361858345 0 -0.0053426620104639931 -0.0012209291933491778 0 -0.0058705536901417507 -0.0013318084330623909 0 -0.0062840966523390251 -0.0017551554877968645 0 -0.0058705536901417507 -0.0013318084330623909 0 -0.0065407525536208535 -0.00099410396956709423 0 -0.0058705536901417507 -0.0013318084330623909 0 -0.0057713712772310601 -0.00080100875303663595 0 -0.0065407525536208535 -0.00099410396956709423 0 -0.0057713712772310601 -0.00080100875303663595 0 -0.0065407525536208535 -0.00099410396956709423 0 -0.0062050432573754607 -0.00049026735954684853 0 -0.0053426620104639931 -0.0012209291933491778 0 -0.0058705536901417507 -0.0013318084330623909 0 -0.0057713712772310601 -0.00080100875303663595 0 -0.0071928389037486228 -0.0015644274615011452 0 -0.0065407525536208535 -0.00099410396956709423 0 -0.0073617777727524175 -0.00087934058694087713 0 -0.0062840966523390251 -0.0017551554877968645 0 -0.0071928389037486228 -0.0015644274615011452 0 -0.0065407525536208535 -0.00099410396956709423 0 -0.0073617777727524175 -0.00087934058694087713 0 -0.0071581571681628466 -0.00024089238427978243 0 -0.008001689605549157 -0.00060504189823870895 0 -0.0065407525536208535 -0.00099410396956709423 0 -0.0073617777727524175 -0.00087934058694087713 0 -0.0071581571681628466 -0.00024089238427978243 0 -0.0065407525536208535 -0.00099410396956709423 0 -0.0071581571681628466 -0.00024089238427978243 0 -0.0062050432573754607 -0.00049026735954684853 0 -0.0071581571681628466 -0.00024089238427978243 0 -0.0062050432573754607 -0.00049026735954684853 0 -0.0063183918759663841 -9.1876907310195992e-06 0 -0.0071703775368512834 -0.00052684578776370135 0 -0.0063183918759663841 -9.1876907310195992e-06 0 -0.0069797716888670485 0.00038557290254355496 0 -0.0072367845336425334 -0.00038479193086970916 0 -0.0068740238396952326 -0.00020727680742790397 0 -0.0071703775368512834 -0.00052684578776370135 0 -0.007431831537994202 -8.1478406178055974e-05 0 -0.0069797716888670485 0.00038557290254355496 0 -0.0057713712772310601 -0.00080100875303663595 0 -0.0057179544444424671 -0.00026818980286408392 0 -0.0062050432573754607 -0.00049026735954684853 0 -0.0051906976129362584 -0.00060053803949776938 0 -0.0057713712772310601 -0.00080100875303663595 0 -0.0057179544444424671 -0.00026818980286408392 0 -0.0057179544444424671 -0.00026818980286408392 0 -0.0062050432573754607 -0.00049026735954684853 0 -0.0063183918759663841 -9.1876907310195992e-06 0 -0.0057179544444424671 -0.00026818980286408392 0 -0.0063183918759663841 -9.1876907310195992e-06 0 -0.0056749175534852739 0.00028571652226345935 0 -0.0051895369359375929 5.1295910987642672e-05 0 -0.0057179544444424671 -0.00026818980286408392 0 -0.0056749175534852739 0.00028571652226345935 0 -0.0056749175534852739 0.00028571652226345935 0 -0.006067168916772973 0.00050983824158469158 0 -0.0058309835997040023 0.00093643818791000141 0 -0.0063183918759663841 -9.1876907310195992e-06 0 -0.0056749175534852739 0.00028571652226345935 0 -0.006067168916772973 0.00050983824158469158 0 -0.0053983106407807235 0.00096851507772963065 0 -0.0056321623115973335 0.00084872282674039955 0 -0.006067168916772973 0.00050983824158469158 0 -0.0058309835997040023 0.00093643818791000141 0 -0.0062329070649066011 0.00066187465194166831 0 -0.0056749175534852739 0.00028571652226345935 0 -0.0058309835997040023 0.00093643818791000141 0 -0.0051249436972036653 0.00055498838162515928 0 -0.0062223295628692993 0.0006271780458358935 0 -0.0060653868471413222 0.0006679257610180887 0 -0.0061288579653550855 0.00060748536892485882 0 -0.0062223295628692993 0.0006271780458358935 0 -0.0062329070649066011 0.00066187465194166831 0 -0.0061288579653550855 0.00060748536892485882 0 -0.0065360792054378423 0.0004172456109890043 0 -0.0067847599417511541 0.00033303700752491505 0 -0.007431831537994202 -8.1478406178055974e-05 0 -0.0069797716888670485 0.00038557290254355496 0 -0.007777312442967573 0.00012673534079501449 0 -0.006067168916772973 0.00050983824158469158 0 -0.0062223295628692993 0.0006271780458358935 0 -0.0062329070649066011 0.00066187465194166831 0 -0.0063396278080658439 0.00045423319891873973 0 -0.0065360792054378423 0.0004172456109890043 0 -0.0063183918759663841 -9.1876907310195992e-06 0 -0.006067168916772973 0.00050983824158469158 0 -0.0069797716888670485 0.00038557290254355496 0 -0.0051266145534216729 0.00096644167607643253 0 -0.0053694681275126867 0.0010136770762128116 0 -0.0052366664072157629 0.0011604701555433844 0 -0.0056321623115973335 0.00084872282674039955 0 -0.0057985317055534646 0.00075799189615947081 0 -0.0051266145534216729 0.00096644167607643253 0 -0.0053694681275126867 0.0010136770762128116 0 -0.0055133888768309882 0.0007759685596532848 0 -0.0053694681275126867 0.0010136770762128116 0 -0.0054495032543938641 0.0012071956024551566 0 -0.0052366664072157629 0.0011604701555433844 0 -0.0051266145534216729 0.00096644167607643253 0 -0.0052366664072157629 0.0011604701555433844 0 -0.0050305272764218593 0.0012108277272747975 0 -0.0052366664072157629 0.0011604701555433844 0 -0.0050305272764218593 0.0012108277272747975 0 -0.0053003492207210848 0.0015630973818826809 0 -0.0050973690446066621 0.0012355414388337694 0 -0.0051093198553442175 0.0012244716043094937 0 -0.0050305272764218593 0.0012108277272747975 0 -0.0049795744355294932 0.0012395951954499091 0 -0.0049407942480473562 0.0012531448959585518 0 -0.0055550053467078708 0.0014204671376794283 0 -0.0055494451513809547 0.0016017852211877414 0 -0.0053003492207210848 0.0015630973818826809 0 -0.0054495032543938641 0.0012071956024551566 0 -0.0052366664072157629 0.0011604701555433844 0 -0.0053003492207210848 0.0015630973818826809 0 -0.0054495032543938641 0.0012071956024551566 0 -0.0055550053467078708 0.0014204671376794283 0 -0.0053003492207210848 0.0015630973818826809 0 -0.0049558012497867149 0.0011458526454463545 0 -0.0049724118119704565 0.0012096226474016542 0 -0.0050091045633591548 0.0011435750066821791 0 -0.0053983106407807235 0.00096851507772963065 0 -0.0052425000610432137 0.0010346378941728247 0 -0.0049558012497867149 0.0011458526454463545 0 -0.0050305272764218593 0.0012108277272747975 0 -0.0049724118119704565 0.0012096226474016542 0 -0.0049558012497867149 0.0011458526454463545 0 -0.0051266145534216729 0.00096644167607643253 0 -0.0050305272764218593 0.0012108277272747975 0 -0.0049724118119704565 0.0012096226474016542 0 -0.0049534418060806894 0.0012553994869505237 0 -0.0049407942480473562 0.0012531448959585518 0 -0.0050305272764218593 0.0012108277272747975 0 -0.0049724118119704565 0.0012096226474016542 0 -0.0049407942480473562 0.0012531448959585518 0 -0.0049724118119704565 0.0012096226474016542 0 -0.0050091045633591548 0.0011435750066821791 0 -0.0049534418060806894 0.0012553994869505237 0 -0.0050091045633591548 0.0011435750066821791 0 -0.0047785229169994003 0.0012492419599601367 0 -0.0049079683638873989 0.0013103628703282437 0 -0.0050091045633591548 0.0011435750066821791 0 -0.0049079683638873989 0.0013103628703282437 0 -0.0049534418060806894 0.0012553994869505237 0 -0.0050091045633591548 0.0011435750066821791 0 -0.0045613453279656352 0.0010509883442024533 0 -0.0045840876297318584 0.00068129792490845482 0 -0.0050091045633591548 0.0011435750066821791 0 -0.0047785229169994003 0.0012492419599601367 0 -0.0045613453279656352 0.0010509883442024533 0 -0.0046110808635602893 0.0012570194445421872 0 -0.0047785229169994003 0.0012492419599601367 0 -0.0045613453279656352 0.0010509883442024533 0 -0.0046110808635602893 0.0012570194445421872 0 -0.0047785229169994003 0.0012492419599601367 0 -0.0047865535387861058 0.0013738262665433467 0 -0.0037746970893457496 0.001232147318567547 0 -0.0038092337144753361 0.0012004666166897412 0 -0.0040678485821349867 0.0017227079634412729 0 -0.0046110808635602893 0.0012570194445421872 0 -0.0043298442082823334 0.0012603392399509988 0 -0.0047865535387861058 0.0013738262665433467 0 -0.0040558234275573429 0.001160414474740452 0 -0.0043120762177755959 0.0014911279000405179 0 -0.0034694673471279565 0.0015096565558979928 0 -0.0032427699424901102 0.0017108672927165613 0 -0.0037746970893457496 0.001232147318567547 0 -0.00350555518120082 0.0016013321408863503 0 -0.0034934264224186881 0.001172262189521249 0 -0.0037746970893457496 0.001232147318567547 0 -0.0037440504394547422 0.00077382123878592837 0 -0.0034934264224186881 0.001172262189521249 0 -0.0037746970893457496 0.001232147318567547 0 -0.0038092337144753361 0.0012004666166897412 0 -0.0037440504394547422 0.00077382123878592837 0 -0.0040558234275573429 0.001160414474740452 0 -0.0038984927360946413 0.00095380162053531551 0 -0.0043298442082823334 0.0012603392399509988 0 -0.0045613453279656352 0.0010509883442024533 0 -0.0037440504394547422 0.00077382123878592837 0 -0.0046110808635602893 0.0012570194445421872 0 -0.0043298442082823334 0.0012603392399509988 0 -0.0045613453279656352 0.0010509883442024533 0 -0.0045613453279656352 0.0010509883442024533 0 -0.0037440504394547422 0.00077382123878592837 0 -0.0045840876297318584 0.00068129792490845482 0 -0.0037440504394547422 0.00077382123878592837 0 -0.0040953786390351566 0.0003520909581638034 0 -0.0045840876297318584 0.00068129792490845482 0 -0.0037440504394547422 0.00077382123878592837 0 -0.0040953786390351566 0.0003520909581638034 0 -0.003566700160718726 0.00027381671948219818 0 -0.0039874011444214295 -0.00010309995623541763 0 -0.0040953786390351566 0.0003520909581638034 0 -0.003566700160718726 0.00027381671948219818 0 -0.0039874011444214295 -0.00010309995623541763 0 -0.0040953786390351566 0.0003520909581638034 0 -0.0046168522988137379 0.00015629019221358894 0 -0.0040953786390351566 0.0003520909581638034 0 -0.0046168522988137379 0.00015629019221358894 0 -0.0045840876297318584 0.00068129792490845482 0 -0.0046168522988137379 0.00015629019221358894 0 -0.0051249436972036653 0.00055498838162515928 0 -0.0045840876297318584 0.00068129792490845482 0 -0.0051895369359375929 5.1295910987642672e-05 0 -0.0056749175534852739 0.00028571652226345935 0 -0.0051249436972036653 0.00055498838162515928 0 -0.0051895369359375929 5.1295910987642672e-05 0 -0.0046168522988137379 0.00015629019221358894 0 -0.0051249436972036653 0.00055498838162515928 0 -0.0050091045633591548 0.0011435750066821791 0 -0.0051249436972036653 0.00055498838162515928 0 -0.0045840876297318584 0.00068129792490845482 0 -0.0058309835997040023 0.00093643818791000141 0 -0.0050091045633591548 0.0011435750066821791 0 -0.0051249436972036653 0.00055498838162515928 0 -0.0081015262772304135 7.6545636944596934e-07 0 -0.0059550511419084844 -2.0829900591556798e-06 0 -0.0075409644863315712 2.6861062518334154e-05 0 -0.0059524160205213185 -1.9819337929190386e-07 0 -0.0062318792173869089 -8.0873628235483651e-05 0 -0.0059511874558697553 -6.0389721341553499e-07 0 -0.0052026638970321532 -0.00017274519878938429 0 -0.0054479367137656052 3.5526814965737518e-05 0 -0.0073258375785413979 -0.00064923504975350856 0 -0.0075409644863315712 2.6861062518334154e-05 0 -0.0081191812357559959 -0.00047799833502632215 0 -0.0059550511419084844 -2.0829900591556798e-06 0 -0.0073258375785413979 -0.00064923504975350856 0 -0.0075409644863315712 2.6861062518334154e-05 0 -0.008169383143196686 1.647042686310546e-05 0 -0.0081015262772304135 7.6545636944596934e-07 0 -0.0075409644863315712 2.6861062518334154e-05 0 -0.008169383143196686 1.647042686310546e-05 0 -0.0075409644863315712 2.6861062518334154e-05 0 -0.0082200777323571741 2.5973076614480548e-05 0 -0.0075409644863315712 2.6861062518334154e-05 0 -0.0082200777323571741 2.5973076614480548e-05 0 -0.0081191812357559959 -0.00047799833502632215 0 -0.00853298996770341 -0.00045856528220337197 0 -0.0084268390635094219 -0.00055690194957487972 0 -0.0085465453351175648 -6.9377436545746626e-06 0 -0.008169383143196686 1.647042686310546e-05 0 -0.0082200777323571741 2.5973076614480548e-05 0 -0.0088268363185103511 -0.0010707208674171139 0 -0.0087593269977804013 -0.00095473630997601065 0 -0.0086853108831763167 -0.0006893026831956997 0 -0.0087129028784222202 -0.00038159985545154434 0 -0.00853298996770341 -0.00045856528220337197 0 -0.0087593269977804013 -0.00095473630997601065 0 -0.0086853108831763167 -0.0006893026831956997 0 -0.008612641821600691 -0.00085126095918758565 0 -0.0086853108831763167 -0.0006893026831956997 0 -0.0084816227069182144 -0.000547375062694128 0 -0.0085497508672618804 -0.00069077213338597022 0 -0.0086853108831763167 -0.0006893026831956997 0 -0.0085497508672618804 -0.00069077213338597022 0 -0.008612641821600691 -0.00085126095918758565 0 -0.0084900195698355638 -0.00055415488472885285 0 -0.0084816227069182144 -0.000547375062694128 0 -0.0085112405222196146 -0.00058094810582993788 0 -0.0084900195698355638 -0.00055415488472885285 0 -0.0084354369423557153 -0.00056572906634424125 0 -0.0085071490594814513 -0.00053998822762527131 0 -0.0084900195698355638 -0.00055415488472885285 0 -0.0084816227069182144 -0.000547375062694128 0 -0.0084354369423557153 -0.00056572906634424125 0 -0.0084816227069182144 -0.000547375062694128 0 -0.0084354369423557153 -0.00056572906634424125 0 -0.0083286449921375749 -0.00057556925250686216 0 -0.0084816227069182144 -0.000547375062694128 0 -0.0081191812357559959 -0.00047799833502632215 0 -0.0083286449921375749 -0.00057556925250686216 0 -0.0086853108831763167 -0.0006893026831956997 0 -0.0084816227069182144 -0.000547375062694128 0 -0.0081191812357559959 -0.00047799833502632215 0 -0.0073258375785413979 -0.00064923504975350856 0 -0.0081191812357559959 -0.00047799833502632215 0 -0.0082366376846158586 -0.00079758114006669241 0 -0.0062318792173869089 -8.0873628235483651e-05 0 -0.0063597554122978243 -3.3511303551472964e-05 0 -0.0052026638970321532 -0.00017274519878938429 0 -0.0047646171573711062 -4.3634985931992788e-05 0 -0.0046701615756647181 -8.3909188418583062e-05 0 -0.0081191812357559959 -0.00047799833502632215 0 -0.0082366376846158586 -0.00079758114006669241 0 -0.0083286449921375749 -0.00057556925250686216 0 -0.0047646171573711062 -4.3634985931992788e-05 0 -0.0046701615756647181 -8.3909188418583062e-05 0 -0.0046887294581867437 -2.9508564563125842e-05 0 -0.0046701615756647181 -8.3909188418583062e-05 0 -0.0046887294581867437 -2.9508564563125842e-05 0 -0.0046487238059087985 -3.857877076429015e-05 0 -0.0082366376846158586 -0.00079758114006669241 0 -0.0084175010624266584 -0.00062412988257579756 0 -0.0085536639629592761 -0.00056327333733756314 0 -0.0063597554122978243 -3.3511303551472964e-05 0 -0.0062897082136492456 0.0001893681640973857 0 -0.0046701615756647181 -8.3909188418583062e-05 0 -0.0046487238059087985 -3.857877076429015e-05 0 -0.0046072614344235228 -2.2706464477515154e-05 0 -0.0084992305216245248 -0.00056307339631976193 0 -0.0084175010624266584 -0.00062412988257579756 0 -0.0085363686765628066 -0.00055487295117487778 0 -0.0084175010624266584 -0.00062412988257579756 0 -0.0085363686765628066 -0.00055487295117487778 0 -0.0085536639629592761 -0.00056327333733756314 0 -0.0084992305216245248 -0.00056307339631976193 0 -0.0084739411491326251 -0.00057184684292390698 0 -0.0084175010624266584 -0.00062412988257579756 0 -0.0084739411491326251 -0.00057184684292390698 0 -0.0084354369423557153 -0.00056572906634424125 0 -0.0084175010624266584 -0.00062412988257579756 0 -0.0084739411491326251 -0.00057184684292390698 0 -0.0084354369423557153 -0.00056572906634424125 0 -0.0085071490594814513 -0.00053998822762527131 0 -0.0084992305216245248 -0.00056307339631976193 0 -0.0084739411491326251 -0.00057184684292390698 0 -0.0085154705787175346 -0.00053805027547164732 0 -0.0084354369423557153 -0.00056572906634424125 0 -0.0083286449921375749 -0.00057556925250686216 0 -0.0084175010624266584 -0.00062412988257579756 0 -0.0082366376846158586 -0.00079758114006669241 0 -0.0083286449921375749 -0.00057556925250686216 0 -0.0084175010624266584 -0.00062412988257579756 0 -0.0085393899108603052 -0.00049907343391212839 0 -0.0084422010844175267 -0.00040860260066257018 0 -0.0083148873983375279 -0.00018049524688565593 0 -0.0062897082136492456 0.0001893681640973857 0 -0.0068545966396418353 0.00023285188869477048 0 -0.0084756344605226453 -0.00047580042909238041 0 -0.0084422010844175267 -0.00040860260066257018 0 -0.0084220472210616657 -0.00044053460608982332 0 -0.0084756344605226453 -0.00047580042909238041 0 -0.0084220472210616657 -0.00044053460608982332 0 -0.0084851831734935653 -0.00051789449404196085 0 -0.0084756344605226453 -0.00047580042909238041 0 -0.0085026840428552315 -0.00051417870645272337 0 -0.0084851831734935653 -0.00051789449404196085 0 -0.0085071490594814513 -0.00053998822762527131 0 -0.0085026840428552315 -0.00051417870645272337 0 -0.0084851831734935653 -0.00051789449404196085 0 -0.0084739411491326251 -0.00057184684292390698 0 -0.0085071490594814513 -0.00053998822762527131 0 -0.0085154705787175346 -0.00053805027547164732 0 -0.0085071490594814513 -0.00053998822762527131 0 -0.0085154705787175346 -0.00053805027547164732 0 -0.0085026840428552315 -0.00051417870645272337 0 -0.0085154705787175346 -0.00053805027547164732 0 -0.0085026840428552315 -0.00051417870645272337 0 -0.0085126873695496926 -0.00049781966380612209 0 -0.0084756344605226453 -0.00047580042909238041 0 -0.0085026840428552315 -0.00051417870645272337 0 -0.0085126873695496926 -0.00049781966380612209 0 -0.0085126873695496926 -0.00049781966380612209 0 -0.0085393899108603052 -0.00049907343391212839 0 -0.0084422010844175267 -0.00040860260066257018 0 -0.0084992305216245248 -0.00056307339631976193 0 -0.0085154705787175346 -0.00053805027547164732 0 -0.0085249042179183568 -0.00053548054306569578 0 -0.0084992305216245248 -0.00056307339631976193 0 -0.0085249042179183568 -0.00053548054306569578 0 -0.0085363686765628066 -0.00055487295117487778 0 -0.0085154705787175346 -0.00053805027547164732 0 -0.0085126873695496926 -0.00049781966380612209 0 -0.0085249042179183568 -0.00053548054306569578 0 -0.0085126873695496926 -0.00049781966380612209 0 -0.0085296472628325903 -0.00052467146413885039 0 -0.0085393899108603052 -0.00049907343391212839 0 -0.0085249042179183568 -0.00053548054306569578 0 -0.0085296472628325903 -0.00052467146413885039 0 -0.0085363686765628066 -0.00055487295117487778 0 -0.0085126873695496926 -0.00049781966380612209 0 -0.0085249042179183568 -0.00053548054306569578 0 -0.0085296472628325903 -0.00052467146413885039 0 -0.006298407599030771 0.000180322617346136 0 -0.0062897082136492456 0.0001893681640973857 0 -0.0085296472628325903 -0.00052467146413885039 0 -0.0085363686765628066 -0.00055487295117487778 0 -0.0085393899108603052 -0.00049907343391212839 0 -0.0084756344605226453 -0.00047580042909238041 0 -0.0085126873695496926 -0.00049781966380612209 0 -0.0084422010844175267 -0.00040860260066257018 0 -0.0084422010844175267 -0.00040860260066257018 0 -0.0083730235856655632 -0.00034899374657815891 0 -0.0083148873983375279 -0.00018049524688565593 0 -0.0084422010844175267 -0.00040860260066257018 0 -0.0083730235856655632 -0.00034899374657815891 0 -0.0084220472210616657 -0.00044053460608982332 0 -0.0083136773017940726 -0.00036152411765810982 0 -0.0082038589186081735 -0.00027727457148066058 0 -0.0083148873983375279 -0.00018049524688565593 0 -0.0083730235856655632 -0.00034899374657815891 0 -0.0083136773017940726 -0.00036152411765810982 0 -0.0083148873983375279 -0.00018049524688565593 0 -0.0083136773017940726 -0.00036152411765810982 0 -0.0083717122289919451 -0.00049264822660822518 0 -0.008148981565286673 -0.00046562189516885429 0 -0.0084220472210616657 -0.00044053460608982332 0 -0.0083717122289919451 -0.00049264822660822518 0 -0.0084851831734935653 -0.00051789449404196085 0 -0.0083730235856655632 -0.00034899374657815891 0 -0.0083136773017940726 -0.00036152411765810982 0 -0.0084220472210616657 -0.00044053460608982332 0 -0.0083136773017940726 -0.00036152411765810982 0 -0.0084220472210616657 -0.00044053460608982332 0 -0.0083717122289919451 -0.00049264822660822518 0 -0.0083717122289919451 -0.00049264822660822518 0 -0.0084129987653667158 -0.0006353143748317211 0 -0.0084851831734935653 -0.00051789449404196085 0 -0.0083717122289919451 -0.00049264822660822518 0 -0.0084129987653667158 -0.0006353143748317211 0 -0.008148981565286673 -0.00046562189516885429 0 -0.0084129987653667158 -0.0006353143748317211 0 -0.0084851831734935653 -0.00051789449404196085 0 -0.0085112405222196146 -0.00058094810582993788 0 -0.0084129987653667158 -0.0006353143748317211 0 -0.0085112405222196146 -0.00058094810582993788 0 -0.0085497508672618804 -0.00069077213338597022 0 -0.0084900195698355638 -0.00055415488472885285 0 -0.0085071490594814513 -0.00053998822762527131 0 -0.0085112405222196146 -0.00058094810582993788 0 -0.0085071490594814513 -0.00053998822762527131 0 -0.0084851831734935653 -0.00051789449404196085 0 -0.0085112405222196146 -0.00058094810582993788 0 -0.0084816227069182144 -0.000547375062694128 0 -0.0085112405222196146 -0.00058094810582993788 0 -0.0085497508672618804 -0.00069077213338597022 0 -0.0085497508672618804 -0.00069077213338597022 0 -0.008612641821600691 -0.00085126095918758565 0 -0.0084145746915759868 -0.00086339357781502072 0 -0.0085889008316459188 -0.00097923117561838084 0 -0.0087593269977804013 -0.00095473630997601065 0 -0.008612641821600691 -0.00085126095918758565 0 -0.0085889008316459188 -0.00097923117561838084 0 -0.008612641821600691 -0.00085126095918758565 0 -0.0084145746915759868 -0.00086339357781502072 0 -0.0084129987653667158 -0.0006353143748317211 0 -0.0085497508672618804 -0.00069077213338597022 0 -0.0084145746915759868 -0.00086339357781502072 0 -0.0084145746915759868 -0.00086339357781502072 0 -0.0081747416310320002 -0.001166338478708062 0 -0.008001689605549157 -0.00060504189823870895 0 -0.0084129987653667158 -0.0006353143748317211 0 -0.0084145746915759868 -0.00086339357781502072 0 -0.0078967534289665371 -0.00078305034570857297 0 -0.0080471067357214959 -0.00076599996722443364 0 -0.0077826223321852015 -0.00064277552407252295 0 -0.008295910918166647 -0.0011418227790418506 0 -0.0084145746915759868 -0.00086339357781502072 0 -0.0081747416310320002 -0.001166338478708062 0 -0.0078283065084428158 -0.0013758846558575536 0 -0.007983484611974765 -0.0013290576851209186 0 -0.0071928389037486228 -0.0015644274615011452 0 -0.0073617777727524175 -0.00087934058694087713 0 -0.0081747416310320002 -0.001166338478708062 0 -0.0073617777727524175 -0.00087934058694087713 0 -0.0081747416310320002 -0.001166338478708062 0 -0.008001689605549157 -0.00060504189823870895 0 -0.0071703775368512834 -0.00052684578776370135 0 -0.0078967534289665371 -0.00078305034570857297 0 -0.0077618745180617933 -0.00030994592471368339 0 -0.0072367845336425334 -0.00038479193086970916 0 -0.0077826223321852015 -0.00064277552407252295 0 -0.0084129987653667158 -0.0006353143748317211 0 -0.0078967534289665371 -0.00078305034570857297 0 -0.008148981565286673 -0.00046562189516885429 0 -0.0078967534289665371 -0.00078305034570857297 0 -0.008148981565286673 -0.00046562189516885429 0 -0.0077618745180617933 -0.00030994592471368339 0 -0.008148981565286673 -0.00046562189516885429 0 -0.0080393178751589044 -0.0001702361828347659 0 -0.0077618745180617933 -0.00030994592471368339 0 -0.0083136773017940726 -0.00036152411765810982 0 -0.008148981565286673 -0.00046562189516885429 0 -0.0082038589186081735 -0.00027727457148066058 0 -0.008148981565286673 -0.00046562189516885429 0 -0.0082038589186081735 -0.00027727457148066058 0 -0.0080393178751589044 -0.0001702361828347659 0 -0.0082038589186081735 -0.00027727457148066058 0 -0.0080393178751589044 -0.0001702361828347659 0 -0.0083148873983375279 -0.00018049524688565593 0 -0.0071703775368512834 -0.00052684578776370135 0 -0.007431831537994202 -8.1478406178055974e-05 0 -0.0077618745180617933 -0.00030994592471368339 0 -0.007431831537994202 -8.1478406178055974e-05 0 -0.0077618745180617933 -0.00030994592471368339 0 -0.007777312442967573 0.00012673534079501449 0 -0.0080393178751589044 -0.0001702361828347659 0 -0.0077618745180617933 -0.00030994592471368339 0 -0.007777312442967573 0.00012673534079501449 0 -0.0057985317055534646 0.00075799189615947081 0 -0.0058763643232432336 0.00072238934828228185 0 -0.0060653868471413222 0.0006679257610180887 0 -0.0061288579653550855 0.00060748536892485882 0 -0.0059792158267852665 0.00066985074707932629 0 -0.0055133888768309882 0.0007759685596532848 0 -0.0059792158267852665 0.00066985074707932629 0 -0.0057735186392970607 0.0008549771429258421 0 -0.0080393178751589044 -0.0001702361828347659 0 -0.007777312442967573 0.00012673534079501449 0 -0.0083148873983375279 -0.00018049524688565593 0 -0.0067847599417511541 0.00033303700752491505 0 -0.0068545966396418353 0.00023285188869477048 0 -0.0060653868471413222 0.0006679257610180887 0 -0.0059792158267852665 0.00066985074707932629 0 -0.005965269215830485 0.00067977182537393317 0 -0.0059792158267852665 0.00066985074707932629 0 -0.0057735186392970607 0.0008549771429258421 0 -0.0059487618640483705 0.00082926972196655641 0 -0.0059792158267852665 0.00066985074707932629 0 -0.0059487618640483705 0.00082926972196655641 0 -0.0059800184832322122 0.0007014935975145028 0 -0.0057735186392970607 0.0008549771429258421 0 -0.0059487618640483705 0.00082926972196655641 0 -0.0058088073238252019 0.0010017859460237555 0 -0.0059487618640483705 0.00082926972196655641 0 -0.0058088073238252019 0.0010017859460237555 0 -0.0059943991002211925 0.001200462958242844 0 -0.0057735186392970607 0.0008549771429258421 0 -0.0058088073238252019 0.0010017859460237555 0 -0.0056060645855829476 0.0010158858635987143 0 -0.0055133888768309882 0.0007759685596532848 0 -0.0057735186392970607 0.0008549771429258421 0 -0.0056060645855829476 0.0010158858635987143 0 -0.0053694681275126867 0.0010136770762128116 0 -0.0055133888768309882 0.0007759685596532848 0 -0.0056060645855829476 0.0010158858635987143 0 -0.0053694681275126867 0.0010136770762128116 0 -0.0054495032543938641 0.0012071956024551566 0 -0.0056060645855829476 0.0010158858635987143 0 -0.0054495032543938641 0.0012071956024551566 0 -0.0056060645855829476 0.0010158858635987143 0 -0.0057114700798061328 0.0012170968396043634 0 -0.0054495032543938641 0.0012071956024551566 0 -0.0057114700798061328 0.0012170968396043634 0 -0.0055550053467078708 0.0014204671376794283 0 -0.0058088073238252019 0.0010017859460237555 0 -0.0056060645855829476 0.0010158858635987143 0 -0.0057114700798061328 0.0012170968396043634 0 -0.0057114700798061328 0.0012170968396043634 0 -0.0055550053467078708 0.0014204671376794283 0 -0.0057815443214564843 0.0015512251382931363 0 -0.0055550053467078708 0.0014204671376794283 0 -0.0057815443214564843 0.0015512251382931363 0 -0.0055494451513809547 0.0016017852211877414 0 -0.0057114700798061328 0.0012170968396043634 0 -0.0059943991002211925 0.001200462958242844 0 -0.0057815443214564843 0.0015512251382931363 0 -0.0045383111664658131 -4.3123203821114893e-05 0 -0.0045378340750889734 -1.351579432353371e-05 0 -0.0045218604118883367 -1.8331511363463954e-05 0 -0.0052439098724356148 0.0005666612169814211 0 -0.0050317276205093173 0.00067401612064144794 0 -0.0058088073238252019 0.0010017859460237555 0 -0.0057114700798061328 0.0012170968396043634 0 -0.0059943991002211925 0.001200462958242844 0 -0.0045383111664658131 -4.3123203821114893e-05 0 -0.0045535759218451703 -2.791466210203581e-05 0 -0.0045378340750889734 -1.351579432353371e-05 0 -0.0045535759218451703 -2.791466210203581e-05 0 -0.0045641087306653371 -4.9119156459877757e-05 0 -0.0045750799817085427 -3.6905655226021328e-05 0 -0.0045383111664658131 -4.3123203821114893e-05 0 -0.0045535759218451703 -2.791466210203581e-05 0 -0.0045641087306653371 -4.9119156459877757e-05 0 -0.0045383111664658131 -4.3123203821114893e-05 0 -0.0045641087306653371 -4.9119156459877757e-05 0 -0.0045534017680487777 -6.3150060363828916e-05 0 -0.0049259049010690597 3.612930066547607e-05 0 -0.0054526867370596737 0.0004377234479458841 0 -0.0046286725149722215 2.7187574661408065e-05 0 -0.0046040653758149539 1.8978598419682592e-05 0 -0.0046247264105401809 2.2227964856666683e-05 0 -0.0046040653758149539 1.8978598419682592e-05 0 -0.0046172725147589815 3.6026212715491846e-06 0 -0.0046247264105401809 2.2227964856666683e-05 0 -0.0059487618640483705 0.00082926972196655641 0 -0.0059943991002211925 0.001200462958242844 0 -0.0060449961563457414 0.00085172466953065758 0 -0.0052439098724356148 0.0005666612169814211 0 -0.0054526867370596737 0.0004377234479458841 0 -0.0059943991002211925 0.001200462958242844 0 -0.0061717661112549059 0.00086480028105576231 0 -0.0060449961563457414 0.00085172466953065758 0 -0.0054526867370596737 0.0004377234479458841 0 -0.0055732861913899588 0.00055717829100835378 0 -0.0061852563399336265 0.00064309558922728556 0 -0.006014272341481712 0.00072635850017727761 0 -0.005965269215830485 0.00067977182537393317 0 -0.0061717661112549059 0.00086480028105576231 0 -0.0060449961563457414 0.00085172466953065758 0 -0.006014272341481712 0.00072635850017727761 0 -0.0059487618640483705 0.00082926972196655641 0 -0.0060449961563457414 0.00085172466953065758 0 -0.006014272341481712 0.00072635850017727761 0 -0.0059487618640483705 0.00082926972196655641 0 -0.006014272341481712 0.00072635850017727761 0 -0.0059800184832322122 0.0007014935975145028 0 -0.0059792158267852665 0.00066985074707932629 0 -0.0059800184832322122 0.0007014935975145028 0 -0.005965269215830485 0.00067977182537393317 0 -0.006014272341481712 0.00072635850017727761 0 -0.0059800184832322122 0.0007014935975145028 0 -0.005965269215830485 0.00067977182537393317 0 -0.0062897082136492456 0.0001893681640973857 0 -0.0054526867370596737 0.0004377234479458841 0 -0.0061852563399336265 0.00064309558922728556 0 -0.0060822673854307547 0.00081175981529265696 0 -0.006014272341481712 0.00072635850017727761 0 -0.0046072614344235228 -2.2706464477515154e-05 0 -0.0046040653758149539 1.8978598419682592e-05 0 -0.0046172725147589815 3.6026212715491846e-06 0 -0.0046072614344235228 -2.2706464477515154e-05 0 -0.0046172725147589815 3.6026212715491846e-06 0 -0.00462195734300505 -8.688855198598883e-06 0 -0.004648782923542252 3.3598367136430095e-06 0 -0.0046305479740021069 6.7996900012216693e-06 0 -0.0046352370183327732 -1.748396099359657e-05 0 -0.004648782923542252 3.3598367136430095e-06 0 -0.0046621417710302655 8.995330747251938e-06 0 -0.004642004604209677 1.8780773443047567e-05 0 -0.004648782923542252 3.3598367136430095e-06 0 -0.0046305479740021069 6.7996900012216693e-06 0 -0.004642004604209677 1.8780773443047567e-05 0 -0.0046172725147589815 3.6026212715491846e-06 0 -0.0046305479740021069 6.7996900012216693e-06 0 -0.0046247264105401809 2.2227964856666683e-05 0 -0.0046172725147589815 3.6026212715491846e-06 0 -0.0046305479740021069 6.7996900012216693e-06 0 -0.00462195734300505 -8.688855198598883e-06 0 -0.0046072614344235228 -2.2706464477515154e-05 0 -0.00462195734300505 -8.688855198598883e-06 0 -0.0046352370183327732 -1.748396099359657e-05 0 -0.0046487238059087985 -3.857877076429015e-05 0 -0.0046072614344235228 -2.2706464477515154e-05 0 -0.0046352370183327732 -1.748396099359657e-05 0 -0.0046305479740021069 6.7996900012216693e-06 0 -0.00462195734300505 -8.688855198598883e-06 0 -0.0046352370183327732 -1.748396099359657e-05 0 -0.0046487238059087985 -3.857877076429015e-05 0 -0.0046352370183327732 -1.748396099359657e-05 0 -0.0046686194456843771 -1.4284045300088253e-05 0 -0.004648782923542252 3.3598367136430095e-06 0 -0.0046352370183327732 -1.748396099359657e-05 0 -0.0046686194456843771 -1.4284045300088253e-05 0 -0.0047646171573711062 -4.3634985931992788e-05 0 -0.0046887294581867437 -2.9508564563125842e-05 0 -0.0046918608820877387 -1.8770660536456364e-07 0 -0.0046887294581867437 -2.9508564563125842e-05 0 -0.0046487238059087985 -3.857877076429015e-05 0 -0.0046686194456843771 -1.4284045300088253e-05 0 -0.0047646171573711062 -4.3634985931992788e-05 0 -0.0046918608820877387 -1.8770660536456364e-07 0 -0.0046002047590197551 3.3997302538292263e-05 0 -0.0046887294581867437 -2.9508564563125842e-05 0 -0.0046686194456843771 -1.4284045300088253e-05 0 -0.0046918608820877387 -1.8770660536456364e-07 0 -0.0046686194456843771 -1.4284045300088253e-05 0 -0.0046918608820877387 -1.8770660536456364e-07 0 -0.0046621417710302655 8.995330747251938e-06 0 -0.004648782923542252 3.3598367136430095e-06 0 -0.0046686194456843771 -1.4284045300088253e-05 0 -0.0046621417710302655 8.995330747251938e-06 0 -0.0046918608820877387 -1.8770660536456364e-07 0 -0.0046621417710302655 8.995330747251938e-06 0 -0.0046470371010379338 2.3231610535056622e-05 0 -0.0046621417710302655 8.995330747251938e-06 0 -0.0046470371010379338 2.3231610535056622e-05 0 -0.004642004604209677 1.8780773443047567e-05 0 -0.0046470371010379338 2.3231610535056622e-05 0 -0.0046267858462942704 3.087651564935749e-05 0 -0.004598077589684264 3.2872762285787457e-05 0 -0.0046470371010379338 2.3231610535056622e-05 0 -0.0046267858462942704 3.087651564935749e-05 0 -0.004642004604209677 1.8780773443047567e-05 0 -0.0046286725149722215 2.7187574661408065e-05 0 -0.0046267858462942704 3.087651564935749e-05 0 -0.0046247264105401809 2.2227964856666683e-05 0 -0.0046267858462942704 3.087651564935749e-05 0 -0.004642004604209677 1.8780773443047567e-05 0 -0.0046247264105401809 2.2227964856666683e-05 0 -0.0046305479740021069 6.7996900012216693e-06 0 -0.004642004604209677 1.8780773443047567e-05 0 -0.0046247264105401809 2.2227964856666683e-05 0 -0.0046286725149722215 2.7187574661408065e-05 0 -0.0046267858462942704 3.087651564935749e-05 0 -0.0046275516955071646 5.5567162442677394e-08 0 -0.0049259049010690597 3.612930066547607e-05 0 -0.0047562781070151971 -5.4911175045236373e-05 0 -0.0045750799817085427 -3.6905655226021328e-05 0 -0.0045873306176121712 -5.1842069287297656e-05 0 -0.0045673886556245723 -2.3538420784601333e-05 0 -0.0045535759218451703 -2.791466210203581e-05 0 -0.0045750799817085427 -3.6905655226021328e-05 0 -0.0045673886556245723 -2.3538420784601333e-05 0 -0.0047562781070151971 -5.4911175045236373e-05 0 -0.0047134625901345739 -7.3693720946469896e-05 0 -0.0046275516955071646 5.5567162442677394e-08 0 -0.004586916830131316 -1.0542156671957869e-05 0 -0.0045873306176121712 -5.1842069287297656e-05 0 -0.0046275516955071646 5.5567162442677394e-08 0 -0.004586916830131316 -1.0542156671957869e-05 0 -0.004598077589684264 3.2872762285787457e-05 0 -0.0046267858462942704 3.087651564935749e-05 0 -0.0046275516955071646 5.5567162442677394e-08 0 -0.004598077589684264 3.2872762285787457e-05 0 -0.004598077589684264 3.2872762285787457e-05 0 -0.004566852673496268 5.970818501507175e-05 0 -0.004496176935638206 6.3348229760683372e-06 0 -0.004586916830131316 -1.0542156671957869e-05 0 -0.004598077589684264 3.2872762285787457e-05 0 -0.004496176935638206 6.3348229760683372e-06 0 -0.004586916830131316 -1.0542156671957869e-05 0 -0.004496176935638206 6.3348229760683372e-06 0 -0.0045084055022219204 -0.00012761653761876073 0 -0.004496176935638206 6.3348229760683372e-06 0 -0.0040768666145238374 -3.4778899969338074e-08 0 -0.0045084055022219204 -0.00012761653761876073 0 -0.0040742201617936557 9.9161745252712491e-08 0 -0.0038886760713236997 5.5857136059726959e-05 0 -0.004566852673496268 5.970818501507175e-05 0 -0.004496176935638206 6.3348229760683372e-06 0 -0.0040768666145238374 -3.4778899969338074e-08 0 -0.004566852673496268 5.970818501507175e-05 0 -0.0040768666145238374 -3.4778899969338074e-08 0 -0.0046624536128564518 1.2538700515990603e-07 0 -0.004566852673496268 5.970818501507175e-05 0 -0.0046624536128564518 1.2538700515990603e-07 0 -0.0046002047590197551 3.3997302538292263e-05 0 -0.0046654655923035861 -2.7653722121957518e-07 0 -0.0053006824475157173 0.0001345828735098652 0 -0.0053081461170387725 4.6890638888747608e-07 0 -0.0046647796248661527 1.0312532652776489e-07 0 -0.0047931674687551528 5.1658994424735129e-05 0 -0.0046470371010379338 2.3231610535056622e-05 0 -0.004566852673496268 5.970818501507175e-05 0 -0.0046002047590197551 3.3997302538292263e-05 0 -0.0046470371010379338 2.3231610535056622e-05 0 -0.004598077589684264 3.2872762285787457e-05 0 -0.004566852673496268 5.970818501507175e-05 0 -0.0047536304176025966 -2.952855909851433e-06 0 -0.0047931674687551528 5.1658994424735129e-05 0 -0.0046918608820877387 -1.8770660536456364e-07 0 -0.0046470371010379338 2.3231610535056622e-05 0 -0.0046002047590197551 3.3997302538292263e-05 0 -0.0052026638970321532 -0.00017274519878938429 0 -0.0047646171573711062 -4.3634985931992788e-05 0 -0.0053006824475157173 0.0001345828735098652 0 -0.0052026638970321532 -0.00017274519878938429 0 -0.0053006824475157173 0.0001345828735098652 0 -0.0054479367137656052 3.5526814965737518e-05 0 -0.0059511874558697553 -6.0389721341553499e-07 0 -0.0054479367137656052 3.5526814965737518e-05 0 -0.0053081461170387725 4.6890638888747608e-07 0 -0.0053006824475157173 0.0001345828735098652 0 -0.0054479367137656052 3.5526814965737518e-05 0 -0.0053081461170387725 4.6890638888747608e-07 0 -0.0024554279062380204 4.2893611754105399e-05 0 -0.0021329467240403062 -3.0898590393204539e-07 0 -0.0026583188025214757 -0.00027700045714802859 0 -0.0021311197773376052 -8.2180632479764783e-08 0 -0.0020202430119791088 -3.9152694095943943e-05 0 -0.0024554279062380204 4.2893611754105399e-05 0 -0.0029103785509364999 -0.0002760526815251294 0 -0.0026583188025214757 -0.00027700045714802859 0 -0.0029350938457714088 -0.00014614979132609706 0 -0.0029959985574667032 -0.00015579617888749505 0 -0.0029103785509364999 -0.0002760526815251294 0 -0.0029350938457714088 -0.00014614979132609706 0 -0.0029959985574667032 -0.00015579617888749505 0 -0.0030153816542486081 -6.659312356020069e-05 0 -0.0027755090748699095 -6.8987575372005732e-05 0 -0.0028420716051423991 -0.00015375261495833344 0 -0.0029350938457714088 -0.00014614979132609706 0 -0.0030153816542486081 -6.659312356020069e-05 0 -0.0030344879277636391 3.2714192345870397e-05 0 -0.0030153816542486081 -6.659312356020069e-05 0 -0.0030344879277636391 3.2714192345870397e-05 0 -0.0030744408667355123 3.2597104221538341e-05 0 -0.0029350938457714088 -0.00014614979132609706 0 -0.0027448579372262864 -2.306636856667332e-07 0 -0.0030344879277636391 3.2714192345870397e-05 0 -0.0027755090748699095 -6.8987575372005732e-05 0 -0.0027436086722851783 -4.0447510232085329e-08 0 -0.0024554279062380204 4.2893611754105399e-05 0 -0.0021329467240403062 -3.0898590393204539e-07 0 -0.0027422401988153951 3.2890263154871742e-07 0 -0.0034088420618117216 3.2121955912663143e-07 0 -0.0032049315659792416 -3.2398127166512798e-05 0 -0.0030344879277636391 3.2714192345870397e-05 0 -0.0027448579372262864 -2.306636856667332e-07 0 -0.0034088420618117216 3.2121955912663143e-07 0 -0.0030344879277636391 3.2714192345870397e-05 0 -0.0040738090518617582 -4.2248685372111423e-07 0 -0.0034088420618117216 3.2121955912663143e-07 0 -0.0032049315659792416 -3.2398127166512798e-05 0 -0.0032049315659792416 -3.2398127166512798e-05 0 -0.0030344879277636391 3.2714192345870397e-05 0 -0.0030744408667355123 3.2597104221538341e-05 0 -0.0038886760713236997 5.5857136059726959e-05 0 -0.0038562999137814803 3.4991454128879952e-05 0 -0.0046067591049365267 1.7589471536827605e-06 0 -0.0045873306176121712 -5.1842069287297656e-05 0 -0.0045741322758181312 7.1203468257855199e-06 0 -0.0045084055022219204 -0.00012761653761876073 0 -0.0046067591049365267 1.7589471536827605e-06 0 -0.0045873306176121712 -5.1842069287297656e-05 0 -0.004586916830131316 -1.0542156671957869e-05 0 -0.0045084055022219204 -0.00012761653761876073 0 -0.0045873306176121712 -5.1842069287297656e-05 0 -0.0045873306176121712 -5.1842069287297656e-05 0 -0.0045673886556245723 -2.3538420784601333e-05 0 -0.0045741322758181312 7.1203468257855199e-06 0 -0.0046067591049365267 1.7589471536827605e-06 0 -0.0045741322758181312 7.1203468257855199e-06 0 -0.004574548107342309 0.00013520801200936906 0 -0.0038562999137814803 3.4991454128879952e-05 0 -0.00385754848519543 3.6525848586965604e-06 0 -0.0030153816542486081 -6.659312356020069e-05 0 -0.0030744408667355123 3.2597104221538341e-05 0 -0.0030784042899183648 -9.0817836399748541e-05 0 -0.0030744408667355123 3.2597104221538341e-05 0 -0.0032393778154803693 -7.1783724982899994e-05 0 -0.0030784042899183648 -9.0817836399748541e-05 0 -0.0029959985574667032 -0.00015579617888749505 0 -0.0030153816542486081 -6.659312356020069e-05 0 -0.0030784042899183648 -9.0817836399748541e-05 0 -0.0029959985574667032 -0.00015579617888749505 0 -0.0030784042899183648 -9.0817836399748541e-05 0 -0.0031467714536887038 -0.00022458549781210305 0 -0.0029959985574667032 -0.00015579617888749505 0 -0.0031467714536887038 -0.00022458549781210305 0 -0.0029103785509364999 -0.0002760526815251294 0 -0.0032393778154803693 -7.1783724982899994e-05 0 -0.0030784042899183648 -9.0817836399748541e-05 0 -0.0031467714536887038 -0.00022458549781210305 0 -0.0032393778154803693 -7.1783724982899994e-05 0 -0.0031467714536887038 -0.00022458549781210305 0 -0.0034289314701798097 -0.0002411738364897109 0 -0.004574548107342309 0.00013520801200936906 0 -0.0045313866858814472 0.00021792491383591586 0 -0.004519272329798432 0.00016633161195795298 0 -0.00385754848519543 3.6525848586965604e-06 0 -0.003796439318933136 -1.0036334702879053e-05 0 -0.0045313866858814472 0.00021792491383591586 0 -0.004519272329798432 0.00016633161195795298 0 -0.0045053167125768123 0.00021626843860416515 0 -0.004574548107342309 0.00013520801200936906 0 -0.004519272329798432 0.00016633161195795298 0 -0.0045293988146691676 8.2152968936203009e-05 0 -0.0046014859628925207 0.000240443152326536 0 -0.0045956915261537038 0.00028331025257266596 0 -0.0045741322758181312 7.1203468257855199e-06 0 -0.004574548107342309 0.00013520801200936906 0 -0.0045293988146691676 8.2152968936203009e-05 0 -0.0045673886556245723 -2.3538420784601333e-05 0 -0.0045741322758181312 7.1203468257855199e-06 0 -0.0045494163177180929 1.3546236674647927e-06 0 -0.0045535759218451703 -2.791466210203581e-05 0 -0.0045673886556245723 -2.3538420784601333e-05 0 -0.0045494163177180929 1.3546236674647927e-06 0 -0.0045535759218451703 -2.791466210203581e-05 0 -0.0045494163177180929 1.3546236674647927e-06 0 -0.0045378340750889734 -1.351579432353371e-05 0 -0.0045956915261537038 0.00028331025257266596 0 -0.0046094182554187041 0.00041650755638423766 0 -0.0045494163177180929 1.3546236674647927e-06 0 -0.0045378340750889734 -1.351579432353371e-05 0 -0.0045302174348247973 3.8279214255117658e-06 0 -0.004519272329798432 0.00016633161195795298 0 -0.0045293988146691676 8.2152968936203009e-05 0 -0.0045063365617052219 0.00013500387971776285 0 -0.0045302174348247973 3.8279214255117658e-06 0 -0.0045187456752902857 -2.0393629376175942e-06 0 -0.0045079354522171702 6.6818817794803994e-06 0 -0.0045063365617052219 0.00013500387971776285 0 -0.0044365280335987899 0.00014618854090378113 0 -0.0044981433841599621 0.00021420144816691343 0 -0.0046094182554187041 0.00041650755638423766 0 -0.0047703019892549386 0.00068948129201495901 0 -0.0045378340750889734 -1.351579432353371e-05 0 -0.0045302174348247973 3.8279214255117658e-06 0 -0.0045187456752902857 -2.0393629376175942e-06 0 -0.0045378340750889734 -1.351579432353371e-05 0 -0.0045187456752902857 -2.0393629376175942e-06 0 -0.0045218604118883367 -1.8331511363463954e-05 0 -0.0057815443214564843 0.0015512251382931363 0 -0.0055494451513809547 0.0016017852211877414 0 -0.0055682563972794747 0.0018939834056787455 0 -0.0045187456752902857 -2.0393629376175942e-06 0 -0.0045218604118883367 -1.8331511363463954e-05 0 -0.0045079354522171702 6.6818817794803994e-06 0 -0.0050317276205093173 0.00067401612064144794 0 -0.0047703019892549386 0.00068948129201495901 0 -0.0055494451513809547 0.0016017852211877414 0 -0.0055682563972794747 0.0018939834056787455 0 -0.0053003492207210848 0.0015630973818826809 0 -0.0049986028268471155 0.0012724760036690276 0 -0.0049974931698325217 0.0012750177730512199 0 -0.0049792965780793763 0.0012621414479946974 0 -0.0044957514996609169 0.0001885355353109557 0 -0.0044913983279739212 0.0001891247916776816 0 -0.0044927294003613083 0.00021305179799938721 0 -0.0047703019892549386 0.00068948129201495901 0 -0.0047326766005058082 0.00072810961372553416 0 -0.0044913983279739212 0.0001891247916776816 0 -0.0044927294003613083 0.00021305179799938721 0 -0.0044175796547803927 0.00029047140167733494 0 -0.0047703019892549386 0.00068948129201495901 0 -0.0046020510991346348 0.00045689772066541395 0 -0.0044957514996609169 0.0001885355353109557 0 -0.0044927294003613083 0.00021305179799938721 0 -0.0044981433841599621 0.00021420144816691343 0 -0.0044958326028647702 0.00024710489705713712 0 -0.0045126364938094417 0.00027903021435036308 0 -0.0044175796547803927 0.00029047140167733494 0 -0.0044927294003613083 0.00021305179799938721 0 -0.0044958326028647702 0.00024710489705713712 0 -0.0044175796547803927 0.00029047140167733494 0 -0.0044981433841599621 0.00021420144816691343 0 -0.0044999057799024762 0.00023729333845865882 0 -0.0045126364938094417 0.00027903021435036308 0 -0.0044958326028647702 0.00024710489705713712 0 -0.0044981433841599621 0.00021420144816691343 0 -0.0045126364938094417 0.00027903021435036308 0 -0.0044927294003613083 0.00021305179799938721 0 -0.0044958326028647702 0.00024710489705713712 0 -0.0044981433841599621 0.00021420144816691343 0 -0.004519272329798432 0.00016633161195795298 0 -0.0045063365617052219 0.00013500387971776285 0 -0.0044981433841599621 0.00021420144816691343 0 -0.004519272329798432 0.00016633161195795298 0 -0.0044981433841599621 0.00021420144816691343 0 -0.0045053167125768123 0.00021626843860416515 0 -0.0044981433841599621 0.00021420144816691343 0 -0.0044999057799024762 0.00023729333845865882 0 -0.0045053167125768123 0.00021626843860416515 0 -0.0044999057799024762 0.00023729333845865882 0 -0.0045053167125768123 0.00021626843860416515 0 -0.0044977717980829541 0.00022552786707522344 0 -0.0039479412133945771 0.00051075914440973271 0 -0.0038265132918073558 0.0004798084068620211 0 -0.0045126364938094417 0.00027903021435036308 0 -0.0046220570983234645 0.00044420529433330879 0 -0.0044566871231346379 0.00045735889658043608 0 -0.0044999057799024762 0.00023729333845865882 0 -0.0045126364938094417 0.00027903021435036308 0 -0.0044977717980829541 0.00022552786707522344 0 -0.0044872928642223356 0.00053183728542978621 0 -0.0045644411554361507 0.00057369355738866843 0 -0.0044262328548092932 0.00057787380576264846 0 -0.0044872928642223356 0.00053183728542978621 0 -0.0046220570983234645 0.00044420529433330879 0 -0.0045644411554361507 0.00057369355738866843 0 -0.0044872928642223356 0.00053183728542978621 0 -0.0046220570983234645 0.00044420529433330879 0 -0.0044566871231346379 0.00045735889658043608 0 -0.0045053167125768123 0.00021626843860416515 0 -0.0044977717980829541 0.00022552786707522344 0 -0.0045028845619212131 0.00024036219481845801 0 -0.0046220570983234645 0.00044420529433330879 0 -0.0047050132408485504 0.00056455678588692077 0 -0.0045644411554361507 0.00057369355738866843 0 -0.0038265132918073558 0.0004798084068620211 0 -0.0033346909472263589 0.0002449272961057399 0 -0.0033346909472263589 0.0002449272961057399 0 -0.003046138263061902 0.00063945892971510685 0 -0.0023782945461606792 -0.00013475719486943498 0 -0.0018544701027919804 0.00034418496813226677 0 -0.0023221025052913226 0.00034787580400038573 0 -0.0045644411554361507 0.00057369355738866843 0 -0.0045440047883845806 0.00072241508072265568 0 -0.0044262328548092932 0.00057787380576264846 0 -0.0047050132408485504 0.00056455678588692077 0 -0.0045644411554361507 0.00057369355738866843 0 -0.0045440047883845806 0.00072241508072265568 0 -0.0018544701027919804 0.00034418496813226677 0 -0.0017468591713683255 0.00076365024611269451 0 -0.0021688229297551595 0.00079058634784294186 0 -0.0015546621901571436 0.0011421148988655177 0 -0.0017468591713683255 0.00076365024611269451 0 -0.0021688229297551595 0.00079058634784294186 0 -0.00046617064317211129 0.00065586691244157831 0 -0.0013113311298996251 0.00033603870715116725 0 -0.00046215576762886169 7.9321306016693873e-05 0 -0.0004733905724473595 7.8596113562230343e-05 0 -0.00047984686098481629 -3.0424570843964617e-06 0 -0.00053784743939750193 5.6410615212755275e-05 0 -0.00047984686098481629 -3.0424570843964617e-06 0 -0.00063418292123692719 -4.4253341824479774e-06 0 -0.0004733905724473595 7.8596113562230343e-05 0 -0.00053784743939750193 5.6410615212755275e-05 0 -0.00047984686098481629 -3.0424570843964617e-06 0 -0.0021688229297551595 0.00079058634784294186 0 -0.0023221025052913226 0.00034787580400038573 0 -0.0027790313542382476 0.00044089074241407335 0 -0.0018544701027919804 0.00034418496813226677 0 -0.0021688229297551595 0.00079058634784294186 0 -0.0023221025052913226 0.00034787580400038573 0 -0.0013113311298996251 0.00033603870715116725 0 -0.0021077789915124575 9.8504467936500968e-08 0 -0.00047984686098481629 -3.0424570843964617e-06 0 -0.00067510114842353453 -0.00015405978762779535 0 -0.00063418292123692719 -4.4253341824479774e-06 0 -0.00067510114842353453 -0.00015405978762779535 0 -0.00063418292123692719 -4.4253341824479774e-06 0 -0.00079475138210751372 -9.1640004280269688e-06 0 -0.00073157893978941456 0.0001307090117608406 0 -0.00063418292123692719 -4.4253341824479774e-06 0 -0.00079475138210751372 -9.1640004280269688e-06 0 -0.0021077789915124575 9.8504467936500968e-08 0 -0.0021089592349366054 -0.00010973356301208323 0 -0.00079080798903316551 -4.0396501041780159e-05 0 -0.00088434800353024952 -5.4847550931533323e-05 0 -0.00087344520528575686 -2.1432707319036018e-05 0 -0.00079080798903316551 -4.0396501041780159e-05 0 -0.00079475138210751372 -9.1640004280269688e-06 0 -0.00087344520528575686 -2.1432707319036018e-05 0 -0.0021077789915124575 9.8504467936500968e-08 0 -0.0018466379196579591 -0.00016573574089095601 0 -0.0034582831475193409 -0.00059988520448298532 0 -0.0034216938543594065 -0.00043004353986758967 0 -0.0032801224147256296 -0.00050030851348276963 0 -0.0034216938543594065 -0.00043004353986758967 0 -0.0032806563559376551 -0.00036805970443276088 0 -0.0032801224147256296 -0.00050030851348276963 0 -0.0033346909472263589 0.0002449272961057399 0 -0.0021077789915124575 9.8504467936500968e-08 0 -0.0023782945461606792 -0.00013475719486943498 0 -0.0023221025052913226 0.00034787580400038573 0 -0.0027790313542382476 0.00044089074241407335 0 -0.0035990052345258191 -0.00040301141190974903 0 -0.0034582831475193409 -0.00059988520448298532 0 -0.0034216938543594065 -0.00043004353986758967 0 -0.0045313866858814472 0.00021792491383591586 0 -0.0045053167125768123 0.00021626843860416515 0 -0.0045028845619212131 0.00024036219481845801 0 -0.003796439318933136 -1.0036334702879053e-05 0 -0.0033346909472263589 0.0002449272961057399 0 -0.0034289314701798097 -0.0002411738364897109 0 -0.0035990052345258191 -0.00040301141190974903 0 -0.0034216938543594065 -0.00043004353986758967 0 -0.0034289314701798097 -0.0002411738364897109 0 -0.0034216938543594065 -0.00043004353986758967 0 -0.0032806563559376551 -0.00036805970443276088 0 -0.0031467714536887038 -0.00022458549781210305 0 -0.0034289314701798097 -0.0002411738364897109 0 -0.0032806563559376551 -0.00036805970443276088 0 -0.0031467714536887038 -0.00022458549781210305 0 -0.0032806563559376551 -0.00036805970443276088 0 -0.003102755053523865 -0.00042614180796250473 0 -0.0031467714536887038 -0.00022458549781210305 0 -0.003102755053523865 -0.00042614180796250473 0 -0.0029103785509364999 -0.0002760526815251294 0 -0.00097562111772584652 -3.0971499154426714e-05 0 -0.00095316536024898034 -6.635499484214343e-06 0 -0.00099866652904430754 6.3918183785277531e-05 0 -0.0020551961104934274 -0.00010187620109590733 0 -0.0021089592349366054 -0.00010973356301208323 0 -0.0032806563559376551 -0.00036805970443276088 0 -0.003102755053523865 -0.00042614180796250473 0 -0.0032801224147256296 -0.00050030851348276963 0 -0.00097562111772584652 -3.0971499154426714e-05 0 -0.00088434800353024952 -5.4847550931533323e-05 0 -0.00095316536024898034 -6.635499484214343e-06 0 -0.00088434800353024952 -5.4847550931533323e-05 0 -0.00087344520528575686 -2.1432707319036018e-05 0 -0.00095316536024898034 -6.635499484214343e-06 0 -0.00092060629287327904 3.4631989711172291e-05 0 -0.00079475138210751372 -9.1640004280269688e-06 0 -0.00087344520528575686 -2.1432707319036018e-05 0 -0.00092060629287327904 3.4631989711172291e-05 0 -0.00087344520528575686 -2.1432707319036018e-05 0 -0.00095316536024898034 -6.635499484214343e-06 0 -0.00027387273807246966 8.0440706940668489e-05 0 -0.00025546075436432583 4.7120910816773317e-05 0 -0.00092060629287327904 3.4631989711172291e-05 0 -0.00095316536024898034 -6.635499484214343e-06 0 -0.00094110695236066769 -6.8889922189998271e-05 0 -0.00095316536024898034 -6.635499484214343e-06 0 -0.00094110695236066769 -6.8889922189998271e-05 0 -0.00099866652904430754 6.3918183785277531e-05 0 -0.00094110695236066769 -6.8889922189998271e-05 0 -0.00045853207524848934 -1.2675338428816028e-05 0 -0.00099866652904430754 6.3918183785277531e-05 0 0.00045673393817268761 3.7171096737219146e-07 0 0.00011319154388688126 5.073326859739849e-05 0 -0.00040612575172212299 -3.8928039957562667e-07 0 0.00048665227103149273 -1.6859399612029118e-05 0 0.00011319154388688126 5.073326859739849e-05 0 -0.00045853207524848934 -1.2675338428816028e-05 0 -0.00025546075436432583 4.7120910816773317e-05 0 -0.00027887938777297112 3.3062632004552319e-05 0 0.00011319154388688126 5.073326859739849e-05 0 -0.00045853207524848934 -1.2675338428816028e-05 0 -0.00040612575172212299 -3.8928039957562667e-07 0 -0.00045853207524848934 -1.2675338428816028e-05 0 -0.00040612575172212299 -3.8928039957562667e-07 0 -0.0012689185555274836 5.064156505028707e-07 0 -0.00045853207524848934 -1.2675338428816028e-05 0 -0.0012689185555274836 5.064156505028707e-07 0 -0.00099866652904430754 6.3918183785277531e-05 0 -0.0012689185555274836 5.064156505028707e-07 0 -0.00099866652904430754 6.3918183785277531e-05 0 -0.0012562533614646878 -6.7768500748614617e-05 0 -0.00097562111772584652 -3.0971499154426714e-05 0 -0.00099866652904430754 6.3918183785277531e-05 0 -0.0012562533614646878 -6.7768500748614617e-05 0 -0.003102755053523865 -0.00042614180796250473 0 -0.0029103785509364999 -0.0002760526815251294 0 -0.0026583188025214757 -0.00027700045714802859 0 -0.0020551961104934274 -0.00010187620109590733 0 -0.0020202430119791088 -3.9152694095943943e-05 0 -0.0021300787129022699 -7.3241437300954957e-07 0 -0.0012689185555274836 5.064156505028707e-07 0 -0.0012562533614646878 -6.7768500748614617e-05 0 -0.0040334331469199973 0.0026790696562887756 0 -0.0044108665730595324 0.0027632318955544861 0 -0.0044235921960411682 0.0022512978629757358 0 -0.0040334331469199973 0.0026790696562887756 0 -0.0037956581895942183 0.0022549214055219394 0 -0.0044235921960411682 0.0022512978629757358 0 -0.0044108665730595324 0.0027632318955544861 0 -0.0044235921960411682 0.0022512978629757358 0 -0.0048004502240388399 0.0027884957917186318 0 -0.0044973002566067203 0.0017863278995128508 0 -0.0045155326434532187 0.0020396554678006927 0 -0.0044108665730595324 0.0027632318955544861 0 -0.0048004502240388399 0.0027884957917186318 0 -0.0045994097301167696 0.0031743389059489969 0 -0.0044108665730595324 0.0027632318955544861 0 -0.00426233845621734 0.0029186635253187309 0 -0.0045994097301167696 0.0031743389059489969 0 -0.00426233845621734 0.0029186635253187309 0 -0.0040015978077539149 0.0030508467270096954 0 -0.0045994097301167696 0.0031743389059489969 0 -0.0040334331469199973 0.0026790696562887756 0 -0.0044108665730595324 0.0027632318955544861 0 -0.00426233845621734 0.0029186635253187309 0 -0.0040334331469199973 0.0026790696562887756 0 -0.00426233845621734 0.0029186635253187309 0 -0.0040015978077539149 0.0030508467270096954 0 -0.0039073540366269073 0.0027914271385667392 0 -0.003690594887320587 0.0027898533330639849 0 -0.0040334331469199973 0.0026790696562887756 0 -0.0040015978077539149 0.0030508467270096954 0 -0.0033388071656410305 0.0028898438611905399 0 -0.0033388071656410305 0.0028898438611905399 0 -0.0037956581895942183 0.0022549214055219394 0 -0.0032076408424739082 0.0022544618963653783 0 -0.0040334331469199973 0.0026790696562887756 0 -0.0033388071656410305 0.0028898438611905399 0 -0.0037956581895942183 0.0022549214055219394 0 -0.0037956581895942183 0.0022549214055219394 0 -0.0036150171554559696 0.0017964423039711541 0 -0.0040678485821349867 0.0017227079634412729 0 -0.0037956581895942183 0.0022549214055219394 0 -0.0032076408424739082 0.0022544618963653783 0 -0.0036150171554559696 0.0017964423039711541 0 -0.0037746970893457496 0.001232147318567547 0 -0.0036150171554559696 0.0017964423039711541 0 -0.0031281019927158135 0.0016638803677592562 0 -0.0032076408424739082 0.0022544618963653783 0 -0.0036150171554559696 0.0017964423039711541 0 -0.0031281019927158135 0.0016638803677592562 0 -0.0037746970893457496 0.001232147318567547 0 -0.0036150171554559696 0.0017964423039711541 0 -0.0040678485821349867 0.0017227079634412729 0 -0.0047785229169994003 0.0012492419599601367 0 -0.0047865535387861058 0.0013738262665433467 0 -0.0049079683638873989 0.0013103628703282437 0 -0.0047865535387861058 0.0013738262665433467 0 -0.0049765415747263309 0.0012842523600027792 0 -0.0049079683638873989 0.0013103628703282437 0 -0.0043120762177755959 0.0014911279000405179 0 -0.0044973002566067203 0.0017863278995128508 0 -0.0037956581895942183 0.0022549214055219394 0 -0.0040678485821349867 0.0017227079634412729 0 -0.0044235921960411682 0.0022512978629757358 0 -0.0049765415747263309 0.0012842523600027792 0 -0.0049079683638873989 0.0013103628703282437 0 -0.0049225523729769871 0.0012845764562698823 0 -0.0049079683638873989 0.0013103628703282437 0 -0.0049534418060806894 0.0012553994869505237 0 -0.0049225523729769871 0.0012845764562698823 0 -0.0049534418060806894 0.0012553994869505237 0 -0.0049225523729769871 0.0012845764562698823 0 -0.0049407942480473562 0.0012531448959585518 0 -0.0048432744828746117 0.0012642572354213866 0 -0.0049225523729769871 0.0012845764562698823 0 -0.0049407942480473562 0.0012531448959585518 0 -0.0048432744828746117 0.0012642572354213866 0 -0.0049225523729769871 0.0012845764562698823 0 -0.0049027194373754569 0.0011606256268497008 0 -0.0049765415747263309 0.0012842523600027792 0 -0.0049225523729769871 0.0012845764562698823 0 -0.0049027194373754569 0.0011606256268497008 0 -0.0047703019892549386 0.00068948129201495901 0 -0.0051093198553442175 0.0012244716043094937 0 -0.0049986028268471155 0.0012724760036690276 0 -0.0049795744355294932 0.0012395951954499091 0 -0.0049792965780793763 0.0012621414479946974 0 -0.0049795744355294932 0.0012395951954499091 0 -0.0049407942480473562 0.0012531448959585518 0 -0.0049792965780793763 0.0012621414479946974 0 -0.0049407942480473562 0.0012531448959585518 0 -0.0049564493793694186 0.0012804484095929466 0 -0.0049792965780793763 0.0012621414479946974 0 -0.0048432744828746117 0.0012642572354213866 0 -0.0049407942480473562 0.0012531448959585518 0 -0.0049564493793694186 0.0012804484095929466 0 -0.0047172564236058444 0.0010074693128690898 0 -0.0046750366599965665 0.00095170514594454536 0 -0.0047326766005058082 0.00072810961372553416 0 -0.0046750366599965665 0.00095170514594454536 0 -0.0049974931698325217 0.0012750177730512199 0 -0.0049564493793694186 0.0012804484095929466 0 -0.0049792965780793763 0.0012621414479946974 0 -0.0039578737923695265 0.0014081956073979563 0 -0.0043801884527647208 0.0013568871925761419 0 -0.004195819792843402 0.0010080713058191915 0 -0.0047326766005058082 0.00072810961372553416 0 -0.0045406458441555895 0.00072309784084857069 0 -0.0048432744828746117 0.0012642572354213866 0 -0.0043801884527647208 0.0013568871925761419 0 -0.0046002884374780955 0.0011076635781449805 0 -0.004195819792843402 0.0010080713058191915 0 -0.0046002884374780955 0.0011076635781449805 0 -0.0044467767962879916 0.00088773910859859379 0 -0.0043801884527647208 0.0013568871925761419 0 -0.004195819792843402 0.0010080713058191915 0 -0.0046002884374780955 0.0011076635781449805 0 -0.004195819792843402 0.0010080713058191915 0 -0.0044467767962879916 0.00088773910859859379 0 -0.004410523573652984 0.00057733012935939974 0 -0.0046002884374780955 0.0011076635781449805 0 -0.0044467767962879916 0.00088773910859859379 0 -0.004702657489361951 0.00092474447724867279 0 -0.0045189476180993544 0.00073876714366642043 0 -0.0044467767962879916 0.00088773910859859379 0 -0.004702657489361951 0.00092474447724867279 0 -0.0045189476180993544 0.00073876714366642043 0 -0.0044467767962879916 0.00088773910859859379 0 -0.004410523573652984 0.00057733012935939974 0 -0.0045406458441555895 0.00072309784084857069 0 -0.0045236423938689527 0.00066767595220060553 0 -0.0045126364938094417 0.00027903021435036308 0 -0.0044175796547803927 0.00029047140167733494 0 -0.0044566871231346379 0.00045735889658043608 0 -0.0044175796547803927 0.00029047140167733494 0 -0.0044566871231346379 0.00045735889658043608 0 -0.004410523573652984 0.00057733012935939974 0 -0.0049765415747263309 0.0012842523600027792 0 -0.0049027194373754569 0.0011606256268497008 0 -0.0050117328252868047 0.0010090459805607941 0 -0.0048432744828746117 0.0012642572354213866 0 -0.0046002884374780955 0.0011076635781449805 0 -0.0049027194373754569 0.0011606256268497008 0 -0.0046002884374780955 0.0011076635781449805 0 -0.0049027194373754569 0.0011606256268497008 0 -0.004702657489361951 0.00092474447724867279 0 -0.004702657489361951 0.00092474447724867279 0 -0.0050117328252868047 0.0010090459805607941 0 -0.0047969492760897171 0.00056371224077374216 0 -0.0045189476180993544 0.00073876714366642043 0 -0.004702657489361951 0.00092474447724867279 0 -0.0046195946450945597 0.00069352579023151159 0 -0.0045155326434532187 0.0020396554678006927 0 -0.0042120793478902883 0.0022709730976531732 0 -0.0049027194373754569 0.0011606256268497008 0 -0.004702657489361951 0.00092474447724867279 0 -0.0050117328252868047 0.0010090459805607941 0 -0.0042120793478902883 0.0022709730976531732 0 -0.0042084685367317354 0.0026808807006562826 0 -0.0039995153883677767 0.0030857372919525436 0 -0.0039250438823499479 0.0031270164027401583 0 -0.0038801883847143252 0.0030569023011815083 0 -0.0048004502240388399 0.0027884957917186318 0 -0.0051710601571932453 0.003307850157535677 0 -0.0045994097301167696 0.0031743389059489969 0 -0.0042120793478902883 0.0022709730976531732 0 -0.0042045105179069541 0.0019811638227533171 0 -0.004702657489361951 0.00092474447724867279 0 -0.0046195946450945597 0.00069352579023151159 0 -0.0047969492760897171 0.00056371224077374216 0 -0.0046195946450945597 0.00069352579023151159 0 -0.0047969492760897171 0.00056371224077374216 0 -0.0044868265241959906 0.00056313629928555022 0 -0.0041138484035971486 0.0021008519237222792 0 -0.0040626652711959199 0.0020297523055170107 0 -0.0039919981171147182 0.0020706699959027286 0 -0.0039995153883677767 0.0030857372919525436 0 -0.0040437147679836544 0.0031459500176447752 0 -0.0039250438823499479 0.0031270164027401583 0 -0.0039354415705146108 0.0022151964611436836 0 -0.0037661771911670903 0.0027261714907419574 0 -0.0039119914604501295 0.0032000965059392535 0 -0.0038538638404790495 0.0032371788485266294 0 -0.0038996004822056205 0.0032481514364329591 0 -0.0042120793478902883 0.0022709730976531732 0 -0.0039354415705146108 0.0022151964611436836 0 -0.0040437147679836544 0.0031459500176447752 0 -0.0039250438823499479 0.0031270164027401583 0 -0.0039489481533867225 0.0032037891722341001 0 -0.0039250438823499479 0.0031270164027401583 0 -0.0039489481533867225 0.0032037891722341001 0 -0.0038718801212744946 0.0031819196765134209 0 -0.0044566871231346379 0.00045735889658043608 0 -0.0044177065288144588 0.00053376107666644869 0 -0.004410523573652984 0.00057733012935939974 0 -0.0044872928642223356 0.00053183728542978621 0 -0.0044177065288144588 0.00053376107666644869 0 -0.0044262328548092932 0.00057787380576264846 0 -0.0044872928642223356 0.00053183728542978621 0 -0.0044566871231346379 0.00045735889658043608 0 -0.0044177065288144588 0.00053376107666644869 0 -0.0044177065288144588 0.00053376107666644869 0 -0.0044206603902270016 0.00051464076112595709 0 -0.0044262328548092932 0.00057787380576264846 0 -0.0047969492760897171 0.00056371224077374216 0 -0.0044466332541137146 0.00048116342591790262 0 -0.0044868265241959906 0.00056313629928555022 0 -0.0044177065288144588 0.00053376107666644869 0 -0.0044131830796029191 0.00054104153297017648 0 -0.0044206603902270016 0.00051464076112595709 0 -0.0044131830796029191 0.00054104153297017648 0 -0.0044206603902270016 0.00051464076112595709 0 -0.0044868265241959906 0.00056313629928555022 0 -0.0044206603902270016 0.00051464076112595709 0 -0.0044466332541137146 0.00048116342591790262 0 -0.0044868265241959906 0.00056313629928555022 0 -0.0042106150779039845 0.0019746033334424717 0 -0.0042045105179069541 0.0019811638227533171 0 -0.0044177065288144588 0.00053376107666644869 0 -0.0044131830796029191 0.00054104153297017648 0 -0.004410523573652984 0.00057733012935939974 0 -0.0044131830796029191 0.00054104153297017648 0 -0.004410523573652984 0.00057733012935939974 0 -0.0044868265241959906 0.00056313629928555022 0 -0.0045189476180993544 0.00073876714366642043 0 -0.004410523573652984 0.00057733012935939974 0 -0.0044868265241959906 0.00056313629928555022 0 -0.0045189476180993544 0.00073876714366642043 0 -0.0046195946450945597 0.00069352579023151159 0 -0.0044868265241959906 0.00056313629928555022 0 -0.0044206603902270016 0.00051464076112595709 0 -0.0044189460455096013 0.00051156196729919333 0 -0.0044262328548092932 0.00057787380576264846 0 -0.0039354415705146108 0.0022151964611436836 0 -0.0042045105179069541 0.0019811638227533171 0 -0.0041318799456111395 0.00060957353084571122 0 -0.0042543541906325593 0.00053730062781288783 0 -0.0042434164530774322 0.00061717478446078166 0 -0.0041318799456111395 0.00060957353084571122 0 -0.0042434164530774322 0.00061717478446078166 0 -0.0042746595889583171 0.00069639783834066855 0 -0.0041318799456111395 0.00060957353084571122 0 -0.0042746595889583171 0.00069639783834066855 0 -0.0042460816953570658 0.00076672154619792038 0 -0.0039354415705146108 0.0022151964611436836 0 -0.0031221752008806234 0.0020030064309108199 0 -0.0042434164530774322 0.00061717478446078166 0 -0.0042746595889583171 0.00069639783834066855 0 -0.0043127927332665024 0.00062499674287635869 0 -0.0042543541906325593 0.00053730062781288783 0 -0.0042434164530774322 0.00061717478446078166 0 -0.0043127927332665024 0.00062499674287635869 0 -0.0045440047883845806 0.00072241508072265568 0 -0.0043909964040251418 0.00067959084885883575 0 -0.0044262328548092932 0.00057787380576264846 0 -0.0042543541906325593 0.00053730062781288783 0 -0.0043127927332665024 0.00062499674287635869 0 -0.0044262328548092932 0.00057787380576264846 0 -0.0042045105179069541 0.0019811638227533171 0 -0.0041981014877489897 0.0018271652957551213 0 -0.0043127927332665024 0.00062499674287635869 0 -0.0043909964040251418 0.00067959084885883575 0 -0.0044262328548092932 0.00057787380576264846 0 -0.0042746595889583171 0.00069639783834066855 0 -0.0043127927332665024 0.00062499674287635869 0 -0.0043909964040251418 0.00067959084885883575 0 -0.003046138263061902 0.00063945892971510685 0 -0.0022261224706450916 0.0014991625880990034 0 -0.0045440047883845806 0.00072241508072265568 0 -0.0043836902168383355 0.00077240922660587355 0 -0.0043554551771426966 0.00090510264491234127 0 -0.0045440047883845806 0.00072241508072265568 0 -0.0043909964040251418 0.00067959084885883575 0 -0.0043836902168383355 0.00077240922660587355 0 -0.0018544701027919804 0.00034418496813226677 0 -0.0017468591713683255 0.00076365024611269451 0 -0.0013278061888564445 0.00082661458604362241 0 -0.0042746595889583171 0.00069639783834066855 0 -0.0043909964040251418 0.00067959084885883575 0 -0.0043836902168383355 0.00077240922660587355 0 -0.0043836902168383355 0.00077240922660587355 0 -0.0042487563469622821 0.00075855090001066656 0 -0.0043554551771426966 0.00090510264491234127 0 -0.0031221752008806234 0.0020030064309108199 0 -0.0027198160174908381 0.0023670815638277337 0 -0.0039469449839643709 0.0032496984288501139 0 -0.0039231018447186874 0.0033092255731961609 0 -0.0038996004822056205 0.0032481514364329591 0 -0.0031221752008806234 0.0020030064309108199 0 -0.0022261224706450916 0.0014991625880990034 0 -0.0042746595889583171 0.00069639783834066855 0 -0.0043836902168383355 0.00077240922660587355 0 -0.0042487563469622821 0.00075855090001066656 0 -0.0031796018436105293 0.0018912525818873395 0 -0.0031221752008806234 0.0020030064309108199 0 -0.0019806843718590526 0.0023947093959236299 0 -0.0022261224706450916 0.0014991625880990034 0 -0.0024560779434639433 0.0024002589657228725 0 -0.0025226840778748406 0.0020203807073550044 0 -0.0029264297727068628 0.0019676344026223363 0 -0.0026815890744249769 0.0016273234593213017 0 -0.0025226840778748406 0.0020203807073550044 0 -0.0029264297727068628 0.0019676344026223363 0 -0.0015546621901571436 0.0011421148988655177 0 -0.0017468591713683255 0.00076365024611269451 0 -0.0013278061888564445 0.00082661458604362241 0 -0.0016066073913765238 0.0016711439501375502 0 -0.0019310644041721887 0.0015475184175902008 0 -0.0017112693221760554 0.0012444901876980084 0 -0.00046617064317211129 0.00065586691244157831 0 -0.0022261224706450916 0.0014991625880990034 0 -0.0037661771911670903 0.0027261714907419574 0 -0.0037121689818826009 0.0029560007148937079 0 -0.0038538638404790495 0.0032371788485266294 0 -0.003834847798052841 0.0032882424242355666 0 -0.0037981584500904912 0.0032739239315822616 0 -0.0038538638404790495 0.0032371788485266294 0 -0.0038761298274886617 0.0032878604653828985 0 -0.003834847798052841 0.0032882424242355666 0 -0.0038538638404790495 0.0032371788485266294 0 -0.0038996004822056205 0.0032481514364329591 0 -0.0038761298274886617 0.0032878604653828985 0 -0.0039231018447186874 0.0033092255731961609 0 -0.0038996004822056205 0.0032481514364329591 0 -0.0038761298274886617 0.0032878604653828985 0 -0.0039119914604501295 0.0032000965059392535 0 -0.0039469449839643709 0.0032496984288501139 0 -0.0038996004822056205 0.0032481514364329591 0 -0.0039231018447186874 0.0033092255731961609 0 -0.0038761298274886617 0.0032878604653828985 0 -0.003888563560005874 0.003323424619455589 0 -0.0038992278804569672 0.0033670992050146803 0 -0.0039231018447186874 0.0033092255731961609 0 -0.003888563560005874 0.003323424619455589 0 -0.0038761298274886617 0.0032878604653828985 0 -0.003888563560005874 0.003323424619455589 0 -0.0038532893362106671 0.0033296123566556365 0 -0.0038532893362106671 0.0033296123566556365 0 -0.003834847798052841 0.0032882424242355666 0 -0.0037863079071924466 0.0033307242094155658 0 -0.0038761298274886617 0.0032878604653828985 0 -0.0038532893362106671 0.0033296123566556365 0 -0.003834847798052841 0.0032882424242355666 0 -0.0037863079071924466 0.0033307242094155658 0 -0.0037449582453839407 0.0033078109887406644 0 -0.0037981584500904912 0.0032739239315822616 0 -0.003834847798052841 0.0032882424242355666 0 -0.0037863079071924466 0.0033307242094155658 0 -0.0037981584500904912 0.0032739239315822616 0 -0.0037194304915287553 0.0033481800841709433 0 -0.0037863079071924466 0.0033307242094155658 0 -0.0037449582453839407 0.0033078109887406644 0 -0.0036895028880210932 0.0030277972081461848 0 -0.0037121689818826009 0.0029560007148937079 0 -0.0037449582453839407 0.0033078109887406644 0 -0.0038455774833337886 0.0032594501100063722 0 -0.0037031442169611559 0.0031895326098175061 0 -0.0039489481533867225 0.0032037891722341001 0 -0.0038455774833337886 0.0032594501100063722 0 -0.0038718801212744946 0.0031819196765134209 0 -0.0038455774833337886 0.0032594501100063722 0 -0.0038718801212744946 0.0031819196765134209 0 -0.0037980453614796655 0.0031379109541124837 0 -0.0039250438823499479 0.0031270164027401583 0 -0.0038718801212744946 0.0031819196765134209 0 -0.0037980453614796655 0.0031379109541124837 0 -0.0038455774833337886 0.0032594501100063722 0 -0.0037980453614796655 0.0031379109541124837 0 -0.0037031442169611559 0.0031895326098175061 0 -0.0037980453614796655 0.0031379109541124837 0 -0.0037527690101183866 0.0030347651741358295 0 -0.0037031442169611559 0.0031895326098175061 0 -0.0039073540366269073 0.0027914271385667392 0 -0.0042084685367317354 0.0026808807006562826 0 -0.0036691914239777349 0.0032153043771852214 0 -0.0035917587933354681 0.0033968938461859297 0 -0.0037244257404720617 0.0030192926141638871 0 -0.0037527690101183866 0.0030347651741358295 0 -0.0038801883847143252 0.0030569023011815083 0 -0.0037980453614796655 0.0031379109541124837 0 -0.0037527690101183866 0.0030347651741358295 0 -0.0038801883847143252 0.0030569023011815083 0 -0.0039250438823499479 0.0031270164027401583 0 -0.0037980453614796655 0.0031379109541124837 0 -0.0038801883847143252 0.0030569023011815083 0 -0.0033388071656410305 0.0028898438611905399 0 -0.0034571463820962985 0.0032340518755929562 0 -0.0030237394619915224 0.0033430455462972407 0 -0.0037244257404720617 0.0030192926141638871 0 -0.0033388071656410305 0.0028898438611905399 0 -0.0034571463820962985 0.0032340518755929562 0 -0.0037527690101183866 0.0030347651741358295 0 -0.0034571463820962985 0.0032340518755929562 0 -0.0035940245206399252 0.003578385378135937 0 -0.0037244257404720617 0.0030192926141638871 0 -0.0037527690101183866 0.0030347651741358295 0 -0.0034571463820962985 0.0032340518755929562 0 -0.0034571463820962985 0.0032340518755929562 0 -0.0035940245206399252 0.003578385378135937 0 -0.0032339488276552746 0.0035788053845816343 0 -0.0034571463820962985 0.0032340518755929562 0 -0.0032339488276552746 0.0035788053845816343 0 -0.0030237394619915224 0.0033430455462972407 0 -0.0032339488276552746 0.0035788053845816343 0 -0.0029331502665006152 0.0038119232184967902 0 -0.0030237394619915224 0.0033430455462972407 0 -0.0032339488276552746 0.0035788053845816343 0 -0.0033410626373293817 0.0041652536497712818 0 -0.0029331502665006152 0.0038119232184967902 0 -0.0037449582453839407 0.0033078109887406644 0 -0.0037031442169611559 0.0031895326098175061 0 -0.0036622939766415103 0.0033198950019959778 0 -0.0035940245206399252 0.003578385378135937 0 -0.0032339488276552746 0.0035788053845816343 0 -0.0033410626373293817 0.0041652536497712818 0 -0.0035917587933354681 0.0033968938461859297 0 -0.0034254990804682079 0.0037174741223342466 0 -0.0037194304915287553 0.0033481800841709433 0 -0.0037449582453839407 0.0033078109887406644 0 -0.0036622939766415103 0.0033198950019959778 0 -0.0033410626373293817 0.0041652536497712818 0 -0.0028307457291477799 0.0041687323990216218 0 -0.0029331502665006152 0.0038119232184967902 0 -0.0029091369555412491 0.0044542886110240628 0 -0.0033410626373293817 0.0041652536497712818 0 -0.0028307457291477799 0.0041687323990216218 0 -0.0028307457291477799 0.0041687323990216218 0 -0.0025405444022453295 0.0042181770849887071 0 -0.002596876502434078 0.0038920002440456483 0 -0.0026496935608268965 0.0044604616223851614 0 -0.0028307457291477799 0.0041687323990216218 0 -0.0025405444022453295 0.0042181770849887071 0 -0.0022720300645349212 0.0044403662354016542 0 -0.0025405444022453295 0.0042181770849887071 0 -0.0022922892580064355 0.0040428196234391384 0 -0.0025405444022453295 0.0042181770849887071 0 -0.002596876502434078 0.0038920002440456483 0 -0.0022922892580064355 0.0040428196234391384 0 -0.002596876502434078 0.0038920002440456483 0 -0.0023793959997126953 0.0037102306571791016 0 -0.0022922892580064355 0.0040428196234391384 0 -0.002596876502434078 0.0038920002440456483 0 -0.0023793959997126953 0.0037102306571791016 0 -0.0026169970323870798 0.0034521507896699429 0 -0.0028307457291477799 0.0041687323990216218 0 -0.002596876502434078 0.0038920002440456483 0 -0.0029331502665006152 0.0038119232184967902 0 -0.002596876502434078 0.0038920002440456483 0 -0.0029331502665006152 0.0038119232184967902 0 -0.0026169970323870798 0.0034521507896699429 0 -0.0022720300645349212 0.0044403662354016542 0 -0.0019429625354315555 0.0042139153885040054 0 -0.0022922892580064355 0.0040428196234391384 0 -0.0019429625354315555 0.0042139153885040054 0 -0.0022922892580064355 0.0040428196234391384 0 -0.0020412732512944697 0.0037789896746829488 0 -0.0023793959997126953 0.0037102306571791016 0 -0.0022922892580064355 0.0040428196234391384 0 -0.0020412732512944697 0.0037789896746829488 0 -0.0020412732512944697 0.0037789896746829488 0 -0.0017557947097332084 0.0036220712853875067 0 -0.0016398126200185977 0.0039148425865685593 0 -0.0019429625354315555 0.0042139153885040054 0 -0.0020412732512944697 0.0037789896746829488 0 -0.0016398126200185977 0.0039148425865685593 0 -0.0021572380586803389 0.0033016014529758269 0 -0.0016556100771115572 0.0032858503803832755 0 -0.0017557947097332084 0.0036220712853875067 0 -0.0020412732512944697 0.0037789896746829488 0 -0.0021572380586803389 0.0033016014529758269 0 -0.0017557947097332084 0.0036220712853875067 0 -0.0023793959997126953 0.0037102306571791016 0 -0.0020412732512944697 0.0037789896746829488 0 -0.0021572380586803389 0.0033016014529758269 0 -0.0023793959997126953 0.0037102306571791016 0 -0.0021572380586803389 0.0033016014529758269 0 -0.0026169970323870798 0.0034521507896699429 0 -0.0021572380586803389 0.0033016014529758269 0 -0.0026235815386142169 0.003079553989761875 0 -0.0022697970144236017 0.0029399504917390629 0 -0.0021572380586803389 0.0033016014529758269 0 -0.0018461253647124442 0.002935879950237948 0 -0.0016556100771115572 0.0032858503803832755 0 -0.0021572380586803389 0.0033016014529758269 0 -0.0022697970144236017 0.0029399504917390629 0 -0.0018461253647124442 0.002935879950237948 0 -0.0033388071656410305 0.0028898438611905399 0 -0.0030237394619915224 0.0033430455462972407 0 -0.0026235815386142169 0.003079553989761875 0 -0.0029331502665006152 0.0038119232184967902 0 -0.0030237394619915224 0.0033430455462972407 0 -0.0026169970323870798 0.0034521507896699429 0 -0.0021572380586803389 0.0033016014529758269 0 -0.0026169970323870798 0.0034521507896699429 0 -0.0026235815386142169 0.003079553989761875 0 -0.0030237394619915224 0.0033430455462972407 0 -0.0026169970323870798 0.0034521507896699429 0 -0.0026235815386142169 0.003079553989761875 0 -0.0033388071656410305 0.0028898438611905399 0 -0.0026235815386142169 0.003079553989761875 0 -0.0027472526293113456 0.0026293992479440751 0 -0.0033388071656410305 0.0028898438611905399 0 -0.0032076408424739082 0.0022544618963653783 0 -0.0027472526293113456 0.0026293992479440751 0 -0.0032076408424739082 0.0022544618963653783 0 -0.0027472526293113456 0.0026293992479440751 0 -0.0026120311298830873 0.0021255797450092598 0 -0.0027472526293113456 0.0026293992479440751 0 -0.0021810713645641177 0.0025633815451452167 0 -0.0026120311298830873 0.0021255797450092598 0 -0.0026235815386142169 0.003079553989761875 0 -0.0027472526293113456 0.0026293992479440751 0 -0.0022697970144236017 0.0029399504917390629 0 -0.0027472526293113456 0.0026293992479440751 0 -0.0022697970144236017 0.0029399504917390629 0 -0.0021810713645641177 0.0025633815451452167 0 -0.0023987271157856682 0.0024636118987904753 0 -0.0021635817710411597 0.0026687588267367349 0 -0.0022697970144236017 0.0029399504917390629 0 -0.0021810713645641177 0.0025633815451452167 0 -0.0018461253647124442 0.002935879950237948 0 -0.0019935589712198952 0.0023178301965998131 0 -0.0024835246400100801 0.0025195520077013109 0 -0.0018461253647124442 0.002935879950237948 0 -0.0023987271157856682 0.0024636118987904753 0 -0.0028229398704216341 0.0020864462884975996 0 -0.0024835246400100801 0.0025195520077013109 0 -0.0024632198773502359 0.0019805734584980922 0 -0.0030308162131318316 0.0020585132673371096 0 -0.0019935589712198952 0.0023178301965998131 0 -0.0024632198773502359 0.0019805734584980922 0 -0.0017546216523601089 0.0017822535709409359 0 -0.0019935589712198952 0.0023178301965998131 0 -0.0024835246400100801 0.0025195520077013109 0 -0.0024632198773502359 0.0019805734584980922 0 -0.0024632198773502359 0.0019805734584980922 0 -0.0017546216523601089 0.0017822535709409359 0 -0.0023495384390725673 0.0014855000525047215 0 -0.0024632198773502359 0.0019805734584980922 0 -0.0029574860339313348 0.0014348750523152096 0 -0.0023495384390725673 0.0014855000525047215 0 -0.0024632198773502359 0.0019805734584980922 0 -0.0030308162131318316 0.0020585132673371096 0 -0.0029574860339313348 0.0014348750523152096 0 -0.00350555518120082 0.0016013321408863503 0 -0.0030308162131318316 0.0020585132673371096 0 -0.0029574860339313348 0.0014348750523152096 0 -0.0032427699424901102 0.0017108672927165613 0 -0.0028229398704216341 0.0020864462884975996 0 -0.0032076408424739082 0.0022544618963653783 0 -0.0031281019927158135 0.0016638803677592562 0 -0.0026120311298830873 0.0021255797450092598 0 -0.0010697502739677425 0.0021378516991557781 0 -0.00097218257337026829 0.0017252280609684489 0 -0.0012901609037167376 0.0018714621283621594 0 -0.0010697502739677425 0.0021378516991557781 0 -0.00066472075059274154 0.0021460970521993725 0 -0.00097218257337026829 0.0017252280609684489 0 -0.00059185877039872464 0.0010218141495431715 0 -0.00053780476498394936 0.0012803095649142643 0 -0.00063283277965538219 0.0021541665811282236 0 -0.00069527868809181651 0.0020201337558146235 0 -0.00097218257337026829 0.0017252280609684489 0 -0.0030480472091749828 0.0005666208346505609 0 -0.0030548393091288672 0.00055716943027262584 0 -0.003069222898598312 0.00057347342786059018 0 -0.00059185877039872464 0.0010218141495431715 0 -0.00049022547130991856 0.00073813495391927126 0 0.00054632799221890056 0.00098977919755233179 0 0.00059192498826492255 0.0010471799777283378 0 0.00056488454282259295 0.0010523510109868078 0 -0.0030480472091749828 0.0005666208346505609 0 -0.003049522745578103 0.00058040498324779001 0 -0.003069222898598312 0.00057347342786059018 0 -0.00063283277965538219 0.0021541665811282236 0 -0.00069527868809181651 0.0020201337558146235 0 -0.00063537069775318152 0.0019128059257687788 0 -0.00059185877039872464 0.0010218141495431715 0 -0.0011414294771663733 0.0010207859262861877 0 -0.0011450606641293223 0.0010431177429246375 0 -0.0011414294771663733 0.0010207859262861877 0 -0.00063454458938084666 0.0019142656380569502 0 -0.00097218257337026829 0.0017252280609684489 0 -0.00063129403332491533 0.0011900035097842112 0 -0.0021742160583171212 0.000875380003771839 0 -0.002103426009331185 0.00074278232688179712 0 -0.0021797529046683824 0.00068461774520328362 0 -0.00069527868809181651 0.0020201337558146235 0 -0.00063454458938084666 0.0019142656380569502 0 -0.00097218257337026829 0.0017252280609684489 0 -0.003049522745578103 0.00058040498324779001 0 -0.003069222898598312 0.00057347342786059018 0 -0.0030728286754467238 0.00060679496849896865 0 -0.0011414294771663733 0.0010207859262861877 0 -0.0019635061677583778 0.00089002906117511811 0 -0.0011414294771663733 0.0010207859262861877 0 -0.0015099533439826456 0.00087716828374357443 0 -0.00097218257337026829 0.0017252280609684489 0 -0.0012901609037167376 0.0018714621283621594 0 -0.0011818532066347725 0.0013477171774799663 0 -0.0012901609037167376 0.0018714621283621594 0 -0.0017546216523601089 0.0017822535709409359 0 -0.0011818532066347725 0.0013477171774799663 0 -0.0019935589712198952 0.0023178301965998131 0 -0.0017546216523601089 0.0017822535709409359 0 -0.0014529795449153666 0.0023614091148969202 0 -0.0012901609037167376 0.0018714621283621594 0 -0.0017546216523601089 0.0017822535709409359 0 -0.0014529795449153666 0.0023614091148969202 0 -0.0010697502739677425 0.0021378516991557781 0 -0.0012901609037167376 0.0018714621283621594 0 -0.0014529795449153666 0.0023614091148969202 0 -0.0010697502739677425 0.0021378516991557781 0 -0.0014529795449153666 0.0023614091148969202 0 -0.0010438957864477866 0.0026099749983948695 0 -0.0014529795449153666 0.0023614091148969202 0 -0.0013625941515262516 0.0029554650535331588 0 -0.0010438957864477866 0.0026099749983948695 0 -0.0019935589712198952 0.0023178301965998131 0 -0.0014529795449153666 0.0023614091148969202 0 -0.0018461253647124442 0.002935879950237948 0 -0.0014529795449153666 0.0023614091148969202 0 -0.0018461253647124442 0.002935879950237948 0 -0.0013625941515262516 0.0029554650535331588 0 -0.0013625941515262516 0.0029554650535331588 0 -0.0010438957864477866 0.0026099749983948695 0 -0.0010248005723882798 0.0031474404473633803 0 -0.0010438957864477866 0.0026099749983948695 0 -0.00068105553797129725 0.0028542216711648929 0 -0.0010248005723882798 0.0031474404473633803 0 -0.0010697502739677425 0.0021378516991557781 0 -0.00066472075059274154 0.0021460970521993725 0 -0.0010438957864477866 0.0026099749983948695 0 -0.00066472075059274154 0.0021460970521993725 0 -0.0010438957864477866 0.0026099749983948695 0 -0.00068105553797129725 0.0028542216711648929 0 0.00054632799221890056 0.00098977919755233179 0 0.00056488454282259295 0.0010523510109868078 0 0.00055289998950702279 0.0012748214508689873 0 -0.00059185877039872464 0.0010218141495431715 0 0.00022327297522400536 0.0018956325140197395 0 0.00056488454282259295 0.0010523510109868078 0 0.00055289998950702279 0.0012748214508689873 0 0.00069941348156268065 0.0011820934579129874 0 0.00059224662384462791 0.0010472765464520954 0 0.00056488454282259295 0.0010523510109868078 0 0.00069941348156268065 0.0011820934579129874 0 -0.00049022547130991856 0.00073813495391927126 0 -0.00047664363860869805 0.00073737751955535251 0 0.00055289998950702279 0.0012748214508689873 0 0.00068036790250926846 0.001435029059474032 0 0.00068440433285005156 0.0013019034675565743 0 0.00055289998950702279 0.0012748214508689873 0 0.00055714990277056984 0.0015547918622083104 0 0.00068036790250926846 0.001435029059474032 0 -0.00068105553797129725 0.0028542216711648929 0 -0.0010248005723882798 0.0031474404473633803 0 -0.00069564349575311523 0.0034987642380282617 0 0.00022327297522400536 0.0018956325140197395 0 0.0012705608058654182 0.0018930913647553938 0 -0.0010248005723882798 0.0031474404473633803 0 -0.0011170586280513527 0.0035107710815449134 0 -0.0012965991364031037 0.003335235373063333 0 -0.0010248005723882798 0.0031474404473633803 0 -0.0011170586280513527 0.0035107710815449134 0 -0.00069564349575311523 0.0034987642380282617 0 -0.0011170586280513527 0.0035107710815449134 0 -0.00069564349575311523 0.0034987642380282617 0 -0.0011387106824266768 0.0039059619379027241 0 0.0044323802034635035 0.00063521345249136884 0 0.0044675496749805197 0.00052755901542753591 0 0.004160558711933022 0.00085361511978989649 0 0.0012982405960559496 0.0018476278416607605 0 0.0012705608058654182 0.0018930913647553938 0 0.0044323802034635035 0.00063521345249136884 0 0.004547645955533401 0.00079492951451806692 0 0.0045843417817293328 0.00066051583980301096 0 0.0044323802034635035 0.00063521345249136884 0 0.0044320631746873791 0.00061102038745810671 0 0.0045843417817293328 0.00066051583980301096 0 0.0012705608058654182 0.0018930913647553938 0 0.0020791765936716703 0.0011926343166373682 0 0.0044320631746873791 0.00061102038745810671 0 0.0046228010099103054 0.00044558563931830475 0 0.0045843417817293328 0.00066051583980301096 0 -0.0018461253647124442 0.002935879950237948 0 -0.0013625941515262516 0.0029554650535331588 0 -0.0016556100771115572 0.0032858503803832755 0 -0.0013625941515262516 0.0029554650535331588 0 -0.0016556100771115572 0.0032858503803832755 0 -0.0012965991364031037 0.003335235373063333 0 -0.0013625941515262516 0.0029554650535331588 0 -0.0010248005723882798 0.0031474404473633803 0 -0.0012965991364031037 0.003335235373063333 0 -0.0016556100771115572 0.0032858503803832755 0 -0.0012965991364031037 0.003335235373063333 0 -0.0014193079615091755 0.0036509859648443635 0 -0.0011170586280513527 0.0035107710815449134 0 -0.0012965991364031037 0.003335235373063333 0 -0.0014193079615091755 0.0036509859648443635 0 -0.0016556100771115572 0.0032858503803832755 0 -0.0014193079615091755 0.0036509859648443635 0 -0.0017557947097332084 0.0036220712853875067 0 -0.0014193079615091755 0.0036509859648443635 0 -0.0017557947097332084 0.0036220712853875067 0 -0.0016398126200185977 0.0039148425865685593 0 -0.0014193079615091755 0.0036509859648443635 0 -0.0016398126200185977 0.0039148425865685593 0 -0.0011387106824266768 0.0039059619379027241 0 -0.0011170586280513527 0.0035107710815449134 0 -0.0014193079615091755 0.0036509859648443635 0 -0.0011387106824266768 0.0039059619379027241 0 -0.0015296768815014649 0.0042991113171920031 0 -0.0016398126200185977 0.0039148425865685593 0 -0.0011387106824266768 0.0039059619379027241 0 3.9206745790911832e-05 0.0032064459862859549 0 0.00088596545158939007 0.0024246077162688282 0 0.0017971602213573189 0.0019145649105365521 0 0.0035718992669754451 0.00080244907866227342 0 0.0034714284854308491 0.0017136297088855489 0 -0.0015296768815014649 0.0042991113171920031 0 -0.0019429625354315555 0.0042139153885040054 0 -0.0016398126200185977 0.0039148425865685593 0 0.0045543601365129324 0.00099106644056376567 0 0.004160558711933022 0.00085361511978989649 0 0.0044316474219288759 0.0012772202949262465 0 0.0045543601365129324 0.00099106644056376567 0 0.0044300587165521949 0.00081123933181751818 0 0.004160558711933022 0.00085361511978989649 0 0.0044323802034635035 0.00063521345249136884 0 0.004547645955533401 0.00079492951451806692 0 0.0044300587165521949 0.00081123933181751818 0 0.0045543601365129324 0.00099106644056376567 0 0.004547645955533401 0.00079492951451806692 0 0.0044300587165521949 0.00081123933181751818 0 0.0044323802034635035 0.00063521345249136884 0 0.0044300587165521949 0.00081123933181751818 0 0.004160558711933022 0.00085361511978989649 0 0.0012705608058654182 0.0018930913647553938 0 0.00088596545158939007 0.0024246077162688282 0 0.0035718992669754451 0.00080244907866227342 0 0.004160558711933022 0.00085361511978989649 0 0.0044316474219288759 0.0012772202949262465 0 0.0044675496749805197 0.00052755901542753591 0 0.0035718992669754451 0.00080244907866227342 0 0.004160558711933022 0.00085361511978989649 0 0.0035718992669754451 0.00080244907866227342 0 0.0034714284854308491 0.0017136297088855489 0 0.0044316474219288759 0.0012772202949262465 0 0.0045543601365129324 0.00099106644056376567 0 0.0044316474219288759 0.0012772202949262465 0 0.0046895025910343759 0.0012372230770910262 0 0.0045543601365129324 0.00099106644056376567 0 0.0046895025910343759 0.0012372230770910262 0 0.00476021342903771 0.0010703103246493303 0 0.0045543601365129324 0.00099106644056376567 0 0.0047197599993687471 0.00090244589027625645 0 0.00476021342903771 0.0010703103246493303 0 0.0045543601365129324 0.00099106644056376567 0 0.004547645955533401 0.00079492951451806692 0 0.0047197599993687471 0.00090244589027625645 0 0.00476021342903771 0.0010703103246493303 0 0.0048352560753395701 0.0010569122927394001 0 0.0047961045063321852 0.00092179250785341519 0 0.0047197599993687471 0.00090244589027625645 0 0.00476021342903771 0.0010703103246493303 0 0.0047961045063321852 0.00092179250785341519 0 0.0048352560753395701 0.0010569122927394001 0 0.0048616355152419364 0.00097479931869220158 0 0.0047961045063321852 0.00092179250785341519 0 0.00476021342903771 0.0010703103246493303 0 0.0047987863870076111 0.0011837485090503148 0 0.0048352560753395701 0.0010569122927394001 0 0.0046895025910343759 0.0012372230770910262 0 0.00476021342903771 0.0010703103246493303 0 0.0047987863870076111 0.0011837485090503148 0 0.0047987863870076111 0.0011837485090503148 0 0.004898319826133664 0.0011363245846371048 0 0.0048352560753395701 0.0010569122927394001 0 0.004898319826133664 0.0011363245846371048 0 0.0049473057652330886 0.0010576535692016131 0 0.0048863951672028288 0.0010568769945922879 0 0.004898319826133664 0.0011363245846371048 0 0.0048352560753395701 0.0010569122927394001 0 0.0048863951672028288 0.0010568769945922879 0 0.004898319826133664 0.0011363245846371048 0 0.0049473057652330886 0.0010576535692016131 0 0.005021513029768593 0.0011725797711246509 0 0.0049473057652330886 0.0010576535692016131 0 0.005021513029768593 0.0011725797711246509 0 0.0049948560489245083 0.00099402463940699614 0 0.0049473057652330886 0.0010576535692016131 0 0.0048505170834569813 0.00094421607146328332 0 0.0049948560489245083 0.00099402463940699614 0 0.0042740824796434545 0.0013350100759054642 0 0.0039795826050580017 0.0013055276900220127 0 0.0049473057652330886 0.0010576535692016131 0 0.0048616355152419364 0.00097479931869220158 0 0.0048717706711989568 0.00088954928698224559 0 0.0049473057652330886 0.0010576535692016131 0 0.0048863951672028288 0.0010568769945922879 0 0.0048616355152419364 0.00097479931869220158 0 0.0048352560753395701 0.0010569122927394001 0 0.0048863951672028288 0.0010568769945922879 0 0.0048616355152419364 0.00097479931869220158 0 0.0049473057652330886 0.0010576535692016131 0 0.0048505170834569813 0.00094421607146328332 0 0.004809604216040239 0.0009344909054744393 0 0.0048616355152419364 0.00097479931869220158 0 0.0048717706711989568 0.00088954928698224559 0 0.0048290471765814443 0.00090622556617565267 0 0.0048505170834569813 0.00094421607146328332 0 0.004809604216040239 0.0009344909054744393 0 0.004812854452152137 0.00094737006058737366 0 0.0021619939583288495 0.00097819123474689488 0 0.0034359440571950142 0.0013674293220891252 0 0.0048505170834569813 0.00094421607146328332 0 0.0049725143456427019 0.00078309662042062779 0 0.0049948560489245083 0.00099402463940699614 0 0.003291194915229001 0.0004053349603067808 0 0.0021619939583288495 0.00097819123474689488 0 0.0047564807548395836 0.00095663148135634432 0 0.004812854452152137 0.00094737006058737366 0 0.0048040766945825347 0.00096448378988156492 0 0.0048505170834569813 0.00094421607146328332 0 0.0047564807548395836 0.00095663148135634432 0 0.004812854452152137 0.00094737006058737366 0 0.004809604216040239 0.0009344909054744393 0 0.004812854452152137 0.00094737006058737366 0 0.0048184518100231047 0.00096475176577676938 0 0.004812854452152137 0.00094737006058737366 0 0.0048040766945825347 0.00096448378988156492 0 0.0048184518100231047 0.00096475176577676938 0 0.0047713338332929069 0.00076801314404651691 0 0.0048024355719126152 0.00087094870945449523 0 0.0047480971316474748 0.00086091656850518269 0 0.0027447308366530788 0.00098117832215621086 0 0.0033650807124399264 0.00065315790360808736 0 0.004809604216040239 0.0009344909054744393 0 0.0048184518100231047 0.00096475176577676938 0 0.0048399964179240938 0.00096391144326573436 0 0.004880714499477674 0.00033185443354335429 0 0.0047746918922726787 0.00042999909789026585 0 0.0048118492317509283 0.00057455364100263509 0 0.0039795826050580017 0.0013055276900220127 0 0.0027447308366530788 0.00098117832215621086 0 0.0048717706711989568 0.00088954928698224559 0 0.0047713338332929069 0.00076801314404651691 0 0.0048024355719126152 0.00087094870945449523 0 0.004880714499477674 0.00033185443354335429 0 0.0047746918922726787 0.00042999909789026585 0 0.0048227044948923378 0.00025655880168346825 0 0.00068036790250926846 0.001435029059474032 0 0.00068440433285005156 0.0013019034675565743 0 0.00080538551537435077 0.0013153138491822413 0 0.0020791765936716703 0.0011926343166373682 0 0.0022839952347000056 0.00099001261375327386 0 0.0046228010099103054 0.00044558563931830475 0 0.0047746918922726787 0.00042999909789026585 0 0.0048227044948923378 0.00025655880168346825 0 0.0046228010099103054 0.00044558563931830475 0 0.0047746918922726787 0.00042999909789026585 0 0.0048118492317509283 0.00057455364100263509 0 0.0047197599993687471 0.00090244589027625645 0 0.0045843417817293328 0.00066051583980301096 0 0.0048118492317509283 0.00057455364100263509 0 0.0035347285340547995 0.00061765639465727492 0 0.0033650807124399264 0.00065315790360808736 0 0.0046228010099103054 0.00044558563931830475 0 0.0045843417817293328 0.00066051583980301096 0 0.0048118492317509283 0.00057455364100263509 0 0.004547645955533401 0.00079492951451806692 0 0.0047197599993687471 0.00090244589027625645 0 0.0045843417817293328 0.00066051583980301096 0 0.0047197599993687471 0.00090244589027625645 0 0.0047961045063321852 0.00092179250785341519 0 0.0047480971316474748 0.00086091656850518269 0 0.0048290471765814443 0.00090622556617565267 0 0.0047961045063321852 0.00092179250785341519 0 0.0048024355719126152 0.00087094870945449523 0 0.0048616355152419364 0.00097479931869220158 0 0.0048290471765814443 0.00090622556617565267 0 0.0047961045063321852 0.00092179250785341519 0 0.0048717706711989568 0.00088954928698224559 0 0.0048290471765814443 0.00090622556617565267 0 0.0048024355719126152 0.00087094870945449523 0 0.0047961045063321852 0.00092179250785341519 0 0.0048024355719126152 0.00087094870945449523 0 0.0047480971316474748 0.00086091656850518269 0 0.0030710599176556846 0.0017776178784069919 0 0.0032505386456150994 0.0018032365722383413 0 0.0032437282298848811 0.0016167734071877379 0 0.0032505386456150994 0.0018032365722383413 0 0.0032437282298848811 0.0016167734071877379 0 0.0034535636235023255 0.0017422616906840414 0 0.0032437282298848811 0.0016167734071877379 0 0.0035490332038399198 0.0015873410073848398 0 0.0034535636235023255 0.0017422616906840414 0 0.0032505386456150994 0.0018032365722383413 0 0.0034535636235023255 0.0017422616906840414 0 0.0034098853275800712 0.0018826091824319675 0 0.0034535636235023255 0.0017422616906840414 0 0.003597539673587355 0.0018203258972997287 0 0.0034098853275800712 0.0018826091824319675 0 0.0034535636235023255 0.0017422616906840414 0 0.003597539673587355 0.0018203258972997287 0 0.0036061854728234428 0.0016502412925948763 0 0.003597539673587355 0.0018203258972997287 0 0.0036061854728234428 0.0016502412925948763 0 0.0036912956566597633 0.0017144297415415133 0 0.0036493423887557753 0.001593694770089046 0 0.0037436342811405375 0.001534388795796228 0 0.0037644258644395196 0.0014607756196465896 0 0.0035490332038399198 0.0015873410073848398 0 0.0037573293081963242 0.0016830964315432291 0 0.0035490332038399198 0.0015873410073848398 0 0.0034535636235023255 0.0017422616906840414 0 0.0037573293081963242 0.0016830964315432291 0 0.0036061854728234428 0.0016502412925948763 0 0.0037730215249271175 0.0015595949858617803 0 0.0036912956566597633 0.0017144297415415133 0 0.0037730215249271175 0.0015595949858617803 0 0.0036912956566597633 0.0017144297415415133 0 0.0037890755495667166 0.0018291716834184268 0 0.0037436342811405375 0.001534388795796228 0 0.0039722089019599352 0.0013729218395576819 0 0.0039722089019599352 0.0013729218395576819 0 0.0034359440571950142 0.0013674293220891252 0 0.003597539673587355 0.0018203258972997287 0 0.0036912956566597633 0.0017144297415415133 0 0.0037890755495667166 0.0018291716834184268 0 0.003597539673587355 0.0018203258972997287 0 0.0037890755495667166 0.0018291716834184268 0 0.0036639237405166202 0.0019797742413099136 0 0.0038140758816903844 0.002133665205445751 0 0.0037890755495667166 0.0018291716834184268 0 0.0036639237405166202 0.0019797742413099136 0 0.0038140758816903844 0.002133665205445751 0 0.0036639237405166202 0.0019797742413099136 0 0.0035606095979570694 0.0021548818459807308 0 0.0035606095979570694 0.0021548818459807308 0 0.0035156289919546307 0.0019883570685338275 0 0.0033605934512424595 0.0020730337206140564 0 0.0036639237405166202 0.0019797742413099136 0 0.0035606095979570694 0.0021548818459807308 0 0.0035156289919546307 0.0019883570685338275 0 0.003597539673587355 0.0018203258972997287 0 0.0036639237405166202 0.0019797742413099136 0 0.0035156289919546307 0.0019883570685338275 0 0.003597539673587355 0.0018203258972997287 0 0.0035156289919546307 0.0019883570685338275 0 0.0034098853275800712 0.0018826091824319675 0 0.0035156289919546307 0.0019883570685338275 0 0.0034098853275800712 0.0018826091824319675 0 0.0033605934512424595 0.0020730337206140564 0 0.0034098853275800712 0.0018826091824319675 0 0.0033605934512424595 0.0020730337206140564 0 0.003267876177233277 0.0019290091453299349 0 0.0032505386456150994 0.0018032365722383413 0 0.0034098853275800712 0.0018826091824319675 0 0.003267876177233277 0.0019290091453299349 0 0.0035606095979570694 0.0021548818459807308 0 0.0033605934512424595 0.0020730337206140564 0 0.00339632562214021 0.0023142862655770174 0 0.0033605934512424595 0.0020730337206140564 0 0.0031792999753429687 0.0020379990006095042 0 0.003267876177233277 0.0019290091453299349 0 0.0033605934512424595 0.0020730337206140564 0 0.0031792999753429687 0.0020379990006095042 0 0.0032188713662349654 0.0022356020189523442 0 0.0031792999753429687 0.0020379990006095042 0 0.0031224019181253348 0.0018791165949381473 0 0.003267876177233277 0.0019290091453299349 0 0.0030710599176556846 0.0017776178784069919 0 0.0032505386456150994 0.0018032365722383413 0 0.0031224019181253348 0.0018791165949381473 0 0.0030022559186621968 0.0019869729451885468 0 0.0031792999753429687 0.0020379990006095042 0 0.0031224019181253348 0.0018791165949381473 0 0.0032505386456150994 0.0018032365722383413 0 0.0031224019181253348 0.0018791165949381473 0 0.003267876177233277 0.0019290091453299349 0 0.0029830275317049688 0.0023423790411627784 0 0.0031991512573566346 0.0024255627763430298 0 0.0031013769447895273 0.0026412764458260268 0 0.0023138302000488388 0.0023941343132316668 0 0.0026110256932482846 0.0021453695830266433 0 0.0029830275317049688 0.0023423790411627784 0 0.0031792999753429687 0.0020379990006095042 0 0.0032188713662349654 0.0022356020189523442 0 0.0029830275317049688 0.0023423790411627784 0 0.0031991512573566346 0.0024255627763430298 0 0.0032188713662349654 0.0022356020189523442 0 0.0031991512573566346 0.0024255627763430298 0 0.0032188713662349654 0.0022356020189523442 0 0.00339632562214021 0.0023142862655770174 0 0.0033605934512424595 0.0020730337206140564 0 0.0032188713662349654 0.0022356020189523442 0 0.00339632562214021 0.0023142862655770174 0 0.0031991512573566346 0.0024255627763430298 0 0.00344316570534401 0.0026337421272592757 0 0.0031013769447895273 0.0026412764458260268 0 0.0031991512573566346 0.0024255627763430298 0 0.00339632562214021 0.0023142862655770174 0 0.00344316570534401 0.0026337421272592757 0 -0.0019093745355267836 0.000765415514768936 0 -0.0019303411587971359 0.00090926521818394219 0 -0.0020260178492428889 0.00091382242506710739 0 0.00339632562214021 0.0023142862655770174 0 0.0036418666038999961 0.0023720184296335298 0 0.00344316570534401 0.0026337421272592757 0 0.0011344765482347867 0.0015332989809944911 0 0.00059235792532288738 0.0016570424446959444 0 0.0035606095979570694 0.0021548818459807308 0 0.00339632562214021 0.0023142862655770174 0 0.0036418666038999961 0.0023720184296335298 0 0.0021619939583288495 0.00097819123474689488 0 0.0011344765482347867 0.0015332989809944911 0 0.0038140758816903844 0.002133665205445751 0 0.0035606095979570694 0.0021548818459807308 0 0.0036418666038999961 0.0023720184296335298 0 -0.0017772622862520127 0.00061611891254740171 0 -0.0019093745355267836 0.000765415514768936 0 -0.0017836243607802346 0.00079344871650791657 0 -0.0019093745355267836 0.000765415514768936 0 -0.0018500150822892342 0.00088159350077246545 0 -0.0017836243607802346 0.00079344871650791657 0 -0.0019093745355267836 0.000765415514768936 0 -0.0018500150822892342 0.00088159350077246545 0 -0.0019303411587971359 0.00090926521818394219 0 -0.0018500150822892342 0.00088159350077246545 0 -0.0017836243607802346 0.00079344871650791657 0 -0.0017878921570300586 0.00097208049071104878 0 -0.0018500150822892342 0.00088159350077246545 0 -0.0018731450170860681 0.00097530576258541462 0 -0.0019303411587971359 0.00090926521818394219 0 -0.0018500150822892342 0.00088159350077246545 0 -0.0018731450170860681 0.00097530576258541462 0 -0.0017878921570300586 0.00097208049071104878 0 -0.00070702964716546366 0.0013103010522129547 0 -0.00047836702669676572 0.0013136191253398564 0 -0.0018731450170860681 0.00097530576258541462 0 -0.0019301587948925749 0.0010739912729949583 0 -0.0017938277257236728 0.00097179285076810697 0 -0.0013757238606659946 0.001486383124472758 0 -0.00047836702669676572 0.0013136191253398564 0 -0.0018731450170860681 0.00097530576258541462 0 -0.0019301587948925749 0.0010739912729949583 0 -0.001978841235944833 0.0009962564501014 0 -0.0021863569178499349 0.00122086184456694 0 -0.0022852536529787641 0.0013193390327220634 0 -0.002293808400414874 0.0011372271506179508 0 -0.0019301587948925749 0.0010739912729949583 0 -0.001978841235944833 0.0009962564501014 0 -0.0020422965970611092 0.0010725741107913795 0 -0.001978841235944833 0.0009962564501014 0 -0.0019303411587971359 0.00090926521818394219 0 -0.0020260178492428889 0.00091382242506710739 0 -0.0018731450170860681 0.00097530576258541462 0 -0.001978841235944833 0.0009962564501014 0 -0.0019303411587971359 0.00090926521818394219 0 0.00059235792532288738 0.0016570424446959444 0 8.7305458540466599e-06 0.0016844637322992987 0 0.00344316570534401 0.0026337421272592757 0 0.0032190892633815133 0.0029081262521818002 0 0.0031013769447895273 0.0026412764458260268 0 -0.001978841235944833 0.0009962564501014 0 -0.0020260178492428889 0.00091382242506710739 0 -0.0021095572606930455 0.0010428596230718293 0 -0.001978841235944833 0.0009962564501014 0 -0.0020422965970611092 0.0010725741107913795 0 -0.0021095572606930455 0.0010428596230718293 0 -0.0020422965970611092 0.0010725741107913795 0 -0.0021095572606930455 0.0010428596230718293 0 -0.0020851177527676109 0.0011002961192106541 0 0.0029127645736902793 0.0029262081228159631 0 0.0032190892633815133 0.0029081262521818002 0 0.0031013769447895273 0.0026412764458260268 0 0.0029127645736902793 0.0029262081228159631 0 0.0029826374584023198 0.0031835513542206712 0 0.0032190892633815133 0.0029081262521818002 0 0.0022176721161000458 0.00086025300348803024 0 0.001720217599959839 0.0010869080900176473 0 0.00071862026033792385 0.00088723747619319211 0 0.00070548896564234733 0.00075691610033692925 0 0.00062602343837832146 0.00099002479561443408 0 0.00076301570787735702 0.00084248479835400943 0 0.00071862026033792385 0.00088723747619319211 0 0.00070548896564234733 0.00075691610033692925 0 0.00076301570787735702 0.00084248479835400943 0 0.00071862026033792385 0.00088723747619319211 0 0.00077908921977162262 0.00095870245874302303 0 0.00094947611912059348 0.00092397094630102363 0 0.00086325276978909597 0.00080963399656857368 0 0.00077908921977162262 0.00095870245874302303 0 0.00076301570787735702 0.00084248479835400943 0 0.00086325276978909597 0.00080963399656857368 0 0.00077908921977162262 0.00095870245874302303 0 -0.00049022547130991856 0.00073813495391927126 0 0.0008882738104493466 0.00088644646710628501 0 0.0008882738104493466 0.00088644646710628501 0 0.0022839952347000056 0.00099001261375327386 0 0.00076301570787735702 0.00084248479835400943 0 0.00086325276978909597 0.00080963399656857368 0 0.00077514776986946799 0.00069126836056352021 0 0.00069941348156268065 0.0011820934579129874 0 0.00068440433285005156 0.0013019034675565743 0 0.00080538551537435077 0.0013153138491822413 0 0.00055289998950702279 0.0012748214508689873 0 0.00069941348156268065 0.0011820934579129874 0 0.00068440433285005156 0.0013019034675565743 0 0.0027447308366530788 0.00098117832215621086 0 0.0022839952347000056 0.00099001261375327386 0 0.0027447308366530788 0.00098117832215621086 0 0.0022176721161000458 0.00086025300348803024 0 0.0022839952347000056 0.00099001261375327386 0 0.0022176721161000458 0.00086025300348803024 0 0.00076301570787735702 0.00084248479835400943 0 0.00077514776986946799 0.00069126836056352021 0 0.00070548896564234733 0.00075691610033692925 0 0.002605425144320622 0.00070408562702144889 0 0.0027296499483230132 0.00086371969643650394 0 0.0024701820753124824 0.0011139815022764162 0 0.0048184518100231047 0.00096475176577676938 0 0.0048399964179240938 0.00096391144326573436 0 0.0048350012787291927 0.00099256395472425204 0 0.0048184518100231047 0.00096475176577676938 0 0.0048350012787291927 0.00099256395472425204 0 0.0047970203816610005 0.00099735336291956818 0 0.0048040766945825347 0.00096448378988156492 0 0.0048184518100231047 0.00096475176577676938 0 0.0047970203816610005 0.00099735336291956818 0 0.0021619939583288495 0.00097819123474689488 0 0.0009980196492260251 0.0010149515667018634 0 0.0047564807548395836 0.00095663148135634432 0 0.0047970203816610005 0.00099735336291956818 0 0.0047381036555840667 0.001018418077235296 0 0.0047564807548395836 0.00095663148135634432 0 0.0048040766945825347 0.00096448378988156492 0 0.0047970203816610005 0.00099735336291956818 0 0.0047970203816610005 0.00099735336291956818 0 0.0047381036555840667 0.001018418077235296 0 0.0047926383721511511 0.001039598679236572 0 0.0047381036555840667 0.001018418077235296 0 0.0047926383721511511 0.001039598679236572 0 0.0047297934404637049 0.00109273283351772 0 0.0048350012787291927 0.00099256395472425204 0 0.0047970203816610005 0.00099735336291956818 0 0.0047926383721511511 0.001039598679236572 0 0.0022176721161000458 0.00086025300348803024 0 0.0015916653669017025 0.0007059706105227362 0 0.00073685687006880035 0.00069130858947757956 0 0.00054908523532438351 0.0008665197048275306 0 0.00062602343837832146 0.00099002479561443408 0 0.00054908523532438351 0.0008665197048275306 0 0.00060192460812197226 0.0010005786072006181 0 0.00036627813537597729 0.0010450401803231764 0 0.00054908523532438351 0.0008665197048275306 0 0.00062602343837832146 0.00099002479561443408 0 0.00060192460812197226 0.0010005786072006181 0 -0.003862794042194191 0.00085667450848858932 0 -0.0037673492197757836 0.00079096657647727351 0 -0.0036526339854782166 0.00082253698709826436 0 0.0015916653669017025 0.0007059706105227362 0 -0.00037164811530101659 0.0012487228311310818 0 0.0047381036555840667 0.001018418077235296 0 0.0047234482421717296 0.0010974533051885818 0 0.0047297934404637049 0.00109273283351772 0 0.0009980196492260251 0.0010149515667018634 0 -0.00047836702669676572 0.0013136191253398564 0 -0.0018213338282239129 0.00091642469142796652 0 -0.00037164811530101659 0.0012487228311310818 0 -0.0037673492197757836 0.00079096657647727351 0 -0.003637859693714965 0.00080840165599516697 0 -0.0036526339854782166 0.00082253698709826436 0 -0.00047836702669676572 0.0013136191253398564 0 -0.00037164811530101659 0.0012487228311310818 0 -0.00047836702669676572 0.0013136191253398564 0 -0.0023360939966465336 0.00087271019305046056 0 -0.0037673492197757836 0.00079096657647727351 0 -0.003637859693714965 0.00080840165599516697 0 -0.0037453493858551831 0.00064686425494288704 0 -0.003637859693714965 0.00080840165599516697 0 -0.0037453493858551831 0.00064686425494288704 0 -0.0036553919603425429 0.00052627069042267456 0 -0.003862794042194191 0.00085667450848858932 0 -0.0037673492197757836 0.00079096657647727351 0 -0.0038783649051626901 0.0006069968133259855 0 -0.0018213338282239129 0.00091642469142796652 0 -0.0028863473142618991 0.00062012220024648733 0 -0.0037673492197757836 0.00079096657647727351 0 -0.0037453493858551831 0.00064686425494288704 0 -0.0038783649051626901 0.0006069968133259855 0 -0.0031198209372954554 0.00057067502386672487 0 -0.0030975458584928798 0.00058940786348145194 0 -0.0031229436547139428 0.00060490989275475894 0 -0.0031198209372954554 0.00057067502386672487 0 -0.0030975458584928798 0.00058940786348145194 0 -0.0030895014896139467 0.00056360951539938622 0 -0.0018213338282239129 0.00091642469142796652 0 -0.0011644693158076389 0.00081697320659593331 0 0.00071862026033792385 0.00088723747619319211 0 0.00062602343837832146 0.00099002479561443408 0 0.00077908921977162262 0.00095870245874302303 0 0.00062602343837832146 0.00099002479561443408 0 0.00060192460812197226 0.0010005786072006181 0 0.00077908921977162262 0.00095870245874302303 0 -0.0030548393091288672 0.00055716943027262584 0 -0.0030895014896139467 0.00056360951539938622 0 -0.003069222898598312 0.00057347342786059018 0 -0.00049022547130991856 0.00073813495391927126 0 -0.0011644693158076389 0.00081697320659593331 0 -0.0030975458584928798 0.00058940786348145194 0 -0.0030895014896139467 0.00056360951539938622 0 -0.003069222898598312 0.00057347342786059018 0 -0.0030975458584928798 0.00058940786348145194 0 -0.003069222898598312 0.00057347342786059018 0 -0.0030728286754467238 0.00060679496849896865 0 -0.0030728286754467238 0.00060679496849896865 0 -0.0030984669004030232 0.00062559332872510923 0 -0.0031065813982153957 0.00061643249395766696 0 -0.0019635061677583778 0.00089002906117511811 0 -0.002433257245193545 0.00067970611273728985 0 -0.0030975458584928798 0.00058940786348145194 0 -0.0030728286754467238 0.00060679496849896865 0 -0.0031065813982153957 0.00061643249395766696 0 -0.002103426009331185 0.00074278232688179712 0 -0.0020308927955326674 0.00060927177424225873 0 -0.0021295021720181134 0.0005989954022523876 0 -0.0020308927955326674 0.00060927177424225873 0 -0.0020677802482993272 0.00051210977354963002 0 -0.0021295021720181134 0.0005989954022523876 0 -0.0031194968378094054 0.00062592076414090178 0 -0.0031065813982153957 0.00061643249395766696 0 -0.0031195107051005732 0.00064458790624207418 0 -0.0030984669004030232 0.00062559332872510923 0 -0.0031194968378094054 0.00062592076414090178 0 -0.0031181935877972865 0.00063333874862660179 0 -0.0030984669004030232 0.00062559332872510923 0 -0.0031194968378094054 0.00062592076414090178 0 -0.0031065813982153957 0.00061643249395766696 0 -0.0030975458584928798 0.00058940786348145194 0 -0.0031065813982153957 0.00061643249395766696 0 -0.0031229436547139428 0.00060490989275475894 0 -0.0038783649051626901 0.0006069968133259855 0 -0.0037877755522854801 0.00050012520365673853 0 -0.0038989073327857426 0.00035234488066595166 0 -0.0028863473142618991 0.00062012220024648733 0 -0.0035960891481341068 0.00042661676225960358 0 -0.0031065813982153957 0.00061643249395766696 0 -0.0031229436547139428 0.00060490989275475894 0 -0.0031195107051005732 0.00064458790624207418 0 -0.0037453493858551831 0.00064686425494288704 0 -0.0038783649051626901 0.0006069968133259855 0 -0.0037877755522854801 0.00050012520365673853 0 -0.0037453493858551831 0.00064686425494288704 0 -0.0037877755522854801 0.00050012520365673853 0 -0.0036553919603425429 0.00052627069042267456 0 -0.0023360939966465336 0.00087271019305046056 0 -0.0037149790087621071 0.00063697747491758252 0 -0.0036553919603425429 0.00052627069042267456 0 -0.003771380042265154 0.00036403259180851151 0 -0.0036766143771977955 0.0002374901045739834 0 -0.002293808400414874 0.0011372271506179508 0 -0.0022549707212528992 0.0010829292982412796 0 -0.0022947912875587086 0.0010599735334231454 0 -0.0037877755522854801 0.00050012520365673853 0 -0.0036553919603425429 0.00052627069042267456 0 -0.003771380042265154 0.00036403259180851151 0 -0.0037877755522854801 0.00050012520365673853 0 -0.003771380042265154 0.00036403259180851151 0 -0.0038989073327857426 0.00035234488066595166 0 -0.0031194968378094054 0.00062592076414090178 0 -0.0031195107051005732 0.00064458790624207418 0 -0.0031316542957741636 0.00060046219118290584 0 -0.0031195107051005732 0.00064458790624207418 0 -0.0031316542957741636 0.00060046219118290584 0 -0.0031396775097110854 0.00023520539120685643 0 -0.0035960891481341068 0.00042661676225960358 0 -0.0043573472593916541 0.00012440594028195238 0 -0.0031316542957741636 0.00060046219118290584 0 -0.003189657124475425 0.00039554155147829452 0 -0.0031396775097110854 0.00023520539120685643 0 -0.0038989073327857426 0.00035234488066595166 0 -0.0038085569501364212 0.00022520426176268098 0 -0.0039184427047848167 9.2045017005589269e-05 0 -0.003771380042265154 0.00036403259180851151 0 -0.0038989073327857426 0.00035234488066595166 0 -0.0038085569501364212 0.00022520426176268098 0 -0.003771380042265154 0.00036403259180851151 0 -0.0038085569501364212 0.00022520426176268098 0 -0.0036766143771977955 0.0002374901045739834 0 -0.0038085569501364212 0.00022520426176268098 0 -0.0036766143771977955 0.0002374901045739834 0 -0.0037918207381468327 9.414597216610417e-05 0 -0.0022549707212528992 0.0010829292982412796 0 -0.0024739750701940114 0.0013153607978031434 0 -0.0021695540011760529 0.0018525167227642987 0 -0.0037149790087621071 0.00063697747491758252 0 -0.0056729357415162465 -0.00020008663093948868 0 -0.0036766143771977955 0.0002374901045739834 0 -0.0037918207381468327 9.414597216610417e-05 0 -0.0036977492949638808 -5.4525702513727554e-05 0 -0.0037918207381468327 9.414597216610417e-05 0 -0.0038232132852928083 -2.7691920213999872e-05 0 -0.0036977492949638808 -5.4525702513727554e-05 0 -0.003189657124475425 0.00039554155147829452 0 -0.0031396775097110854 0.00023520539120685643 0 -0.0032148516780897544 0.00031802478971012843 0 -0.0031396775097110854 0.00023520539120685643 0 -0.0032594924964676939 0.00023291788734031702 0 -0.0032148516780897544 0.00031802478971012843 0 -0.0038085569501364212 0.00022520426176268098 0 -0.0037918207381468327 9.414597216610417e-05 0 -0.0039184427047848167 9.2045017005589269e-05 0 -0.0037918207381468327 9.414597216610417e-05 0 -0.0038607118752578768 2.1624550831244751e-05 0 -0.0038232132852928083 -2.7691920213999872e-05 0 -0.0037918207381468327 9.414597216610417e-05 0 -0.0039184427047848167 9.2045017005589269e-05 0 -0.0038607118752578768 2.1624550831244751e-05 0 -0.0032991595209528319 8.3471748361980188e-05 0 -0.0035013308230519386 5.4310166745106668e-05 0 -0.0032904496375225521 -0.00013871112067370139 0 -0.0032594924964676939 0.00023291788734031702 0 -0.0035013308230519386 5.4310166745106668e-05 0 -0.003445911975716916 0.0005579135955199175 0 -0.0035013308230519386 5.4310166745106668e-05 0 -0.0038872424730479198 0.00018364407222358064 0 -0.003445911975716916 0.0005579135955199175 0 -0.0032991595209528319 8.3471748361980188e-05 0 -0.0032594924964676939 0.00023291788734031702 0 -0.0035013308230519386 5.4310166745106668e-05 0 -0.0031396775097110854 0.00023520539120685643 0 -0.0032991595209528319 8.3471748361980188e-05 0 -0.0032904496375225521 -0.00013871112067370139 0 -0.0031396775097110854 0.00023520539120685643 0 -0.0032991595209528319 8.3471748361980188e-05 0 -0.0032594924964676939 0.00023291788734031702 0 -0.0032594924964676939 0.00023291788734031702 0 -0.0032148516780897544 0.00031802478971012843 0 -0.0033448601457036543 0.00043627098554877757 0 -0.0028838238585054445 0.00048577922212119127 0 -0.0028449787010705642 0.00048803315740555725 0 -0.0035013308230519386 5.4310166745106668e-05 0 -0.0038872424730479198 0.00018364407222358064 0 -0.0036524040773458768 -0.00013535738725344124 0 -0.002867544585306536 0.00018155852846107539 0 -0.0028449787010705642 0.00048803315740555725 0 -0.0020714116602705253 0.00037529977357638269 0 -0.0020677802482993272 0.00051210977354963002 0 -0.0019564131210837643 0.00047480673066887315 0 -0.0020308927955326674 0.00060927177424225873 0 -0.0020677802482993272 0.00051210977354963002 0 -0.0019564131210837643 0.00047480673066887315 0 -0.0020714116602705253 0.00037529977357638269 0 -0.0020677802482993272 0.00051210977354963002 0 -0.0021505638781988304 0.00050030540413759539 0 -0.002433257245193545 0.00067970611273728985 0 -0.0028449787010705642 0.00048803315740555725 0 -0.0031316542957741636 0.00060046219118290584 0 -0.003189657124475425 0.00039554155147829452 0 -0.0033448601457036543 0.00043627098554877757 0 -0.0031194968378094054 0.00062592076414090178 0 -0.0031316542957741636 0.00060046219118290584 0 -0.0031181935877972865 0.00063333874862660179 0 -0.0029079784840798186 0.00046975944363267832 0 -0.0028449787010705642 0.00048803315740555725 0 -0.003189657124475425 0.00039554155147829452 0 -0.0032148516780897544 0.00031802478971012843 0 -0.0033448601457036543 0.00043627098554877757 0 -0.0010993680530432034 0.0018123178257601475 0 -0.0022633695674537692 0.0012475161199588215 0 -0.004503023474665583 0.00014261757681275196 0 -0.003684441570482149 0.00069962719621455424 0 -0.0041055315587762162 0.00074196953391458733 0 -0.0016833314408296949 0.0018584173847424024 0 -0.0030902726042414731 0.0010102681060964905 0 -0.0036988608192669355 0.00068905914637641718 0 -0.0032674793626772873 0.00073109779821935075 0 -0.0033155626929354362 0.0009597020533473864 0 -0.0036988608192669355 0.00068905914637641718 0 -0.0036301001165114271 0.00060516209400135836 0 -0.0032674793626772873 0.00073109779821935075 0 -0.0010993680530432034 0.0018123178257601475 0 8.7305458540466599e-06 0.0016844637322992987 0 -0.0021454895690842602 0.0011186442185302172 0 -0.0021095572606930455 0.0010428596230718293 0 -0.0020851177527676109 0.0011002961192106541 0 -0.0021454895690842602 0.0011186442185302172 0 -0.0020851177527676109 0.0011002961192106541 0 -0.0020722927880163235 0.0011286312952448556 0 -0.0020851177527676109 0.0011002961192106541 0 -0.0020801251401207713 0.0011314592642008904 0 -0.0020722927880163235 0.0011286312952448556 0 -0.0020422965970611092 0.0010725741107913795 0 -0.0020851177527676109 0.0011002961192106541 0 -0.0020801251401207713 0.0011314592642008904 0 -0.0032674793626772873 0.00073109779821935075 0 -0.0028556078183462046 0.00085717446341896817 0 -0.0033155626929354362 0.0009597020533473864 0 -0.0020801251401207713 0.0011314592642008904 0 -0.0020722927880163235 0.0011286312952448556 0 -0.0021441743716227638 0.001069026213938644 0 -0.0022633695674537692 0.0012475161199588215 0 -0.002430218353704181 0.0011165482009020779 0 -0.0021441743716227638 0.001069026213938644 0 -0.0021772701583660931 0.0011427412392011058 0 -0.0022345832474264843 0.0011046575750375545 0 -0.0020801251401207713 0.0011314592642008904 0 -0.0021441743716227638 0.001069026213938644 0 -0.0021772701583660931 0.0011427412392011058 0 -0.0021863569178499349 0.00122086184456694 0 -0.0020801251401207713 0.0011314592642008904 0 -0.0021772701583660931 0.0011427412392011058 0 -0.0019301587948925749 0.0010739912729949583 0 -0.0020422965970611092 0.0010725741107913795 0 -0.0020801251401207713 0.0011314592642008904 0 -0.0013757238606659946 0.001486383124472758 0 -0.0015740194973311095 0.0014761491868587023 0 -0.0021863569178499349 0.00122086184456694 0 -0.002293808400414874 0.0011372271506179508 0 -0.0021772701583660931 0.0011427412392011058 0 -0.002293808400414874 0.0011372271506179508 0 -0.0021772701583660931 0.0011427412392011058 0 -0.0022345832474264843 0.0011046575750375545 0 -0.002293808400414874 0.0011372271506179508 0 -0.0022345832474264843 0.0011046575750375545 0 -0.0022947912875587086 0.0010599735334231454 0 -0.0021441743716227638 0.001069026213938644 0 -0.0022345832474264843 0.0011046575750375545 0 -0.0022947912875587086 0.0010599735334231454 0 -0.0028556078183462046 0.00085717446341896817 0 -0.0022947912875587086 0.0010599735334231454 0 -0.0026282868073820918 0.0011330526890760168 0 -0.0026282868073820918 0.0011330526890760168 0 -0.0024739750701940114 0.0013153607978031434 0 -0.0028886097084029751 0.0012884340512024309 0 -0.002430218353704181 0.0011165482009020779 0 -0.0024020290649911769 0.0011069061036436487 0 -0.0022549707212528992 0.0010829292982412796 0 -0.0022947912875587086 0.0010599735334231454 0 -0.0024739750701940114 0.0013153607978031434 0 -0.0022947912875587086 0.0010599735334231454 0 -0.0026282868073820918 0.0011330526890760168 0 -0.0024739750701940114 0.0013153607978031434 0 -0.0024739750701940114 0.0013153607978031434 0 -0.0026329858433185162 0.0016330120794816098 0 -0.0028886097084029751 0.0012884340512024309 0 -0.0024739750701940114 0.0013153607978031434 0 -0.0026329858433185162 0.0016330120794816098 0 -0.0021695540011760529 0.0018525167227642987 0 -0.0028886097084029751 0.0012884340512024309 0 -0.0031766865862781625 0.0015423854488535609 0 -0.0035012316704879027 0.0013774733983176234 0 -0.0026329858433185162 0.0016330120794816098 0 -0.0028886097084029751 0.0012884340512024309 0 -0.0029974390972223046 0.0017216461249380819 0 -0.0028886097084029751 0.0012884340512024309 0 -0.0029974390972223046 0.0017216461249380819 0 -0.0031766865862781625 0.0015423854488535609 0 -0.0029974390972223046 0.0017216461249380819 0 -0.0031766865862781625 0.0015423854488535609 0 -0.0032467488887456581 0.0017114283601116905 0 -0.0028556078183462046 0.00085717446341896817 0 -0.0028886097084029751 0.0012884340512024309 0 -0.0033155626929354362 0.0009597020533473864 0 -0.0028556078183462046 0.00085717446341896817 0 -0.0026282868073820918 0.0011330526890760168 0 -0.0028886097084029751 0.0012884340512024309 0 -0.0030687362923167479 0.0010558568600076419 0 -0.0030902726042414731 0.0010102681060964905 0 -0.0028886097084029751 0.0012884340512024309 0 -0.0036115840356326593 0.0010545840891598339 0 -0.0035012316704879027 0.0013774733983176234 0 -0.0028886097084029751 0.0012884340512024309 0 -0.003684441570482149 0.00069962719621455424 0 -0.0036115840356326593 0.0010545840891598339 0 -0.0036115840356326593 0.0010545840891598339 0 -0.0035012316704879027 0.0013774733983176234 0 -0.0039619644652710622 0.0011564599772133392 0 -0.0031766865862781625 0.0015423854488535609 0 -0.003552187485997017 0.0016610474082699009 0 -0.0035012316704879027 0.0013774733983176234 0 -0.0031766865862781625 0.0015423854488535609 0 -0.0032467488887456581 0.0017114283601116905 0 -0.003552187485997017 0.0016610474082699009 0 -0.003552187485997017 0.0016610474082699009 0 -0.0035012316704879027 0.0013774733983176234 0 -0.0039014010924316462 0.0014751004952585475 0 -0.0035012316704879027 0.0013774733983176234 0 -0.0039014010924316462 0.0014751004952585475 0 -0.0039619644652710622 0.0011564599772133392 0 -0.0039014010924316462 0.0014751004952585475 0 -0.0042496549317641002 0.0013441566464325021 0 -0.0039619644652710622 0.0011564599772133392 0 -0.003552187485997017 0.0016610474082699009 0 -0.0039014010924316462 0.0014751004952585475 0 -0.0042539713261583352 0.0018386864137066598 0 -0.0039014010924316462 0.0014751004952585475 0 -0.0042496549317641002 0.0013441566464325021 0 -0.0042539713261583352 0.0018386864137066598 0 -0.0043839086683864657 0.00089773131977879483 0 -0.0042496549317641002 0.0013441566464325021 0 -0.0039619644652710622 0.0011564599772133392 0 -0.0036115840356326593 0.0010545840891598339 0 -0.0039619644652710622 0.0011564599772133392 0 -0.0041055315587762162 0.00074196953391458733 0 -0.003684441570482149 0.00069962719621455424 0 -0.0036115840356326593 0.0010545840891598339 0 -0.0041055315587762162 0.00074196953391458733 0 -0.0043839086683864657 0.00089773131977879483 0 -0.0039619644652710622 0.0011564599772133392 0 -0.0041055315587762162 0.00074196953391458733 0 -0.0043839086683864657 0.00089773131977879483 0 -0.0044442099085198637 0.0005951204159133672 0 -0.0041055315587762162 0.00074196953391458733 0 -0.01391639820391511 -0.00064256929794629346 0 -0.013926839282374339 -0.00065311646922073781 0 -0.01393046318665061 -0.00064097489254376545 0 -0.013926839282374339 -0.00065311646922073781 0 -0.01393046318665061 -0.00064097489254376545 0 -0.013900968468935205 -0.00064069695175683237 0 -0.013243157700746288 -0.00068417334727132871 0 -0.013349810592673641 -0.0010949386672918209 0 -0.012609504475199929 -0.00098614512883109695 0 -0.013243157700746288 -0.00068417334727132871 0 -0.012609504475199929 -0.00098614512883109695 0 -0.012523107441741572 -0.00082461603384534072 0 -0.0088474339741308264 0.00043835427712619716 0 -0.0089517724765783725 -0.00017032354084057147 0 -0.012897029529795521 -0.00026895219058992588 0 -0.0096734699000113767 -0.00038972986214443192 0 -0.003552187485997017 0.0016610474082699009 0 -0.0042539713261583352 0.0018386864137066598 0 -0.0032118132289026247 0.0019540927405582963 0 -0.0032467488887456581 0.0017114283601116905 0 -0.003552187485997017 0.0016610474082699009 0 -0.0032118132289026247 0.0019540927405582963 0 -0.013926839282374339 -0.00065311646922073781 0 -0.013872607942387252 -0.00067324012051401616 0 -0.013900968468935205 -0.00064069695175683237 0 -0.0096734699000113767 -0.00038972986214443192 0 -0.010278522122331647 -0.00062063894788850062 0 -0.013872607942387252 -0.00067324012051401616 0 -0.013853242152724042 -0.00064318613029138588 0 -0.013900968468935205 -0.00064069695175683237 0 -0.0083885277223127112 8.2460817426077882e-05 0 -0.0085373045869342658 0.00011408744421469642 0 -0.0084961155429889787 -0.00012477417625134882 0 -0.0089517724765783725 -0.00017032354084057147 0 -0.0072326094480507971 -0.00020987519062184805 0 -0.0029974390972223046 0.0017216461249380819 0 -0.0032118132289026247 0.0019540927405582963 0 -0.0026596449950243716 0.0019868086649870971 0 -0.0092795985161975396 -0.0006058637683088472 0 -0.0090902254785943833 -0.00024605027975448693 0 -0.0082292683805887806 -0.00042763286067122597 0 -0.0089517724765783725 -0.00017032354084057147 0 -0.0096734699000113767 -0.00038972986214443192 0 -0.0029974390972223046 0.0017216461249380819 0 -0.0032467488887456581 0.0017114283601116905 0 -0.0032118132289026247 0.0019540927405582963 0 -0.0026329858433185162 0.0016330120794816098 0 -0.0029974390972223046 0.0017216461249380819 0 -0.0026596449950243716 0.0019868086649870971 0 -0.0096734699000113767 -0.00038972986214443192 0 -0.0072326094480507971 -0.00020987519062184805 0 -0.0066001454303795722 5.3750441777646432e-05 0 -0.0062497966537246553 -1.958087255039707e-05 0 -0.0062452596387647923 0.00011420779187943301 0 -0.0085373045869342658 0.00011408744421469642 0 -0.0086221736652881496 -3.4049839223947726e-05 0 -0.0087204631171064646 8.1357505850042261e-05 0 -0.0072326094480507971 -0.00020987519062184805 0 -0.0062498490345573223 -0.00013445554821341898 0 -0.0072326094480507971 -0.00020987519062184805 0 -0.0056729357415162465 -0.00020008663093948868 0 -0.0026329858433185162 0.0016330120794816098 0 -0.0026596449950243716 0.0019868086649870971 0 -0.0021695540011760529 0.0018525167227642987 0 -0.0085373045869342658 0.00011408744421469642 0 -0.0086221736652881496 -3.4049839223947726e-05 0 -0.0084961155429889787 -0.00012477417625134882 0 -0.0086047968240193558 -0.00033176001611568724 0 -0.0084961155429889787 -0.00012477417625134882 0 -0.0087346897682856316 -0.00020718686955873439 0 -0.0086221736652881496 -3.4049839223947726e-05 0 -0.0084961155429889787 -0.00012477417625134882 0 -0.0087346897682856316 -0.00020718686955873439 0 -0.010281092329355814 -0.00060858602371415623 0 -0.010278522122331647 -0.00062063894788850062 0 -0.013881275135851984 -0.00058802192751407399 0 -0.013821798605714601 -0.0006074414881353027 0 -0.013870553788342949 -0.00061943817637617543 0 -0.013881275135851984 -0.00058802192751407399 0 -0.013870553788342949 -0.00061943817637617543 0 -0.01390477646698002 -0.00061483424369568719 0 -0.013853242152724042 -0.00064318613029138588 0 -0.013870553788342949 -0.00061943817637617543 0 -0.013900968468935205 -0.00064069695175683237 0 -0.013821798605714601 -0.0006074414881353027 0 -0.013853242152724042 -0.00064318613029138588 0 -0.013870553788342949 -0.00061943817637617543 0 -0.013900968468935205 -0.00064069695175683237 0 -0.01390477646698002 -0.00061483424369568719 0 -0.013932925780288432 -0.00062410257177172238 0 -0.013870553788342949 -0.00061943817637617543 0 -0.013900968468935205 -0.00064069695175683237 0 -0.01390477646698002 -0.00061483424369568719 0 -0.013881275135851984 -0.00058802192751407399 0 -0.01390477646698002 -0.00061483424369568719 0 -0.013938942369871372 -0.00059539036105127916 0 -0.013969770021536725 -0.00060577148978126921 0 -0.013938942369871372 -0.00059539036105127916 0 -0.013932925780288432 -0.00062410257177172238 0 -0.01390477646698002 -0.00061483424369568719 0 -0.013938942369871372 -0.00059539036105127916 0 -0.013932925780288432 -0.00062410257177172238 0 -0.01393046318665061 -0.00064097489254376545 0 -0.013900968468935205 -0.00064069695175683237 0 -0.013932925780288432 -0.00062410257177172238 0 -0.013946186565856779 -0.0006302826780029638 0 -0.01393046318665061 -0.00064097489254376545 0 -0.013932925780288432 -0.00062410257177172238 0 -0.0053114010865685851 -0.00058313504400061352 0 -0.0055978559015813431 -0.00029317937162802698 0 -0.0053114010865685851 -0.00058313504400061352 0 -0.007428689221089556 -0.00038515168000877322 0 -0.0062395277820865439 -0.0006230347688555058 0 -0.006445383705364743 -0.00064948217460689627 0 -0.0064399677833322901 -0.00037953027133917936 0 -0.0073853527722119779 -0.00064845123137754015 0 -0.0074632904238552591 -0.00072329094883510133 0 -0.0074693929834591319 -0.00063554155619649348 0 -0.0040256853322518807 -0.00079822962297612817 0 -0.0040340046405387495 -0.00058369714630605526 0 -0.0037242440258361035 -0.00050886741403871204 0 -0.0051244850602009647 -0.00074950072482872238 0 -0.0053114010865685851 -0.00058313504400061352 0 -0.0040340046405387495 -0.00058369714630605526 0 -0.0037020785363816233 -0.0005051186113190899 0 -0.0038950593091500491 -0.00026189865178997599 0 -0.0049914937915260466 -0.0005278335480441615 0 -0.0053114010865685851 -0.00058313504400061352 0 -0.0038872424730479198 0.00018364407222358064 0 -0.0038950593091500491 -0.00026189865178997599 0 -0.004311022532938389 -0.00018282439650703413 0 -0.0053114010865685851 -0.00058313504400061352 0 -0.0051556111534606869 -0.00065592559347504734 0 -0.0038872424730479198 0.00018364407222358064 0 -0.0038950593091500491 -0.00026189865178997599 0 -0.0036524040773458768 -0.00013535738725344124 0 -0.0036916842215353519 -0.00051389850253130253 0 -0.0038950593091500491 -0.00026189865178997599 0 -0.0036524040773458768 -0.00013535738725344124 0 -0.0037135583494869195 -0.00052807542831112314 0 -0.0032904496375225521 -0.00013871112067370139 0 -0.0031512696339491999 -0.00045057775855713152 0 -0.0035013308230519386 5.4310166745106668e-05 0 -0.0036524040773458768 -0.00013535738725344124 0 -0.0032904496375225521 -0.00013871112067370139 0 -0.0036916842215353519 -0.00051389850253130253 0 -0.0036524040773458768 -0.00013535738725344124 0 -0.0032904496375225521 -0.00013871112067370139 0 -0.0053114010865685851 -0.00058313504400061352 0 -0.0046497957622064646 -0.00018766329012441686 0 -0.0038607118752578768 2.1624550831244751e-05 0 -0.0038232132852928083 -2.7691920213999872e-05 0 -0.0039297122890362768 -0.00015934329728749887 0 -0.0031396775097110854 0.00023520539120685643 0 -0.0032904496375225521 -0.00013871112067370139 0 -0.0031512696339491999 -0.00045057775855713152 0 -0.0043573472593916541 0.00012440594028195238 0 -0.0055978559015813431 -0.00029317937162802698 0 -0.0039184427047848167 9.2045017005589269e-05 0 -0.0038607118752578768 2.1624550831244751e-05 0 -0.0039297122890362768 -0.00015934329728749887 0 -0.0062498490345573223 -0.00013445554821341898 0 -0.0055978559015813431 -0.00029317937162802698 0 -0.0038232132852928083 -2.7691920213999872e-05 0 -0.0037140612501461489 -0.00011867744782781266 0 -0.0039297122890362768 -0.00015934329728749887 0 -0.0038232132852928083 -2.7691920213999872e-05 0 -0.0037123491763630541 -5.3357761427201852e-05 0 -0.0037140612501461489 -0.00011867744782781266 0 -0.0052806482500067017 -0.0002483082636844401 0 -0.0056729357415162465 -0.00020008663093948868 0 -0.0056729357415162465 -0.00020008663093948868 0 -0.0062498490345573223 -0.00013445554821341898 0 -0.0062498490345573223 -0.00013445554821341898 0 -0.0077610378117535482 -0.00018789058809425704 0 -0.0073576035578014004 -0.00019064779369375355 0 -0.0073499893977326241 -0.00017799652037077309 0 -0.0073618174631744195 -0.00016977343001231367 0 -0.0086221736652881496 -3.4049839223947726e-05 0 -0.0087204631171064646 8.1357505850042261e-05 0 -0.0087346897682856316 -0.00020718686955873439 0 -0.0073576035578014004 -0.00019064779369375355 0 -0.0073406947339872712 -0.00018803206137532491 0 -0.0073499893977326241 -0.00017799652037077309 0 -0.0073406947339872712 -0.00018803206137532491 0 -0.0073499893977326241 -0.00017799652037077309 0 -0.0073433165374845082 -0.00016825266043828333 0 -0.0055978559015813431 -0.00029317937162802698 0 -0.007428689221089556 -0.00038515168000877322 0 -0.0073499893977326241 -0.00017799652037077309 0 -0.0073433165374845082 -0.00016825266043828333 0 -0.0073618174631744195 -0.00016977343001231367 0 -0.008748165166892705 -0.00049683309644248726 0 -0.0086047968240193558 -0.00033176001611568724 0 -0.0087346897682856316 -0.00020718686955873439 0 -0.0090561877701424084 -0.00020128959526683865 0 -0.0077610378117535482 -0.00018789058809425704 0 -0.0073676486316826603 -0.00014536550066524367 0 -0.0073618174631744195 -0.00016977343001231367 0 -0.0073545628530472182 -0.00015695291388085421 0 -0.0089042261280382617 -0.00030333526972707749 0 -0.007428689221089556 -0.00038515168000877322 0 -0.0073433165374845082 -0.00016825266043828333 0 -0.0073618174631744195 -0.00016977343001231367 0 -0.0073545628530472182 -0.00015695291388085421 0 -0.0094323645204935358 -0.00034466119324649044 0 -0.0094528469631253217 -0.0011772469870267412 0 -0.0098074525815770273 -0.00074571303040705758 0 -0.007428689221089556 -0.00038515168000877322 0 -0.0082942974849741311 -0.0002927882308300127 0 -0.007594398709776861 -0.00040719483726095132 0 -0.007593392865602502 -0.00057080115158684465 0 -0.0074447229314851017 -0.00052310405197137277 0 -0.0074632904238552591 -0.00072329094883510133 0 -0.007593392865602502 -0.00057080115158684465 0 -0.0074693929834591319 -0.00063554155619649348 0 -0.007593392865602502 -0.00057080115158684465 0 -0.0074693929834591319 -0.00063554155619649348 0 -0.0074447229314851017 -0.00052310405197137277 0 -0.0073853527722119779 -0.00064845123137754015 0 -0.0074693929834591319 -0.00063554155619649348 0 -0.0074447229314851017 -0.00052310405197137277 0 -0.0073853527722119779 -0.00064845123137754015 0 -0.0074447229314851017 -0.00052310405197137277 0 -0.0073131219858661306 -0.00058041143890273509 0 -0.0074297439904210932 -0.00039146612645292472 0 -0.0073160390344081446 -0.00044134950843179288 0 -0.0074447229314851017 -0.00052310405197137277 0 -0.0057786400321855596 -0.00082221464391743525 0 -0.0059476779780602345 -0.00084205126312179781 0 -0.0058684817919675359 -0.0003318439806869473 0 -0.0073160390344081446 -0.00044134950843179288 0 -0.0074447229314851017 -0.00052310405197137277 0 -0.0073131219858661306 -0.00058041143890273509 0 -0.0062554588587042824 -0.00063686780239085661 0 -0.0046107020704264368 -0.00070069101682686545 0 -0.0057786400321855596 -0.00082221464391743525 0 -0.0058684817919675359 -0.0003318439806869473 0 -0.005770534927527415 -0.00024072783140318934 0 -0.0051163857780408221 -0.00084416716560915697 0 -0.0041958505383609436 -0.00067733987652599957 0 -0.0031153612057831658 -0.00070002563216356429 0 -0.0041958505383609436 -0.00067733987652599957 0 -0.0023688419856514979 -0.0009777458302646445 0 -0.0020968037911043348 -0.00070653980477711654 0 -0.0023301479160319203 -0.00071906592405319037 0 -0.0026782265342101467 -0.0012530072208179429 0 -0.0026947746499323627 -0.0012543544664725692 0 -0.0027013485985595497 -0.0012681114582713154 0 -0.0022497719610167968 -0.00063467656470684751 0 -0.0021806916129537722 -0.00055083944444577263 0 -0.0023727835926481483 -0.00055953084723022763 0 -0.0022497719610167968 -0.00063467656470684751 0 -0.0020968037911043348 -0.00070653980477711654 0 -0.0023301479160319203 -0.00071906592405319037 0 -0.0022497719610167968 -0.00063467656470684751 0 -0.0021806916129537722 -0.00055083944444577263 0 -0.0020968037911043348 -0.00070653980477711654 0 -0.0041958505383609436 -0.00067733987652599957 0 -0.0037684106031384379 -0.00048468271917627632 0 -0.0046107020704264368 -0.00070069101682686545 0 -0.0036561827382474055 -0.00046315772261864207 0 -0.0021288574994024804 -0.0007080359123845829 0 -0.0020796409773733648 -0.00066509470724733207 0 -0.0020632740301992285 -0.00044568493899351289 0 -0.0040256853322518807 -0.00079822962297612817 0 -0.0043117749075814336 -0.0010665354469957772 0 -0.0043101724267532926 -0.00063018946643320453 0 -0.0021806916129537722 -0.00055083944444577263 0 -0.0020968037911043348 -0.00070653980477711654 0 -0.0020671892045421351 -0.00042030873142793427 0 -0.0041958505383609436 -0.00067733987652599957 0 -0.0046107020704264368 -0.00070069101682686545 0 -0.0051244850602009647 -0.00074950072482872238 0 -0.0046107020704264368 -0.00070069101682686545 0 -0.0021288574994024804 -0.0007080359123845829 0 -0.0020671892045421351 -0.00042030873142793427 0 -0.0020632740301992285 -0.00044568493899351289 0 -0.0040340046405387495 -0.00058369714630605526 0 -0.0043101724267532926 -0.00063018946643320453 0 -0.004311022532938389 -0.00018282439650703413 0 -0.0040256853322518807 -0.00079822962297612817 0 -0.0040340046405387495 -0.00058369714630605526 0 -0.0043101724267532926 -0.00063018946643320453 0 -0.0020671892045421351 -0.00042030873142793427 0 -0.0020632740301992285 -0.00044568493899351289 0 -0.0020614590726723762 -0.00023537312134400468 0 -0.0021806916129537722 -0.00055083944444577263 0 -0.0022919219488196376 -0.00043155729837584573 0 -0.0023727835926481483 -0.00055953084723022763 0 -0.0021806916129537722 -0.00055083944444577263 0 -0.0020671892045421351 -0.00042030873142793427 0 -0.0022919219488196376 -0.00043155729837584573 0 -0.0020671892045421351 -0.00042030873142793427 0 -0.0022919219488196376 -0.00043155729837584573 0 -0.0020614590726723762 -0.00023537312134400468 0 -0.0022919219488196376 -0.00043155729837584573 0 -0.0022970672528234413 -0.00017639255904064444 0 -0.0020516648725599821 -0.00022375303151220713 0 -0.002587264988377168 -0.00011109012621447206 0 -0.0028224764328343825 -0.00014344245017536511 0 -0.0040340046405387495 -0.00058369714630605526 0 -0.0038950593091500491 -0.00026189865178997599 0 -0.004311022532938389 -0.00018282439650703413 0 -0.0036561827382474055 -0.00046315772261864207 0 -0.0028224764328343825 -0.00014344245017536511 0 -0.0025476204141225735 -0.00037132327182669831 0 -0.0027557228792374059 -0.00019620073863287833 0 -0.0025167332096689495 -0.00012144289238814478 0 -0.0022919219488196376 -0.00043155729837584573 0 -0.0022970672528234413 -0.00017639255904064444 0 -0.0025476204141225735 -0.00037132327182669831 0 -0.0022970672528234413 -0.00017639255904064444 0 -0.0025476204141225735 -0.00037132327182669831 0 -0.0025167332096689495 -0.00012144289238814478 0 -0.0022919219488196376 -0.00043155729837584573 0 -0.0025476204141225735 -0.00037132327182669831 0 -0.0023727835926481483 -0.00055953084723022763 0 -0.0025476204141225735 -0.00037132327182669831 0 -0.0025418925506489653 -0.00062926732194461775 0 -0.0023727835926481483 -0.00055953084723022763 0 -0.0025476204141225735 -0.00037132327182669831 0 -0.0025418925506489653 -0.00062926732194461775 0 -0.0027280686038704174 -0.00056501640031605862 0 -0.0025418925506489653 -0.00062926732194461775 0 -0.0026827907693201384 -0.00076224113737940048 0 -0.0027280686038704174 -0.00056501640031605862 0 -0.0025418925506489653 -0.00062926732194461775 0 -0.0023727835926481483 -0.00055953084723022763 0 -0.0023301479160319203 -0.00071906592405319037 0 -0.0025418925506489653 -0.00062926732194461775 0 -0.0023301479160319203 -0.00071906592405319037 0 -0.0025019650238046437 -0.00082337952142594285 0 -0.0022497719610167968 -0.00063467656470684751 0 -0.0023727835926481483 -0.00055953084723022763 0 -0.0023301479160319203 -0.00071906592405319037 0 -0.0023688419856514979 -0.0009777458302646445 0 -0.0023301479160319203 -0.00071906592405319037 0 -0.0025019650238046437 -0.00082337952142594285 0 -0.0025671462051621617 -0.0010036661663115961 0 -0.0023688419856514979 -0.0009777458302646445 0 -0.0025019650238046437 -0.00082337952142594285 0 -0.0025418925506489653 -0.00062926732194461775 0 -0.0025019650238046437 -0.00082337952142594285 0 -0.0026827907693201384 -0.00076224113737940048 0 -0.0026703218698867987 -0.00094598794102608271 0 -0.0025671462051621617 -0.0010036661663115961 0 -0.0025019650238046437 -0.00082337952142594285 0 -0.0026703218698867987 -0.00094598794102608271 0 -0.0025019650238046437 -0.00082337952142594285 0 -0.0026827907693201384 -0.00076224113737940048 0 -0.0026703218698867987 -0.00094598794102608271 0 -0.0026827907693201384 -0.00076224113737940048 0 -0.0028376300870847811 -0.00089910480145905913 0 -0.0026827907693201384 -0.00076224113737940048 0 -0.0028376300870847811 -0.00089910480145905913 0 -0.0028430530249018205 -0.00071459553830829589 0 -0.0028376300870847811 -0.00089910480145905913 0 -0.0030179515292036883 -0.00081378929293465677 0 -0.0028430530249018205 -0.00071459553830829589 0 -0.0030180988726721649 -0.0010546123915145778 0 -0.0028376300870847811 -0.00089910480145905913 0 -0.0030179515292036883 -0.00081378929293465677 0 -0.0030180988726721649 -0.0010546123915145778 0 -0.0030179515292036883 -0.00081378929293465677 0 -0.0032623132555837727 -0.00094056787647929258 0 -0.0029450664869135252 -0.00057354103336068228 0 -0.00321731364312763 -0.0006780668902730306 0 -0.0030814946879436068 -0.00043503883612793691 0 -0.0030179515292036883 -0.00081378929293465677 0 -0.0029450664869135252 -0.00057354103336068228 0 -0.0028430530249018205 -0.00071459553830829589 0 -0.0030179515292036883 -0.00081378929293465677 0 -0.0029450664869135252 -0.00057354103336068228 0 -0.00321731364312763 -0.0006780668902730306 0 -0.0029450664869135252 -0.00057354103336068228 0 -0.0027280686038704174 -0.00056501640031605862 0 -0.0028430530249018205 -0.00071459553830829589 0 -0.0026827907693201384 -0.00076224113737940048 0 -0.0027280686038704174 -0.00056501640031605862 0 -0.0028430530249018205 -0.00071459553830829589 0 -0.0035790376238087648 -0.00085071468076587079 0 -0.0032623132555837727 -0.00094056787647929258 0 -0.00321731364312763 -0.0006780668902730306 0 -0.003452841152927124 -0.0010644389184656879 0 -0.0035790376238087648 -0.00085071468076587079 0 -0.0032623132555837727 -0.00094056787647929258 0 -0.0030179515292036883 -0.00081378929293465677 0 -0.0032623132555837727 -0.00094056787647929258 0 -0.00321731364312763 -0.0006780668902730306 0 -0.0035790376238087648 -0.00085071468076587079 0 -0.00321731364312763 -0.0006780668902730306 0 -0.0035247717439019811 -0.00051979426450116128 0 -0.0054858905666277909 -0.00070372423049430287 0 -0.0049268077650753504 -0.00050483667801398192 0 -0.0035247717439019811 -0.00051979426450116128 0 -0.0031490847540171494 -0.00024782045153229495 0 -0.0034975650403049566 -0.00015179064268251006 0 -0.00321731364312763 -0.0006780668902730306 0 -0.0035247717439019811 -0.00051979426450116128 0 -0.0030814946879436068 -0.00043503883612793691 0 -0.0035247717439019811 -0.00051979426450116128 0 -0.0030814946879436068 -0.00043503883612793691 0 -0.0031490847540171494 -0.00024782045153229495 0 -0.0031490847540171494 -0.00024782045153229495 0 -0.0034975650403049566 -0.00015179064268251006 0 -0.0032539871021576346 0.00014863709677001639 0 -0.0030814946879436068 -0.00043503883612793691 0 -0.0031490847540171494 -0.00024782045153229495 0 -0.0029518594988994875 -0.00024725015518117576 0 -0.0025476204141225735 -0.00037132327182669831 0 -0.0027280686038704174 -0.00056501640031605862 0 -0.0028317600878908691 -0.00037151155972856183 0 -0.0029450664869135252 -0.00057354103336068228 0 -0.0027280686038704174 -0.00056501640031605862 0 -0.0028317600878908691 -0.00037151155972856183 0 -0.0029450664869135252 -0.00057354103336068228 0 -0.0030814946879436068 -0.00043503883612793691 0 -0.0028317600878908691 -0.00037151155972856183 0 -0.0030814946879436068 -0.00043503883612793691 0 -0.0028317600878908691 -0.00037151155972856183 0 -0.0029518594988994875 -0.00024725015518117576 0 -0.0029518594988994875 -0.00024725015518117576 0 -0.0027557228792374059 -0.00019620073863287833 0 -0.0029667777041018587 -5.6656436239710602e-05 0 -0.0031490847540171494 -0.00024782045153229495 0 -0.0029518594988994875 -0.00024725015518117576 0 -0.0029667777041018587 -5.6656436239710602e-05 0 -0.0028317600878908691 -0.00037151155972856183 0 -0.0029518594988994875 -0.00024725015518117576 0 -0.0027557228792374059 -0.00019620073863287833 0 -0.0025476204141225735 -0.00037132327182669831 0 -0.0028317600878908691 -0.00037151155972856183 0 -0.0027557228792374059 -0.00019620073863287833 0 -0.0021450927310735545 4.6689401605047848e-05 0 -0.0029667777041018587 -5.6656436239710602e-05 0 -0.0025451448332516808 0.00031015190442114382 0 -0.0027557228792374059 -0.00019620073863287833 0 -0.002695649962603327 -2.5254083933587273e-05 0 -0.0029667777041018587 -5.6656436239710602e-05 0 -0.0023979044417315847 0.00011759679751292463 0 -0.0026580663781661353 3.7755882359590951e-05 0 -0.0029667777041018587 -5.6656436239710602e-05 0 -0.0029588053796832849 0.0001211478137548516 0 -0.0025451448332516808 0.00031015190442114382 0 -0.0029588053796832849 0.0001211478137548516 0 -0.0025451448332516808 0.00031015190442114382 0 -0.0026598039852101024 0.00081312690426052037 0 -0.0028663330853706216 0.00033552536083830659 0 -0.0026660705564035777 0.00082476039882350212 0 -0.0028499684832796646 0.00038949329771173247 0 -0.0029482584384504396 0.00068852844424377099 0 -0.0026180707727318591 0.00094988690888449018 0 -0.0025451448332516808 0.00031015190442114382 0 -0.0026598039852101024 0.00081312690426052037 0 -0.001981378064031928 0.00070681422319752649 0 -0.0021450927310735545 4.6689401605047848e-05 0 -0.0025451448332516808 0.00031015190442114382 0 -0.001981378064031928 0.00070681422319752649 0 -0.0034975650403049566 -0.00015179064268251006 0 -0.003566700160718726 0.00027381671948219818 0 -0.0032539871021576346 0.00014863709677001639 0 -0.003566700160718726 0.00027381671948219818 0 -0.0032539871021576346 0.00014863709677001639 0 -0.0031748929176778594 0.00050545520989387304 0 -0.0029768776945401356 6.7375412067086302e-05 0 -0.0028663330853706216 0.00033552536083830659 0 -0.0031490847540171494 -0.00024782045153229495 0 -0.0028499684832796646 0.00038949329771173247 0 -0.0032539871021576346 0.00014863709677001639 0 -0.0031490847540171494 -0.00024782045153229495 0 -0.0029667777041018587 -5.6656436239710602e-05 0 -0.0029588053796832849 0.0001211478137548516 0 -0.0028499684832796646 0.00038949329771173247 0 -0.0032539871021576346 0.00014863709677001639 0 -0.0031748929176778594 0.00050545520989387304 0 -0.0029482584384504396 0.00068852844424377099 0 -0.0031748929176778594 0.00050545520989387304 0 -0.0031554930625709919 0.00090439545939973256 0 -0.0028499684832796646 0.00038949329771173247 0 -0.0029482584384504396 0.00068852844424377099 0 -0.0031748929176778594 0.00050545520989387304 0 -0.0037440504394547422 0.00077382123878592837 0 -0.003566700160718726 0.00027381671948219818 0 -0.0031748929176778594 0.00050545520989387304 0 -0.0037440504394547422 0.00077382123878592837 0 -0.0031748929176778594 0.00050545520989387304 0 -0.0031554930625709919 0.00090439545939973256 0 -0.0037440504394547422 0.00077382123878592837 0 -0.0034934264224186881 0.001172262189521249 0 -0.0031554930625709919 0.00090439545939973256 0 -0.0034934264224186881 0.001172262189521249 0 -0.0031554930625709919 0.00090439545939973256 0 -0.0029574860339313348 0.0014348750523152096 0 -0.0031554930625709919 0.00090439545939973256 0 -0.0029574860339313348 0.0014348750523152096 0 -0.0026180707727318591 0.00094988690888449018 0 -0.0029482584384504396 0.00068852844424377099 0 -0.0031554930625709919 0.00090439545939973256 0 -0.0026180707727318591 0.00094988690888449018 0 -0.00350555518120082 0.0016013321408863503 0 -0.0034934264224186881 0.001172262189521249 0 -0.0029574860339313348 0.0014348750523152096 0 -0.0026598039852101024 0.00081312690426052037 0 -0.0023495384390725673 0.0014855000525047215 0 -0.001981378064031928 0.00070681422319752649 0 -0.0026660705564035777 0.00082476039882350212 0 -0.0025435868359060961 0.001123387594193318 0 -0.0029574860339313348 0.0014348750523152096 0 -0.0026180707727318591 0.00094988690888449018 0 -0.0023495384390725673 0.0014855000525047215 0 -0.0017546216523601089 0.0017822535709409359 0 -0.0023495384390725673 0.0014855000525047215 0 -0.0016612183857884809 0.0011979219216067178 0 -0.0023495384390725673 0.0014855000525047215 0 -0.0016612183857884809 0.0011979219216067178 0 -0.001981378064031928 0.00070681422319752649 0 -0.0016612183857884809 0.0011979219216067178 0 -0.001981378064031928 0.00070681422319752649 0 -0.0012235683648428692 0.00082819737331569024 0 -0.0017546216523601089 0.0017822535709409359 0 -0.0016612183857884809 0.0011979219216067178 0 -0.0011818532066347725 0.0013477171774799663 0 -0.0016612183857884809 0.0011979219216067178 0 -0.0012235683648428692 0.00082819737331569024 0 -0.0011818532066347725 0.0013477171774799663 0 -0.0012235683648428692 0.00082819737331569024 0 -0.0011818532066347725 0.0013477171774799663 0 -0.00063129403332491533 0.0011900035097842112 0 -0.00097218257337026829 0.0017252280609684489 0 -0.0011818532066347725 0.0013477171774799663 0 -0.00063129403332491533 0.0011900035097842112 0 -0.002103426009331185 0.00074278232688179712 0 -0.0021797529046683824 0.00068461774520328362 0 -0.0021295021720181134 0.0005989954022523876 0 -0.0015099533439826456 0.00087716828374357443 0 -0.001949658795784231 0.00050464087432251033 0 -0.0021797529046683824 0.00068461774520328362 0 -0.0021295021720181134 0.0005989954022523876 0 -0.0021842455063111649 0.00049179620855302789 0 -0.0012235683648428692 0.00082819737331569024 0 -0.00063129403332491533 0.0011900035097842112 0 -0.00063069795628182634 0.00044502655352515822 0 -0.001949658795784231 0.00050464087432251033 0 -0.001994174690267633 0.00029595217314845655 0 -0.0012235683648428692 0.00082819737331569024 0 -0.00063069795628182634 0.00044502655352515822 0 -0.0013673528014078707 0.00024940631426725521 0 -0.0020714116602705253 0.00037529977357638269 0 -0.0021505638781988304 0.00050030540413759539 0 -0.0021854224745395628 0.00049144282394007798 0 -0.0020677802482993272 0.00051210977354963002 0 -0.0021295021720181134 0.0005989954022523876 0 -0.0021505638781988304 0.00050030540413759539 0 -0.0021295021720181134 0.0005989954022523876 0 -0.0021505638781988304 0.00050030540413759539 0 -0.0021842455063111649 0.00049179620855302789 0 -0.001957638282908316 0.00050308526732766902 0 -0.001949658795784231 0.00050464087432251033 0 -0.0028224764328343825 -0.00014344245017536511 0 -0.001949658795784231 0.00050464087432251033 0 -0.002867544585306536 0.00018155852846107539 0 -0.0028224764328343825 -0.00014344245017536511 0 -0.0020714116602705253 0.00037529977357638269 0 -0.0021894352045989719 0.00027469114020053855 0 -0.0021854224745395628 0.00049144282394007798 0 -0.0022970672528234413 -0.00017639255904064444 0 -0.0020504583340960037 0.0001423649241982759 0 -0.0023786449716456338 5.7832446123924008e-05 0 -0.0022970672528234413 -0.00017639255904064444 0 -0.0020516648725599821 -0.00022375303151220713 0 -0.0020504583340960037 0.0001423649241982759 0 -0.0022970672528234413 -0.00017639255904064444 0 -0.0025167332096689495 -0.00012144289238814478 0 -0.0023786449716456338 5.7832446123924008e-05 0 -0.002695649962603327 -2.5254083933587273e-05 0 -0.0025167332096689495 -0.00012144289238814478 0 -0.0023786449716456338 5.7832446123924008e-05 0 -0.0023979044417315847 0.00011759679751292463 0 -0.001994174690267633 0.00029595217314845655 0 -0.0027557228792374059 -0.00019620073863287833 0 -0.002695649962603327 -2.5254083933587273e-05 0 -0.0025167332096689495 -0.00012144289238814478 0 -0.0021450927310735545 4.6689401605047848e-05 0 -0.001981378064031928 0.00070681422319752649 0 -0.0013673528014078707 0.00024940631426725521 0 -0.001981378064031928 0.00070681422319752649 0 -0.0012235683648428692 0.00082819737331569024 0 -0.0013673528014078707 0.00024940631426725521 0 
</DataArray>
</PointData>
<CellData Scalars="region_id,cross_section_updated," Vectors="" Tensors="stress,">
<DataArray type="Float64" Name="region_id" format="ascii">
5 5 6 5 5 5 5 6 5 5 5 5 5 5 5 5 5 5 5 5 6 5 5 5 5 6 5 5 5 5 5 5 5 6 5 5 5 5 5 5 5 5 6 5 5 5 5 5 5 5 5 5 5 5 6 6 5 5 5 5 5 5 5 5 6 5 5 5 5 5 5 5 5 5 5 5 5 5 5 5 5 5 5 5 5 5 5 6 5 5 5 5 5 5 5 5 5 5 5 6 5 5 5 6 5 5 5 5 5 5 5 5 5 5 5 5 5 5 5 5 5 5 5 5 5 5 5 5 5 5 5 5 5 5 5 5 5 5 5 5 5 5 5 5 5 5 5 5 5 6 5 6 5 5 5 5 5 5 5 5 5 5 5 5 5 5 5 5 5 5 5 5 5 5 5 5 5 5 6 5 5 6 5 6 5 5 5 5 5 5 5 5 5 5 5 5 5 5 6 5 6 5 5 5 5 5 5 5 6 5 6 5 5 5 5 5 5 6 5 5 6 5 5 5 5 5 5 6 6 5 5 6 5 6 5 6 6 5 5 5 6 5 5 5 5 5 5 5 5 5 5 5 5 5 6 5 5 5 5 5 5 5 6 5 5 5 5 5 5 5 6 5 5 5 5 6 5 5 5 5 5 5 6 5 5 5 6 5 5 5 5 5 5 5 6 5 5 5 5 5 5 6 5 5 5 5 5 5 6 5 5 5 5 5 5 5 6 5 5 5 5 5 5 5 5 5 5 5 5 5 5 5 5 5 5 5 5 5 6 6 5 5 5 5 5 6 5 5 5 5 5 5 5 6 5 6 5 5 5 6 5 5 5 6 5 6 5 5 5 5 5 5 5 6 5 5 5 5 5 5 5 6 5 5 5 6 5 5 5 5 5 5 5 5 5 5 5 5 5 5 5 5 5 5 5 5 5 5 5 5 5 5 5 5 5 5 5 5 6 5 5 5 5 5 5 5 5 5 5 5 5 5 5 5 5 5 5 5 5 5 5 5 5 5 5 5 5 5 5 5 5 6 5 5 5 5 5 5 5 5 5 5 5 5 5 5 5 5 5 5 5 5 6 5 5 5 5 5 5 5 6 5 5 5 5 5 6 5 5 6 5 6 5 5 5 5 6 5 5 6 5 5 5 5 5 5 6 5 5 5 5 5 5 5 5 5 5 5 5 5 5 5 5 5 5 5 6 5 5 5 5 5 5 5 5 5 5 5 6 6 5 5 5 5 5 5 5 5 5 5 5 5 5 5 5 5 5 5 5 5 5 6 5 6 6 5 5 6 5 5 5 5 5 5 5 5 5 5 5 5 5 6 5 5 5 5 5 5 5 6 6 5 5 5 5 5 5 5 5 6 6 5 5 5 6 5 5 5 5 5 5 5 5 5 5 5 5 5 5 5 5 5 5 5 5 5 5 5 5 5 5 5 5 5 5 5 5 5 5 5 6 5 5 6 5 5 5 5 6 5 5 5 6 5 5 5 6 5 5 6 5 5 5 5 5 5 5 5 5 5 5 5 5 5 5 5 5 5 5 5 5 6 5 5 5 6 5 5 5 5 5 6 5 5 5 5 5 5 6 5 5 5 5 5 5 5 5 5 5 5 5 5 5 5 5 5 5 6 5 5 5 5 5 5 5 5 5 5 5 5 5 5 5 5 5 5 5 5 5 6 5 5 5 5 5 5 5 5 5 5 5 5 5 5 5 6 5 5 5 5 5 5 5 5 5 5 5 5 5 5 5 5 5 5 6 5 5 5 5 5 5 5 6 5 5 5 5 5 5 5 5 5 5 5 5 5 5 5 5 5 5 5 5 5 6 5 5 5 5 5 5 5 5 5 6 5 5 5 5 5 5 5 5 6 5 5 5 5 5 5 5 5 5 5 5 5 5 5 5 5 5 5 5 6 5 5 5 5 5 6 5 5 5 6 5 5 5 5 5 5 6 5 5 5 5 5 5 5 5 5 5 6 5 5 5 5 5 5 5 5 5 5 5 5 6 5 6 5 5 5 5 5 5 5 6 5 6 5 5 5 5 5 5 5 5 5 5 5 5 5 5 5 5 5 5 5 5 5 5 5 5 5 5 5 5 5 5 5 5 5 5 5 5 5 5 5 5 5 5 5 5 5 6 6 5 5 6 5 5 5 5 5 5 5 5 5 5 5 5 5 5 5 5 6 5 5 5 5 6 5 5 6 5 5 5 5 5 5 6 5 6 5 5 6 5 5 5 5 5 5 5 5 5 5 6 5 5 5 5 5 6 6 5 5 5 5 6 5 5 6 5 6 5 5 5 5 5 6 5 5 6 5 5 5 5 5 5 5 5 5 5 5 5 6 5 5 5 5 5 5 5 5 5 5 5 5 5 5 5 6 5 6 5 6 6 5 6 5 5 6 5 5 5 5 5 5 6 5 6 5 5 6 5 5 5 6 5 5 6 5 5 5 5 5 6 5 5 6 5 5 5 5 5 6 5 6 5 5 6 5 5 6 5 5 5 5 5 5 5 5 6 5 5 5 5 5 5 5 5 5 5 6 5 5 5 5 6 5 5 6 5 5 5 5 5 6 5 5 5 5 5 6 5 6 5 5 5 5 5 5 6 5 5 5 5 5 5 5 5 6 6 6 5 5 5 5 6 5 6 5 5 5 6 6 5 5 5 6 5 5 5 6 5 6 5 6 6 5 6 5 5 5 5 6 5 5 5 6 5 6 5 6 5 5 5 5 5 5 5 6 5 5 5 5 6 5 5 5 5 5 5 5 5 6 5 6 6 5 5 5 6 5 5 5 5 6 6 5 5 6 6 5 5 5 5 5 6 5 5 5 5 5 5 5 5 6 5 6 5 5 5 5 5 5 5 5 5 5 5 5 5 5 5 5 5 6 5 5 5 5 5 5 5 5 5 5 5 5 5 5 5 5 5 5 5 5 5 5 5 5 5 6 5 6 5 5 5 5 5 6 6 5 5 5 5 6 6 5 6 5 5 6 5 5 6 5 5 5 5 6 6 5 5 5 5 5 5 5 5 6 5 5 6 5 5 5 6 5 5 6 5 5 5 5 5 5 6 5 5 5 5 5 5 6 5 5 5 5 5 6 5 5 6 6 5 5 6 5 5 6 5 5 5 5 5 5 5 5 5 5 5 5 6 5 6 5 5 6 5 5 5 5 5 5 6 5 5 5 6 6 6 5 5 5 6 6 5 6 6 5 5 6 5 5 6 5 6 5 6 5 5 5 6 6 5 5 6 6 6 6 5 5 5 6 6 5 5 6 6 6 5 6 6 5 5 6 5 6 6 5 6 5 5 6 5 6 6 5 5 5 5 6 6 5 5 6 5 5 5 6 5 5 5 5 5 5 5 5 5 5 5 5 5 5 5 5 5 5 5 5 5 5 5 5 5 5 5 5 5 5 5 5 5 5 5 5 5 5 5 5 5 5 5 5 5 5 5 5 5 5 5 5 5 5 5 5 5 5 6 5 6 5 5 5 5 5 5 5 5 5 5 5 5 5 5 6 5 5 5 5 5 5 5 5 5 5 6 5 5 5 5 5 5 5 5 5 5 5 5 5 5 5 5 5 5 5 5 5 5 5 5 5 5 5 5 5 5 5 5 5 5 5 5 5 5 5 5 5 5 5 5 5 5 6 5 5 5 6 5 6 5 5 5 5 5 6 5 6 5 5 5 5 5 5 5 5 5 5 5 5 5 5 5 5 5 5 5 5 5 5 5 5 5 6 5 5 5 5 5 5 6 5 6 5 5 5 6 5 5 6 5 5 5 5 5 5 5 5 5 5 5 5 5 5 5 5 5 5 5 5 5 5 5 5 5 5 5 5 5 5 5 5 5 5 5 5 5 6 5 6 5 5 5 5 5 5 5 5 5 5 6 5 5 5 5 5 5 5 5 5 5 5 5 5 5 5 5 5 6 5 5 5 6 6 5 6 5 5 5 5 5 5 5 5 6 5 5 5 5 6 5 5 5 5 5 5 5 6 5 5 6 5 6 5 5 6 5 5 6 6 5 5 5 5 5 5 5 5 5 5 5 5 5 5 5 6 5 6 5 5 5 6 5 6 5 5 5 5 5 5 5 5 5 5 5 5 6 5 6 5 5 5 5 5 5 5 5 6 5 5 6 5 5 5 6 6 5 5 5 5 5 5 5 5 5 5 5 5 5 5 5 5 5 5 5 5 5 6 5 5 5 5 5 6 5 6 5 5 5 5 6 5 5 6 5 5 5 5 5 6 5 5 5 5 6 5 5 5 5 5 5 5 6 5 5 5 6 5 5 5 5 5 5 5 5 5 5 5 6 5 5 5 5 5 5 5 5 6 5 5 5 5 5 5 6 5 5 5 5 5 5 6 5 5 5 5 5 5 5 5 5 5 5 6 5 5 5 6 5 5 5 6 5 6 5 5 5 5 5 5 6 5 5 5 5 5 5 5 5 5 5 5 5 5 5 5 6 5 5 5 5 5 6 5 5 5 5 5 5 5 5 6 5 5 5 5 5 5 5 5 5 5 5 5 5 5 5 5 6 5 5 5 5 6 5 5 5 5 5 5 5 5 5 5 5 5 5 5 5 5 5 5 5 5 5 5 5 5 5 5 6 5 5 5 6 5 6 5 5 5 5 6 5 6 5 5 5 5 5 6 5 5 5 5 5 5 5 5 5 6 5 5 5 5 5 5 5 5 5 5 5 5 5 5 5 5 5 5 5 5 5 5 5 5 6 6 5 5 5 5 5 6 5 5 5 6 5 5 5 6 5 5 6 5 6 5 5 5 5 6 5 5 5 5 6 6 5 5 5 5 5 5 5 5 5 5 5 5 6 5 5 5 5 6 5 5 5 5 5 6 5 5 6 5 5 5 5 5 5 5 5 5 5 5 5 5 5 5 5 6 5 5 6 5 5 5 6 5 5 5 5 5 5 5 5 5 5 5 6 5 5 5 5 5 5 5 5 5 5 5 5 5 5 5 5 6 5 5 6 5 6 5 5 6 5 6 5 6 5 5 5 5 5 5 5 5 5 5 5 5 5 6 5 6 6 5 5 6 6 5 5 6 6 5 5 5 6 5 6 5 5 6 5 5 5 5 6 6 5 6 5 5 6 6 5 5 6 5 5 5 6 5 5 5 6 6 6 5 5 6 5 6 6 5 5 5 5 5 5 5 5 5 5 5 6 6 5 6 5 6 5 6 5 5 5 6 5 5 5 5 5 6 5 5 5 5 5 5 5 5 5 5 5 5 5 5 5 5 5 5 5 5 5 5 5 5 6 5 5 5 5 5 5 5 5 5 5 5 5 5 5 5 5 5 5 6 5 5 5 5 5 5 5 5 5 5 5 6 5 5 5 5 5 6 5 5 5 5 5 5 5 5 5 5 5 5 5 5 6 5 5 5 5 5 5 5 5 5 5 5 5 5 5 6 5 6 5 5 5 5 6 5 5 5 5 5 5 5 5 5 5 5 5 6 5 6 5 5 5 5 6 5 5 5 5 5 5 5 6 5 5 5 5 5 5 5 6 5 5 5 6 5 6 5 5 5 5 5 5 5 5 5 6 5 5 5 5 5 5 5 5 5 5 5 5 5 5 5 5 5 5 5 5 5 5 5 5 5 5 5 5 5 5 5 5 5 5 5 5 5 5 5 5 5 5 5 6 5 5 6 5 5 5 5 5 5 5 5 5 5 6 5 5 5 5 5 6 5 5 6 5 5 5 5 5 5 6 5 5 5 5 6 5 5 6 5 6 5 5 5 5 5 5 5 5 5 5 5 6 5 6 5 5 5 5 6 5 5 5 5 5 5 5 5 5 5 5 5 5 5 5 5 5 5 5 5 5 6 5 5 5 5 6 5 5 5 5 5 5 5 6 5 5 5 5 5 6 5 5 5 6 5 5 5 6 5 5 6 5 5 5 6 5 5 6 5 5 5 5 5 5 5 5 5 5 5 5 5 5 5 5 5 5 5 5 5 5 5 5 5 5 5 5 5 5 5 6 5 5 5 5 5 5 5 5 5 5 5 6 5 5 5 5 5 5 5 5 5 5 5 5 5 5 5 6 6 5 5 5 6 5 5 5 5 6 5 5 6 5 5 5 5 5 5 5 5 5 5 5 5 5 6 6 5 5 5 5 5 5 5 5 5 5 5 6 5 5 6 5 5 5 5 5 5 5 5 5 5 5 5 5 5 5 5 5 5 5 6 5 5 5 6 5 5 5 5 5 6 5 5 5 5 5 5 5 5 5 5 5 5 5 5 5 5 5 5 5 5 6 5 5 6 5 5 5 5 5 5 5 5 5 5 5 5 5 5 5 5 5 5 5 6 5 5 5 5 5 5 5 5 5 5 5 5 5 5 5 5 5 5 5 5 5 5 5 5 5 5 5 5 5 5 5 5 6 5 5 5 5 5 5 6 5 5 5 5 5 6 5 5 5 5 6 5 5 5 5 5 5 5 5 5 5 5 5 5 5 5 5 5 5 5 5 5 5 6 5 5 5 5 5 5 5 6 5 5 6 5 5 6 5 5 5 5 5 5 6 5 5 5 5 5 5 5 5 5 5 6 5 6 5 5 5 5 5 5 5 5 6 5 5 6 5 5 5 6 5 5 5 6 5 5 5 6 6 5 5 6 5 5 6 5 5 6 5 5 5 5 5 5 5 5 5 6 5 5 5 6 5 5 5 6 5 5 5 6 5 6 5 5 6 5 5 5 5 5 5 5 5 6 5 5 6 5 5 5 5 5 5 5 5 5 5 5 5 5 6 5 6 5 5 5 6 6 5 6 5 5 5 5 6 5 6 5 5 5 5 5 5 5 5 5 6 5 5 5 5 5 5 5 5 5 5 5 5 5 5 5 5 5 5 5 5 5 5 5 5 5 5 5 5 6 5 5 5 5 5 5 6 5 5 5 5 5 5 6 5 5 5 5 5 5 6 5 5 5 6 5 5 5 6 5 5 6 5 5 5 5 5 5 6 5 5 5 6 6 5 5 5 5 5 5 5 5 5 5 5 5 5 5 5 5 5 6 5 5 5 5 5 5 5 6 5 5 5 5 5 6 5 5 5 5 5 6 5 5 6 5 5 5 5 6 5 5 5 5 5 5 6 5 6 5 6 6 5 6 5 5 5 6 5 5 5 5 5 6 5 5 5 6 5 5 5 5 6 6 6 5 5 5 5 6 6 5 6 5 5 5 5 5 5 6 5 6 5 5 6 5 5 5 6 5 5 6 5 5 5 5 5 5 5 5 5 5 5 5 6 5 5 5 5 6 5 5 5 5 6 5 5 5 5 5 5 5 5 5 6 6 6 5 5 5 6 6 5 5 6 5 6 5 5 5 5 5 5 5 6 5 5 5 5 5 5 5 5 5 5 5 5 5 5 5 5 6 5 5 5 5 5 5 5 5 5 6 5 5 6 5 6 5 6 5 5 6 5 5 5 6 6 5 5 6 5 5 5 6 5 5 5 5 6 5 5 5 5 5 5 5 5 5 5 5 6 6 5 5 5 5 5 5 5 5 5 5 5 5 5 5 5 5 5 5 5 5 5 5 5 5 5 5 5 5 5 5 5 5 6 5 5 5 5 5 5 5 5 5 5 5 5 5 5 5 5 5 5 5 6 5 5 5 5 5 5 6 6 5 5 6 6 5 5 5 6 5 5 5 5 5 5 5 5 5 5 5 5 5 5 5 5 5 5 5 5 5 5 5 6 5 6 5 6 5 5 5 5 5 5 6 5 6 6 5 5 6 5 5 5 5 5 5 6 6 5 5 6 6 5 5 6 6 5 5 5 5 5 5 5 5 6 5 5 5 5 5 6 5 5 6 5 5 5 6 5 5 5 5 5 5 5 5 5 5 5 5 5 5 5 5 5 5 5 5 5 5 5 5 5 5 5 5 5 5 5 5 5 5 6 5 5 6 5 6 6 5 5 5 5 5 5 5 5 5 6 5 5 5 5 5 6 5 5 5 5 5 5 5 6 5 5 5 5 5 5 5 5 6 5 5 5 5 5 6 5 5 5 5 5 5 5 5 5 5 5 5 5 5 5 5 5 5 5 5 5 5 5 5 5 5 5 5 5 5 6 6 5 5 5 5 5 5 5 6 5 5 5 6 5 6 5 5 5 5 5 5 5 5 5 5 5 5 5 5 5 5 5 5 5 5 5 6 5 5 5 5 5 5 6 5 5 5 5 5 5 5 6 5 5 6 5 5 5 5 5 5 6 5 5 5 6 5 5 6 6 5 5 5 5 5 5 5 5 5 5 5 5 5 5 5 5 5 5 5 5 5 5 5 5 5 5 5 5 6 5 5 5 5 5 5 5 5 5 5 5 5 5 5 5 5 5 5 5 6 5 5 5 6 6 5 5 5 5 5 6 5 5 5 6 5 5 5 5 5 6 5 5 5 5 5 5 5 5 5 5 5 5 5 5 5 5 5 5 5 5 5 6 5 5 5 5 5 5 6 5 5 5 5 5 5 5 5 5 5 5 5 6 5 5 5 5 6 5 6 5 5 5 5 5 5 5 5 5 5 5 5 5 6 5 5 5 5 5 6 5 5 5 5 5 5 6 5 5 5 5 5 5 5 5 5 5 5 5 6 5 5 6 5 5 6 5 5 6 5 5 5 5 5 5 5 5 5 5 6 5 5 5 5 5 5 5 5 6 5 5 5 6 5 5 5 6 5 5 6 5 5 5 6 5 5 5 5 5 6 5 6 5 5 5 5 6 6 5 5 5 6 5 5 5 5 6 5 5 5 5 5 5 5 5 5 5 5 5 5 5 5 6 5 5 6 6 5 5 5 5 6 5 5 5 5 5 5 6 5 5 5 5 5 5 6 5 5 5 5 5 5 5 5 6 5 5 5 5 5 5 5 5 5 5 6 5 5 6 5 5 6 5 5 5 5 5 6 6 5 5 6 6 5 6 5 6 5 6 6 5 5 6 5 6 5 6 5 6 5 6 5 5 6 5 6 5 6 5 5 5 5 5 5 6 5 5 5 6 5 5 5 5 5 5 5 5 5 6 5 5 6 5 6 5 6 5 5 5 6 6 5 5 5 5 5 5 5 5 5 5 5 6 5 5 5 5 5 6 5 5 5 5 5 5 5 5 5 5 5 5 5 5 5 5 5 6 5 5 5 5 5 5 6 5 5 5 6 5 5 6 5 5 5 6 5 6 6 5 5 5 5 5 5 5 5 5 6 5 5 5 5 5 5 5 6 5 6 5 6 5 5 5 5 5 5 5 5 5 5 5 5 5 5 5 5 5 5 5 5 5 5 5 5 5 5 5 5 5 5 5 5 5 5 5 5 5 6 5 5 6 6 5 5 5 5 6 5 5 5 5 5 6 5 5 6 6 5 5 5 5 5 5 6 5 6 5 5 6 6 5 6 5 5 5 6 5 5 5 5 6 5 5 5 6 5 5 6 6 5 5 5 6 5 5 5 5 6 5 5 6 5 5 5 6 5 5 6 5 5 5 6 5 6 5 5 6 5 5 6 6 5 5 6 5 6 6 5 5 5 5 6 5 5 5 5 6 5 5 5 5 5 5 5 5 5 5 5 5 6 5 5 5 5 6 5 6 5 5 5 5 5 6 6 6 5 5 5 5 5 5 5 5 6 5 5 5 5 5 5 6 5 5 5 5 6 5 5 5 5 5 5 5 5 5 5 5 5 5 5 5 5 5 5 6 5 6 5 5 6 6 5 6 5 5 6 5 6 5 6 5 6 5 5 5 5 6 5 5 5 6 5 5 5 5 5 5 5 5 5 5 5 5 5 5 5 5 5 5 5 5 5 5 5 5 5 6 5 5 5 5 5 6 5 5 5 5 5 5 5 5 5 5 5 6 5 5 5 5 5 6 5 5 6 6 5 5 5 6 5 5 6 6 5 6 5 5 5 5 5 5 5 5 5 5 5 5 5 5 5 5 6 5 5 5 5 6 5 5 5 5 5 5 5 5 6 6 5 5 6 5 5 5 5 5 5 5 5 5 6 6 5 5 6 5 5 5 6 5 5 5 5 5 5 5 5 5 5 5 5 5 5 5 5 5 5 5 5 5 5 5 5 5 5 6 5 5 5 5 5 5 5 5 5 5 5 5 5 5 5 5 5 5 5 5 6 5 5 5 6 6 5 5 5 6 5 5 6 5 5 5 5 5 6 5 6 5 5 5 5 5 5 5 5 6 5 5 5 6 5 5 6 5 6 5 5 5 6 5 5 5 6 5 5 5 5 5 5 5 5 5 5 5 5 5 5 5 5 5 6 5 5 5 5 5 5 5 5 5 6 5 5 5 5 5 5 5 5 6 5 5 5 5 5 5 5 5 5 5 5 5 5 6 5 5 5 6 5 5 5 5 5 5 5 5 5 5 5 5 5 5 5 5 5 5 5 6 5 5 5 6 5 6 5 5 5 6 5 5 5 6 6 5 5 5 5 5 5 5 5 5 5 5 5 5 5 5 5 5 5 5 5 5 5 6 5 5 5 5 6 5 5 5 5 6 5 5 5 5 5 5 5 6 5 5 5 5 6 5 5 5 5 5 5 6 5 5 5 5 5 5 6 5 5 5 6 5 5 5 5 5 5 5 5 5 6 5 5 5 5 5 5 6 5 5 5 5 5 5 5 5 5 5 5 6 5 5 6 5 5 5 5 5 6 5 5 6 5 5 5 5 5 5 5 6 6 5 5 5 5 6 5 5 5 5 5 5 6 5 5 5 5 5 5 5 5 5 5 6 5 5 5 5 5 5 5 5 5 5 5 5 6 5 6 5 5 5 6 5 5 6 5 5 5 5 6 5 5 5 5 5 6 5 5 5 5 5 5 5 5 6 5 5 5 5 6 5 5 5 5 5 5 5 6 5 5 5 5 5 5 5 5 5 5 6 5 5 5 6 5 6 5 5 5 5 5 5 6 5 6 5 6 5 5 5 5 6 5 5 5 5 5 5 5 5 5 5 5 5 5 5 6 5 6 5 5 5 5 5 5 5 6 5 5 5 5 5 5 5 5 5 5 5 5 5 6 5 5 5 5 6 5 5 5 5 5 5 5 5 5 5 5 5 5 5 5 5 5 5 5 5 5 5 5 5 6 5 5 5 5 6 5 5 5 6 5 5 6 5 5 6 5 5 5 5 5 5 5 5 5 5 5 5 5 5 5 6 5 5 6 5 5 5 5 5 5 5 6 5 5 5 5 5 6 5 5 5 6 5 5 5 6 5 5 5 5 5 5 5 6 5 5 5 6 5 6 6 5 5 5 5 5 6 5 5 5 5 5 5 5 5 5 5 6 5 5 5 5 5 5 5 5 5 5 5 5 5 5 5 5 5 5 5 5 5 5 5 5 5 5 5 5 5 5 5 5 5 5 5 5 5 6 5 5 5 5 5 5 5 5 5 5 5 5 5 5 5 5 6 5 5 5 5 5 5 5 5 5 6 5 5 5 5 5 5 5 6 5 5 5 5 5 5 5 5 5 5 5 5 5 5 5 5 5 5 5 5 5 6 5 5 5 5 5 5 5 5 5 5 5 5 5 5 5 5 5 6 5 5 5 5 5 5 5 5 5 5 5 5 5 5 5 5 5 5 5 5 5 5 5 5 5 5 5 5 5 5 5 5 5 5 5 5 5 5 5 5 5 5 5 5 5 5 6 5 5 5 5 5 5 5 5 5 5 5 5 5 6 5 6 5 5 5 5 5 6 5 5 5 5 5 6 6 5 5 5 5 5 5 5 5 5 5 5 5 5 5 5 5 5 6 6 5 5 5 5 5 5 6 5 6 5 5 5 5 5 5 5 5 5 6 5 5 5 5 5 5 5 5 5 5 5 5 5 5 5 5 5 5 5 6 5 5 5 5 5 6 5 6 5 5 5 5 5 5 5 6 5 5 5 6 5 5 5 6 5 5 6 5 5 5 6 5 5 6 5 6 5 6 5 5 6 5 5 5 5 5 5 5 5 5 5 5 5 5 5 5 5 5 5 5 5 5 6 5 6 5 5 5 5 5 5 5 6 5 5 5 5 5 5 5 5 5 5 5 5 5 5 5 5 5 5 5 6 5 5 5 6 5 5 5 5 5 5 5 5 5 5 6 5 5 5 5 6 5 5 6 5 5 5 5 5 6 5 5 5 5 6 5 6 5 5 6 5 5 5 5 5 5 5 6 5 5 6 5 6 5 5 5 5 5 5 5 5 5 5 5 5 5 5 5 5 5 5 6 5 5 5 5 5 5 5 6 5 5 5 5 6 5 5 5 5 5 5 5 5 5 6 5 5 5 5 6 5 5 5 5 5 5 5 5 5 5 5 5 6 5 5 5 5 5 5 5 5 5 6 5 5 5 5 5 5 5 5 5 5 5 5 6 5 5 6 5 5 5 5 5 5 5 5 5 6 6 6 5 5 5 6 5 5 5 5 5 5 6 5 5 5 6 6 5 5 5 5 5 5 5 5 5 5 5 5 6 5 5 5 6 6 5 5 5 5 5 6 5 5 5 5 6 5 5 5 5 6 5 5 5 5 5 6 6 6 5 5 5 6 6 5 5 5 5 5 5 5 5 5 6 6 5 5 5 6 6 5 5 5 5 5 5 5 5 5 5 5 5 5 5 5 5 5 6 5 6 5 5 5 5 6 5 5 5 5 5 5 5 6 5 5 5 5 5 5 5 6 5 5 6 5 6 6 5 5 5 6 6 5 5 5 6 6 5 5 5 5 5 5 5 5 5 5 6 5 5 5 5 5 5 5 6 5 5 5 5 6 5 5 5 5 5 5 6 5 5 5 5 6 5 6 5 5 5 5 5 5 5 5 5 5 5 5 5 5 6 5 5 5 5 5 5 5 6 5 5 5 5 6 5 5 5 6 5 5 5 5 5 5 5 5 5 5 5 5 5 5 5 5 5 5 5 5 5 5 6 5 6 5 5 6 5 5 5 6 5 5 6 5 5 5 5 5 5 5 5 5 5 5 5 5 5 5 5 5 5 5 5 6 6 6 5 5 5 5 5 5 5 5 5 5 5 5 5 6 5 5 5 6 5 5 6 5 5 5 5 6 5 5 6 6 5 5 5 5 6 5 5 6 5 6 5 5 5 5 5 5 5 5 5 5 5 5 6 5 5 5 5 5 5 5 6 5 6 5 5 5 5 6 5 5 5 5 5 5 5 5 5 5 5 5 5 5 5 5 5 5 5 5 5 5 5 6 5 5 5 6 5 6 5 5 5 6 5 5 5 5 5 6 5 5 6 5 5 5 5 5 5 5 5 6 5 5 5 5 5 6 5 5 5 5 5 5 5 5 5 5 5 5 5 5 6 5 5 5 5 6 5 5 5 5 5 5 5 5 5 5 5 5 6 5 5 5 5 6 5 5 5 5 5 5 5 5 5 5 5 5 5 6 5 5 6 5 5 5 6 5 5 5 5 5 5 5 5 5 5 5 5 5 6 6 5 6 6 5 5 5 6 6 5 6 5 6 5 6 5 5 5 6 5 6 5 5 5 5 6 5 5 5 5 5 5 6 5 5 5 5 5 6 5 5 6 5 5 6 5 5 6 5 5 5 5 5 6 5 6 5 5 5 5 5 5 5 5 5 5 5 5 5 6 5 5 6 5 5 5 5 5 5 5 5 5 6 5 5 5 5 5 5 5 5 5 6 5 5 6 5 6 5 5 5 5 5 5 5 6 5 5 5 5 5 5 5 6 5 6 5 5 6 5 5 5 6 5 5 5 5 6 5 5 5 5 5 6 5 5 5 5 5 5 5 5 5 5 5 5 5 5 5 5 5 5 5 5 5 6 5 5 6 5 5 5 6 5 5 5 5 6 5 5 5 5 5 5 5 5 5 5 5 5 5 5 5 5 5 5 5 5 5 5 5 6 5 5 5 5 5 5 6 5 5 5 5 5 5 5 5 5 5 5 5 5 6 5 6 5 5 6 5 5 5 5 6 6 5 6 5 6 5 5 5 5 5 6 5 5 6 6 5 5 5 5 5 6 5 5 6 5 5 5 5 5 5 5 5 6 6 5 5 5 6 5 6 5 5 5 5 5 6 5 6 5 5 5 5 5 6 6 5 5 5 5 6 5 5 5 5 6 5 5 5 5 5 5 5 5 5 5 5 5 5 5 5 5 5 6 5 5 6 5 5 5 6 5 5 5 5 5 5 5 5 5 5 5 5 5 5 5 5 5 5 5 6 5 5 5 5 5 5 5 5 5 5 5 5 5 5 6 6 5 5 5 6 5 5 5 5 5 6 5 5 5 5 5 5 5 5 5 5 5 6 5 5 6 5 5 5 5 5 5 5 5 5 5 6 5 5 5 6 5 6 5 6 5 5 5 6 6 5 6 5 5 6 5 5 6 6 5 5 5 6 5 5 6 5 6 5 5 5 6 5 5 6 6 5 6 5 5 6 5 6 5 5 5 5 5 5 5 5 5 6 5 5 5 5 5 6 5 5 5 5 5 5 5 5 5 5 6 5 5 5 5 6 6 5 5 6 5 6 5 5 5 5 5 6 5 5 6 5 6 5 5 5 5 5 5 5 6 5 5 5 5 5 5 5 5 5 6 5 6 5 6 5 6 5 5 5 5 6 5 5 5 5 5 6 6 5 5 5 5 5 5 6 5 5 5 5 5 6 5 5 5 5 6 5 5 6 5 6 5 5 5 6 5 6 5 5 6 6 6 5 5 5 5 5 5 6 6 6 5 5 5 5 6 5 6 5 6 5 5 5 5 5 5 6 5 5 5 5 5 5 5 5 5 5 5 5 5 5 5 5 5 5 5 5 5 5 5 5 5 5 5 5 5 5 5 5 5 5 5 5 5 5 5 5 5 5 5 5 5 5 5 5 5 6 5 5 5 6 6 5 5 5 5 5 5 5 5 5 5 5 5 5 5 5 5 5 5 5 6 5 5 5 5 5 5 5 6 5 5 6 5 5 6 5 5 6 5 6 5 5 6 5 5 5 6 5 6 5 6 6 5 5 5 6 6 5 5 6 5 5 6 5 5 5 5 5 5 5 5 5 5 5 5 6 5 5 5 5 6 5 5 5 5 6 5 5 5 5 5 5 5 5 5 6 5 6 5 5 5 5 6 5 5 5 6 5 5 5 5 5 5 6 5 5 6 5 5 5 6 5 5 5 5 5 5 5 6 5 5 5 5 5 6 5 5 5 5 5 5 5 5 5 5 5 5 5 5 5 6 5 5 5 5 5 6 5 5 6 5 6 5 5 5 5 6 6 5 5 6 5 5 5 5 5 5 5 5 5 5 5 6 5 6 5 5 5 5 5 6 5 5 5 6 5 5 5 6 5 5 5 5 5 5 5 5 5 5 5 5 5 6 5 5 5 5 5 5 5 6 5 6 5 5 5 5 5 5 5 6 6 5 5 5 5 5 5 5 5 5 6 5 5 5 5 5 5 6 6 6 5 6 5 5 5 5 5 5 6 5 6 5 6 5 6 5 5 5 5 5 5 6 5 5 6 5 5 5 5 6 5 5 5 5 5 5 5 5 5 5 5 5 5 5 5 5 5 5 5 5 5 6 5 6 5 5 5 5 5 5 5 5 5 5 5 5 5 5 5 5 5 5 5 5 5 5 5 5 5 5 5 5 5 5 5 5 5 5 5 5 5 5 5 5 5 5 5 5 5 5 5 5 5 5 5 5 5 5 5 5 5 5 6 5 5 5 5 5 5 5 5 5 5 5 5 5 5 5 5 5 5 5 5 5 5 5 6 5 5 5 6 5 6 5 5 5 5 5 5 5 5 5 5 5 5 5 5 5 5 5 5 5 5 5 5 5 5 5 5 5 5 5 5 5 5 5 5 5 5 5 5 5 6 5 6 5 5 5 5 5 5 5 5 5 5 5 5 5 5 5 5 5 5 5 5 5 5 5 5 5 6 5 5 5 5 5 5 5 5 5 5 5 5 5 5 5 5 5 5 5 5 5 5 5 5 5 5 5 5 5 5 5 5 5 5 5 5 5 5 5 5 5 5 5 5 5 5 5 5 5 5 5 5 5 5 5 5 5 5 5 5 5 5 5 5 5 5 5 5 5 6 5 5 5 5 5 5 5 6 5 5 6 5 5 5 5 5 5 5 5 5 5 5 5 5 5 5 5 5 5 5 5 6 5 5 5 5 5 5 5 5 5 5 5 5 5 5 5 5 5 5 5 5 5 5 5 5 5 5 5 5 5 5 5 5 6 5 5 5 5 6 5 6 5 5 5 5 5 5 6 5 5 6 5 5 6 6 5 6 5 5 5 6 5 5 5 5 5 5 5 5 5 5 5 5 5 5 5 6 5 5 5 5 5 5 5 5 6 5 5 5 5 5 5 5 5 5 5 5 5 5 5 5 5 5 5 5 5 5 5 5 5 5 5 5 5 5 5 5 5 5 5 5 5 6 5 5 5 5 5 5 5 6 5 5 6 5 6 5 5 5 5 5 5 5 5 5 5 5 6 6 5 5 6 5 5 6 6 5 5 5 5 6 5 6 5 5 6 5 6 6 5 6 5 6 5 5 5 5 5 5 5 6 5 6 5 5 5 5 5 6 5 5 5 6 5 5 6 5 6 5 6 6 5 5 6 5 5 5 5 5 5 6 5 5 5 5 5 5 5 5 6 6 5 5 5 6 5 5 5 5 6 6 5 6 5 5 5 6 5 5 5 5 5 5 5 5 5 5 5 5 5 5 5 5 6 5 5 5 5 5 5 6 5 6 5 5 5 6 6 5 5 6 5 6 5 5 5 5 5 5 5 5 5 5 5 5 6 6 5 5 5 5 5 6 5 5 5 5 5 5 5 6 5 5 5 6 5 6 5 5 6 5 5 5 5 5 5 5 5 5 6 5 5 6 5 5 5 5 5 5 5 5 5 5 5 6 5 5 5 5 5 5 5 5 5 5 5 5 5 5 5 5 5 5 5 5 5 5 6 5 5 5 5 5 5 5 5 5 5 5 6 5 5 5 5 6 5 5 5 5 5 5 5 5 5 5 5 6 5 5 5 5 5 6 5 6 5 5 5 5 5 5 5 5 5 6 5 5 6 5 5 6 5 5 5 5 6 5 5 5 5 5 5 5 5 5 5 5 5 5 5 5 5 5 5 5 5 5 6 5 5 6 5 6 5 5 5 5 5 5 5 5 5 6 5 5 6 6 6 5 5 5 6 5 5 5 5 5 5 6 6 5 6 5 5 6 5 5 6 5 5 5 5 6 5 5 5 5 6 5 5 5 5 5 5 5 5 5 5 5 6 5 5 6 5 6 6 5 5 6 6 6 5 5 5 5 5 5 5 5 5 5 6 5 5 5 5 5 5 5 5 5 6 5 5 5 5 5 6 5 5 5 5 5 5 5 5 5 5 6 5 5 5 5 5 5 5 5 5 5 5 5 5 5 5 5 5 5 5 5 5 5 5 5 6 6 5 5 5 5 5 5 5 5 6 5 5 5 5 5 5 5 5 5 5 5 5 5 5 5 5 6 5 5 5 5 6 5 5 5 6 6 5 5 5 5 5 5 6 5 6 5 5 5 6 5 5 5 5 5 5 5 5 6 5 6 6 5 5 5 5 5 5 5 5 5 5 5 5 6 5 5 6 5 6 5 5 5 5 5 5 5 5 5 5 5 5 5 5 5 5 5 5 5 5 5 5 5 6 5 5 5 5 5 6 5 5 5 5 5 5 5 5 5 5 6 5 5 5 6 5 5 5 5 5 5 5 5 5 5 5 6 6 5 5 5 5 5 6 5 5 5 6 5 5 5 5 5 5 5 5 5 5 6 5 5 5 5 5 5 5 6 6 5 6 5 5 5 5 6 5 5 5 5 5 6 5 5 5 5 5 5 5 5 5 5 6 5 5 5 5 5 5 5 5 5 5 6 5 5 5 5 5 5 5 6 5 5 5 5 5 5 5 5 5 5 5 5 5 5 5 5 5 5 5 5 6 5 5 5 6 5 5 5 5 5 5 5 5 5 5 5 5 5 6 5 6 6 5 6 6 5 5 5 5 5 6 5 5 5 5 5 5 5 6 5 5 6 5 5 6 5 5 6 5 5 6 6 6 6 5 5 6 6 5 5 6 5 5 6 5 5 5 5 6 6 6 6 5 5 5 6 5 6 5 6 5 6 6 5 5 5 5 5 5 5 6 5 5 6 5 6 5 5 6 6 5 5 5 5 5 5 5 5 5 5 5 5 5 5 5 5 5 6 5 5 5 5 5 5 5 5 5 5 5 5 5 5 5 5 5 6 5 5 5 5 5 5 5 5 5 5 5 5 5 5 6 6 5 5 5 5 6 5 6 5 5 5 6 6 5 6 5 5 5 5 5 5 5 5 5 5 5 5 5 5 5 5 5 5 5 6 5 6 5 5 5 5 6 5 5 5 5 5 5 5 5 5 5 5 5 5 5 5 5 5 5 5 5 6 5 5 5 5 5 5 5 5 5 5 5 5 5 5 6 5 5 5 5 5 5 5 5 5 5 5 5 5 5 5 5 5 5 5 5 5 5 5 5 5 5 5 5 5 5 5 5 5 5 5 5 5 5 5 5 5 5 5 5 5 5 5 5 5 5 5 5 5 5 5 5 5 5 5 5 5 5 6 5 5 5 6 5 5 6 5 5 5 5 5 5 5 5 5 5 5 6 5 5 5 5 6 5 5 5 5 5 5 5 5 5 5 5 5 5 5 5 5 5 5 5 5 5 5 5 5 5 5 5 5 5 6 5 5 5 5 6 5 5 5 5 5 5 5 5 5 5 6 5 5 6 5 5 5 5 5 5 5 5 5 5 5 5 6 5 5 5 5 5 5 5 5 6 5 5 5 5 5 5 5 5 5 5 6 5 6 5 5 5 6 5 5 5 6 5 6 5 6 6 5 5 5 5 5 6 5 5 5 5 5 5 5 5 5 5 5 5 5 5 5 5 5 5 5 5 5 5 5 6 5 5 6 5 5 5 6 5 6 5 5 5 5 5 5 5 5 5 5 5 5 6 5 5 5 5 5 5 5 5 5 5 5 5 5 5 5 5 5 5 5 6 5 5 5 5 5 5 5 5 5 5 5 5 5 5 5 5 5 5 5 5 5 5 5 5 5 5 5 6 5 5 5 5 5 5 5 5 5 5 5 5 5 5 5 5 5 5 6 5 5 5 6 5 5 5 6 6 5 5 5 5 5 6 5 5 5 5 5 5 5 6 6 5 5 5 6 5 6 5 5 5 5 5 5 6 6 5 5 6 6 5 5 5 5 5 5 5 5 5 5 6 5 5 5 5 5 5 6 5 5 5 5 5 5 5 5 5 5 5 5 5 5 5 5 5 6 5 5 5 5 6 5 5 6 5 5 5 5 5 5 5 5 5 5 5 6 5 6 5 6 5 5 5 5 5 5 5 5 5 5 5 5 5 5 5 5 5 5 5 6 5 5 6 5 5 5 6 5 5 6 5 5 5 5 6 5 5 5 5 5 5 5 6 5 5 5 5 5 5 5 5 5 5 5 5 5 5 5 5 5 5 5 5 5 5 5 5 5 5 5 5 5 6 5 5 5 5 5 5 5 5 5 5 5 5 5 5 5 5 5 5 5 5 5 5 5 5 5 5 5 5 5 5 5 5 5 5 5 5 5 6 6 6 5 5 6 5 5 5 6 5 6 5 5 5 5 5 6 5 5 5 5 5 5 5 6 5 5 5 5 5 5 5 5 5 5 5 5 5 5 6 5 5 5 6 5 6 5 5 5 5 5 5 5 5 6 5 5 5 5 5 5 5 6 5 6 5 6 5 5 5 5 5 5 5 5 6 5 5 6 6 6 5 6 5 6 5 5 5 5 5 5 5 5 5 5 5 5 5 5 5 5 5 5 5 5 5 6 5 5 6 6 5 5 5 6 5 5 5 5 5 5 5 6 5 6 5 5 5 5 6 5 5 6 5 5 5 5 5 5 5 6 5 5 6 5 5 5 6 5 5 5 5 5 5 5 5 5 6 5 5 5 5 5 5 6 5 5 6 5 5 5 5 6 5 5 5 5 5 5 6 6 6 5 5 5 6 5 6 5 6 5 5 5 5 5 5 6 5 5 5 6 5 5 5 6 5 5 5 5 5 5 5 5 5 5 5 5 6 5 5 5 6 5 5 5 5 5 6 6 5 5 6 5 6 6 6 5 5 5 6 5 5 5 5 5 6 5 5 5 5 5 5 5 5 5 5 5 5 6 5 5 5 5 5 5 6 5 5 6 5 5 6 5 5 5 5 5 6 5 5 6 5 6 5 6 5 5 5 5 5 5 6 5 5 5 5 6 5 5 5 5 5 5 5 5 5 5 6 5 5 5 5 5 6 5 5 5 5 5 5 5 5 5 5 5 5 5 5 5 6 5 5 5 5 5 6 5 6 5 5 5 5 5 6 5 5 5 5 5 6 5 5 5 5 5 6 5 5 5 5 5 5 5 5 5 5 6 5 6 5 6 5 5 6 5 5 5 5 5 5 5 5 6 5 6 5 5 5 5 5 5 5 5 5 5 6 5 5 5 5 5 5 5 5 5 5 6 5 5 5 6 5 6 6 5 5 5 6 5 5 5 6 6 5 5 5 5 5 5 5 5 5 5 6 6 5 5 5 5 5 6 5 5 5 5 5 5 5 5 5 5 6 5 6 6 6 5 5 5 5 5 5 5 5 6 5 5 5 5 5 5 5 5 5 5 5 5 5 5 5 5 5 5 5 5 5 5 5 5 5 5 5 5 5 6 5 5 5 5 6 5 5 5 5 5 5 5 5 6 5 5 5 5 5 5 5 5 6 5 5 5 5 5 5 5 5 5 5 5 5 5 5 5 5 5 5 5 5 5 5 5 5 5 5 6 5 5 5 5 5 5 6 5 6 5 5 6 5 5 5 6 5 6 5 5 5 6 5 5 5 6 5 5 5 5 5 5 6 5 5 5 5 5 5 5 5 5 5 5 5 5 5 5 5 5 5 5 5 5 5 5 5 5 5 5 6 5 6 5 5 5 5 6 5 5 5 5 5 5 5 5 5 5 5 5 5 6 5 5 6 5 5 6 5 5 5 5 5 6 5 5 5 5 5 5 5 5 6 5 6 5 5 5 5 5 6 6 5 5 6 5 5 5 6 5 5 5 5 5 5 5 6 5 5 5 5 5 5 5 5 5 5 5 5 5 5 5 5 6 5 5 5 5 5 6 5 6 5 5 5 5 5 5 5 5 5 5 5 5 6 5 6 5 5 5 5 5 5 6 6 5 5 5 5 5 5 5 5 5 5 5 5 5 5 5 5 5 5 5 5 5 6 5 5 6 5 5 5 5 5 6 5 5 5 5 5 5 6 5 5 5 5 5 5 5 5 5 5 5 5 5 5 5 5 6 5 5 6 5 5 5 5 6 5 5 5 5 5 5 5 5 5 5 5 6 5 5 5 5 5 5 5 5 5 5 5 5 5 5 5 5 5 5 5 6 5 5 5 5 5 5 5 5 5 5 5 5 6 5 5 5 5 5 5 5 5 5 5 5 5 5 6 6 5 5 5 5 5 5 6 5 5 5 5 5 5 5 5 5 5 5 5 5 5 5 5 5 5 5 5 5 5 5 5 5 5 5 5 5 5 5 5 5 5 5 6 5 5 5 5 5 5 5 5 6 5 5 5 5 5 5 5 5 5 5 5 5 6 5 5 5 5 6 5 6 5 5 5 5 5 5 5 5 6 5 5 5 5 5 5 5 5 5 5 6 5 5 5 6 5 5 6 5 5 5 5 6 5 5 6 5 5 5 5 5 5 5 5 6 5 5 5 6 5 5 5 5 5 5 5 6 5 6 5 6 5 6 6 5 5 5 6 6 6 5 5 6 5 5 5 6 5 5 5 5 6 5 5 5 5 5 5 5 5 5 5 5 5 5 5 5 5 5 5 5 5 5 5 5 5 5 5 5 5 5 5 5 5 5 5 5 5 5 5 6 5 5 5 5 5 5 5 5 6 5 5 5 5 6 5 5 6 5 5 6 5 5 5 5 6 5 5 5 5 5 6 5 5 5 5 5 5 5 5 5 5 5 5 5 6 6 5 5 5 6 5 5 5 5 5 5 5 5 5 5 5 5 5 5 6 5 5 5 5 5 5 6 5 5 6 5 5 5 5 5 5 5 5 5 5 6 5 5 5 5 5 6 5 5 5 5 5 5 5 5 5 5 6 5 5 5 5 5 5 5 5 5 5 5 5 5 5 5 6 5 5 5 5 5 5 5 5 5 5 5 5 5 5 5 5 5 5 5 5 5 5 5 6 5 6 5 5 5 6 5 5 5 5 5 5 5 5 5 6 5 5 5 6 5 5 5 5 5 5 5 5 5 5 5 5 5 5 5 5 6 5 5 5 5 5 6 5 5 5 6 5 6 5 5 5 5 5 5 6 5 5 5 5 5 5 5 5 5 5 5 5 5 5 5 5 5 5 5 5 5 5 5 5 5 5 5 6 5 5 6 5 5 5 5 5 5 5 6 5 5 5 5 6 5 5 6 5 5 5 5 5 5 6 5 5 5 6 5 5 5 6 5 5 5 5 5 6 5 5 5 5 5 6 5 5 5 5 5 5 5 5 6 5 5 6 5 5 5 5 6 5 5 5 5 6 5 5 5 5 6 5 5 5 6 5 6 5 5 5 5 5 5 5 5 5 5 6 5 5 5 5 5 5 5 6 6 5 5 5 5 5 6 5 5 5 5 5 6 5 5 5 6 5 5 6 5 5 6 5 5 5 6 5 5 5 5 5 5 6 5 5 5 5 5 6 5 5 5 5 5 6 5 5 5 5 5 5 6 5 5 5 5 6 5 5 5 5 5 6 5 5 5 5 5 5 5 5 5 5 6 5 5 5 5 5 5 5 6 5 5 5 5 6 6 5 5 6 5 5 5 5 5 5 5 6 5 5 5 5 5 5 5 6 5 6 5 5 6 5 5 5 5 6 5 6 5 5 5 5 5 5 5 5 5 5 6 5 5 5 5 5 6 5 5 5 6 5 5 5 5 6 5 5 6 5 5 5 5 5 6 5 6 5 6 6 5 5 5 5 6 6 5 5 5 5 5 5 5 5 5 5 5 5 5 6 5 5 5 5 5 5 6 6 5 5 5 5 5 5 5 5 5 5 5 5 5 6 5 5 5 5 5 5 5 5 5 5 5 5 5 5 5 5 5 5 5 5 5 5 5 5 5 5 5 5 5 5 5 5 5 6 5 5 6 5 5 5 5 5 5 5 6 5 5 5 6 5 5 6 5 5 5 6 6 5 5 5 5 6 6 5 5 5 5 5 5 5 5 5 5 5 5 5 5 6 5 5 6 5 5 5 6 5 5 5 5 6 5 5 6 5 5 5 5 5 5 5 5 5 5 5 6 5 5 5 5 5 5 5 6 5 5 5 5 5 5 5 5 5 5 5 5 5 5 5 5 5 5 6 5 5 5 5 5 5 6 5 6 5 5 5 5 5 6 5 5 6 5 5 5 6 5 5 5 6 5 5 5 5 5 5 5 5 5 5 5 5 5 5 6 5 5 5 5 6 6 5 5 5 5 5 5 5 5 5 5 5 5 5 5 5 5 5 5 5 6 5 5 5 5 5 5 5 5 6 5 6 5 5 5 5 5 5 5 6 5 6 5 5 5 5 5 6 5 5 5 5 5 5 6 5 5 5 5 5 6 6 5 5 5 6 6 6 5 5 5 5 5 6 5 5 5 5 5 6 5 5 5 5 6 5 6 6 5 6 6 5 5 5 6 5 5 5 6 5 5 5 6 5 5 5 6 5 5 5 5 5 5 5 5 6 5 5 5 6 5 5 5 5 5 5 6 5 5 5 5 5 5 6 5 5 5 5 5 5 5 5 5 5 5 5 5 5 6 5 6 5 5 5 6 5 5 6 5 6 5 6 5 5 6 5 5 5 5 5 5 6 5 5 5 5 6 5 5 5 5 5 5 6 5 5 5 5 5 5 5 5 5 5 6 5 5 5 5 5 5 5 5 5 5 5 5 5 5 5 5 5 5 5 6 6 5 5 5 6 5 5 6 5 5 6 5 5 6 5 5 6 6 5 5 5 5 6 5 5 5 5 5 5 5 5 5 5 5 6 6 5 5 5 6 5 6 5 6 5 5 5 5 5 6 5 5 6 5 6 5 5 6 6 6 5 5 5 5 6 5 5 6 5 6 5 5 6 5 5 5 5 5 5 5 5 6 5 6 6 5 5 5 5 5 6 6 5 5 5 6 6 5 5 5 5 5 5 5 5 6 5 6 5 5 5 5 5 5 5 5 5 5 5 5 5 5 5 5 5 5 5 5 5 5 5 5 5 5 5 5 5 6 5 5 5 5 5 5 5 5 5 5 5 5 5 5 5 6 5 5 6 5 5 5 5 5 6 5 5 5 5 5 5 5 5 5 5 5 5 5 6 5 5 5 5 5 5 5 5 5 6 5 5 6 5 5 5 5 6 6 6 5 5 5 5 5 6 5 5 5 
</DataArray>
<DataArray type="Float64" Name="stress" NumberOfComponents="9" format="ascii">
-755766483.59283829 216996.4442231672 0 216996.4442231672 -297991.24429439747 0 0 0 0 -944174939.31126404 266709335.27295032 0 266709335.27295032 33049.926014200901 0 0 0 0 -1679252.6737266174 292511.18497338332 0 292511.18497338332 54898.858644750995 0 0 0 0 -881275251.28890419 260371987.75380391 0 260371987.75380391 -20205142.525553226 0 0 0 0 -662755863.86058235 97088064.398165703 0 97088064.398165703 -368467.95985775039 0 0 0 0 -618910334.54847527 187847049.79926205 0 187847049.79926205 59550463.703188807 0 0 0 0 -649688549.19953156 132878504.77463569 0 132878504.77463569 -36779028.829878941 0 0 0 0 -1732524.8822048279 241919.56941228732 0 241919.56941228732 97486.590437088016 0 0 0 0 -739636644.74941254 134754953.78337353 0 134754953.78337353 109697101.01871075 0 0 0 0 -677655310.79106522 224524866.61816663 0 224524866.61816663 166487883.65498257 0 0 0 0 -677980497.59185803 185913975.32020921 0 185913975.32020921 64254212.135038853 0 0 0 0 -470345427.67206955 223068826.02688497 0 223068826.02688497 10872762.871640146 0 0 0 0 -602685151.47585678 246094112.11959264 0 246094112.11959264 15428950.628464017 0 0 0 0 -642138293.98479843 443712180.36948115 0 443712180.36948115 34548431.015199408 0 0 0 0 -944031279.75892448 323661815.03843176 0 323661815.03843176 154583124.46293458 0 0 0 0 -219903090.24850464 79978788.05100742 0 79978788.05100742 -61788414.151917063 0 0 0 0 -486568139.78759003 183776131.54931873 0 183776131.54931873 -23464295.189534374 0 0 0 0 -272522377.03129196 134265301.28817657 0 134265301.28817657 -30739582.70652397 0 0 0 0 -285616243.17971992 21418600.073232979 0 21418600.073232979 -4196595.9544154406 0 0 0 0 -156694479.93095589 108839586.58304526 0 108839586.58304526 -78424432.72590819 0 0 0 0 -179518.02550145285 33700.581870213151 0 33700.581870213151 -82593.27214230175 0 0 0 0 -529356602.05425644 80708074.3859009 0 80708074.3859009 46759080.351822451 0 0 0 0 -509458061.2936821 91208677.341251731 0 91208677.341251731 -30574497.808173835 0 0 0 0 -598070706.78498077 158664184.80078277 0 158664184.80078277 -21046643.282516912 0 0 0 0 -536017530.7421875 86393332.203663796 0 86393332.203663796 160706.59380448522 0 0 0 0 -400346.11501976848 116800.01772323996 0 116800.01772323996 -48717.148495853748 0 0 0 0 -187887996.84848976 25180232.949533243 0 25180232.949533243 7688270.8764307871 0 0 0 0 -487283353.86177063 110852561.13065824 0 110852561.13065824 -14568829.190154349 0 0 0 0 -172509677.52533722 23588578.244058929 0 23588578.244058929 24115.827608904274 0 0 0 0 -156723344.43488693 30250182.22262878 0 30250182.22262878 -1806046.8228983209 0 0 0 0 -156743377.65145385 48484921.333996803 0 48484921.333996803 11989528.33345563 0 0 0 0 -176059269.23550224 32809137.147915155 0 32809137.147915155 5100922.8367998973 0 0 0 0 -62738344.418269157 -37538827.105790317 0 -37538827.105790317 31570677.831899695 0 0 0 0 -331675.41553913802 -126850.60215236899 0 -126850.60215236899 21839.555683128208 0 0 0 0 -38362495.504470825 36863531.860938147 0 36863531.860938147 -22648486.700426191 0 0 0 0 -96842853.0417099 29611535.386558548 0 29611535.386558548 -8519.9282655941479 0 0 0 0 -93750356.921836853 60363813.598237135 0 60363813.598237135 -10405571.37129283 0 0 0 0 -97731854.174293518 27012910.950424563 0 27012910.950424563 -6865965.6256513055 0 0 0 0 -233485030.83659363 111231490.4318392 0 111231490.4318392 -42352278.364482902 0 0 0 0 -399607776.27997208 163386171.95787385 0 163386171.95787385 -5831795.9371631294 0 0 0 0 -238211108.12399292 9688398.4958292544 0 9688398.4958292544 72136428.805767536 0 0 0 0 -136334222.03223133 36188103.618819579 0 36188103.618819579 11899076.711713552 0 0 0 0 -715597.70595655218 -363059.05590063985 0 -363059.05590063985 -36076.748322105792 0 0 0 0 -126922800.45261383 1504788.5287745371 0 1504788.5287745371 22738516.806602776 0 0 0 0 -27857159.075942993 -3179976.9018301964 0 -3179976.9018301964 13914331.063950717 0 0 0 0 -151440014.99943542 -11076419.327536106 0 -11076419.327536106 38074581.310872793 0 0 0 0 -49389104.14358139 9866900.8972263932 0 9866900.8972263932 17966522.500449002 0 0 0 0 -165563625.26256561 -49718666.983438969 0 -49718666.983438969 26701750.535193205 0 0 0 0 -239442820.6156311 -6676835.3175121248 0 -6676835.3175121248 76545113.46804738 0 0 0 0 -412471623.7756424 51977653.696306705 0 51977653.696306705 25649494.591332726 0 0 0 0 -258615652.86392593 -4693946.4926520027 0 -4693946.4926520027 -8161460.3634967916 0 0 0 0 -161586949.64466858 44734562.01656013 0 44734562.01656013 -41619818.306105644 0 0 0 0 -153249578.98109627 101448120.30774796 0 101448120.30774796 -41822504.538306005 0 0 0 0 -309964.68124198914 -49614104.091628164 0 -49614104.091628164 32292053.384343386 0 0 0 0 -764366.31178442203 -482328.331016968 0 -482328.331016968 -144076.58184906305 0 0 0 0 50471.762073162943 -11131.685622197576 0 -11131.685622197576 -130518.83511239148 0 0 0 0 -318967217.55141902 70041111.031427965 0 70041111.031427965 -107944255.97113654 0 0 0 0 -324654905.83377457 136958350.77921742 0 136958350.77921742 -36812114.521542519 0 0 0 0 -225410358.36544037 14887090.004719287 0 14887090.004719287 -77718878.697350502 0 0 0 0 -216998081.25848007 18634089.505485654 0 18634089.505485654 -11641720.530161738 0 0 0 0 -210327141.17009735 46281397.283566713 0 46281397.283566713 -40792424.87726295 0 0 0 0 75853081.568890572 -31042619.73019366 0 -31042619.73019366 -44403941.310062885 0 0 0 0 -182858743.6727066 -107407667.9928544 0 -107407667.9928544 -6023142.8341240287 0 0 0 0 -124268279.87356186 -23212126.56235797 0 -23212126.56235797 -33938988.037343025 0 0 0 0 -184272.96784006339 -335879.70041979104 0 -335879.70041979104 -569823.39078099863 0 0 0 0 -186047182.54945374 -20361815.30992797 0 -20361815.30992797 6775603.7261047959 0 0 0 0 -134665293.22793198 -20977718.574975252 0 -20977718.574975252 3714138.9842957556 0 0 0 0 -123260089.94644642 13343111.913121566 0 13343111.913121566 -9721918.8139100075 0 0 0 0 -156908350.11407661 26659376.627821624 0 26659376.627821624 -14477938.638137877 0 0 0 0 -275070918.7995491 -65499904.015538692 0 -65499904.015538692 5977460.8788278103 0 0 0 0 -185012000.08662415 -16630690.130119205 0 -16630690.130119205 24241715.981494665 0 0 0 0 -138129945.76119804 -66906261.181038916 0 -66906261.181038916 6965971.6835274696 0 0 0 0 -19537856.960468292 -35573190.714365244 0 -35573190.714365244 -4211611.9273090363 0 0 0 0 -11721875.929805756 68077512.707155585 0 68077512.707155585 -55680977.340858519 0 0 0 0 -105621403.39833069 -1293908.4601070881 0 -1293908.4601070881 -34106354.233092248 0 0 0 0 -62609664.820365906 -57527556.295976341 0 -57527556.295976341 24036437.496365547 0 0 0 0 -124151204.20951557 -51615887.402033448 0 -51615887.402033448 -117275760.94274759 0 0 0 0 -281757725.79936218 -27112791.650291204 0 -27112791.650291204 -50487306.079804182 0 0 0 0 -272467218.68113518 -37393611.077388048 0 -37393611.077388048 -52405279.207838535 0 0 0 0 -183686293.17686081 59139466.692512035 0 59139466.692512035 -128313651.36484718 0 0 0 0 -103998225.10500336 -40989005.414793074 0 -40989005.414793074 -15216877.203520536 0 0 0 0 -51861335.2825737 56846483.712527335 0 56846483.712527335 21246291.840993166 0 0 0 0 -57681710.994991302 -23650920.641487002 0 -23650920.641487002 49413821.950584888 0 0 0 0 -158163154.71614456 67683317.791634202 0 67683317.791634202 -19821181.620182909 0 0 0 0 -158021223.67855793 -41054962.888753876 0 -41054962.888753876 21583997.590847254 0 0 0 0 -167291884.84933281 -31544523.820002377 0 -31544523.820002377 19218989.945095122 0 0 0 0 87033005.834667206 10329459.878832042 0 10329459.878832042 -68089200.967071414 0 0 0 0 -98636.393520830199 -153488.26352250017 0 -153488.26352250017 -378348.67494695133 0 0 0 0 -60521670.795776367 77509601.475250721 0 77509601.475250721 38968323.799593002 0 0 0 0 -34697958.039997101 97298200.322154164 0 97298200.322154164 64656143.649713919 0 0 0 0 -96498327.14971447 46299908.146087073 0 46299908.146087073 78087222.126606226 0 0 0 0 -73836239.445594788 -22137567.934298873 0 -22137567.934298873 -27733537.462259233 0 0 0 0 -98064003.331731796 103974037.679896 0 103974037.679896 96022203.096131206 0 0 0 0 -45388228.456161499 44346920.240281999 0 44346920.240281999 14172505.85730499 0 0 0 0 -1598696.6699790955 135565413.53201392 0 135565413.53201392 32122043.289105058 0 0 0 0 28675594.070705414 101723096.42383575 0 101723096.42383575 85059230.911451101 0 0 0 0 1248977.9188194275 150214460.60683733 0 150214460.60683733 113595851.10290754 0 0 0 0 109461401.41239548 134148304.16007477 0 134148304.16007477 76961879.841113567 0 0 0 0 108132042.53704453 160209069.06920099 0 160209069.06920099 78367472.845146537 0 0 0 0 -1360360.4857173215 771652.66242284235 0 771652.66242284235 -701710.88229114725 0 0 0 0 -945021097.65608025 44173469.861704119 0 44173469.861704119 -21988682.376252677 0 0 0 0 -764673638.62644053 277691770.46375322 0 277691770.46375322 -101204094.79167153 0 0 0 0 170094700.77537918 117805608.04596257 0 117805608.04596257 68791737.293817639 0 0 0 0 -457424.42574176937 263393.50279377494 0 263393.50279377494 -296128.80402363098 0 0 0 0 297943168.60609436 76020821.275832951 0 76020821.275832951 62332991.507225215 0 0 0 0 -1503283688.4966965 534088798.037265 0 534088798.037265 -168319567.60634208 0 0 0 0 749074664.52183151 204713290.62395298 0 204713290.62395298 -205798973.47982088 0 0 0 0 -36901317.733360291 148881514.73319298 0 148881514.73319298 97290091.485557258 0 0 0 0 133371187.84105682 241464514.45820972 0 241464514.45820972 25143350.457999587 0 0 0 0 -20090417.056453705 147121522.66484049 0 147121522.66484049 -82786487.606158197 0 0 0 0 246232325.84239197 495056020.7894932 0 495056020.7894932 -254982544.56009707 0 0 0 0 -74154609.363792419 204518113.87884861 0 204518113.87884861 30494226.17889471 0 0 0 0 -565835841.75489044 595468088.37056506 0 595468088.37056506 -131215549.40436588 0 0 0 0 -945340718.26280975 853133754.59665406 0 853133754.59665406 -290338180.40756845 0 0 0 0 -681869240.88033676 473572107.1869424 0 473572107.1869424 6464524.6298893783 0 0 0 0 -574082613.15864182 422511460.58034146 0 422511460.58034146 27743200.235552199 0 0 0 0 -404796321.48138046 288377780.95795852 0 288377780.95795852 -68133313.924595326 0 0 0 0 -237366847.81594276 243895922.5797267 0 243895922.5797267 -56316457.237750076 0 0 0 0 -423626112.37667465 527828616.59766817 0 527828616.59766817 -101469107.24084285 0 0 0 0 -268442360.81682396 130493749.52133462 0 130493749.52133462 -61752136.81618163 0 0 0 0 -182256104.54638672 108037260.91113415 0 108037260.91113415 -40716303.081699193 0 0 0 0 -167289515.20549774 117060427.38899416 0 117060427.38899416 -68143164.119794637 0 0 0 0 -241373741.12211037 75095667.978146523 0 75095667.978146523 -56030032.862937942 0 0 0 0 -173788893.54530334 60192324.873610258 0 60192324.873610258 -53401896.311935209 0 0 0 0 -202618806.24905396 73261411.69601047 0 73261411.69601047 -31796067.167743981 0 0 0 0 -156893062.51158905 42017740.162087604 0 42017740.162087604 22497185.09070912 0 0 0 0 -110306653.90586448 49615613.771523699 0 49615613.771523699 -28750049.003460944 0 0 0 0 -119633659.1828146 126211478.5141516 0 126211478.5141516 -38527325.448390007 0 0 0 0 -135726974.97138977 99671370.799354404 0 99671370.799354404 27037188.347059853 0 0 0 0 -194096128.82435226 235235150.1594528 0 235235150.1594528 -110513829.10835159 0 0 0 0 2642044.5163497925 -10756855.175738761 0 -10756855.175738761 9863061.4467088059 0 0 0 0 -316771.90797042847 -15184428.410508636 0 -15184428.410508636 24083038.7451609 0 0 0 0 20512449.443782806 -31192603.340092175 0 -31192603.340092175 31116374.654858582 0 0 0 0 -19100565.423202515 -14095336.285313826 0 -14095336.285313826 35071105.287050411 0 0 0 0 -17050619.00159502 -4923928.8206254337 0 -4923928.8206254337 33575744.119832963 0 0 0 0 -29444869.907878876 -3391276.8051521275 0 -3391276.8051521275 33245869.447011229 0 0 0 0 -5544305.1620445251 -17711849.816330295 0 -17711849.816330295 32370438.763057664 0 0 0 0 -724521.1019744873 -12942597.298430778 0 -12942597.298430778 36053629.887538649 0 0 0 0 -49157265.160888672 -7560495.0644303709 0 -7560495.0644303709 -101821.9948181506 0 0 0 0 -30707765.042175293 -21594861.764638007 0 -21594861.764638007 3689787.5460055303 0 0 0 0 -13924465.766199112 -8770330.698961515 0 -8770330.698961515 1614400.563651368 0 0 0 0 -20780995.133068085 -6062000.1815195493 0 -6062000.1815195493 25578391.367416393 0 0 0 0 -10812551.870695114 -15150719.08627576 0 -15150719.08627576 6525091.9354911223 0 0 0 0 -14467869.564081192 -10024585.823386036 0 -10024585.823386036 24384.615359217711 0 0 0 0 -10964895.481214702 -10878127.890088517 0 -10878127.890088517 21189201.9068739 0 0 0 0 -19747048.89059639 -2232204.0996985007 0 -2232204.0996985007 54718997.311250404 0 0 0 0 -14654345.658348083 -9091681.3347601667 0 -9091681.3347601667 26793932.883968055 0 0 0 0 -8894775.0002555847 2093996.1789538562 0 2093996.1789538562 23587789.052235425 0 0 0 0 5237911.30519104 25878183.874870326 0 25878183.874870326 49519791.910403579 0 0 0 0 -239864.42803101987 -204772.49053083826 0 -204772.49053083826 -108893.09111295198 0 0 0 0 13967003.474170685 33431060.551003247 0 33431060.551003247 51048565.581643492 0 0 0 0 -259925.65025650663 -104406.20137702115 0 -104406.20137702115 224580.85371437907 0 0 0 0 -20377608.920055389 10960421.795628509 0 10960421.795628509 88770439.364622578 0 0 0 0 -19884440.719017029 -19421135.498485196 0 -19421135.498485196 26858795.427860036 0 0 0 0 -16151097.669927597 -23899194.818701472 0 -23899194.818701472 2989.9369573716685 0 0 0 0 -29199601.847715378 3176502.2723533977 0 3176502.2723533977 -10529801.894040275 0 0 0 0 -85439834.354911804 -16649523.248359168 0 -16649523.248359168 -59844.721913349502 0 0 0 0 -38454833.679664612 -37363584.753861323 0 -37363584.753861323 26014976.080676135 0 0 0 0 -52975941.983356476 34304426.450973406 0 34304426.450973406 16072968.852133427 0 0 0 0 -183809847.03364563 -16134958.87293506 0 -16134958.87293506 7729992.8123303019 0 0 0 0 -187990604.18296814 40651057.055818141 0 40651057.055818141 -5607917.2005252689 0 0 0 0 -209257885.9997406 732625.57617967762 0 732625.57617967762 -53093116.467133008 0 0 0 0 -348963792.12672424 58892923.546528697 0 58892923.546528697 6892.3017632518377 0 0 0 0 -367136166.65220261 -3583385.1629036888 0 -3583385.1629036888 7766070.7556092292 0 0 0 0 -285665905.16999054 -569435.67883950472 0 -569435.67883950472 55139359.368529513 0 0 0 0 -216570191.40558052 51544011.867111325 0 51544011.867111325 10837202.200228915 0 0 0 0 -231647956.03675079 -3676074.6664807796 0 -3676074.6664807796 92429721.723737687 0 0 0 0 -202068463.60651398 26889165.833270073 0 26889165.833270073 59993787.157541215 0 0 0 0 -201858317.46501541 30714702.666489035 0 30714702.666489035 122905608.56103137 0 0 0 0 -184121066.79978943 -25570708.220917642 0 -25570708.220917642 111835247.54506193 0 0 0 0 -78641382.542451859 11433254.07196781 0 11433254.07196781 9147165.1570364237 0 0 0 0 -225849962.74885178 11936780.119048357 0 11936780.119048357 66186285.984795511 0 0 0 0 -190642951.46991444 -1486340.8666174412 0 -1486340.8666174412 66671514.091422558 0 0 0 0 -264670418.93615341 16178208.289224759 0 16178208.289224759 -73141637.812242031 0 0 0 0 -302676730.10178757 -25418795.265016675 0 -25418795.265016675 49432481.511182964 0 0 0 0 -170453918.24298859 126826422.35706103 0 126826422.35706103 -56806335.253205538 0 0 0 0 -82341885.236616135 -5935779.6349121034 0 -5935779.6349121034 20417091.563485622 0 0 0 0 29237275.369541168 21731242.308673382 0 21731242.308673382 -37245357.974013388 0 0 0 0 -1847796.9020338766 923021.34406500449 0 923021.34406500449 273312.24369180267 0 0 0 0 -33699025.33049202 -1946451.1256638169 0 -1946451.1256638169 26034546.814879894 0 0 0 0 -557356838.07174683 88330419.002579033 0 88330419.002579033 -12545688.82368803 0 0 0 0 -229327.62960366905 -8425.480535679555 0 -8425.480535679555 97387.642249358934 0 0 0 0 -585731372.18616486 -2311355.9907521009 0 -2311355.9907521009 -29241675.649387598 0 0 0 0 -292630.16939979326 334175.12175107747 0 334175.12175107747 34493.459429942537 0 0 0 0 -282486715.10370559 -60119286.460721254 0 -60119286.460721254 -208491907.56016159 0 0 0 0 -433261261.74859619 97809740.46212244 0 97809740.46212244 -157316677.78551084 0 0 0 0 -306438593.14518738 -210968370.97106093 0 -210968370.97106093 -148915982.43020606 0 0 0 0 -626732285.96590424 -150403639.60163522 0 -150403639.60163522 -28813333.844758034 0 0 0 0 -461354058.59710693 -325068123.49715209 0 -325068123.49715209 -194299137.86872029 0 0 0 0 -331390499.95154572 -101827588.76438534 0 -101827588.76438534 26687700.785764933 0 0 0 0 -413005630.60459518 -58202389.155999482 0 -58202389.155999482 4857540.1037974358 0 0 0 0 -297632154.18022919 40784711.809408665 0 40784711.809408665 -16289491.747332096 0 0 0 0 -268219034.47296143 -54026571.148688555 0 -54026571.148688555 60363886.782265842 0 0 0 0 -275376351.94455719 -60093977.27878511 0 -60093977.27878511 108910745.94959903 0 0 0 0 -310500245.48920631 -131293314.51815912 0 -131293314.51815912 28550816.943289638 0 0 0 0 -280338904.97871017 -120661361.08104415 0 -120661361.08104415 -17899145.34002769 0 0 0 0 -11673216.884162903 1808305.6364417076 0 1808305.6364417076 4168886.6708655357 0 0 0 0 -3820644.597694397 600764.36479508877 0 600764.36479508877 1243212.6704170704 0 0 0 0 -879067.11726288497 -224968.29759774171 0 -224968.29759774171 1831164.499700201 0 0 0 0 4114255.8983459473 5928545.6983840466 0 5928545.6983840466 -1265719.1331768036 0 0 0 0 -770089.72105336282 644198.72838343401 0 644198.72838343401 -1047233.6223733664 0 0 0 0 -6066704.900636673 8686138.3973939121 0 8686138.3973939121 1421044.4067306519 0 0 0 0 2896946.3704299927 -9237105.1525156498 0 -9237105.1525156498 -9763442.6925311089 0 0 0 0 -4063195.573764801 842783.0558604598 0 842783.0558604598 -929388.71569705009 0 0 0 0 -1999178.3670158386 4300391.3077909648 0 4300391.3077909648 -2662893.4411694407 0 0 0 0 -2195255.0284309387 1096457.485439539 0 1096457.485439539 -1089205.9472437799 0 0 0 0 -1570660.56980896 587947.73296228051 0 587947.73296228051 -675207.83829635382 0 0 0 0 -4007132.3531322479 -142956.33403565735 0 -142956.33403565735 1234201.2137933075 0 0 0 0 -1711754.3533282578 49392.707000530441 0 49392.707000530441 -545514.44291547197 0 0 0 0 -7282114.6618652344 24394094.950121999 0 24394094.950121999 -37289665.615166545 0 0 0 0 -1014822.3303336292 -25844.995824128389 0 -25844.995824128389 775793.27471154998 0 0 0 0 -2404371.1401500702 362923.83784000389 0 362923.83784000389 -340172.14873799682 0 0 0 0 -2374140.9978141785 -599682.76350045204 0 -599682.76350045204 -467070.21548387408 0 0 0 0 -6772713.6897163391 -1697839.7247738168 0 -1697839.7247738168 3856632.3061787784 0 0 0 0 -6957415.5830723047 -6078787.4941124767 0 -6078787.4941124767 -3651626.4149519205 0 0 0 0 -9704322.5326385498 4666831.2197762486 0 4666831.2197762486 19499697.509121284 0 0 0 0 -6230848.8253707886 957382.62987729232 0 957382.62987729232 19035085.871742483 0 0 0 0 -927704.17096145824 -712546.64604479633 0 -712546.64604479633 -355804.4862170557 0 0 0 0 -5853784.9521522522 -941624.08692591905 0 -941624.08692591905 21177650.265357804 0 0 0 0 -3865170.1182746887 -3066088.1465772912 0 -3066088.1465772912 -899281.59871190786 0 0 0 0 -1673788.7815903835 -446439.87381313241 0 -446439.87381313241 -933633.95685863181 0 0 0 0 -274251.2813873291 631772.55479004979 0 631772.55479004979 -2360126.3167098835 0 0 0 0 -1218991.3620262146 1229554.4260727242 0 1229554.4260727242 -2541636.7341249585 0 0 0 0 637457.83534812927 1561638.8011314422 0 1561638.8011314422 -2562363.5352681875 0 0 0 0 2098934.1140861511 -372997.57100462914 0 -372997.57100462914 -3239736.0732211014 0 0 0 0 608853.79134750366 1066032.7729357481 0 1066032.7729357481 -3750332.6917360723 0 0 0 0 -807230.9029417038 -354987.04357879609 0 -354987.04357879609 -3238058.4276240468 0 0 0 0 -1441423.7210960574 -1159226.4343853723 0 -1159226.4343853723 -1987087.3144061803 0 0 0 0 -1687749.1103024138 -1976840.1502027977 0 -1976840.1502027977 -3358247.1092656692 0 0 0 0 -2225024.1889266968 -7823307.1239356995 0 -7823307.1239356995 9870284.9779763222 0 0 0 0 -269498170.98099709 218620108.94025898 0 218620108.94025898 118409878.97338676 0 0 0 0 -244442.36163222603 -648247.72170414589 0 -648247.72170414589 -803237.31803410919 0 0 0 0 -54300332.230312347 -309741000.04149389 0 -309741000.04149389 -260636996.92027473 0 0 0 0 -1928162.5972457202 -1672608.934480086 0 -1672608.934480086 -1701733.7620484256 0 0 0 0 -417103914.04006004 299531700.69125104 0 299531700.69125104 238892693.63210678 0 0 0 0 -24597.97193318978 -584602.57374954957 0 -584602.57374954957 -437281.81205077807 0 0 0 0 -1902334.6109678894 -1233457.0506261804 0 -1233457.0506261804 -958060.65915799874 0 0 0 0 -158482.69769287109 -7138285.7684976012 0 -7138285.7684976012 3699702.8675061055 0 0 0 0 -895652.33771705627 -1041501.1957886815 0 -1041501.1957886815 -368254.12920427322 0 0 0 0 -5216516.0343132019 -3071622.8657274577 0 -3071622.8657274577 11154978.375875488 0 0 0 0 -2314663.8637048919 -2240015.9823861439 0 -2240015.9823861439 -1787852.0025892043 0 0 0 0 -1203852.1656694412 -6227429.121072609 0 -6227429.121072609 14381576.975267041 0 0 0 0 -326338918.71961212 -15006069.348288536 0 -15006069.348288536 -4484333.9083776474 0 0 0 0 -109233637.19261074 -24767930.282013416 0 -24767930.282013416 4411612.7504587173 0 0 0 0 -89949662.985786438 -18653502.029048443 0 -18653502.029048443 -3665288.7744655609 0 0 0 0 -42402368.520336151 -20155430.438043118 0 -20155430.438043118 -13378990.959739685 0 0 0 0 -42109959.695137024 -17308358.649335533 0 -17308358.649335533 9056601.379201889 0 0 0 0 -54989998.774253845 -26225080.100446701 0 -26225080.100446701 374866.64863753319 0 0 0 0 -100007211.90453339 -6416685.63773489 0 -6416685.63773489 10093734.461525917 0 0 0 0 -108699507.6177597 11586912.137469769 0 11586912.137469769 8594385.1358060837 0 0 0 0 -105895483.60194778 -30037261.082684994 0 -30037261.082684994 9578115.5900802612 0 0 0 0 -71010518.636231422 7563990.435046196 0 7563990.435046196 17581081.225349426 0 0 0 0 26456637.612297058 -34716681.579012871 0 -34716681.579012871 2262237.2115681171 0 0 0 0 -41328684.187051773 -3427603.6509581804 0 -3427603.6509581804 16128041.149234772 0 0 0 0 -1380644.3092579413 -1766865.45986054 0 -1766865.45986054 -3571163.5212387396 0 0 0 0 5919795.7497825623 -98471.063499391079 0 -98471.063499391079 -3497454.9231237471 0 0 0 0 16870073.150836945 -1339216.6985656917 0 -1339216.6985656917 -6283060.3124127984 0 0 0 0 814569.08131790161 6013881.1171232611 0 6013881.1171232611 -2968824.2863463759 0 0 0 0 -3022425.9778442383 3856526.10343647 0 3856526.10343647 -1961252.0897714496 0 0 0 0 6780387.0615310669 -3465997.7360258102 0 -3465997.7360258102 154522.77046811581 0 0 0 0 7212099.9541473389 7034069.0835527778 0 7034069.0835527778 -4319191.2310284376 0 0 0 0 67371313.955511093 -3772108.2970469296 0 -3772108.2970469296 -13804083.071107507 0 0 0 0 -1482975.7036297591 -1561388.3673609318 0 -1561388.3673609318 -3518726.6859400664 0 0 0 0 8556495.2311248779 38480777.306301534 0 38480777.306301534 25177379.708098829 0 0 0 0 28180486.114713669 -8759296.6703157425 0 -8759296.6703157425 -12192709.717018127 0 0 0 0 44138598.99997139 -46520546.94753468 0 -46520546.94753468 12455539.082821846 0 0 0 0 9499140.4857788086 -16880132.876839638 0 -16880132.876839638 -4049301.5452632904 0 0 0 0 9845874.0760231018 -8818392.5983352661 0 -8818392.5983352661 -21249765.50398922 0 0 0 0 69807990.116565704 -32583721.933609486 0 -32583721.933609486 -12736341.000500679 0 0 0 0 42348546.209140778 -4033132.92791605 0 -4033132.92791605 -5283794.9709479809 0 0 0 0 -2041059.9813144049 -1189023.2980981572 0 -1189023.2980981572 -3167271.4645102657 0 0 0 0 37255629.018810272 7709634.3597639501 0 7709634.3597639501 -188204415.52417737 0 0 0 0 115769097.79079437 -85365756.07887888 0 -85365756.07887888 -143696039.62540168 0 0 0 0 -81257142.809085846 -14515913.995222241 0 -14515913.995222241 40291330.691277146 0 0 0 0 -59589571.531188965 13466612.75231415 0 13466612.75231415 49423051.278751314 0 0 0 0 -19711.665048555005 -73384.520840484649 0 -73384.520840484649 -287892.52988275164 0 0 0 0 38226564.45167923 -40446968.228564039 0 -40446968.228564039 -50226896.209465377 0 0 0 0 -112383546.10889435 -125257542.99378181 0 -125257542.99378181 -5021448.6110740695 0 0 0 0 11669319.311355591 -76756563.496111974 0 -76756563.496111974 1154659.9203258753 0 0 0 0 -102818472.78252411 -69144658.927927613 0 -69144658.927927613 8748356.1978676319 0 0 0 0 -61059648.710704803 -27831802.727318466 0 -27831802.727318466 99530551.915660262 0 0 0 0 212015511.21502304 80048288.954797536 0 80048288.954797536 -293433922.28298938 0 0 0 0 -56180.807197454385 -58295.49589722231 0 -58295.49589722231 61336.59991025136 0 0 0 0 -30171727.334739685 -8878843.2594448477 0 -8878843.2594448477 -10275591.010631628 0 0 0 0 -25719817.773410797 -12063794.239477724 0 -12063794.239477724 -17377065.374469638 0 0 0 0 5179775.7554244995 23148086.125750721 0 23148086.125750721 -13888363.691672336 0 0 0 0 -128896.53826923948 4704.5248770471662 0 4704.5248770471662 -723120.0281060742 0 0 0 0 -33894299.96323204 8644891.2506859899 0 8644891.2506859899 1637294.875200808 0 0 0 0 -10572196.19480896 3010385.1876410842 0 3010385.1876410842 -323764.82313919067 0 0 0 0 -2992936.2631325722 3887288.2942466252 0 3887288.2942466252 -4256511.4149063826 0 0 0 0 -5656937.2876777649 6104280.7319832444 0 6104280.7319832444 -3043881.2423323989 0 0 0 0 -3017794.6228942871 3218565.274217248 0 3218565.274217248 -2746802.8682959452 0 0 0 0 22990202.473613739 18530511.718038708 0 18530511.718038708 -3152994.0133733749 0 0 0 0 -33829154.902145386 26850668.68446672 0 26850668.68446672 33918008.542846322 0 0 0 0 -338738.69990139455 198719.84985702764 0 198719.84985702764 -968040.25828250078 0 0 0 0 -44735156.810726166 -7801110.9613121152 0 -7801110.9613121152 22334866.001502991 0 0 0 0 42495212.37106514 -9023449.6597013175 0 -9023449.6597013175 -57100214.563009143 0 0 0 0 -466866985.97429657 211919473.46875733 0 211919473.46875733 107402265.87242228 0 0 0 0 138170961.1584053 -68106123.874912649 0 -68106123.874912649 -457613874.6349237 0 0 0 0 -298119811.33459473 -29949632.186534233 0 -29949632.186534233 84875782.654263228 0 0 0 0 -184894657.60030174 104905094.76745118 0 104905094.76745118 143113049.36598369 0 0 0 0 -396222.53517516702 -93895.0154998824 0 -93895.0154998824 779301.3344439402 0 0 0 0 -176721812.42835617 -28658221.169862524 0 -28658221.169862524 110707796.11398849 0 0 0 0 -275709417.36485672 -94411832.949414521 0 -94411832.949414521 238487223.37672368 0 0 0 0 -480343561.90607452 -16043114.18030709 0 -16043114.18030709 272707037.45664465 0 0 0 0 -217447242.99970055 -183716598.76785323 0 -183716598.76785323 322425444.58804429 0 0 0 0 -617679493.46270752 101960505.64170039 0 101960505.64170039 43029381.803362012 0 0 0 0 3097681.4607925415 299538944.52708292 0 299538944.52708292 -681396792.50208938 0 0 0 0 -1433299.8481185026 522534.11016757181 0 522534.11016757181 71969.691896262288 0 0 0 0 -192591308.8134346 -234685287.6769273 0 -234685287.6769273 -282055976.40787667 0 0 0 0 -87931995.019491196 162039576.78333929 0 162039576.78333929 44228635.525411218 0 0 0 0 -269956121.77850723 5551142.6894162297 0 5551142.6894162297 84532326.11395812 0 0 0 0 -68407715.761413574 30919020.210532546 0 30919020.210532546 86120600.491156757 0 0 0 0 48415230.370697021 162240196.73302042 0 162240196.73302042 23741989.86964941 0 0 0 0 164091699.34320831 104285063.97330561 0 104285063.97330561 -14883483.495187521 0 0 0 0 -222862022.3585968 83104414.760656476 0 83104414.760656476 -34303423.408106804 0 0 0 0 -628758.12533078622 -462299.06467027403 0 -462299.06467027403 301441.48728132911 0 0 0 0 42356087.819099426 6346608.7703278065 0 6346608.7703278065 42795737.69923389 0 0 0 0 -66508446.657253265 -4986618.7918788195 0 -4986618.7918788195 -24561401.981235951 0 0 0 0 -75081291.063899994 42263908.694581509 0 42263908.694581509 67887466.717317104 0 0 0 0 -16332514.31111145 55585329.126748562 0 55585329.126748562 70436647.89102596 0 0 0 0 -104635175.13601685 5422125.7001559734 0 5422125.7001559734 72906313.916686773 0 0 0 0 -54629763.254508972 23443160.60613656 0 23443160.60613656 70188903.841919512 0 0 0 0 -80969906.929965973 -14860439.426831424 0 -14860439.426831424 60718704.644639492 0 0 0 0 -48924262.718734741 18605782.027589679 0 18605782.027589679 70099861.190258503 0 0 0 0 37651773.091171265 38310084.455676436 0 38310084.455676436 47959271.226905823 0 0 0 0 -20301325.817428589 27959143.588189363 0 27959143.588189363 63091203.149266958 0 0 0 0 -14496171.378250122 22227940.273349285 0 22227940.273349285 54159973.051285744 0 0 0 0 -6028995.7778091431 25747791.346341372 0 25747791.346341372 50753950.955831766 0 0 0 0 3050418.6676101685 16260045.685193062 0 16260045.685193062 14067350.134192228 0 0 0 0 -13978558.284233093 16082022.000357985 0 16082022.000357985 44140440.900337219 0 0 0 0 -27875367.537654877 1655171.5048396587 0 1655171.5048396587 53050970.912299156 0 0 0 0 -34412318.39226532 21509229.965168238 0 21509229.965168238 60710936.589956284 0 0 0 0 -40755290.699560165 4999176.9943459332 0 4999176.9943459332 57763655.786956787 0 0 0 0 -17510183.124486923 8383334.3070770204 0 8383334.3070770204 29599368.810257435 0 0 0 0 -12754917.400928497 6466062.6246981621 0 6466062.6246981621 27169955.730816364 0 0 0 0 -15884976.723480225 15489407.900656939 0 15489407.900656939 43957063.500964403 0 0 0 0 -16253660.835519791 5468735.7477124929 0 5468735.7477124929 -2613074.6507210732 0 0 0 0 -3079717.2584000565 21332.234413191676 0 21332.234413191676 1650921.2226327532 0 0 0 0 -1201128.9084441587 1064265.2166360756 0 1064265.2166360756 340589.02254634514 0 0 0 0 -44816906.127338409 -26749196.257074356 0 -26749196.257074356 70500835.874061823 0 0 0 0 4255358.4170227051 21068490.019527555 0 21068490.019527555 31567925.617357492 0 0 0 0 -13058457.28441906 -5172871.3840513229 0 -5172871.3840513229 32619253.873699188 0 0 0 0 5191372.8096237183 8921621.4287509918 0 8921621.4287509918 49133747.034019232 0 0 0 0 2087585.7073402405 44246235.219762206 0 44246235.219762206 -10649010.333918571 0 0 0 0 -5432191.4113081302 3331822.6766312756 0 3331822.6766312756 -1057496.2768784515 0 0 0 0 -3607576.0961685181 -481733.36705344915 0 -481733.36705344915 -3246427.450926289 0 0 0 0 -6891268.9629135132 6695087.6175640821 0 6695087.6175640821 5705237.5350772142 0 0 0 0 -10325092.513849258 3104149.0032244995 0 3104149.0032244995 7760027.1875610352 0 0 0 0 -5930846.7682352066 1965467.1861228123 0 1965467.1861228123 6962705.3938212395 0 0 0 0 -1833253.0185890198 6753737.1946540177 0 6753737.1946540177 5400896.5912842304 0 0 0 0 -14652759.162193298 2603988.7826317176 0 2603988.7826317176 8816202.2191479653 0 0 0 0 -6380215.6012535095 2757817.2329079807 0 2757817.2329079807 370845.85698735714 0 0 0 0 -3426630.4720798377 761637.1920535136 0 761637.1920535136 296569.22590607067 0 0 0 0 -5525014.06483078 -1061232.2791764736 0 -1061232.2791764736 -5624133.7815324068 0 0 0 0 -6052607.6641077008 2679178.9546406711 0 2679178.9546406711 8093.5627476280788 0 0 0 0 -60786.407363891602 8651001.9866268635 0 8651001.9866268635 574416.79962921143 0 0 0 0 -14025536.093147278 1224529.0408256054 0 1224529.0408256054 7117130.2242525816 0 0 0 0 -11858143.648399353 3502929.0298559666 0 3502929.0298559666 8065980.9953510761 0 0 0 0 -4964867.8466887325 -1010232.2395542581 0 -1010232.2395542581 -311565.89417659491 0 0 0 0 -5326691.9169826508 2528535.925960958 0 2528535.925960958 2827070.3730069399 0 0 0 0 -11597821.307739258 5327430.9079184532 0 5327430.9079184532 4621271.5177277327 0 0 0 0 -7339438.1521759033 -2686483.6110621691 0 -2686483.6110621691 -1851396.9342733845 0 0 0 0 -2515732.7597688008 -1462534.806084035 0 -1462534.806084035 1189489.6886945697 0 0 0 0 -9595216.6055736542 3349480.7834333479 0 3349480.7834333479 14676957.339890987 0 0 0 0 -577596.76740696654 26565.356274957303 0 26565.356274957303 142482.80067006047 0 0 0 0 -10236899.419986725 3591825.9636834264 0 3591825.9636834264 14529055.904432923 0 0 0 0 -3671941.4948043823 -2459926.7514682114 0 -2459926.7514682114 17297248.014628887 0 0 0 0 26783459.886722565 -13908445.790937606 0 -13908445.790937606 -31243091.249051064 0 0 0 0 -17847905.109008789 -21068158.23536545 0 -21068158.23536545 -418215.63791972399 0 0 0 0 -20674327.51953125 -193067.6679302454 0 -193067.6679302454 26506325.39970807 0 0 0 0 -19375723.113409519 -11183299.484094936 0 -11183299.484094936 26710247.674930096 0 0 0 0 36962531.14522934 12244911.654359818 0 12244911.654359818 -2664073.7102489471 0 0 0 0 -4038041.051766987 3061927.8083225004 0 3061927.8083225004 -1906270.2963648774 0 0 0 0 36666646.064618111 13676468.626756907 0 13676468.626756907 -1836996.750421524 0 0 0 0 -7245521.6844673157 8583724.4089660048 0 8583724.4089660048 12115838.570122004 0 0 0 0 37976094.633850098 7736882.9679422379 0 7736882.9679422379 1722949.9324235916 0 0 0 0 37773814.69203949 9629307.9025840759 0 9629307.9025840759 -4993020.3316898346 0 0 0 0 38874742.651546478 222521.87510967255 0 222521.87510967255 -7336626.8141202927 0 0 0 0 41068303.634262085 -2850633.1751503944 0 -2850633.1751503944 -5668298.6982359886 0 0 0 0 21963232.593584538 -53465904.162049308 0 -53465904.162049308 56035633.857929468 0 0 0 0 -3504682.5126244612 -530626.81773485988 0 -530626.81773485988 -2283500.9315298609 0 0 0 0 39077607.297698975 463574.28292751312 0 463574.28292751312 -8256176.9021544456 0 0 0 0 41072890.795253128 -2475612.886594858 0 -2475612.886594858 -11393958.468830109 0 0 0 0 38851603.303756714 1970512.9989051819 0 1970512.9989051819 1264575.7135320306 0 0 0 0 -804213.64792420715 -63902.798064446077 0 -63902.798064446077 277367.2855857478 0 0 0 0 -14238070.059143066 -14285341.367947578 0 -14285341.367947578 -5070179.7630169392 0 0 0 0 12487922.094909668 -3499590.9157844782 0 -3499590.9157844782 26888562.916180611 0 0 0 0 -15141575.446884155 -6114196.3671017885 0 -6114196.3671017885 33754409.026585579 0 0 0 0 -31215733.125816345 -7477911.3267416954 0 -7477911.3267416954 33855977.403018117 0 0 0 0 -21153145.51247406 -26025923.863848329 0 -26025923.863848329 64579723.009593964 0 0 0 0 -38069666.623046875 -5784963.7644147873 0 -5784963.7644147873 58485123.050751299 0 0 0 0 -42342531.189689636 -957980.88447296619 0 -957980.88447296619 65685035.123980045 0 0 0 0 -45007749.722396851 -14732483.011314869 0 -14732483.011314869 47865322.825940847 0 0 0 0 -35517604.171829224 -21362789.580754876 0 -21362789.580754876 40535227.747943163 0 0 0 0 -14818861.798126221 4867306.4419195652 0 4867306.4419195652 -42294369.459726632 0 0 0 0 -22731723.24514389 -5197064.6219940186 0 -5197064.6219940186 49116974.752127171 0 0 0 0 -52376027.128238678 33241412.937887669 0 33241412.937887669 79784276.755415797 0 0 0 0 -31276811.885560036 -42724794.647735253 0 -42724794.647735253 93728946.282413006 0 0 0 0 36584544.820209503 -23640324.025097847 0 -23640324.025097847 4773413.0518209934 0 0 0 0 35331938.479682922 -2904157.3419742584 0 -2904157.3419742584 -1941332.2270345688 0 0 0 0 21116817.494750977 601331.79933595657 0 601331.79933595657 -15210809.176980495 0 0 0 0 41452917.831254005 -11613145.24818325 0 -11613145.24818325 -24862601.936196327 0 0 0 0 337973.67626953125 6107160.2301931381 0 6107160.2301931381 -27433421.864068508 0 0 0 0 14987633.424324036 -11449441.400551081 0 -11449441.400551081 -38361366.472266197 0 0 0 0 27885985.376590729 8008592.3902711868 0 8008592.3902711868 -16923282.619603157 0 0 0 0 37381417.940010071 4046308.3442592621 0 4046308.3442592621 -26327969.934724331 0 0 0 0 33727222.950874329 -11102870.212887049 0 -11102870.212887049 -16350731.808830261 0 0 0 0 39358280.218536377 -557640.2358880043 0 -557640.2358880043 -15695129.633101523 0 0 0 0 38338287.520065308 9101869.4077906609 0 9101869.4077906609 -9781111.4699649811 0 0 0 0 37992010.760650635 10794581.49160862 0 10794581.49160862 -14553574.857585907 0 0 0 0 33520181.529760361 5786304.0880539417 0 5786304.0880539417 -18348779.998627663 0 0 0 0 27952591.310852051 22211233.667694092 0 22211233.667694092 -8795086.7314624786 0 0 0 0 37599727.321228027 16779914.048175097 0 16779914.048175097 -20658143.001541138 0 0 0 0 38459750.017036438 15941491.360589027 0 15941491.360589027 -8453151.7968103886 0 0 0 0 36869592.968940735 12849622.399898052 0 12849622.399898052 -6839749.2624454498 0 0 0 0 37137546.995651245 22144278.76798439 0 22144278.76798439 -6414597.580984056 0 0 0 0 48996893.719146729 46615760.706605911 0 46615760.706605911 6292384.1276600361 0 0 0 0 -3625946.7762462478 3240711.8511704914 0 3240711.8511704914 -1884273.7491426922 0 0 0 0 31360696.424453735 33169795.454091549 0 33169795.454091549 20484367.888411045 0 0 0 0 33697959.251106262 15984681.840121746 0 15984681.840121746 12043965.384914398 0 0 0 0 39696923.523521423 31688803.674874306 0 31688803.674874306 -3742135.5472254753 0 0 0 0 30886484.344455719 22665003.483798265 0 22665003.483798265 -3314747.0684013367 0 0 0 0 32813762.452373505 16695953.534084558 0 16695953.534084558 -2749532.9372386932 0 0 0 0 23888215.448760986 31967289.329290867 0 31967289.329290867 -10622098.05110538 0 0 0 0 22339677.52217865 34522516.129705906 0 34522516.129705906 1896368.1554915905 0 0 0 0 22839029.118713379 30232001.639735699 0 30232001.639735699 -10274771.762271881 0 0 0 0 5926985.4617729187 28710508.301859856 0 28710508.301859856 -13092311.573103905 0 0 0 0 14764678.73575592 21753399.722525597 0 21753399.722525597 -9190158.1418237686 0 0 0 0 22650396.748264313 21132019.265178919 0 21132019.265178919 -29847192.650781631 0 0 0 0 24850730.347229004 14614687.898556232 0 14614687.898556232 -13918757.865662575 0 0 0 0 27822852.042931497 5294137.7898186967 0 5294137.7898186967 -38986128.325498581 0 0 0 0 5974423.6465339661 13212664.227404118 0 13212664.227404118 -22859789.546870232 0 0 0 0 -15405752.667289734 25758713.668481827 0 25758713.668481827 -28468297.665034771 0 0 0 0 7269075.3133010864 13711141.026349545 0 13711141.026349545 -55119680.78892684 0 0 0 0 1675606.6806468964 16295438.677326441 0 16295438.677326441 -26709999.167612076 0 0 0 0 -10976847.392642975 44050026.524200916 0 44050026.524200916 -9316688.0879647732 0 0 0 0 -41318477.582766056 26091222.055777252 0 26091222.055777252 -63444594.871041298 0 0 0 0 -48954247.794242859 50332466.28810215 0 50332466.28810215 -16452313.458447576 0 0 0 0 -49574699.520139694 29416865.923132181 0 29416865.923132181 -78290016.332816124 0 0 0 0 -23723745.398333549 1393329.4321895838 0 1393329.4321895838 -48515935.722642899 0 0 0 0 -71514249.685918808 -38610786.470102549 0 -38610786.470102549 -74569111.614081383 0 0 0 0 -18875283.645507812 -14466017.797487736 0 -14466017.797487736 -42823750.473496675 0 0 0 0 -27842902.22495842 -2032029.1915872097 0 -2032029.1915872097 -51174704.475130081 0 0 0 0 -29922118.233511925 -13781011.835429519 0 -13781011.835429519 -28829607.701786995 0 0 0 0 -29665606.199531555 -11358775.754695892 0 -11358775.754695892 -11050958.503818035 0 0 0 0 -78392211.498081207 -37582994.987338543 0 -37582994.987338543 -36906644.015747547 0 0 0 0 -89126946.904911041 -17374540.890660524 0 -17374540.890660524 -16727666.633191109 0 0 0 0 -94096683.152443409 -33423333.280489624 0 -33423333.280489624 -21199492.759476662 0 0 0 0 115537021.72477531 99919066.37776275 0 99919066.37776275 154578884.94917038 0 0 0 0 78474012.881649017 -203759111.17642269 0 -203759111.17642269 59656543.217744336 0 0 0 0 441883.30331192352 1710288.1445773311 0 1710288.1445773311 266699.06148745358 0 0 0 0 -35510139.740715027 129893116.62502925 0 129893116.62502925 343502486.6871255 0 0 0 0 -148344423.60926819 -12702829.565141022 0 -12702829.565141022 507772814.05075502 0 0 0 0 -89942073.287197113 -26826805.166257091 0 -26826805.166257091 275208411.96716326 0 0 0 0 -26949006.074279785 -19141555.215385392 0 -19141555.215385392 18931167.530324448 0 0 0 0 -98509561.740983963 1360606.9094353598 0 1360606.9094353598 23727720.983428113 0 0 0 0 -22925316.146528244 4964945.1912072748 0 4964945.1912072748 -218835821.20222849 0 0 0 0 -50068869.728492737 -74827216.782221422 0 -74827216.782221422 -129555053.71603546 0 0 0 0 -216118706.95053101 -219881445.590253 0 -219881445.590253 -7358105.7255920023 0 0 0 0 -107522747.55903625 -51746015.296296753 0 -51746015.296296753 -15483570.953538824 0 0 0 0 39659647.668485641 -64081366.187068939 0 -64081366.187068939 -17021389.184668954 0 0 0 0 -393464564.56380272 -117828530.0618358 0 -117828530.0618358 -44375315.202529058 0 0 0 0 -534954557.67118835 -335419713.67165643 0 -335419713.67165643 5228965.6028181911 0 0 0 0 -195260870.78698349 -116265293.89299467 0 -116265293.89299467 40428665.985669307 0 0 0 0 -308852032.33289337 -254911681.12264293 0 -254911681.12264293 -3091613.3950337041 0 0 0 0 -526324469.61547279 -353714556.66755676 0 -353714556.66755676 37272687.493995227 0 0 0 0 -834433327.10817337 -374676831.66510314 0 -374676831.66510314 43382103.972181737 0 0 0 0 -945549625.8771801 -650803365.20269597 0 -650803365.20269597 -391177710.88829553 0 0 0 0 237388590.87146378 -180982422.24283183 0 -180982422.24283183 -254435556.52488732 0 0 0 0 -527563738.4026947 -557138333.26620936 0 -557138333.26620936 -123401910.85877551 0 0 0 0 141753436.84129333 -311356922.26197028 0 -311356922.26197028 -419162395.04350984 0 0 0 0 -37462.437432155013 -2994.3006414778065 0 -2994.3006414778065 100946.16283908288 0 0 0 0 -233300395.53711319 -163650695.62594193 0 -163650695.62594193 244967949.62446153 0 0 0 0 -231420236.73974228 -45393768.22405836 0 -45393768.22405836 102556704.38673231 0 0 0 0 -268247484.09395981 -291038101.33012015 0 -291038101.33012015 27410712.809188962 0 0 0 0 -22108394.155509949 72262245.862226009 0 72262245.862226009 -27148049.451339722 0 0 0 0 20661722.218025208 29858445.890119076 0 29858445.890119076 -73081648.232021496 0 0 0 0 -41786368.831745148 12745938.788869023 0 12745938.788869023 45983567.815092564 0 0 0 0 658370.95594406128 3880784.8807737827 0 3880784.8807737827 8869615.4254672527 0 0 0 0 -395163.70329951262 -109539.91504787374 0 -109539.91504787374 -454448.13193946815 0 0 0 0 -1286784816.2717876 -221029742.03581566 0 -221029742.03581566 -95433020.254230633 0 0 0 0 -944680881.48578072 61620975.577116929 0 61620975.577116929 44561468.512478486 0 0 0 0 -74672813.295209885 57626112.017119169 0 57626112.017119169 84166402.588537216 0 0 0 0 -15165920.033905029 -22699413.848411083 0 -22699413.848411083 81168489.067461744 0 0 0 0 18843213.681602478 -31236354.308490276 0 -31236354.308490276 50427873.749037743 0 0 0 0 -1143332.8034896089 -523653.3727895217 0 -523653.3727895217 -1151396.6111717555 0 0 0 0 -4558867.4489688873 -11025139.985498309 0 -11025139.985498309 39799723.048351288 0 0 0 0 -815476419.12443829 -195787617.28239438 0 -195787617.28239438 -47816900.161998406 0 0 0 0 63377.024347078055 -251425.14400529629 0 -251425.14400529629 -2155824.1504406119 0 0 0 0 78840499.646800995 96495190.324028313 0 96495190.324028313 74430245.467686057 0 0 0 0 -4636321.505678935 948497.60882399837 0 948497.60882399837 -373981.99354518997 0 0 0 0 66953807.182347298 117008031.93668233 0 117008031.93668233 128852008.09724092 0 0 0 0 23684392.759510994 97796961.656824797 0 97796961.656824797 164017306.20575476 0 0 0 0 8935485.6786003113 130065659.45844591 0 130065659.45844591 209427998.38898706 0 0 0 0 28014028.590682983 155091447.07605374 0 155091447.07605374 215116746.938988 0 0 0 0 -5955632.9503897615 1033264.010933992 0 1033264.010933992 224774.35242188082 0 0 0 0 -7854807.9617164135 36965032.003732666 0 36965032.003732666 18463398.427419186 0 0 0 0 -37184073.433666229 -11247556.142319441 0 -11247556.142319441 10612982.108421683 0 0 0 0 -7235423.2012794744 866458.93973459397 0 866458.93973459397 855628.14191444614 0 0 0 0 -3969839.6492595673 88746497.224596947 0 88746497.224596947 269441401.94274163 0 0 0 0 16455798.114800453 12505548.367151171 0 12505548.367151171 -4619471.1594925523 0 0 0 0 -23489175.346739769 51920991.550307684 0 51920991.550307684 157216020.71869946 0 0 0 0 -12045167.248264313 131642478.64287293 0 131642478.64287293 134130150.87352979 0 0 0 0 65228457.392894745 130733698.3794831 0 130733698.3794831 169569828.77387428 0 0 0 0 -74030414.768121719 65911449.144573152 0 65911449.144573152 182897510.47278011 0 0 0 0 -50004.175321418559 12372.356783486903 0 12372.356783486903 -75052.053739444411 0 0 0 0 -110313975.18384743 44095697.335874751 0 44095697.335874751 163482370.46553373 0 0 0 0 -58274939.489765167 67043694.560965419 0 67043694.560965419 347139123.156914 0 0 0 0 -20977912.019836426 10264749.296046615 0 10264749.296046615 175211858.03466672 0 0 0 0 1398256.9141120911 87200660.569871783 0 87200660.569871783 276619126.01089209 0 0 0 0 -5044670.7823848724 114519595.2346288 0 114519595.2346288 197179090.17260939 0 0 0 0 1921627.3043136597 49322800.379756868 0 49322800.379756868 183439969.55389425 0 0 0 0 -40822002.302725792 31548794.184550762 0 31548794.184550762 297399917.73665607 0 0 0 0 -25192928.467212677 26064165.280649811 0 26064165.280649811 53021832.874249555 0 0 0 0 -156779958.56253433 -66465665.393832684 0 -66465665.393832684 181141993.77918169 0 0 0 0 3952784.1395225525 7657657.011620909 0 7657657.011620909 64517940.702720761 0 0 0 0 -41357687.604076385 10533311.869561121 0 10533311.869561121 196398358.5808174 0 0 0 0 20584941.389389038 47193622.807562947 0 47193622.807562947 201367840.2065022 0 0 0 0 -81532453.038837433 8321059.6717657745 0 8321059.6717657745 477706673.31196606 0 0 0 0 17876669.818470001 -47054439.720080405 0 -47054439.720080405 327062307.07846385 0 0 0 0 29909353.368572235 28023404.005914181 0 28023404.005914181 190805760.60163024 0 0 0 0 -53874083.758083344 77824673.57409741 0 77824673.57409741 392276692.3020246 0 0 0 0 -81294383.481559753 227657087.8710424 0 227657087.8710424 -79669932.427299693 0 0 0 0 -84467324.597503662 215650058.73939291 0 215650058.73939291 -71820957.208166853 0 0 0 0 -39185343.510690689 168781230.09548688 0 168781230.09548688 -180735829.0152905 0 0 0 0 -4051811.7575841751 1445209.2777435672 0 1445209.2777435672 312643.2865418063 0 0 0 0 -79583581.82264328 310097025.45644748 0 310097025.45644748 53824425.62319684 0 0 0 0 -40846382.544906616 14288558.974333405 0 14288558.974333405 98849588.892534256 0 0 0 0 12069509.752929688 301969742.5689894 0 301969742.5689894 -209062725.75717753 0 0 0 0 -18538844.882526398 239936346.79046464 0 239936346.79046464 -202999028.44322383 0 0 0 0 -68602402.298538208 256589700.90395129 0 256589700.90395129 -30224183.942026734 0 0 0 0 -67481140.94181633 225742022.55170965 0 225742022.55170965 -96779581.764821619 0 0 0 0 -78642421.507843018 184245379.29768741 0 184245379.29768741 -146409352.73055482 0 0 0 0 -99058355.805049896 191548667.37911081 0 191548667.37911081 -69824623.783271223 0 0 0 0 70197087.193306923 3979048.0755260745 0 3979048.0755260745 34428074.743719772 0 0 0 0 -34916260.435100555 -112722665.11078119 0 -112722665.11078119 310981090.46868467 0 0 0 0 -72248357.421207428 255505942.57950813 0 255505942.57950813 200747195.57696152 0 0 0 0 -278462.91538032517 -784842.99515830143 0 -784842.99515830143 787170.84667438595 0 0 0 0 -6236247.4841331355 2485547.0146806939 0 2485547.0146806939 603881.16440739133 0 0 0 0 -174943637.7288475 166192092.40957302 0 166192092.40957302 531527370.31127977 0 0 0 0 -42761177.756195068 -4394113.6267552376 0 -4394113.6267552376 15413713.88935283 0 0 0 0 185829111.34423447 220132914.47847354 0 220132914.47847354 -31438663.096976161 0 0 0 0 -97206935.057084084 23785934.908522513 0 23785934.908522513 -383310.51708866656 0 0 0 0 -86189526.329673767 241165326.25991368 0 241165326.25991368 -27676273.536446467 0 0 0 0 -157805295.40490723 369895398.9147439 0 369895398.9147439 -189394568.00500977 0 0 0 0 5789624.9358787537 222085375.82093477 0 222085375.82093477 -348366229.13732713 0 0 0 0 -366689059.45866776 269482607.22614384 0 269482607.22614384 -199338249.99606311 0 0 0 0 -173954508.6081543 -22553194.853704095 0 -22553194.853704095 -334751499.64553821 0 0 0 0 -180716263.99460983 88902681.38282454 0 88902681.38282454 7579419.7551551759 0 0 0 0 -69394510.381027222 -51446200.190742984 0 -51446200.190742984 -235059190.81990701 0 0 0 0 -130556477.05325127 116620228.0118531 0 116620228.0118531 -294167290.66866744 0 0 0 0 -127798690.52827406 140173505.04479057 0 140173505.04479057 -710787754.91075468 0 0 0 0 -398595232.28827667 429729967.46843719 0 429729967.46843719 -373978053.37293828 0 0 0 0 -536411825.08892059 90436659.283508718 0 90436659.283508718 -335816609.7852025 0 0 0 0 -214061614.45531082 84013853.39697957 0 84013853.39697957 -477911615.60638809 0 0 0 0 -402904410.14779949 471256549.07971954 0 471256549.07971954 -952908273.77512288 0 0 0 0 -202991389.73742551 391287703.85570747 0 391287703.85570747 -475574572.89833784 0 0 0 0 77165657.025642395 56166025.229347706 0 56166025.229347706 -687891449.10274911 0 0 0 0 -59546707.591770649 -292605839.80173308 0 -292605839.80173308 -264574572.06266451 0 0 0 0 -478140833.20015335 -7808978.0367716849 0 -7808978.0367716849 123924107.46278784 0 0 0 0 -403934.11900938116 211619.62882582517 0 211619.62882582517 -173041.56043321872 0 0 0 0 -103098426.52405548 330145251.77831984 0 330145251.77831984 -1068589643.1586473 0 0 0 0 -74857.042132319184 25088.248907308094 0 25088.248907308094 -234577.79870476725 0 0 0 0 -601705.99626080692 1341049.2915868293 0 1341049.2915868293 -1089865.9258491131 0 0 0 0 -732569.07367390394 1072848.4152945522 0 1072848.4152945522 310801.91881394386 0 0 0 0 -9776434.3396754265 67431648.163417548 0 67431648.163417548 -114440711.12999761 0 0 0 0 -1238146.7422336666 375099.76588883903 0 375099.76588883903 -540787.08309531072 0 0 0 0 -235349809.3514843 55422690.800008133 0 55422690.800008133 54381954.327314317 0 0 0 0 -166690425.32390785 148711984.27657515 0 148711984.27657515 -133694653.5275282 0 0 0 0 -283982458.63008118 222797306.08506703 0 222797306.08506703 -91987002.477227151 0 0 0 0 17070957.368038177 148686607.29232764 0 148686607.29232764 -133985397.46218991 0 0 0 0 -95232930.796001434 48810217.629441023 0 48810217.629441023 -19699957.476276994 0 0 0 0 16514809.370628357 25321425.876114845 0 25321425.876114845 -47784688.457429886 0 0 0 0 -49504980.650068283 115736198.71282929 0 115736198.71282929 -150293353.86729145 0 0 0 0 68617936.911720276 55339455.894159198 0 55339455.894159198 -217962131.81076264 0 0 0 0 4357011.3279190063 75094670.982111454 0 75094670.982111454 -173628867.90173006 0 0 0 0 2719223.2478408813 198997855.96740526 0 198997855.96740526 -309044475.52824926 0 0 0 0 48846435.227935791 2493048.6677236557 0 2493048.6677236557 -231059575.97319984 0 0 0 0 48292382.057727814 81081477.909517288 0 81081477.909517288 -247616393.29889393 0 0 0 0 -71593535.7423172 36777555.403608799 0 36777555.403608799 -104093345.44358063 0 0 0 0 -2317567.6558968984 1483714.2343334719 0 1483714.2343334719 -600891.7999021383 0 0 0 0 -905236.26252746582 1522555.960849762 0 1522555.960849762 465943.7622730732 0 0 0 0 -859921.6999874115 532714.69403445721 0 532714.69403445721 -249551.46399283409 0 0 0 0 44830687.692065239 -42238378.000433609 0 -42238378.000433609 -35368607.936828613 0 0 0 0 -19431045.369907379 43207742.995569229 0 43207742.995569229 30000869.720473528 0 0 0 0 2493992.6336860657 42195077.634567738 0 42195077.634567738 -31242406.622904301 0 0 0 0 -5924914.97605896 -19673847.090694904 0 -19673847.090694904 1409695.9497374296 0 0 0 0 -4911536.2732639313 5357954.7666513026 0 5357954.7666513026 -3629092.8704224825 0 0 0 0 -3513663.2520257831 1370485.9239499292 0 1370485.9239499292 78194.163739686483 0 0 0 0 -2628459.1633015117 609921.98169284035 0 609921.98169284035 -134193.2584882275 0 0 0 0 -4949374.6933279037 7887505.4427851588 0 7887505.4427851588 -3311449.3129409552 0 0 0 0 2269688.3969650269 -4666636.7049661577 0 -4666636.7049661577 5432872.2850909987 0 0 0 0 -7879459.6690871716 931246.53723115101 0 931246.53723115101 5225615.7240056098 0 0 0 0 -8643654.945400238 6362064.8734198511 0 6362064.8734198511 12952874.166595697 0 0 0 0 -80148136.895463943 41116506.728399351 0 41116506.728399351 -106659715.2440089 0 0 0 0 -201130188.32362366 106339911.50564237 0 106339911.50564237 -37361315.971328631 0 0 0 0 31435130.065753937 19124775.414122015 0 19124775.414122015 -57170955.701145113 0 0 0 0 -1345484.6406784058 728727.39311289787 0 728727.39311289787 -324079.78555333614 0 0 0 0 -1329490.1690626065 157899.97555089276 0 157899.97555089276 -704879.30058599124 0 0 0 0 -1431643.8628401654 331748.11678346293 0 331748.11678346293 1100132.8808441032 0 0 0 0 -4723392.9717884064 185184.8290925622 0 185184.8290925622 7823177.6783816814 0 0 0 0 -13859222.431537628 -180314.70683884621 0 -180314.70683884621 4818853.8544669002 0 0 0 0 -115878567.65101814 19439569.929688707 0 19439569.929688707 -2342129.2400501668 0 0 0 0 -1902669.3238019329 -545305.37602397939 0 -545305.37602397939 -392723.96386163007 0 0 0 0 -287224159.85866547 207370731.39089876 0 207370731.39089876 -121890307.29232141 0 0 0 0 -102487501.94126129 107647431.12021717 0 107647431.12021717 -129713148.78826579 0 0 0 0 -417206128.41019058 171770175.81168082 0 171770175.81168082 -101788728.00046007 0 0 0 0 -330791379.64593124 140461499.13769561 0 140461499.13769561 -101019921.6268412 0 0 0 0 -463988893.76934242 95937645.515628442 0 95937645.515628442 -73874634.483159125 0 0 0 0 -214516939.91695023 202959299.39384121 0 202959299.39384121 -144655737.63177192 0 0 0 0 -205031570.13102341 141129651.6497677 0 141129651.6497677 -162698638.49246511 0 0 0 0 -144911480.01290131 142299970.32157716 0 142299970.32157716 -221800311.75475413 0 0 0 0 -318401582.37063599 133265758.66625151 0 133265758.66625151 -162227765.48212689 0 0 0 0 -151781012.24342346 207523346.98512092 0 207523346.98512092 -373517149.36001605 0 0 0 0 -494504050.21044159 44510045.711018294 0 44510045.711018294 -112691165.44543062 0 0 0 0 -299417519.73695087 30447069.190485902 0 30447069.190485902 -114679853.2111454 0 0 0 0 -310045822.29668236 57573758.642360866 0 57573758.642360866 -183745071.35143936 0 0 0 0 -133403672.2725296 13434723.231724575 0 13434723.231724575 -173226179.63664827 0 0 0 0 -287614081.50583172 -34850781.093770385 0 -34850781.093770385 -136015971.09559414 0 0 0 0 -75773306.297744751 13027369.849709451 0 13027369.849709451 -208137337.10670519 0 0 0 0 -73739942.590927124 111888521.97460285 0 111888521.97460285 -333627269.69126612 0 0 0 0 -140380633.33849311 91430744.468161523 0 91430744.468161523 -287930362.91345829 0 0 0 0 -944375920.16782379 -221095112.49681205 0 -221095112.49681205 105353105.7078923 0 0 0 0 -491790666.68272781 -86400080.309436321 0 -86400080.309436321 -86957173.642234311 0 0 0 0 -252466645.02106142 -117573000.5351686 0 -117573000.5351686 -87115391.153787658 0 0 0 0 -620831399.20389652 -658639.68494575843 0 -658639.68494575843 -24750721.012359351 0 0 0 0 -685537998.34879875 -146194360.28411907 0 -146194360.28411907 96222548.547566116 0 0 0 0 -732472049.12316513 64043914.74309361 0 64043914.74309361 756015.54305195622 0 0 0 0 -944856583.4500742 3079744.500593558 0 3079744.500593558 80850460.399049938 0 0 0 0 -720787551.53625107 51436442.248238713 0 51436442.248238713 -24364395.945498995 0 0 0 0 -494523350.22659874 36293191.204737075 0 36293191.204737075 -30907959.832894623 0 0 0 0 -486684262.16229248 125680643.00799724 0 125680643.00799724 -81355802.92963089 0 0 0 0 -690757878.47419167 118825619.51487076 0 118825619.51487076 -60279616.258413061 0 0 0 0 -945239482.36111259 124774111.60165066 0 124774111.60165066 -14151616.344515584 0 0 0 0 -714343131.97200203 187354880.04118001 0 187354880.04118001 -229132202.86587173 0 0 0 0 -618906880.42037392 355346483.92991465 0 355346483.92991465 -130830736.47379886 0 0 0 0 -649574029.46386623 -38427812.218021005 0 -38427812.218021005 -111064760.34524395 0 0 0 0 -942759852.92900753 413149526.4959783 0 413149526.4959783 -23253802.383696657 0 0 0 0 -2208570.2874860764 -52277868.812893435 0 -52277868.812893435 -190359226.33908188 0 0 0 0 -650879.1473943945 -248677.44842891255 0 -248677.44842891255 -228712.48400293 0 0 0 0 -419455454.2760601 182543462.6609093 0 182543462.6609093 -102786215.24497762 0 0 0 0 -219300193.19445419 377855914.7176879 0 377855914.7176879 -323630047.28786695 0 0 0 0 -478473.63825477287 164267.09028323274 0 164267.09028323274 9329.2331550527597 0 0 0 0 -47443587.403270721 -41230324.85874977 0 -41230324.85874977 -114499462.76911789 0 0 0 0 42336803.465335846 -267877195.80142182 0 -267877195.80142182 -90749432.129273787 0 0 0 0 -84072198.7474823 -189445644.51536858 0 -189445644.51536858 106529760.78640431 0 0 0 0 -91175894.287465811 -123545751.58732331 0 -123545751.58732331 93268602.308604524 0 0 0 0 -894672.75800018571 204198.78379787318 0 204198.78379787318 236293.54694314586 0 0 0 0 -1099638.3299341202 -25037685.15969348 0 -25037685.15969348 26531997.109734148 0 0 0 0 -190181413.33335495 -142414527.18874514 0 -142414527.18874514 107108693.77345625 0 0 0 0 -148270092.31498909 -3716164.6859351397 0 -3716164.6859351397 263502861.54396847 0 0 0 0 -1367104.6045840569 521774.85218133521 0 521774.85218133521 -4865.4171048660646 0 0 0 0 -76455432.625448227 197552302.85396761 0 197552302.85396761 311212893.83476067 0 0 0 0 56936068.410118103 13156253.963118643 0 13156253.963118643 165662643.89847392 0 0 0 0 62816061.5383358 -100394311.04871489 0 -100394311.04871489 -45905511.959644824 0 0 0 0 -507595.54865305498 247372.1850819611 0 247372.1850819611 -44487.580264541954 0 0 0 0 43610528.854429245 167084584.80630058 0 167084584.80630058 -85557079.886765718 0 0 0 0 134822311.5187788 93653141.524232805 0 93653141.524232805 -50874344.932138383 0 0 0 0 -822981.1518627461 330145.85518161231 0 330145.85518161231 43039.982312148626 0 0 0 0 -432641610.0083847 -297822719.66413903 0 -297822719.66413903 106485862.32868731 0 0 0 0 -251095217.9558239 474247356.59711039 0 474247356.59711039 -114381527.15152565 0 0 0 0 -50887415.965265274 -202786614.04977107 0 -202786614.04977107 138621898.33481368 0 0 0 0 50007013.571198463 182154224.3759529 0 182154224.3759529 47794292.712201118 0 0 0 0 -87948864.686834335 15499822.965319648 0 15499822.965319648 43152437.08418835 0 0 0 0 -943634111.71366787 -26615602.148999747 0 -26615602.148999747 265530345.61956006 0 0 0 0 -400004681.97855949 24415.93916131556 0 24415.93916131556 188909483.44608459 0 0 0 0 -943821334.70547962 286981162.60533559 0 286981162.60533559 60017273.018702425 0 0 0 0 -318964301.41584826 401739333.69683725 0 401739333.69683725 -476977481.86139202 0 0 0 0 -65698684.657664299 26412258.568632204 0 26412258.568632204 -99475275.538647175 0 0 0 0 -43169264.931690216 101307995.75509217 0 101307995.75509217 -143868667.61300838 0 0 0 0 -378193476.23035693 164815378.92701766 0 164815378.92701766 2631320.5996058881 0 0 0 0 -34766232.763019562 164955537.0627872 0 164955537.0627872 12165720.998260975 0 0 0 0 51498946.184011459 76789864.226053804 0 76789864.226053804 -66389260.264744699 0 0 0 0 -41351290.511180878 85399018.902704448 0 85399018.902704448 -40796624.624296427 0 0 0 0 57768307.972740173 153801099.7424022 0 153801099.7424022 -37070110.463061273 0 0 0 0 54370059.031219482 143035761.4650884 0 143035761.4650884 -29688653.451959498 0 0 0 0 -4351660.1363105774 141444449.56642145 0 141444449.56642145 -8353073.1654354334 0 0 0 0 61050214.487650156 140552905.49175644 0 140552905.49175644 -29142542.621968873 0 0 0 0 5613277.4203224182 109264937.97560309 0 109264937.97560309 59946196.739933379 0 0 0 0 48666341.956083298 206217788.29955217 0 206217788.29955217 -138767676.42826474 0 0 0 0 -1635331.6761300778 880644.34530153009 0 880644.34530153009 148593.45674422325 0 0 0 0 -40182640.386106491 73262687.062213629 0 73262687.062213629 162229142.11329311 0 0 0 0 23858712.999025345 37384488.78283596 0 37384488.78283596 36164611.099015772 0 0 0 0 -39255822.750905991 57767647.852763951 0 57767647.852763951 -62529314.036767542 0 0 0 0 -2002206.7058372758 747746.90889244271 0 747746.90889244271 99798.639292491309 0 0 0 0 24033295.239667892 47897119.896559358 0 47897119.896559358 -76115159.993595183 0 0 0 0 -398160094.08895683 -82336165.748320222 0 -82336165.748320222 322585689.74338806 0 0 0 0 121796886.86244488 234484059.8724705 0 234484059.8724705 -247151276.29572031 0 0 0 0 114682573.59276581 128546181.8986218 0 128546181.8986218 -266005908.23052406 0 0 0 0 -6564543.9055194855 -30190655.965505555 0 -30190655.965505555 -8762005.4333971869 0 0 0 0 -248880.21791898925 516179.95726997522 0 516179.95726997522 -594256.10899541061 0 0 0 0 -167832671.74923211 181812214.8441461 0 181812214.8441461 -154523620.19412833 0 0 0 0 -167102223.95946598 102333523.30464141 0 102333523.30464141 6394669.2651540376 0 0 0 0 -272414302.09928274 192777531.30208632 0 192777531.30208632 -130385765.29412872 0 0 0 0 -175446628.10004807 82924254.740073919 0 82924254.740073919 -85687415.008653179 0 0 0 0 -422199869.43417835 34324104.679581858 0 34324104.679581858 74879889.975925952 0 0 0 0 -180560047.69246221 -307812040.59169912 0 -307812040.59169912 -7299276.0517798122 0 0 0 0 -1023781.030035425 563902.12329233938 0 563902.12329233938 -43983.760873232473 0 0 0 0 -942981905.261693 -36685743.92299667 0 -36685743.92299667 81996449.096035361 0 0 0 0 -19174342.62432003 222661036.89404023 0 222661036.89404023 -151676406.37401497 0 0 0 0 -46458648.892113686 -57378932.771179914 0 -57378932.771179914 -73422097.061635196 0 0 0 0 -45413613.696075439 -40406069.7037763 0 -40406069.7037763 -3119460.1578602563 0 0 0 0 -15777390.548823833 -83516636.326469749 0 -83516636.326469749 -42002815.358121276 0 0 0 0 -31351919.134202957 -69085775.39879638 0 -69085775.39879638 -3613150.8001263142 0 0 0 0 -13521143.109899521 -58783794.035413742 0 -58783794.035413742 19622597.591564775 0 0 0 0 -18812455.176237106 -44726260.978285193 0 -44726260.978285193 37168681.716364145 0 0 0 0 -85002241.266222 -37427412.89685452 0 -37427412.89685452 69156635.950525761 0 0 0 0 -36365638.860800743 -6290193.0223587751 0 -6290193.0223587751 43940121.919116974 0 0 0 0 -212595480.70892906 -36045259.428971171 0 -36045259.428971171 39226859.419389889 0 0 0 0 -41741571.065031052 -31218940.71977675 0 -31218940.71977675 85934945.075824499 0 0 0 0 -54703439.006998062 24787571.961912751 0 24787571.961912751 81798258.603342727 0 0 0 0 26300754.764780045 168887115.61804938 0 168887115.61804938 111558109.04370356 0 0 0 0 -70796430.779245377 136621288.4495315 0 136621288.4495315 -149023907.58646241 0 0 0 0 139000764.51648617 52396007.576178625 0 52396007.576178625 -118212037.91750288 0 0 0 0 -25106070.909086227 10156470.493099928 0 10156470.493099928 -183205867.99400496 0 0 0 0 -73330300.446134567 154049152.62809479 0 154049152.62809479 -108571655.2644245 0 0 0 0 -602687.0812323885 434645.54204877047 0 434645.54204877047 62356.701494615445 0 0 0 0 -170690877.68734968 266285753.59172666 0 266285753.59172666 -429260323.36764783 0 0 0 0 -94406291.976953506 -118275908.5122665 0 -118275908.5122665 191240603.07501397 0 0 0 0 -36817123.556558609 130709274.5484226 0 130709274.5484226 86256340.683258265 0 0 0 0 -95721174.104003906 229543420.30305496 0 229543420.30305496 -71070495.543623805 0 0 0 0 -129658291.96968079 188328333.04236245 0 188328333.04236245 32021717.952046081 0 0 0 0 -318080331.18569946 -36185107.230192885 0 -36185107.230192885 218897101.80117938 0 0 0 0 -219953041.23191071 245164905.14233804 0 245164905.14233804 12662857.876417339 0 0 0 0 -234380062.78384781 62436891.364910096 0 62436891.364910096 -63075326.633062802 0 0 0 0 -252920366.61733246 -65314891.807847366 0 -65314891.807847366 180072774.9003754 0 0 0 0 -258102135.19758415 3590347.7787913606 0 3590347.7787913606 -71723126.163824111 0 0 0 0 -87309860.291115761 89366830.847860783 0 89366830.847860783 -192832726.42098135 0 0 0 0 -272532710.84941769 -93519813.44896397 0 -93519813.44896397 -69155373.72242561 0 0 0 0 24183031.875453949 65976482.868503407 0 65976482.868503407 17931442.205037266 0 0 0 0 -29399250.002607822 -17648610.970928341 0 -17648610.970928341 -87527376.340337634 0 0 0 0 -6213899.3054885864 104993234.61337058 0 104993234.61337058 -70993643.470848203 0 0 0 0 -86708666.766559601 34436399.065890856 0 34436399.065890856 -114339019.78299928 0 0 0 0 -95639014.380366325 55057249.37629351 0 55057249.37629351 -16770022.303862751 0 0 0 0 -78447198.640844345 46635681.842970677 0 46635681.842970677 45945909.930761233 0 0 0 0 -34039880.485462189 98383799.262417614 0 98383799.262417614 -23845723.999393076 0 0 0 0 -23240578.890999794 70061208.295813739 0 70061208.295813739 41653384.923247397 0 0 0 0 -306489076.21656036 214500108.80955601 0 214500108.80955601 -175187949.40629923 0 0 0 0 -393959.37087080069 19865.802929578815 0 19865.802929578815 172655.5142499207 0 0 0 0 -191320158.26052094 -229340309.11948025 0 -229340309.11948025 -193722347.87235284 0 0 0 0 -381462051.01338196 -265464851.04838777 0 -265464851.04838777 -108341242.19591862 0 0 0 0 -306322015.02822113 -139452297.67885303 0 -139452297.67885303 -64114580.777490556 0 0 0 0 -437335949.42964792 -58496592.305107012 0 -58496592.305107012 -46595832.151510358 0 0 0 0 -171759595.67654419 -20599700.924524546 0 -20599700.924524546 -63713511.596936718 0 0 0 0 -191785059.17774582 -5885521.1990182102 0 -5885521.1990182102 -43672949.938785136 0 0 0 0 -28588360.466392517 58562893.484154299 0 58562893.484154299 -39877621.672069132 0 0 0 0 69343344.558200836 -32416278.437938236 0 -32416278.437938236 2209482.3976844465 0 0 0 0 -137813199.76898956 -39533275.948247045 0 -39533275.948247045 -67629225.914296433 0 0 0 0 -157900985.26674652 -64318242.028250344 0 -64318242.028250344 192098.92614465952 0 0 0 0 -167700654.03625298 -45957986.967861548 0 -45957986.967861548 -9896142.4878294468 0 0 0 0 -128640421.68063736 -156105940.89706615 0 -156105940.89706615 -192268051.06590649 0 0 0 0 -156404006.85226631 -112078236.74585682 0 -112078236.74585682 24374746.503428638 0 0 0 0 -62589473.095531464 10198098.492170632 0 10198098.492170632 183681804.27346364 0 0 0 0 -162012965.13832474 -123146116.12947433 0 -123146116.12947433 157618104.78709954 0 0 0 0 -431367.78684196773 130310.70972791221 0 130310.70972791221 393396.03230794449 0 0 0 0 39497270.730432749 58884867.670392938 0 58884867.670392938 64176599.760720611 0 0 0 0 24389771.868641436 -66185488.44324331 0 -66185488.44324331 84651636.175398827 0 0 0 0 -10333581.014469147 1784673.3087799549 0 1784673.3087799549 7373701.7862125933 0 0 0 0 -7287835.2510232925 -11667424.156692386 0 -11667424.156692386 39598657.468416452 0 0 0 0 -27347619.110248566 48358601.580581345 0 48358601.580581345 43953811.067218453 0 0 0 0 -59267334.361712456 32143861.823635228 0 32143861.823635228 86595940.078914016 0 0 0 0 -22162685.353869438 122462268.89463489 0 122462268.89463489 103209983.40648569 0 0 0 0 -53975937.833265305 4376303.1779414117 0 4376303.1779414117 200712057.66797429 0 0 0 0 -8289219.0885066986 -23020107.010170229 0 -23020107.010170229 71279792.964276463 0 0 0 0 4002551.909910202 -10573449.162092507 0 -10573449.162092507 9253545.4684551656 0 0 0 0 -13032911.119441986 3497967.4489426017 0 3497967.4489426017 27146476.017148584 0 0 0 0 -11995802.44313097 6511649.4771212302 0 6511649.4771212302 20217687.102827191 0 0 0 0 -8276396.0324249268 20270550.218063906 0 20270550.218063906 38544560.283194482 0 0 0 0 28963.788993835449 13037417.368589103 0 13037417.368589103 7432645.7303026915 0 0 0 0 -346182.63259267807 34753400.008899949 0 34753400.008899949 17283745.383537769 0 0 0 0 -3355932.9419460297 33026115.683909506 0 33026115.683909506 35340964.65705739 0 0 0 0 -23570383.158180237 -6411221.4027293809 0 -6411221.4027293809 790022.42852598429 0 0 0 0 18600316.035913467 28234621.387853533 0 28234621.387853533 17824720.106970966 0 0 0 0 -1546086.5989492384 115909.04675597697 0 115909.04675597697 -61627.534693672103 0 0 0 0 -8309187.9272346497 -7866347.7953910828 0 -7866347.7953910828 -3110090.6811022609 0 0 0 0 -5177006.0004920959 3813356.4643404707 0 3813356.4643404707 882201.56677412987 0 0 0 0 -6568911.4817657471 1661392.2669619471 0 1661392.2669619471 -1805950.109180063 0 0 0 0 -12975163.327507019 8535387.206984438 0 8535387.206984438 -3233695.8748069108 0 0 0 0 -12160790.382600784 7869634.1193040507 0 7869634.1193040507 -5134143.02930215 0 0 0 0 -11183840.540672302 -1779951.40588516 0 -1779951.40588516 -3475262.6410993338 0 0 0 0 -7960956.1244087219 30419457.377284184 0 30419457.377284184 -76422360.855036557 0 0 0 0 -660471.98792622983 -352810.55615136423 0 -352810.55615136423 240265.6425685026 0 0 0 0 87836.395889282227 8152134.8519652188 0 8152134.8519652188 -36081337.522737086 0 0 0 0 3470517.9091339111 -2278413.697011739 0 -2278413.697011739 -19910748.463047087 0 0 0 0 -8115783.7511940002 -2342838.2045996636 0 -2342838.2045996636 14016767.297150502 0 0 0 0 -10861131.170192719 23343812.433913738 0 23343812.433913738 -12937402.98771736 0 0 0 0 -14486395.730964661 19481541.761907168 0 19481541.761907168 -6635000.5863807201 0 0 0 0 -39087942.104953766 43866671.828013673 0 43866671.828013673 14468030.731306881 0 0 0 0 -18021375.572319031 39144894.350556016 0 39144894.350556016 -42901285.752447575 0 0 0 0 -10218730.138542175 2861553.0019386113 0 2861553.0019386113 4739006.2817390114 0 0 0 0 -31076425.330198288 14083182.246780844 0 14083182.246780844 19884355.519203007 0 0 0 0 -28787071.802494049 19168140.128064208 0 19168140.128064208 -1674207.7117765695 0 0 0 0 -24116795.498235703 13466639.699388936 0 13466639.699388936 5061079.696964696 0 0 0 0 -21220371.94660759 1193863.3194272816 0 1193863.3194272816 -2267206.758196488 0 0 0 0 -18441835.572793961 1633081.3457846381 0 1633081.3457846381 -3205053.6138627827 0 0 0 0 -25384398.463481903 10035764.382900372 0 10035764.382900372 -2888486.3229363039 0 0 0 0 -31381883.832221031 6535253.8171198275 0 6535253.8171198275 -417557.70936461538 0 0 0 0 -41271770.197814941 -1815306.89365438 0 -1815306.89365438 1074918.7574168015 0 0 0 0 -24028682.959251881 11992328.086471787 0 11992328.086471787 723978.14229346812 0 0 0 0 -28224294.030754089 3349288.9970067739 0 3349288.9970067739 2521385.1693620104 0 0 0 0 -14544341.665908813 4889548.0718457513 0 4889548.0718457513 -2336265.3025535643 0 0 0 0 -25245179.733263016 16757606.603307096 0 16757606.603307096 -10335596.458039954 0 0 0 0 -26926834.702503204 3904495.2501011118 0 3904495.2501011118 -10589527.249944959 0 0 0 0 -178839.78122831183 -13754.814242917113 0 -13754.814242917113 -70275.702618731011 0 0 0 0 -92445341.284355164 1622832.4421410896 0 1622832.4421410896 4290744.8465570882 0 0 0 0 -43912286.404075623 -1004584.234679617 0 -1004584.234679617 -3910518.0115429759 0 0 0 0 62343015.806434631 16304706.005021505 0 16304706.005021505 4696679.4589098189 0 0 0 0 106906306.82505417 19583489.84381213 0 19583489.84381213 -34504015.283388898 0 0 0 0 31837565.677752972 41536021.305895865 0 41536021.305895865 -23237599.616353482 0 0 0 0 54489365.486040115 46199130.33235541 0 46199130.33235541 -55396267.274300158 0 0 0 0 44232269.78676796 33175741.750553302 0 33175741.750553302 12832234.472308584 0 0 0 0 9368940.0360975266 72550267.601097196 0 72550267.601097196 -18237211.969011933 0 0 0 0 70474583.35813427 50653075.360070437 0 50653075.360070437 -1600754.9157045484 0 0 0 0 -667843.76527633285 12272.817532894202 0 12272.817532894202 -128038.84188187757 0 0 0 0 -30423571.495737076 24381637.98569119 0 24381637.98569119 31740659.633893728 0 0 0 0 -16128997.434735298 13583053.314381659 0 13583053.314381659 39494556.316300869 0 0 0 0 -11908707.757854462 25252405.782764435 0 25252405.782764435 15975169.126256615 0 0 0 0 -25787135.240875244 21662433.363624334 0 21662433.363624334 15905853.476795197 0 0 0 0 -12969995.014785767 23000013.713372946 0 23000013.713372946 24967873.819163322 0 0 0 0 6314668.223608017 19742687.178572655 0 19742687.178572655 19493814.635834217 0 0 0 0 -5198906.1748008728 26853215.443488836 0 26853215.443488836 23985038.519978225 0 0 0 0 23149347.083150864 40369035.204190254 0 40369035.204190254 19290451.187935829 0 0 0 0 -3073080.5632176902 3185859.3744412763 0 3185859.3744412763 -1714606.3342964351 0 0 0 0 31571290.683143616 13695141.918527238 0 13695141.918527238 1546073.5520585924 0 0 0 0 6438465.3962345123 36297510.769594193 0 36297510.769594193 12511412.484668732 0 0 0 0 10538067.238040924 27820111.088541746 0 27820111.088541746 28955969.693151474 0 0 0 0 -1130139.2996559143 28288293.538863182 0 28288293.538863182 15861587.044177055 0 0 0 0 -77810476.391235352 86746409.177471519 0 86746409.177471519 -72534173.360645771 0 0 0 0 49778246.984916687 22993882.788785458 0 22993882.788785458 4806466.0215148926 0 0 0 0 -36148464.416481018 -50655916.53901346 0 -50655916.53901346 79512424.683253825 0 0 0 0 -68692368.252281189 95529031.985431239 0 95529031.985431239 -60439905.251496226 0 0 0 0 -216086247.7290802 51505450.205472484 0 51505450.205472484 127494576.80631599 0 0 0 0 -42642008.27696991 25513163.37302731 0 25513163.37302731 8603979.6167709306 0 0 0 0 -10097570.915107727 3924519.7097012773 0 3924519.7097012773 6338412.281386666 0 0 0 0 33612629.675848007 -18578680.885408521 0 -18578680.885408521 9867023.4294500947 0 0 0 0 7853373.093503952 5762428.7029965241 0 5762428.7029965241 -6606871.9989252239 0 0 0 0 -3694761.6325483322 8274635.6818723911 0 8274635.6818723911 -4948912.7388496771 0 0 0 0 -5848796.1979999542 12750469.170019021 0 12750469.170019021 -8423195.8576828912 0 0 0 0 8653818.0510368347 5694178.0328475051 0 5694178.0328475051 -7463743.1733977795 0 0 0 0 1017150.0781517029 8275248.8157708254 0 8275248.8157708254 -13474119.339721264 0 0 0 0 -6988206.1486587524 3363870.020331338 0 3363870.020331338 -6507803.0401476994 0 0 0 0 3003461.3646559715 2547194.7790160626 0 2547194.7790160626 -6517250.3856370822 0 0 0 0 1938228.9243391547 2024782.8683855068 0 2024782.8683855068 -1036231.4905716317 0 0 0 0 8852783.1020545959 2215413.3697950095 0 2215413.3697950095 -2573032.4930730248 0 0 0 0 7024598.2289590836 7754744.0027698018 0 7754744.0027698018 -3677688.9518906455 0 0 0 0 6017526.3529262543 7848743.0804408863 0 7848743.0804408863 1902841.6464005471 0 0 0 0 -3175251.8363626003 -466220.04705359042 0 -466220.04705359042 39648130.35959816 0 0 0 0 -1709810.9181175232 6286949.0578149557 0 6286949.0578149557 21382385.901510417 0 0 0 0 -2030950.8462932259 2936942.4306751303 0 2936942.4306751303 -1633865.7206153949 0 0 0 0 -74535218.212543488 -40412787.205351114 0 -40412787.205351114 21530390.951629847 0 0 0 0 -8691212.3478603363 2917199.1609535813 0 2917199.1609535813 -20741732.156212091 0 0 0 0 -209554667.71697235 5241432.7906050682 0 5241432.7906050682 12292215.215807438 0 0 0 0 99521.375294074416 -10597.236841646954 0 -10597.236841646954 -79518.388208428863 0 0 0 0 105874507.65612793 28451824.951346874 0 28451824.951346874 -42749468.071406841 0 0 0 0 -45921844.991161346 23069563.447275877 0 23069563.447275877 52110914.15327692 0 0 0 0 -127738534.48040771 -24933568.573018074 0 -24933568.573018074 102981400.44208765 0 0 0 0 -140091492.72781754 -179842.91005092859 0 -179842.91005092859 64888339.425695896 0 0 0 0 -87203683.008296967 83207721.499431372 0 83207721.499431372 -16100126.033412158 0 0 0 0 -129979365.92501831 5269659.5031557381 0 5269659.5031557381 62620523.396048546 0 0 0 0 -658171.67298882268 470985.04750073748 0 470985.04750073748 -468480.63888937398 0 0 0 0 -109432115.16048241 70038960.939958602 0 70038960.939958602 69633347.285326928 0 0 0 0 -74920163.419893265 18607437.393971398 0 18607437.393971398 111098836.18718739 0 0 0 0 10337953.563972473 8518694.9470653534 0 8518694.9470653534 -65945643.061253786 0 0 0 0 -21771498.040370941 -19466058.5766747 0 -19466058.5766747 -201924090.0617888 0 0 0 0 -141596421.56747818 -101079341.47122073 0 -101079341.47122073 -54610222.117330551 0 0 0 0 33488114.10966301 -57537906.63721168 0 -57537906.63721168 -54705462.436124802 0 0 0 0 -26668764.37317276 -19120496.666340441 0 -19120496.666340441 -36873893.152282953 0 0 0 0 7726395.7246398926 -9341315.5461617708 0 -9341315.5461617708 -62148081.052554369 0 0 0 0 25430672.701852798 -58778130.645927012 0 -58778130.645927012 -17708015.949213266 0 0 0 0 30688339.084213257 -5579497.3480358124 0 -5579497.3480358124 -31555184.88631326 0 0 0 0 -3167.0548215657473 416033.64910972957 0 416033.64910972957 -133733.54975702026 0 0 0 0 17012024.594856262 -30559279.318781137 0 -30559279.318781137 -15899078.689934134 0 0 0 0 18680518.458251953 -21015938.336677909 0 -21015938.336677909 10806751.206881523 0 0 0 0 32093271.87387085 2160893.5091425776 0 2160893.5091425776 521198.82367753983 0 0 0 0 17213300.676452637 10792803.015335798 0 10792803.015335798 2169436.4336808026 0 0 0 0 23561327.874183655 16595045.828434229 0 16595045.828434229 1958675.9614179134 0 0 0 0 9705953.8434174061 15844310.964897417 0 15844310.964897417 -7800128.3506733179 0 0 0 0 36233953.285804749 -1688861.9866628647 0 -1688861.9866628647 2976778.5958616138 0 0 0 0 57919018.957275391 -305506.70925135911 0 -305506.70925135911 3054412.8301492566 0 0 0 0 44353166.28414917 23434783.409324147 0 23434783.409324147 8274379.7042960096 0 0 0 0 31845456.251079082 23842671.754504137 0 23842671.754504137 8269012.8726149797 0 0 0 0 19596494.414070129 24192638.13986893 0 24192638.13986893 15137574.597300082 0 0 0 0 23582346.646697998 25317027.886238519 0 25317027.886238519 15389419.50740755 0 0 0 0 -4347424.5382537339 984082.71137009142 0 984082.71137009142 572321.75695089786 0 0 0 0 19239847.067892075 21828397.736306459 0 21828397.736306459 13192784.766997665 0 0 0 0 -1253359.668644581 1568605.1473363424 0 1568605.1473363424 564140.65360268741 0 0 0 0 16564854.008262634 17609619.376321793 0 17609619.376321793 7116412.8823354244 0 0 0 0 24025785.721481323 25516542.365313649 0 25516542.365313649 12977601.396371961 0 0 0 0 -21624121.459817886 -6493077.3921178579 0 -6493077.3921178579 3455304.8613747954 0 0 0 0 13909210.145605087 30092614.820315719 0 30092614.820315719 -14223518.458754063 0 0 0 0 4489003.8700408936 -12570214.157658041 0 -12570214.157658041 1902545.1247245073 0 0 0 0 1059742.8466644287 1689779.7611057088 0 1689779.7611057088 7064636.345655784 0 0 0 0 3115730.9877653122 3615350.4183342587 0 3615350.4183342587 -14007096.806125462 0 0 0 0 2329882.9627534263 1926485.2306200517 0 1926485.2306200517 -905188.05682406842 0 0 0 0 -5843997.9212207794 10963584.162897825 0 10963584.162897825 -4491792.7742323875 0 0 0 0 -3183092.1033888385 2361183.3647278948 0 2361183.3647278948 905422.7029757686 0 0 0 0 -1852213.6671361923 1883373.3669841588 0 1883373.3669841588 296590.25606274605 0 0 0 0 -804645.78438854218 1005674.3477011323 0 1005674.3477011323 -402253.14683794975 0 0 0 0 -190237.08033943176 2629725.9056929946 0 2629725.9056929946 -1722008.5413007736 0 0 0 0 -3280206.1776046753 2747886.2313272953 0 2747886.2313272953 -1122162.5415222645 0 0 0 0 -1280471.3936882019 2513526.967325449 0 2513526.967325449 -1263402.9517409801 0 0 0 0 -2359278.913394928 2104761.1102368832 0 2104761.1102368832 1480381.7741798759 0 0 0 0 -5038214.9059638977 3587486.6070541441 0 3587486.6070541441 2671566.858402133 0 0 0 0 -3939804.9366912842 3719508.2778408527 0 3719508.2778408527 -76320.857301771641 0 0 0 0 -3695103.2432756424 3982139.7464690506 0 3982139.7464690506 -1584473.4514722824 0 0 0 0 -7526399.5737953186 5765000.7655480504 0 5765000.7655480504 1519440.6380488873 0 0 0 0 -5026487.4053497314 3466493.9157404006 0 3466493.9157404006 3073443.1520125568 0 0 0 0 -13850130.854179382 6706254.6542555392 0 6706254.6542555392 4937080.3957524896 0 0 0 0 -7298310.2144584656 1480967.0593099594 0 1480967.0593099594 8247402.0945136249 0 0 0 0 -7612003.7142724991 4799490.9226720445 0 4799490.9226720445 -695615.8757956028 0 0 0 0 -10152008.650913239 -25257.304756879807 0 -25257.304756879807 4236981.0188452005 0 0 0 0 -13168217.397796631 6027248.7537776232 0 6027248.7537776232 -889848.87129187584 0 0 0 0 -3285078.9036140442 3686879.5435060263 0 3686879.5435060263 -518712.73327112198 0 0 0 0 -7574596.754196167 1203442.4133710861 0 1203442.4133710861 -4852020.7743845582 0 0 0 0 -6234345.5288772583 5514736.895729661 0 5514736.895729661 -6132822.6687729359 0 0 0 0 -2852659.612411499 3390258.4541121721 0 3390258.4541121721 -2761643.3929457664 0 0 0 0 -6349919.5741577148 4524630.5679476261 0 4524630.5679476261 -1494433.1919761896 0 0 0 0 -6846190.6422424316 3005058.7987086773 0 3005058.7987086773 -590314.16760516167 0 0 0 0 -11919855.754318237 5061849.3941487074 0 5061849.3941487074 -7571630.2126140594 0 0 0 0 -8199162.6090240479 -14391236.044939041 0 -14391236.044939041 -5095310.557020396 0 0 0 0 -25287618.268035889 12340669.98030138 0 12340669.98030138 -18713058.240117311 0 0 0 0 15997970.421279907 -9452607.3138360977 0 -9452607.3138360977 -44939130.221950769 0 0 0 0 -65786564.218856812 19103156.137833118 0 19103156.137833118 -8334379.1876621246 0 0 0 0 20353794.356114388 18157271.594318658 0 18157271.594318658 -69646606.859848976 0 0 0 0 -29121109.377054214 41839912.451723069 0 41839912.451723069 -46465299.901820183 0 0 0 0 -41025081.199729919 684668.70809412003 0 684668.70809412003 -3010770.7842526436 0 0 0 0 -27401886.016983032 4602466.072280407 0 4602466.072280407 -3620823.4171898514 0 0 0 0 -14133753.42016983 8887801.8638830185 0 8887801.8638830185 -8531542.3257141113 0 0 0 0 -22448994.503257751 16023609.364830494 0 16023609.364830494 -24279374.783128023 0 0 0 0 -18988027.647102356 3042163.5953320265 0 3042163.5953320265 -5419150.1767623425 0 0 0 0 -21470391.340019226 6773035.1061147451 0 6773035.1061147451 3211017.1769560575 0 0 0 0 -25801179.757583618 1762637.2314754725 0 1762637.2314754725 1408020.4779670238 0 0 0 0 -14525391.214355469 -822945.77402545139 0 -822945.77402545139 11200012.896859884 0 0 0 0 -21622929.541763306 -499503.57851171494 0 -499503.57851171494 17015517.746230006 0 0 0 0 -39475837.438209534 -5061108.0054363906 0 -5061108.0054363906 3395551.5274372101 0 0 0 0 -19337052.898015976 -7384769.8976391554 0 -7384769.8976391554 2342233.1378200054 0 0 0 0 -5328481.0004997253 -6715703.0396441817 0 -6715703.0396441817 -10297922.701858878 0 0 0 0 -18275777.826635361 -20401509.29692924 0 -20401509.29692924 -15618453.604188204 0 0 0 0 -11215495.817968369 -6981003.3113721237 0 -6981003.3113721237 6294955.1097512543 0 0 0 0 44418203.015796661 36751717.934493005 0 36751717.934493005 -20430005.466673434 0 0 0 0 -1720797.5751342773 11509035.922053516 0 11509035.922053516 -19493229.578537464 0 0 0 0 -2934964.8402398899 211820.59653154254 0 211820.59653154254 276056.29550921399 0 0 0 0 -532637.52409387752 -126252.72064067377 0 -126252.72064067377 115504.93018410192 0 0 0 0 -51131425.253059387 -22366249.010004103 0 -22366249.010004103 -7368840.1182132959 0 0 0 0 36644689.907909393 32826625.255521595 0 32826625.255521595 28223585.515486225 0 0 0 0 343548.17697505094 293615.74357632891 0 293615.74357632891 -140386.82290187117 0 0 0 0 42444197.75510025 -11627974.955006748 0 -11627974.955006748 -2612068.075086087 0 0 0 0 102522268.03028488 31567715.946466625 0 31567715.946466625 -14938461.195594907 0 0 0 0 120470209.67765427 -46225055.055385113 0 -46225055.055385113 -100904158.78812164 0 0 0 0 107638188.57360268 -7915093.5168491658 0 -7915093.5168491658 -74181143.045226246 0 0 0 0 84379909.78437233 -20695742.540097706 0 -20695742.540097706 -19962522.248510748 0 0 0 0 51006157.464165688 7207945.0274494793 0 7207945.0274494793 -18746163.239080455 0 0 0 0 -8025082.3898353577 15958157.700089633 0 15958157.700089633 -3989954.8559074849 0 0 0 0 -55331920.339637756 33230089.293598764 0 33230089.293598764 -14251597.621422142 0 0 0 0 -11741557.744724274 22072874.282382712 0 22072874.282382712 -31239713.721557364 0 0 0 0 -15870992.1814785 -1272491.3726586252 0 -1272491.3726586252 -8321986.3917274773 0 0 0 0 7621479.6924991608 -10738835.68616423 0 -10738835.68616423 -4020403.9694826305 0 0 0 0 -9206680.2161979675 13525005.946315803 0 13525005.946315803 -18890866.777492307 0 0 0 0 -21628020.224433899 2714255.5945180357 0 2714255.5945180357 -6355962.1282255575 0 0 0 0 8755113.6288585663 6382790.0943659991 0 6382790.0943659991 -11970895.041850418 0 0 0 0 -16271990.143194199 11520325.810321718 0 11520325.810321718 9182271.62214531 0 0 0 0 -3158442.1489753723 -575228.64932191372 0 -575228.64932191372 -3118896.8588430285 0 0 0 0 1044337.9953910634 1101674.1668096096 0 1101674.1668096096 -525524.2479946746 0 0 0 0 -3417202.6860129833 -4333737.6130550578 0 -4333737.6130550578 6663059.3033554554 0 0 0 0 -5727686.4527816772 3902452.0939619541 0 3902452.0939619541 -3913817.1509976387 0 0 0 0 -7346870.1596450806 2466403.6693272591 0 2466403.6693272591 3558571.8935360909 0 0 0 0 744371.52217483521 4791189.7665138245 0 4791189.7665138245 2809317.4332073927 0 0 0 0 -2449266.5841376707 1437703.3401490343 0 1437703.3401490343 594823.32964724628 0 0 0 0 -4848251.3158721924 155985.69623661041 0 155985.69623661041 2198547.7913143635 0 0 0 0 -2602258.7216529846 2734978.145221591 0 2734978.145221591 -497004.51106360555 0 0 0 0 -373952.4459645329 144903.833704249 0 144903.833704249 131022.50021687913 0 0 0 0 -3401039.3262424469 1823776.3507765904 0 1823776.3507765904 2187882.8810808659 0 0 0 0 -2132071.1647758484 1997482.0805253983 0 1997482.0805253983 283092.90947701037 0 0 0 0 -3100223.5895309448 2887914.6892581508 0 2887914.6892581508 2291092.8491136432 0 0 0 0 -1651533.1358108521 42489.503512322903 0 42489.503512322903 2939153.7163588852 0 0 0 0 -4908452.1482076645 -2555886.5746705532 0 -2555886.5746705532 5178007.5493359566 0 0 0 0 -9813276.1100196838 7934927.6565748453 0 7934927.6565748453 1961481.8370906711 0 0 0 0 -2059954.3181632068 1383375.3090705876 0 1383375.3090705876 754580.67451231484 0 0 0 0 -8092603.4693756104 9365850.0486528873 0 9365850.0486528873 -2222652.3229011893 0 0 0 0 -2460950.5250298735 1583838.8374746377 0 1583838.8374746377 1093729.2520608383 0 0 0 0 -8447357.8462562561 11617996.172322989 0 11617996.172322989 -5997060.6074421406 0 0 0 0 5949809.0051040649 -9512927.0117835999 0 -9512927.0117835999 13667551.276902139 0 0 0 0 -268331.54365861043 -473112.39638260333 0 -473112.39638260333 496956.44471265847 0 0 0 0 26596885.280179977 -22375134.607741266 0 -22375134.607741266 8493845.428296566 0 0 0 0 8901333.2438812256 161935.27917814255 0 161935.27917814255 -853057.94438290596 0 0 0 0 5470653.3367614746 -930554.37458378077 0 -930554.37458378077 -261163.4034614563 0 0 0 0 47034283.032632828 -1101622.3295249939 0 -1101622.3295249939 -33599711.350157738 0 0 0 0 -2559643.394351244 7773916.0457868744 0 7773916.0457868744 12590697.993861318 0 0 0 0 37111267.83814621 13705022.206527948 0 13705022.206527948 3842670.7824003696 0 0 0 0 53698492.62768364 -25434054.410743117 0 -25434054.410743117 -18874763.855782211 0 0 0 0 54210782.465425491 -36931171.965627432 0 -36931171.965627432 -11625028.305102944 0 0 0 0 24418201.213927448 -11940191.217930708 0 -11940191.217930708 1761786.4243741035 0 0 0 0 23071120.927410543 -43392698.920329928 0 -43392698.920329928 24216417.728616238 0 0 0 0 -3367046.1948262686 1615703.1023220476 0 1615703.1023220476 871098.88741864241 0 0 0 0 6454525.856970787 -17877345.905863523 0 -17877345.905863523 25692946.795061588 0 0 0 0 -1292244.0504074097 848558.13013583422 0 848558.13013583422 960300.89883254841 0 0 0 0 -1643562.4417667389 794119.37422394753 0 794119.37422394753 981038.50242316723 0 0 0 0 -3020040.7713413239 737363.26535223401 0 737363.26535223401 1967011.6694449913 0 0 0 0 -3097274.2696027756 746660.00015568733 0 746660.00015568733 3361362.9955685735 0 0 0 0 -2698167.2909141118 1549411.8520491442 0 1549411.8520491442 173745.40212014175 0 0 0 0 -93122.085385503247 -118769.61591933461 0 -118769.61591933461 216276.42375045246 0 0 0 0 1187648.4633312225 -2824746.981978476 0 -2824746.981978476 1440429.1082252115 0 0 0 0 -1170093.6348867416 3955794.1545523703 0 3955794.1545523703 -6495517.1343188882 0 0 0 0 -4796070.2348861694 12047143.789917186 0 12047143.789917186 6505643.7300980836 0 0 0 0 -4568071.3045544624 1146517.7252144217 0 1146517.7252144217 6269907.0533590317 0 0 0 0 -4589702.9254954448 824186.0276795486 0 824186.0276795486 977545.53341331799 0 0 0 0 1170266.3383483887 -2855452.7989301682 0 -2855452.7989301682 -987406.91879701614 0 0 0 0 1399486.0876488686 -4302945.8084759563 0 -4302945.8084759563 4185095.6254281998 0 0 0 0 -4577400.822314743 646044.32301515201 0 646044.32301515201 989560.70338666532 0 0 0 0 2574054.2484493256 108444.56351959705 0 108444.56351959705 -314728.73471486568 0 0 0 0 -3032735.5900541265 421914.73002171447 0 421914.73002171447 778155.04104525666 0 0 0 0 -11608709.573147774 4239569.7996896803 0 4239569.7996896803 9526623.657028079 0 0 0 0 -3083072.1988487244 2460911.5632694662 0 2460911.5632694662 4257297.5680617243 0 0 0 0 -20052673.127943039 2218112.0952116847 0 2218112.0952116847 9180636.4422600716 0 0 0 0 -2079822.9167327881 2528868.0773016661 0 2528868.0773016661 2437254.426929459 0 0 0 0 3765879.6443116665 8981025.9844317827 0 8981025.9844317827 1211026.8684185147 0 0 0 0 -2962101.5440750532 535030.66587703687 0 535030.66587703687 521496.14624318719 0 0 0 0 -7253029.4068260193 -5776305.9448742867 0 -5776305.9448742867 18223771.222805858 0 0 0 0 -26429660.884317398 -9121515.0737707168 0 -9121515.0737707168 9205610.6669902727 0 0 0 0 -31260.592646248639 42051.252331918164 0 42051.252331918164 71525.569706206035 0 0 0 0 15123079.509904861 -5852493.3921898007 0 -5852493.3921898007 -14864275.670307428 0 0 0 0 -5713070.2036838531 -6043739.2184461355 0 -6043739.2184461355 -4127102.0755393505 0 0 0 0 265926.54564857483 2219079.0582616329 0 2219079.0582616329 8849443.2969932556 0 0 0 0 -4056365.516046524 -3177802.3661696911 0 -3177802.3661696911 3636013.382573843 0 0 0 0 2816865.3827478886 -4011067.1396775246 0 -4011067.1396775246 3327294.8501944542 0 0 0 0 3872871.7440853119 3243160.3227497339 0 3243160.3227497339 3600725.6599297523 0 0 0 0 -3729658.6447200775 -9296195.1288169622 0 -9296195.1288169622 8275183.3038439751 0 0 0 0 -6622808.1358671188 -2228779.5212322474 0 -2228779.5212322474 -432025.85753774643 0 0 0 0 -3264603.1451396942 1665250.3288931847 0 1665250.3288931847 3525121.0586681366 0 0 0 0 -5866111.5124773979 -416153.23428079486 0 -416153.23428079486 -10390640.746786833 0 0 0 0 -16660640.781474113 -5600056.3916742802 0 -5600056.3916742802 2469886.3513357639 0 0 0 0 -14583804.675955772 7554979.5190293789 0 7554979.5190293789 -1654858.7863836288 0 0 0 0 -1775667.7711229702 470139.70314956433 0 470139.70314956433 -167644.42787223367 0 0 0 0 -7350256.0048418045 6229818.2973802686 0 6229818.2973802686 -8202122.7744948864 0 0 0 0 -9272614.8397092819 5270839.5138232708 0 5270839.5138232708 -1541553.4808819294 0 0 0 0 -5782962.378408432 2750673.1679079533 0 2750673.1679079533 -1901721.4930680692 0 0 0 0 -4371926.6902890205 -54142.887655079365 0 -54142.887655079365 -819158.32244491577 0 0 0 0 -1430558.172504425 1397803.9964022636 0 1397803.9964022636 -186054.70973098278 0 0 0 0 -3286831.6508338451 -3256219.6115097106 0 -3256219.6115097106 3413931.2048294544 0 0 0 0 -5479236.5455036163 -1534217.030929029 0 -1534217.030929029 885293.51098421216 0 0 0 0 -3544687.9583711624 -1878169.6972699165 0 -1878169.6972699165 624861.89487272501 0 0 0 0 -4724769.5172610283 -1788425.9569544196 0 -1788425.9569544196 5903423.3352110386 0 0 0 0 -3578363.3376340866 -1105613.9789274931 0 -1105613.9789274931 464252.76754701138 0 0 0 0 -4008463.428965807 -2250215.6539862901 0 -2250215.6539862901 2512976.1749532223 0 0 0 0 -3728371.0089530945 -2593921.331171751 0 -2593921.331171751 2615443.7985100746 0 0 0 0 -2580808.6184005737 253015.67848849297 0 253015.67848849297 4742291.9943711758 0 0 0 0 -427000.10670471191 -508970.74694180489 0 -508970.74694180489 1535920.7965360582 0 0 0 0 -2469449.1506281495 -1738794.959218882 0 -1738794.959218882 1429259.7114531994 0 0 0 0 -1592488.0043958072 36209.879949230351 0 36209.879949230351 506061.94748447882 0 0 0 0 2348073.5590639114 2239789.0915469564 0 2239789.0915469564 -240079.06098862179 0 0 0 0 -160814.3911559945 168431.03311188484 0 168431.03311188484 122002.08469187797 0 0 0 0 -1846589.5995864868 1295843.8128282726 0 1295843.8128282726 3793392.3614240587 0 0 0 0 -1489869.0130990613 -592216.55112735659 0 -592216.55112735659 1042468.5389002706 0 0 0 0 -1963144.016813403 1456227.3659968763 0 1456227.3659968763 52506.244174881387 0 0 0 0 -1260895.6436195374 -1580061.1129988134 0 -1580061.1129988134 2298225.4341020361 0 0 0 0 -2761087.909545687 424543.01298134506 0 424543.01298134506 637991.9852405031 0 0 0 0 -4485254.8637561798 382363.34139740467 0 382363.34139740467 7458053.812046051 0 0 0 0 -2984419.1498508453 -6546141.2897186279 0 -6546141.2897186279 8463773.2231142521 0 0 0 0 -393149.54858748009 -581031.0251553962 0 -581031.0251553962 487690.42845939565 0 0 0 0 -6741224.171125412 590849.89378368855 0 590849.89378368855 10290463.319049679 0 0 0 0 -8285507.9023180008 3211308.4373492002 0 3211308.4373492002 -6083.5762567520142 0 0 0 0 -7748122.8003976345 3498883.0898506641 0 3498883.0898506641 -172846.33983421326 0 0 0 0 -18337834.461446762 9514985.9372119792 0 9514985.9372119792 2901179.1618331075 0 0 0 0 -7775949.3621120453 -4834333.5245386288 0 -4834333.5245386288 4706248.2684141994 0 0 0 0 -7998143.1418340206 3021743.9396665096 0 3021743.9396665096 -581276.62456130981 0 0 0 0 -7075952.4528900767 1345279.1213362429 0 1345279.1213362429 1205128.672639851 0 0 0 0 -5205404.1884937286 -1747948.5272088647 0 -1747948.5272088647 8457657.8257469609 0 0 0 0 -1591331.6322421385 411627.98402673658 0 411627.98402673658 370133.12737546908 0 0 0 0 -8413737.5626544952 -16134016.17924105 0 -16134016.17924105 20250828.114236433 0 0 0 0 -8829454.076133728 1442280.516818434 0 1442280.516818434 9418095.0454955697 0 0 0 0 -5376645.9372493094 -408221.18963834527 0 -408221.18963834527 1376137.7368073575 0 0 0 0 -9097194.6656208038 3710656.463566184 0 3710656.463566184 -348544.83062839508 0 0 0 0 -8471316.8401899338 2856614.801450491 0 2856614.801450491 -182849.8539147377 0 0 0 0 -8639042.8754329681 5280554.2700204849 0 5280554.2700204849 1365086.6292748451 0 0 0 0 -4406299.3476717742 1427643.4672189737 0 1427643.4672189737 1307220.9131611416 0 0 0 0 -2433816.6717987061 -1873328.6534450054 0 -1873328.6534450054 3778061.3491481543 0 0 0 0 -11865736.442443848 1964368.8321361542 0 1964368.8321361542 -1601728.4086699486 0 0 0 0 -306255.13879042957 -499057.68673616054 0 -499057.68673616054 282679.90779043071 0 0 0 0 -2110019.9959745407 13156779.675126672 0 13156779.675126672 4583164.8716728687 0 0 0 0 -6857199.5894813538 -926598.86077401042 0 -926598.86077401042 11238855.316521525 0 0 0 0 -8553247.4333124161 4354796.7677693069 0 4354796.7677693069 6302193.1121284962 0 0 0 0 -6022517.0119175911 2258595.9925991669 0 2258595.9925991669 7338680.3131432533 0 0 0 0 -6610205.8763389587 2630062.7484834194 0 2630062.7484834194 7446584.1252870709 0 0 0 0 -3380553.8972572535 -247096.08154159389 0 -247096.08154159389 971390.50674210652 0 0 0 0 -2886623.7882223129 737519.7824578546 0 737519.7824578546 5116944.7167913914 0 0 0 0 4599367.3603797555 -1214301.6708895219 0 -1214301.6708895219 4771736.9821588397 0 0 0 0 -3344250.6844501831 1125413.7057856247 0 1125413.7057856247 655733.62704320077 0 0 0 0 -19995973.611427307 -4199081.1055545807 0 -4199081.1055545807 5628581.4668931961 0 0 0 0 -8983971.1765460968 16571033.494134426 0 16571033.494134426 11167506.020661533 0 0 0 0 -9278503.1389932632 5133794.6305881143 0 5133794.6305881143 -2568308.3059126139 0 0 0 0 -8738331.2024817467 4896774.6853321195 0 4896774.6853321195 -3164570.682708025 0 0 0 0 -19830951.021069527 11607923.400142789 0 11607923.400142789 12127476.128098011 0 0 0 0 -576472.62889174628 48531.038639288396 0 48531.038639288396 38090.833190235891 0 0 0 0 -11333659.304588795 6389271.94211483 0 6389271.94211483 -3221715.1492586732 0 0 0 0 -3351605.5295380708 441684.88056496694 0 441684.88056496694 966873.03728471498 0 0 0 0 -7942180.995513916 3641570.5394518375 0 3641570.5394518375 -1081984.4602378607 0 0 0 0 -9192401.1874990463 4196595.6237475872 0 4196595.6237475872 -1208060.7502394319 0 0 0 0 -3279460.851901785 697149.71562051307 0 697149.71562051307 1143492.177897956 0 0 0 0 -8872359.843079567 3190354.5628840029 0 3190354.5628840029 -217862.9854426384 0 0 0 0 -8100373.4194326401 3197703.6990897655 0 3197703.6990897655 -889023.43360507488 0 0 0 0 -8026204.1987680886 1451203.3127927671 0 1451203.3127927671 2756749.0319381603 0 0 0 0 -8078331.6847893298 2832900.9661079571 0 2832900.9661079571 262485.7803902626 0 0 0 0 4167839.2981467247 -147818.95777463913 0 -147818.95777463913 2583413.9749641418 0 0 0 0 -48881159.3748703 -23435903.499567032 0 -23435903.499567032 -19271914.129091203 0 0 0 0 -2223340.6565828323 -26492183.87605238 0 -26492183.87605238 -65500325.029045105 0 0 0 0 -22520133.551501274 -26918021.905282497 0 -26918021.905282497 30144712.097293854 0 0 0 0 -8645148.5221214294 -34626659.045621872 0 -34626659.045621872 -19892199.492992282 0 0 0 0 -24740031.448979855 -20703398.008783817 0 -20703398.008783817 77568811.173118591 0 0 0 0 7429264.9021205902 -37235861.90665102 0 -37235861.90665102 32185568.885629654 0 0 0 0 -7437645.9480043855 949984.59826815757 0 949984.59826815757 3168393.4247835558 0 0 0 0 -8257927.8791484833 3003717.9780359268 0 3003717.9780359268 -725537.41065704823 0 0 0 0 -7572813.9568371773 -52558700.101960897 0 -52558700.101960897 64193348.861152649 0 0 0 0 -5293601.8124120235 -22325627.05247879 0 -22325627.05247879 55629214.444953918 0 0 0 0 390208.94026470184 -20993230.129171371 0 -20993230.129171371 -10581322.808929443 0 0 0 0 810856.35119438171 -8427157.5248088837 0 -8427157.5248088837 -7709275.1564478874 0 0 0 0 9213900.4462399483 -25945468.290196896 0 -25945468.290196896 24942800.977715492 0 0 0 0 -8213429.1550246477 3295286.0930646956 0 3295286.0930646956 -1490933.409640789 0 0 0 0 -7917296.933169961 3597337.5264632404 0 3597337.5264632404 -1676385.2081284523 0 0 0 0 -7626963.3816230297 3525449.3854159117 0 3525449.3854159117 -1690440.7271523476 0 0 0 0 -7732836.3395657539 3408786.1354982853 0 3408786.1354982853 -1619588.7517234087 0 0 0 0 -6950666.3472056938 644755.96625685599 0 644755.96625685599 3586138.9723760886 0 0 0 0 8571027.1895464659 -4106663.3153810203 0 -4106663.3153810203 -7585285.6261386871 0 0 0 0 586107.58014440536 -3710169.3270969391 0 -3710169.3270969391 1825910.8618555069 0 0 0 0 -3999715.2796983719 -2310331.7079825401 0 -2310331.7079825401 9425224.0662505627 0 0 0 0 -2260328.8901067972 -3165566.1067639589 0 -3165566.1067639589 4852689.9379835129 0 0 0 0 57598.469593939371 -931264.83112284262 0 -931264.83112284262 783018.53469507757 0 0 0 0 13934366.198344231 -2134047.9455528259 0 -2134047.9455528259 -33717361.165319443 0 0 0 0 4427642.2419090271 960920.90209197998 0 960920.90209197998 -26536736.474874973 0 0 0 0 -563967.53426701576 -569459.28715671366 0 -569459.28715671366 393701.69192841148 0 0 0 0 -228537.17315483093 2408646.476817131 0 2408646.476817131 6422165.5578145981 0 0 0 0 -5020239.2667162418 5051436.9215848446 0 5051436.9215848446 5158758.4409732819 0 0 0 0 2480540.0615549088 5208467.2038054466 0 5208467.2038054466 1040281.559715271 0 0 0 0 -31715474.360786676 15171270.453732848 0 15171270.453732848 -16586514.811273575 0 0 0 0 4088881.977350235 2248666.8278346062 0 2248666.8278346062 2647829.2431125641 0 0 0 0 -299744.55212682486 236644.88610282564 0 236644.88610282564 1554209.0093519026 0 0 0 0 -37367375.779247761 12368385.995331287 0 12368385.995331287 -11406863.794586182 0 0 0 0 -59015688.512546539 22423586.804310799 0 22423586.804310799 -10117033.599485397 0 0 0 0 -30988887.419900894 9031870.7788410187 0 9031870.7788410187 21923796.948745728 0 0 0 0 -33388891.18296957 28357445.161486626 0 28357445.161486626 -17041235.905765533 0 0 0 0 -58303864.476881027 9615161.6596260071 0 9615161.6596260071 14580244.081251144 0 0 0 0 -750.97026917571202 12971.155897360295 0 12971.155897360295 29997.877740051132 0 0 0 0 -11690544.987609863 25622792.835067749 0 25622792.835067749 -54631280.194616318 0 0 0 0 -199744.35569945024 -284595.35249945603 0 -284595.35249945603 183524.85578719992 0 0 0 0 -33087526.595054626 6541101.6153717041 0 6541101.6153717041 1031055.0294833183 0 0 0 0 -47093541.028447151 -33408332.741549969 0 -33408332.741549969 -32606321.579563141 0 0 0 0 -6073832.5074577332 -2716716.2680018544 0 -2716716.2680018544 2944476.138815403 0 0 0 0 -8962008.9465312958 4284604.9160263538 0 4284604.9160263538 -4119716.05601421 0 0 0 0 -9830241.6246757507 5063755.614292562 0 5063755.614292562 12704374.171679884 0 0 0 0 -30831914.045451164 -17069115.448483624 0 -17069115.448483624 18011906.299782433 0 0 0 0 -207949.70978054986 -114124.1361462886 0 -114124.1361462886 3200.5581846134155 0 0 0 0 -2121900.5542669296 11410790.684334159 0 11410790.684334159 -6154512.1050720215 0 0 0 0 -7980062.3631420135 -10638985.233970977 0 -10638985.233970977 2693313.3285776377 0 0 0 0 -5860323.4910311699 -2732121.7810650766 0 -2732121.7810650766 -725437.81564760208 0 0 0 0 -3882690.4958734512 -2587414.8009967804 0 -2587414.8009967804 -1276867.1930128336 0 0 0 0 -4568998.9443302155 -398887.98795545101 0 -398887.98795545101 -1265713.4500564337 0 0 0 0 -8181652.991566658 169263.43316352367 0 169263.43316352367 -818895.07113981247 0 0 0 0 -9692028.1167535782 1466005.1251884103 0 1466005.1251884103 -1475639.57835114 0 0 0 0 -11405663.165008545 4518867.5173405111 0 4518867.5173405111 -1558556.637338446 0 0 0 0 -4001196.6481742817 1606069.2879391045 0 1606069.2879391045 -839288.90403507813 0 0 0 0 -2642953.2460157061 -348020.99610928749 0 -348020.99610928749 987178.17029776506 0 0 0 0 -6173357.5016847057 161046.4065901842 0 161046.4065901842 4017221.0213464852 0 0 0 0 -3956273.2615282536 1063898.0108485222 0 1063898.0108485222 -29751.241996765137 0 0 0 0 -7140728.7334003448 3477574.6919660568 0 3477574.6919660568 -2669246.1501522064 0 0 0 0 -7133637.5111393929 3799466.3223451376 0 3799466.3223451376 -2738345.591204375 0 0 0 0 -9416595.5101165771 -340993.97381618619 0 -340993.97381618619 1317254.8793738484 0 0 0 0 -4339582.2547591571 1860352.5778689545 0 1860352.5778689545 -1286372.8354139072 0 0 0 0 -3147636.8108844757 1083443.1526350975 0 1083443.1526350975 -270518.38076972961 0 0 0 0 -860572.77825294365 -1499116.4890926343 0 -1499116.4890926343 1911289.3213128082 0 0 0 0 -1934013.5614740252 -212056.61669689417 0 -212056.61669689417 143632.82528710365 0 0 0 0 -1746999.6411888599 -755832.99802422523 0 -755832.99802422523 1819926.4427032471 0 0 0 0 11369766.29564476 -9921824.5696926117 0 -9921824.5696926117 15292379.412372589 0 0 0 0 -8284255.247301857 1638271.1388878641 0 1638271.1388878641 1940810.862428084 0 0 0 0 567129.54669249523 -477222.84771726397 0 -477222.84771726397 364197.23578997748 0 0 0 0 6680693.751026988 -20247602.455748439 0 -20247602.455748439 15350532.123491287 0 0 0 0 1225965.0325088501 -16252642.453531265 0 -16252642.453531265 25724072.14755249 0 0 0 0 6121083.8511562347 -7857924.21667099 0 -7857924.21667099 3292396.1855039597 0 0 0 0 971426.21935963072 -2399663.8951784763 0 -2399663.8951784763 1538804.0199289867 0 0 0 0 4953795.2618675232 -4533901.0029697418 0 -4533901.0029697418 3046262.6406345367 0 0 0 0 -362344.72363853455 -3502121.483168602 0 -3502121.483168602 4204284.0154867172 0 0 0 0 -1591050.6235752106 -47043.72777223587 0 -47043.72777223587 1187147.7693229914 0 0 0 0 -2269878.4495740086 -544677.82985535881 0 -544677.82985535881 1523897.9287469396 0 0 0 0 -2788406.181499958 96379.331823825836 0 96379.331823825836 2035323.9234609604 0 0 0 0 -164652.78234692477 -1607567.5526226871 0 -1607567.5526226871 2240600.7489186293 0 0 0 0 -47546.428859710693 -808229.08188343048 0 -808229.08188343048 1018212.7429103851 0 0 0 0 -1579264.3572795831 197639.17941821745 0 197639.17941821745 589183.49150107102 0 0 0 0 -5516633.8923111819 345664.62766098633 0 345664.62766098633 2529056.527456407 0 0 0 0 -2045094.3895354271 -2163900.4275152683 0 -2163900.4275152683 3140074.9754734039 0 0 0 0 82660.614843115909 -304554.25286117708 0 -304554.25286117708 225319.34125940368 0 0 0 0 823290.61658287048 579892.03964710236 0 579892.03964710236 1232030.3557734489 0 0 0 0 -3550452.9672570229 -3377391.7721512318 0 -3377391.7721512318 3803127.2566354275 0 0 0 0 -7885013.7357759476 8847577.6634984165 0 8847577.6634984165 -1476662.3120259643 0 0 0 0 -8240405.6923474669 4578007.7240935378 0 4578007.7240935378 -10029978.76227887 0 0 0 0 -3621302.0255991928 125442.85073981481 0 125442.85073981481 739072.33006579417 0 0 0 0 -5916960.2948637009 12013969.604713563 0 12013969.604713563 -1580782.1269759238 0 0 0 0 -841648.17931318283 4705150.6792210117 0 4705150.6792210117 3000906.6875327229 0 0 0 0 -7851857.8603377342 7463147.2022270709 0 7463147.2022270709 1933905.7465333641 0 0 0 0 -104544.49705285346 -71340.510647026822 0 -71340.510647026822 -72332.15798564654 0 0 0 0 -12862759.700019836 586583.27417680621 0 586583.27417680621 -2212838.8385963142 0 0 0 0 -6009413.3777715983 103999.11281516583 0 103999.11281516583 2645406.3265323425 0 0 0 0 -8794717.5910224915 -2977990.7522444725 0 -2977990.7522444725 3058852.8321905136 0 0 0 0 -4588278.5703523215 1312473.6175698212 0 1312473.6175698212 665516.05738859181 0 0 0 0 78218302.555779338 46721967.134800389 0 46721967.134800389 -20119429.090259105 0 0 0 0 -177633317.21610248 -11000242.177100167 0 -11000242.177100167 13580711.492953122 0 0 0 0 54317395.373702884 -62116490.842094198 0 -62116490.842094198 -192566542.78996128 0 0 0 0 -164583170.51523626 62767775.013078481 0 62767775.013078481 110011553.15857989 0 0 0 0 -2667355.4882097244 -3074118.4340276867 0 -3074118.4340276867 670432.11863312125 0 0 0 0 3963318.118019104 13079866.882084548 0 13079866.882084548 239347.60642854683 0 0 0 0 14873155.906397581 8489054.5205916166 0 8489054.5205916166 -3205312.8742141724 0 0 0 0 -166587.63765922107 -62460.732110078447 0 -62460.732110078447 867.13795378917712 0 0 0 0 -7211848.496325016 -3521334.6914622188 0 -3521334.6914622188 3409655.6880527735 0 0 0 0 -1283174.25831604 2767525.5620095134 0 2767525.5620095134 4042559.9620075226 0 0 0 0 5544871.0461654663 1626889.8942238688 0 1626889.8942238688 2751235.7422820628 0 0 0 0 -8224635.610450983 6340825.3492885232 0 6340825.3492885232 5214375.2049669027 0 0 0 0 -3561435.5044633565 843447.85622758057 0 843447.85622758057 532058.6722978421 0 0 0 0 -4636419.0854282379 2893143.796143353 0 2893143.796143353 -945765.10474276543 0 0 0 0 -7189786.9491503239 746045.42469910905 0 746045.42469910905 3339472.8249027729 0 0 0 0 -9484745.5348557234 67461316.543429255 0 67461316.543429255 72102842.410151303 0 0 0 0 -1975654.3092126846 862291.17471659184 0 862291.17471659184 -457632.05670213699 0 0 0 0 -4333172.559261322 4538549.0902742445 0 4538549.0902742445 256445.7547416687 0 0 0 0 -3282417.4943761826 1618229.4263053536 0 1618229.4263053536 1438483.4546775222 0 0 0 0 -6669288.7436642647 895450.90520009398 0 895450.90520009398 1898540.296459198 0 0 0 0 -2102831.1648597717 805646.64193749428 0 805646.64193749428 1014368.4697890282 0 0 0 0 127662.19271046808 272865.43314994144 0 272865.43314994144 -10053.475295791257 0 0 0 0 -3939973.7185564041 1769585.8971716166 0 1769585.8971716166 -600500.15397793055 0 0 0 0 -570578.87567034038 -36650.29682402336 0 -36650.29682402336 34732.871676498966 0 0 0 0 -561057.90466380399 -50253.158415995073 0 -50253.158415995073 -33079.571408642048 0 0 0 0 2783037.3107069731 3843812.2619490027 0 3843812.2619490027 -150990.83232927322 0 0 0 0 81679.344013214111 2273969.3170918226 0 2273969.3170918226 670697.12139958143 0 0 0 0 -1271310.133559227 912510.10193151236 0 912510.10193151236 2016170.1909990907 0 0 0 0 -2575673.5388927436 -218130.2573254382 0 -218130.2573254382 445411.16723052243 0 0 0 0 -13578500.441981673 -7930881.2310674787 0 -7930881.2310674787 1909402.2756309509 0 0 0 0 -1770859.2344770432 119043.26199471951 0 119043.26199471951 2223098.7065772414 0 0 0 0 -1875407.7092342377 279722.60397595167 0 279722.60397595167 2377290.7209159732 0 0 0 0 -1479402.9461063743 6076237.392101869 0 6076237.392101869 4217432.0659843385 0 0 0 0 -2530336.3210316948 512342.07998194848 0 512342.07998194848 336046.80988952884 0 0 0 0 -2738867.7708512899 -576593.19997290988 0 -576593.19997290988 449711.12232399767 0 0 0 0 -1718813.7525663376 328777.54510325193 0 328777.54510325193 2221770.8216780424 0 0 0 0 11110169.290604472 -26117372.884943366 0 -26117372.884943366 17211694.531121731 0 0 0 0 -3337693.0305398945 742805.60614463605 0 742805.60614463605 1097788.5292224069 0 0 0 0 -2092237.4537457477 270089.05048347544 0 270089.05048347544 593382.67752864223 0 0 0 0 15824738.514013916 -17169373.899647862 0 -17169373.899647862 32366866.60853982 0 0 0 0 14333091.55694375 -16121678.97650151 0 -16121678.97650151 34081562.74355793 0 0 0 0 10870354.410035312 -21702815.844782524 0 -21702815.844782524 53605904.392968476 0 0 0 0 9655817.1868346035 -28322508.339078128 0 -28322508.339078128 27886663.603281327 0 0 0 0 376299.9245018959 6323945.9952560216 0 6323945.9952560216 -7457746.2051964402 0 0 0 0 -452687.9443975208 83245.940011522471 0 83245.940011522471 -8336.339826571013 0 0 0 0 -35078596.996719182 -4132383.9920785557 0 -4132383.9920785557 -1424884.291109113 0 0 0 0 -27133039.518297166 -38072730.977566957 0 -38072730.977566957 -41359660.635952622 0 0 0 0 63737959.839351088 -69021085.791229486 0 -69021085.791229486 -41261172.98688025 0 0 0 0 -25954581.846515298 19110255.511614639 0 19110255.511614639 33772619.656026334 0 0 0 0 26310574.649635941 -30750447.026499931 0 -30750447.026499931 -33162512.278731868 0 0 0 0 11716599.447685272 -104077311.3240504 0 -104077311.3240504 12793874.591992795 0 0 0 0 -102624312.9280453 -75976180.61850661 0 -75976180.61850661 27652321.329501778 0 0 0 0 -87262334.222927868 113166274.59111536 0 113166274.59111536 -69956590.831585392 0 0 0 0 -474198.40428292577 -179210.70198071178 0 -179210.70198071178 -36308.986020085969 0 0 0 0 -19710767.802799463 53229615.814683571 0 53229615.814683571 -32274437.933856796 0 0 0 0 -1307052.1316837014 -375217.84362308518 0 -375217.84362308518 -665.818313765325 0 0 0 0 -61940052.366227627 5681224.7812546287 0 5681224.7812546287 52813149.598771006 0 0 0 0 10333541.903755069 -111594716.65427032 0 -111594716.65427032 156200849.78642613 0 0 0 0 59682980.987979174 -23140413.053116836 0 -23140413.053116836 -22007276.393112704 0 0 0 0 -103211790.81965387 -47210748.43852146 0 -47210748.43852146 227765421.42948839 0 0 0 0 -48199593.316496789 -67863444.133871272 0 -67863444.133871272 -106568977.27922803 0 0 0 0 -23124329.00440079 -16381852.555048119 0 -16381852.555048119 -9618273.2090516984 0 0 0 0 38249514.954571366 -17230461.155277193 0 -17230461.155277193 -81213804.81312795 0 0 0 0 33757869.689573884 -54787891.960870683 0 -54787891.960870683 -52774329.174902424 0 0 0 0 -698038596.39487362 66745709.27945099 0 66745709.27945099 143114221.3273766 0 0 0 0 -221236082.85624146 343741019.3996886 0 343741019.3996886 -94335223.270534903 0 0 0 0 -65446243.339671254 -78359777.551035702 0 -78359777.551035702 3772754.1072665127 0 0 0 0 -189386208.50818044 74090147.354367375 0 74090147.354367375 11948012.325791866 0 0 0 0 -482164230.55388284 -148935967.84330416 0 -148935967.84330416 -45851291.548428476 0 0 0 0 -766876817.33945084 18960029.962540172 0 18960029.962540172 131578593.27224432 0 0 0 0 -467369401.82665634 108524593.97567195 0 108524593.97567195 138705273.81829238 0 0 0 0 -944652234.36834693 -140585351.46079603 0 -140585351.46079603 22856070.717142206 0 0 0 0 -646285340.12853813 -211831405.58157486 0 -211831405.58157486 36926976.183615021 0 0 0 0 -526231.86565635225 3924.1618110769195 0 3924.1618110769195 -142765.0629194061 0 0 0 0 -608727812.77300596 5039261.0236821249 0 5039261.0236821249 4955083.8667563051 0 0 0 0 -378480864.12578857 -279545079.0140965 0 -279545079.0140965 -157160298.59307265 0 0 0 0 -111924945.35231185 -23799663.731434181 0 -23799663.731434181 -28782325.203764495 0 0 0 0 2364212.4213988036 77688377.78657411 0 77688377.78657411 4507189.0414836407 0 0 0 0 13331493.723818779 -97968401.479953945 0 -97968401.479953945 -140453229.92651612 0 0 0 0 5061248.7216825187 62811881.187550552 0 62811881.187550552 -14434079.39670451 0 0 0 0 19196730.544636309 -66589304.935948581 0 -66589304.935948581 -56311460.500787944 0 0 0 0 33386118.34102726 -15822687.192216307 0 -15822687.192216307 -35821019.774587139 0 0 0 0 -453191644.20462656 -247022141.20211431 0 -247022141.20211431 -115265949.58691144 0 0 0 0 -236407097.87776423 29198740.426109664 0 29198740.426109664 12403590.639678247 0 0 0 0 -12221050.940906525 -40677856.959198415 0 -40677856.959198415 -104123351.87027775 0 0 0 0 -943935039.9584682 -387011762.2073471 0 -387011762.2073471 40597256.095310733 0 0 0 0 -636092077.09498453 -183878297.72811466 0 -183878297.72811466 53926112.421742216 0 0 0 0 3320738.6105320454 -10527165.984815478 0 -10527165.984815478 -24309229.957711816 0 0 0 0 4527086.8413828611 -5152874.6055122018 0 -5152874.6055122018 -14704710.719652236 0 0 0 0 -61379.816278636456 4211954.500126075 0 4211954.500126075 -54888731.340186745 0 0 0 0 -3529071.1683309674 -4175783.8155115768 0 -4175783.8155115768 -60452764.275686085 0 0 0 0 -28568820.735653162 19038783.135655746 0 19038783.135655746 -74416201.579903394 0 0 0 0 -88287517.266331553 -49400912.470995553 0 -49400912.470995553 -106662665.49055752 0 0 0 0 -1555253.8005290031 42885930.564898551 0 42885930.564898551 -81305452.786028981 0 0 0 0 -33728604.058496237 26170440.199489385 0 26170440.199489385 18927449.939252973 0 0 0 0 -27979291.684783936 26783593.682513535 0 26783593.682513535 -20645700.700431824 0 0 0 0 -7794566.7812342644 -5214429.4835952371 0 -5214429.4835952371 -2782184.7293355465 0 0 0 0 -42098351.150961399 6855803.242559731 0 6855803.242559731 22634865.309307337 0 0 0 0 21922661.04608655 -5646847.3963836432 0 -5646847.3963836432 9092843.4449816942 0 0 0 0 -713172.94032827462 737454.73399956059 0 737454.73399956059 420315.13226722978 0 0 0 0 -22150588.579474211 -15024608.164251268 0 -15024608.164251268 26965615.221745014 0 0 0 0 -1688095.9731385177 231500.4749569195 0 231500.4749569195 -31706.192468632857 0 0 0 0 -78976028.211976051 -34371409.507783413 0 -34371409.507783413 56368152.105559349 0 0 0 0 -50508636.570972919 13529882.576068163 0 13529882.576068163 107872701.09900534 0 0 0 0 -50425453.729641438 15856683.180217981 0 15856683.180217981 14354032.471499264 0 0 0 0 62604431.864002228 18444620.868712246 0 18444620.868712246 1324816.3196153343 0 0 0 0 43152460.226021767 -24495248.351168513 0 -24495248.351168513 16411822.202885926 0 0 0 0 -154421.7694974374 270607.77796484955 0 270607.77796484955 55384.951053598968 0 0 0 0 -433118.62793549651 -2516.7636499248911 0 -2516.7636499248911 263583.45245250058 0 0 0 0 62555437.778721809 17419419.50687176 0 17419419.50687176 -2540939.0359185934 0 0 0 0 -4799841.8371200562 2871523.8561409712 0 2871523.8561409712 -2705517.9484865665 0 0 0 0 -10252646.292359352 1486065.9289266169 0 1486065.9289266169 2273846.7104486823 0 0 0 0 5763883.5156021118 1579181.7934254408 0 1579181.7934254408 -2634768.718202021 0 0 0 0 -1380142.0882600583 1630335.1439299581 0 1630335.1439299581 648314.35561972531 0 0 0 0 -2632344.0312346565 66080.636177965862 0 66080.636177965862 506032.35508133692 0 0 0 0 -639416.68418884277 -579838.55024921894 0 -579838.55024921894 3222867.0833408833 0 0 0 0 -2632216.5506101325 -737350.84806393716 0 -737350.84806393716 -391277.2255735278 0 0 0 0 -3899310.8903312683 10628349.445618749 0 10628349.445618749 17121986.212413102 0 0 0 0 -4618778.3319625854 -1326839.5792756081 0 -1326839.5792756081 9774149.9110981226 0 0 0 0 -2993492.9898209833 -1745390.633916236 0 -1745390.633916236 262940.19117478264 0 0 0 0 8880244.3444173336 -5177058.5295112729 0 -5177058.5295112729 -4611832.0330569744 0 0 0 0 -12791817.001010656 7759466.0666892901 0 7759466.0666892901 -8650825.3748854399 0 0 0 0 -2636522.3753880076 435261.46802379971 0 435261.46802379971 298481.71253030619 0 0 0 0 -1503325.7302398682 4406191.7788317204 0 4406191.7788317204 -2371296.2752058506 0 0 0 0 -3480671.8968162537 -7295937.523676157 0 -7295937.523676157 33582342.611978054 0 0 0 0 -12731646.896190643 -1001642.5405954719 0 -1001642.5405954719 997378.77964150906 0 0 0 0 -518924.03844451904 -655173.42232370377 0 -655173.42232370377 3981388.9366140664 0 0 0 0 -2041978.1884838226 885607.24575555511 0 885607.24575555511 386654.34568230202 0 0 0 0 -3798836.0552656576 656087.58399579546 0 656087.58399579546 -532866.78577499581 0 0 0 0 -6532232.065946579 1787056.04857862 0 1787056.04857862 6547186.750031054 0 0 0 0 -38108595.175352097 -24356495.158295572 0 -24356495.158295572 70454516.357748792 0 0 0 0 -11915119.70488131 19566158.735554546 0 19566158.735554546 64629202.524843216 0 0 0 0 -21359903.262732506 -47920660.011533976 0 -47920660.011533976 -14189322.478592336 0 0 0 0 -13117727.653390884 -4923973.5540788174 0 -4923973.5540788174 24808272.165999055 0 0 0 0 -22404838.24908638 -12671329.539880633 0 -12671329.539880633 32345724.000316888 0 0 0 0 -11060201.743860245 -3934313.1940966249 0 -3934313.1940966249 -4482395.1971485615 0 0 0 0 20149225.069353104 -21178811.078452349 0 -21178811.078452349 -4216295.2755672932 0 0 0 0 -670830.76703903778 64423.398755752947 0 64423.398755752947 -348165.25060159387 0 0 0 0 -459967523.81876135 -497015028.07858217 0 -497015028.07858217 -391460683.18474811 0 0 0 0 -47996847.969701767 124719171.07291213 0 124719171.07291213 -161374443.45414001 0 0 0 0 -1326325.6276400483 747294.8677770067 0 747294.8677770067 -563691.08530963527 0 0 0 0 -136590506.04891396 45054686.498657316 0 45054686.498657316 43981499.204517424 0 0 0 0 13125860.028389931 30078169.736604691 0 30078169.736604691 46089667.506575465 0 0 0 0 -47996847.96967411 546843.65569350868 0 546843.65569350868 343380.87169333175 0 0 0 0 -1888000.4015418822 539319.7559049488 0 539319.7559049488 -674547.90477405197 0 0 0 0 -943153003.45268106 -61577163.155762352 0 -61577163.155762352 80608313.830168262 0 0 0 0 -943890548.00231743 -61007253.52082637 0 -61007253.52082637 80379000.838411257 0 0 0 0 -892527.7251836597 95773.524537909077 0 95773.524537909077 -603346.18292381475 0 0 0 0 36736594.78631115 176754981.53040731 0 176754981.53040731 -197774988.24699801 0 0 0 0 -32417156.072434306 -76093272.196791843 0 -76093272.196791843 5166842.1342182755 0 0 0 0 -113987180.17101002 82232513.331032217 0 82232513.331032217 -94481884.696325481 0 0 0 0 -118067515.93916559 66927555.274677783 0 66927555.274677783 -138439182.83484241 0 0 0 0 -943653699.54744232 245532198.99239177 0 245532198.99239177 59572869.617686339 0 0 0 0 -355941602.68006992 365082828.56495279 0 365082828.56495279 -234556455.95562637 0 0 0 0 37809.242360539734 101009.58510715046 0 101009.58510715046 -13869.107697267238 0 0 0 0 -30278866.976480484 -16233535.724203676 0 -16233535.724203676 41489364.950388938 0 0 0 0 8703882.7484445572 -14755220.680744827 0 -14755220.680744827 -71593407.447260797 0 0 0 0 -14909310.429629326 -29842139.338680536 0 -29842139.338680536 -46760596.115752727 0 0 0 0 -131795969.3699007 94138061.469560489 0 94138061.469560489 -98473923.326313987 0 0 0 0 44607774.635359764 -1496779.9691447467 0 -1496779.9691447467 -27426108.654790461 0 0 0 0 12361687.97573185 -24759889.543918833 0 -24759889.543918833 -18212912.855109572 0 0 0 0 -1054899.6427486418 1124604.6654399266 0 1124604.6654399266 -1047070.7899377219 0 0 0 0 27103759.501538754 16887494.680682309 0 16887494.680682309 6004783.2373237014 0 0 0 0 2078189.3171882629 -428740.59082379937 0 -428740.59082379937 -1206891.9429601431 0 0 0 0 -4768521.0702075958 -6735724.6323729753 0 -6735724.6323729753 -3610244.0945708156 0 0 0 0 -499681.58203077316 -26755626.045815289 0 -26755626.045815289 13456755.508389235 0 0 0 0 19482081.732747078 -12629077.744090825 0 -12629077.744090825 1910081.2839719057 0 0 0 0 119787.77620441373 126146.40871942544 0 126146.40871942544 -56059.02387774799 0 0 0 0 387680.87686920166 -1525898.5023885965 0 -1525898.5023885965 7325483.4846835136 0 0 0 0 2344732.5851860046 -88021.426861017942 0 -88021.426861017942 -1488833.9358038902 0 0 0 0 -153451.08037690818 429947.09628446843 0 429947.09628446843 -225660.77561836207 0 0 0 0 -2320425.8722248785 1101546.8285120749 0 1101546.8285120749 -515211.57921893953 0 0 0 0 -1826038.953212738 642007.39664578438 0 642007.39664578438 555353.41623270512 0 0 0 0 440833.30651402473 1495962.2747071758 0 1495962.2747071758 256821.51076430082 0 0 0 0 25457.747794846073 -511448.75851483399 0 -511448.75851483399 256613.94888598696 0 0 0 0 2351469.3395134211 2195123.9661093149 0 2195123.9661093149 -355549.77606040239 0 0 0 0 1622441.5986061096 -1429398.9517241716 0 -1429398.9517241716 -3205519.072730571 0 0 0 0 7642.5227910894901 16465.115309760557 0 16465.115309760557 -30845.992019630721 0 0 0 0 -57160911.898534775 2647735.3117001057 0 2647735.3117001057 137304111.782197 0 0 0 0 -9014818.6319618225 48192014.36732173 0 48192014.36732173 130793255.14969915 0 0 0 0 -19224738.316444397 -17338993.601620197 0 -17338993.601620197 66916282.34965089 0 0 0 0 -39246085.380737305 -24936637.427202463 0 -24936637.427202463 82452767.925490856 0 0 0 0 4420228.9111785889 917385.49368476868 0 917385.49368476868 79689191.365080357 0 0 0 0 -23005790.511451721 -45946427.21240592 0 -45946427.21240592 38129433.473390222 0 0 0 0 -18837571.241378784 -17614109.208591938 0 -17614109.208591938 44998938.093980312 0 0 0 0 -19964173.30735445 -14326051.180040479 0 -14326051.180040479 80729166.200674057 0 0 0 0 -13280445.034950256 -30069735.835883617 0 -30069735.835883617 57524561.978178978 0 0 0 0 -13292624.355789185 -29332785.68581152 0 -29332785.68581152 19099356.454072952 0 0 0 0 -5119713.7630882263 -5637689.384021759 0 -5637689.384021759 17608723.171004534 0 0 0 0 -13783336.870319366 2281413.5933103561 0 2281413.5933103561 54804544.627495766 0 0 0 0 -3156620.283098178 462640.16227954521 0 462640.16227954521 943059.41659033229 0 0 0 0 -9218299.0894317627 4644570.3355662823 0 4644570.3355662823 22034755.412818909 0 0 0 0 -2540132.2952727387 410794.21750829089 0 410794.21750829089 401998.81386397773 0 0 0 0 -1148791.0719146729 388951.92663991451 0 388951.92663991451 585654.47595904022 0 0 0 0 -1133106.6261339188 427765.16223603487 0 427765.16223603487 641585.4641084671 0 0 0 0 -2026293.5287918542 -81818.674934869166 0 -81818.674934869166 661134.83390937711 0 0 0 0 -680303.09785652161 746723.39881837368 0 746723.39881837368 678386.49304699898 0 0 0 0 9088.1903839111328 1184849.2653708458 0 1184849.2653708458 2421618.7329493463 0 0 0 0 -904165.82660293579 -215859.47087574005 0 -215859.47087574005 2596097.1423190832 0 0 0 0 2473696.9140853882 1971103.9383049011 0 1971103.9383049011 80711643.83958149 0 0 0 0 350235.92757415771 27686902.34449482 0 27686902.34449482 74646368.233989894 0 0 0 0 7290237.8213233948 -12499355.32447052 0 -12499355.32447052 11255201.037894249 0 0 0 0 -666014.04596609343 252661.02948069759 0 252661.02948069759 427130.84649812011 0 0 0 0 -625653.68309783936 3425188.5847138241 0 3425188.5847138241 6418432.8481092453 0 0 0 0 -555691.36325407028 869986.82041874062 0 869986.82041874062 2342287.0851082802 0 0 0 0 -996755.47724151611 6956.3429292440414 0 6956.3429292440414 1118760.4390559494 0 0 0 0 -1397269.6787275225 -447033.46549476311 0 -447033.46549476311 726966.0737860552 0 0 0 0 -2733105.6947195996 167021.10198210159 0 167021.10198210159 155314.13812388186 0 0 0 0 -64164.325509673916 16920.378436971456 0 16920.378436971456 30231.370775338903 0 0 0 0 2606895.6575536728 -2112701.1461127996 0 -2112701.1461127996 -2904043.0681989193 0 0 0 0 1993990.054441452 -1588106.7693542242 0 -1588106.7693542242 2276409.6280043125 0 0 0 0 -838934.04368305206 685457.94630089402 0 685457.94630089402 955275.02694398165 0 0 0 0 -1309954.8894976832 -635478.41873455187 0 -635478.41873455187 773579.51800859347 0 0 0 0 -473896.45488542132 489691.09501352796 0 489691.09501352796 454543.54283414636 0 0 0 0 -587284.52801036835 107996.44864146411 0 107996.44864146411 1859761.6192333102 0 0 0 0 -2465838.7655559685 129062.51894565858 0 129062.51894565858 497984.48353192158 0 0 0 0 -1881501.5713851666 384165.57022523851 0 384165.57022523851 473179.27055332524 0 0 0 0 318677.68455123901 -5713976.7899301052 0 -5713976.7899301052 5008587.3364468813 0 0 0 0 1067469.7533931732 -6356111.3590294719 0 -6356111.3590294719 257271.56815552711 0 0 0 0 -1099578.4020675635 701526.27511271136 0 701526.27511271136 347808.85306097288 0 0 0 0 -866213.7019367218 449203.97622722387 0 449203.97622722387 598835.61896920204 0 0 0 0 -608998.06034851074 -73742.45233130455 0 -73742.45233130455 1591486.9044542313 0 0 0 0 -599378.03134468757 -255413.79348125262 0 -255413.79348125262 803690.27343605133 0 0 0 0 -1033527.2911911011 492987.99877250195 0 492987.99877250195 839860.38725161552 0 0 0 0 -753652.55301055312 237223.70182588766 0 237223.70182588766 754002.82604476833 0 0 0 0 -1043328.7759263515 564197.26522670686 0 564197.26522670686 591638.20697367191 0 0 0 0 -717099.23127415776 576098.61652507889 0 576098.61652507889 131556.23636847534 0 0 0 0 -563532.07856369019 416284.49077832699 0 416284.49077832699 859757.49513322115 0 0 0 0 -626314.94373321533 765418.88889116049 0 765418.88889116049 766549.25337827206 0 0 0 0 -354399.58936309814 831472.94241499901 0 831472.94241499901 2346928.7834665775 0 0 0 0 -2971708.3093555961 463315.41890925635 0 463315.41890925635 612387.30768852308 0 0 0 0 -2554930.6209747512 174361.93619213812 0 174361.93619213812 541308.67445290461 0 0 0 0 -1297405.310500145 680527.53941380978 0 680527.53941380978 572916.70586252213 0 0 0 0 -890906.70722961426 304577.22374951839 0 304577.22374951839 1295711.227763474 0 0 0 0 -2381183.5271978029 -236078.81595663168 0 -236078.81595663168 860424.75459080352 0 0 0 0 -1300079.8380508395 -93138.457944773836 0 -93138.457944773836 652620.03484218242 0 0 0 0 -563558.59428532515 172037.04895127111 0 172037.04895127111 429203.08097679465 0 0 0 0 -1009126.7931595705 803434.19547634234 0 803434.19547634234 277144.01082228543 0 0 0 0 -986163.98778915405 822156.68179529905 0 822156.68179529905 460842.86260557175 0 0 0 0 -950281.33204936981 786494.37295353413 0 786494.37295353413 471203.07134842873 0 0 0 0 -1107729.1594009399 513117.41268233955 0 513117.41268233955 529653.83039289713 0 0 0 0 -895167.07989375386 651941.33632034238 0 651941.33632034238 517268.38289222436 0 0 0 0 -3090836.4330896526 478253.7552861101 0 478253.7552861101 428997.44317221828 0 0 0 0 -962619.93067550659 413645.22387719154 0 413645.22387719154 776221.60445451736 0 0 0 0 -1165748.8618392944 726068.09168964624 0 726068.09168964624 557138.344789505 0 0 0 0 -1877913.1156846341 170904.75346676027 0 170904.75346676027 349217.75972481503 0 0 0 0 -2223353.9659425197 1139301.1685863843 0 1139301.1685863843 563786.99188807339 0 0 0 0 -1646422.0800215462 1117306.2697068208 0 1117306.2697068208 -111088.85045110606 0 0 0 0 -2782861.3853807449 2207603.4630805254 0 2207603.4630805254 779931.22595068812 0 0 0 0 -1073096.4752771202 790110.01529378048 0 790110.01529378048 -66649.967716530111 0 0 0 0 -1269351.8721649232 4862.4266897100024 0 4862.4266897100024 521494.98440458823 0 0 0 0 -2925862.5342521667 988874.1453640461 0 988874.1453640461 -369732.55287265778 0 0 0 0 -1798453.8833048344 164970.58868649229 0 164970.58868649229 177204.77329146862 0 0 0 0 -1312668.261167787 -336553.91532182135 0 -336553.91532182135 423794.34587886708 0 0 0 0 -7340581.2010326385 4051367.4213497639 0 4051367.4213497639 2221419.1156783085 0 0 0 0 -1983869.737322961 905053.40145490668 0 905053.40145490668 -60283.494227801195 0 0 0 0 -2126325.1838138504 358715.57748490036 0 358715.57748490036 345721.81772755168 0 0 0 0 -2170038.3116030693 686739.57174728345 0 686739.57174728345 901277.54859032296 0 0 0 0 -2776222.1661467105 1164392.770337299 0 1164392.770337299 764334.10884681484 0 0 0 0 -2294328.7714562416 1086003.9363149237 0 1086003.9363149237 883473.16947391815 0 0 0 0 -551636.66683959961 44748.711433529854 0 44748.711433529854 1775197.8877552748 0 0 0 0 -1453987.1140322001 665463.75046727108 0 665463.75046727108 624985.27903167019 0 0 0 0 -2518845.8638279438 113550.34746923298 0 113550.34746923298 1275312.0421298593 0 0 0 0 -2722624.9722029315 885454.72451674321 0 885454.72451674321 677102.30022566486 0 0 0 0 -1104112.5308531215 468787.79230619938 0 468787.79230619938 568006.46274017566 0 0 0 0 -512863.08139038086 -531198.10688865185 0 -531198.10688865185 4008347.4968010187 0 0 0 0 -520354.58999252319 11805228.409221649 0 11805228.409221649 20546369.400509357 0 0 0 0 -8498570.0114402771 -4267592.3656425476 0 -4267592.3656425476 13709706.896905184 0 0 0 0 -1755033.1127929688 637724.95976120234 0 637724.95976120234 448613.8191485405 0 0 0 0 -1137942.9259079874 950212.24276233779 0 950212.24276233779 104926.81324860002 0 0 0 0 -3245600.6525572548 564488.49228971975 0 564488.49228971975 113937.51792969398 0 0 0 0 214796.96551895142 3491562.0457234383 0 3491562.0457234383 -6947330.110200882 0 0 0 0 3421029.2878379822 -3531781.075453043 0 -3531781.075453043 1556782.8401868343 0 0 0 0 -635607.83715067757 39277.084968877491 0 39277.084968877491 409492.21861248882 0 0 0 0 -22661911.702962875 94551.47647768259 0 94551.47647768259 17827349.140318871 0 0 0 0 -26835099.661781311 31600038.615205884 0 31600038.615205884 -640182.18147826195 0 0 0 0 13985330.481422663 -39316427.531640455 0 -39316427.531640455 8893385.5438553095 0 0 0 0 -592415.26895212196 250609.62965742755 0 250609.62965742755 99951.279899240704 0 0 0 0 -1606934.8222770691 29386614.518998384 0 29386614.518998384 -6354706.4965509996 0 0 0 0 6035596.1677331924 438993.17058986425 0 438993.17058986425 -18733973.551506639 0 0 0 0 -43675941.125115395 -2892092.6941512823 0 -2892092.6941512823 8018022.4725871086 0 0 0 0 -18622103.009536743 -16357336.360266685 0 -16357336.360266685 -6941570.7677156925 0 0 0 0 -846688.46891784668 -3557118.9990465045 0 -3557118.9990465045 2174463.5065832138 0 0 0 0 -16454589.336315155 -6318837.020100832 0 -6318837.020100832 14402861.283462226 0 0 0 0 -9863311.2042160034 -215400.03901314735 0 -215400.03901314735 8216107.2473740578 0 0 0 0 5898813.742773056 -9117936.006677866 0 -9117936.006677866 -48956241.791568041 0 0 0 0 6768554.5458126068 -3851372.6506513357 0 -3851372.6506513357 -52486137.49971509 0 0 0 0 4188214.8169202805 -4192646.7003628314 0 -4192646.7003628314 -25230841.165270805 0 0 0 0 2726768.3026332855 -14881413.732211828 0 -14881413.732211828 -36120483.023684621 0 0 0 0 6946494.7838554382 -2797561.6362960339 0 -2797561.6362960339 -28258500.68336916 0 0 0 0 21308.753461837769 -6107798.8523467779 0 -6107798.8523467779 -15167907.871797085 0 0 0 0 4564599.9532518387 -8649432.0892720819 0 -8649432.0892720819 -23929938.665465832 0 0 0 0 2999234.0978565216 -18422611.785118818 0 -18422611.785118818 -33550392.306691408 0 0 0 0 193829.85454750061 -28927894.323455811 0 -28927894.323455811 -30882235.478072345 0 0 0 0 57442.916118621826 -20264253.885814786 0 -20264253.885814786 -33496130.203060865 0 0 0 0 1288201.1891403198 -31720433.21217227 0 -31720433.21217227 -45728252.295752466 0 0 0 0 9474085.7656965256 -21724817.709316194 0 -21724817.709316194 -61591669.154656172 0 0 0 0 9241061.7507190704 -20789294.06671083 0 -20789294.06671083 -43169713.138585091 0 0 0 0 435820.42350769043 -27756237.353585124 0 -27756237.353585124 -52834071.061623454 0 0 0 0 2805969.6983089447 -22912852.782100677 0 -22912852.782100677 -67161327.011339426 0 0 0 0 -28595751.972541809 -32676752.107748985 0 -32676752.107748985 -68030185.815090179 0 0 0 0 -94116110.839380264 -41119656.586088419 0 -41119656.586088419 -48615187.057789922 0 0 0 0 -63560422.408353806 -35320741.575036049 0 -35320741.575036049 -83602280.373860598 0 0 0 0 -27806180.153027058 -29889050.208528608 0 -29889050.208528608 -86752352.403507233 0 0 0 0 -17508675.155246735 -27938963.369909883 0 -27938963.369909883 -107368892.64303958 0 0 0 0 -16306484.744754791 20092050.118763089 0 20092050.118763089 -83865070.992355287 0 0 0 0 -41896039.686670303 -4317066.3910807967 0 -4317066.3910807967 -67331969.658355236 0 0 0 0 3816832.9901332855 12100526.202756584 0 12100526.202756584 -61986675.935332224 0 0 0 0 2478194.1641488075 -15730500.49415952 0 -15730500.49415952 -57965026.658383608 0 0 0 0 -156855.21815681458 -5888733.2487295866 0 -5888733.2487295866 -82545193.34667027 0 0 0 0 1913691.9265942574 8098967.5839582682 0 8098967.5839582682 -24781901.313073397 0 0 0 0 -9089821.6519289017 -1450747.2311939001 0 -1450747.2311939001 -52444068.195206404 0 0 0 0 -16955001.904676437 34955561.738575697 0 34955561.738575697 -20845397.835841656 0 0 0 0 -12624593.851068258 12874475.844630167 0 12874475.844630167 -69247394.487626791 0 0 0 0 -13332366.473080635 22802271.569240674 0 22802271.569240674 29253609.713114068 0 0 0 0 -12647105.340458155 17871422.177862465 0 17871422.177862465 18688171.89729625 0 0 0 0 -7549167.709985733 4651660.2006590068 0 4651660.2006590068 544316.56559151411 0 0 0 0 -3679941.1108155251 12123587.877891988 0 12123587.877891988 12040428.014782786 0 0 0 0 1231037.804397583 11739138.976488113 0 11739138.976488113 -13080960.92013073 0 0 0 0 -1260468.0195598602 1340462.4307682514 0 1340462.4307682514 -16608765.24084729 0 0 0 0 4814521.0749225616 5193207.8186464906 0 5193207.8186464906 -22879395.225640297 0 0 0 0 4755753.0747146606 2289676.254293263 0 2289676.254293263 -13623212.44550705 0 0 0 0 2918680.7789230347 3232324.6966179609 0 3232324.6966179609 -5088263.9949817657 0 0 0 0 922512.11174583435 2413468.5523976684 0 2413468.5523976684 -4814014.2387330532 0 0 0 0 -3984.6941738128662 -1704145.123724401 0 -1704145.123724401 -1060692.0868374109 0 0 0 0 2256964.2614004612 8623099.0982924476 0 8623099.0982924476 4997947.3550913334 0 0 0 0 1983714.4910526276 4044511.3708137572 0 4044511.3708137572 16313267.961845979 0 0 0 0 2121466.9396038055 14075267.761671245 0 14075267.761671245 17500477.820888661 0 0 0 0 -3382332.4896621704 10622390.883271888 0 10622390.883271888 30210093.61199148 0 0 0 0 -542618387.24894142 253124432.84018269 0 253124432.84018269 -143985608.49854386 0 0 0 0 1517397.7141819 7116760.9139590263 0 7116760.9139590263 11730588.484649897 0 0 0 0 -452450.63749885559 2207386.8084267378 0 2207386.8084267378 13636740.891140342 0 0 0 0 900949.63370132446 1366924.3320417404 0 1366924.3320417404 21208422.159798145 0 0 0 0 5874185.1304092407 1861205.414572835 0 1861205.414572835 20981006.263557017 0 0 0 0 465611678.36586571 -301950163.69920129 0 -301950163.69920129 -236504784.40780687 0 0 0 0 -9284101.5052337646 673008.97514593601 0 673008.97514593601 39164579.538395286 0 0 0 0 -2540609.7337348508 -79273.12794806133 0 -79273.12794806133 360147.61177083937 0 0 0 0 -3810301.5369634628 13984871.838603854 0 13984871.838603854 38539661.980704546 0 0 0 0 -713254.72501834203 -446584.5440529054 0 -446584.5440529054 9369.6291692878385 0 0 0 0 11565431.96709156 9261116.4950817227 0 9261116.4950817227 18956056.214515686 0 0 0 0 4109404.5338225365 9651106.8064739406 0 9651106.8064739406 19311914.873233795 0 0 0 0 306732.18071746826 1179150.5191464424 0 1179150.5191464424 13983214.294992685 0 0 0 0 2444727.7055625916 5507962.611012578 0 5507962.611012578 8276755.9851664305 0 0 0 0 590008.09309005737 -6696746.8414337635 0 -6696746.8414337635 7724842.688062191 0 0 0 0 341942.83893083781 9033497.9003399834 0 9033497.9003399834 23856401.039704323 0 0 0 0 -1660493.9962005615 -598786.58560609818 0 -598786.58560609818 -3587741.3524973392 0 0 0 0 1682365.7184954882 4322608.3727416769 0 4322608.3727416769 -214599.75300788879 0 0 0 0 2873009.1133524179 -3855768.5498240665 0 -3855768.5498240665 -1385382.9794092178 0 0 0 0 -1988340.2528152466 1293568.7422508001 0 1293568.7422508001 -4043573.4319028854 0 0 0 0 3862378.2567596436 3111311.6189453602 0 3111311.6189453602 -3115777.2612900734 0 0 0 0 -282317.6791305542 -3899602.6967539787 0 -3899602.6967539787 -6422242.7057007551 0 0 0 0 1276970.0210232735 -2036607.0143249407 0 -2036607.0143249407 6559730.8182108402 0 0 0 0 -49287867.730734825 -183036134.88476878 0 -183036134.88476878 -134625927.64078307 0 0 0 0 -2028813.5990337785 -545825.65565092862 0 -545825.65565092862 84796.556137758787 0 0 0 0 -94181031.678546906 -11354876.609941065 0 -11354876.609941065 72028482.015260398 0 0 0 0 -53395345.831363678 -72463985.402107239 0 -72463985.402107239 -137183244.02578765 0 0 0 0 -3795008.6009635925 -9188181.8378870487 0 -9188181.8378870487 31898260.185054779 0 0 0 0 4993200.7232027054 6306638.7639397383 0 6306638.7639397383 -18022339.301828384 0 0 0 0 -13708004.19641304 19541115.523274064 0 19541115.523274064 -14855068.798190653 0 0 0 0 -14265319.840566635 17809993.837146997 0 17809993.837146997 -18737017.572800636 0 0 0 0 20980906.969890594 -7038139.650300622 0 -7038139.650300622 -10551527.944414616 0 0 0 0 -84903469.345421791 56211258.43949461 0 56211258.43949461 -10944479.607720017 0 0 0 0 -22250402.619483948 43991628.324548602 0 43991628.324548602 -18664417.174562216 0 0 0 0 -168298325.46348095 28816691.967815638 0 28816691.967815638 15260565.254534245 0 0 0 0 -955449.12431684695 -184198.04674475023 0 -184198.04674475023 221233.6463911531 0 0 0 0 -60803843.018960238 6776000.7739836276 0 6776000.7739836276 6531099.5825724602 0 0 0 0 -48761011.728649139 31225459.371338248 0 31225459.371338248 -14910468.873999327 0 0 0 0 -21466481.017077684 12476542.372873724 0 12476542.372873724 -12071465.536800146 0 0 0 0 -21511827.524492264 12151744.721000165 0 12151744.721000165 -14340180.890297413 0 0 0 0 -3387172.4783859253 14818461.153907061 0 14818461.153907061 -19982145.815439522 0 0 0 0 -35046044.990188599 12691168.380190372 0 12691168.380190372 -10495305.060114503 0 0 0 0 -24573854.768071175 5804703.7904896736 0 5804703.7904896736 -10011463.719172239 0 0 0 0 -61895356.095445633 3002134.7436045408 0 3002134.7436045408 2716979.8885030746 0 0 0 0 -39663127.488525987 -3835952.1307694167 0 -3835952.1307694167 -2454251.7661170959 0 0 0 0 -7960188.4781513214 -7224670.3010370731 0 -7224670.3010370731 -19852445.649813652 0 0 0 0 800263.98020219803 -1110311.3561747968 0 -1110311.3561747968 -15822487.301968336 0 0 0 0 -2195328.5323028564 -8090803.2320507765 0 -8090803.2320507765 -19031222.179880381 0 0 0 0 4223462.8018884659 -1381753.3841897249 0 -1381753.3841897249 -16232031.392202854 0 0 0 0 3438001.7756471634 -3159222.6935992241 0 -3159222.6935992241 -14886220.362445593 0 0 0 0 2496359.3809547424 4287178.5441423655 0 4287178.5441423655 -14055343.747246504 0 0 0 0 -7993228.1115760803 1340208.3393001556 0 1340208.3393001556 -14622960.319874287 0 0 0 0 -2204275.3987922668 3053318.8308627605 0 3053318.8308627605 -17934690.335836887 0 0 0 0 -13807960.09776926 704588.66899046302 0 704588.66899046302 -16950037.983427048 0 0 0 0 -10833031.683414459 8043729.4500977993 0 8043729.4500977993 -15734521.178430796 0 0 0 0 -22643576.624149323 7095161.4960105419 0 7095161.4960105419 -15448831.582530618 0 0 0 0 -17928525.905540466 2326749.4849020243 0 2326749.4849020243 -12820885.039290905 0 0 0 0 -19099935.528572083 341329.07822203636 0 341329.07822203636 -15997526.108772516 0 0 0 0 -12485303.828077316 -10605073.884548545 0 -10605073.884548545 -19891837.935878515 0 0 0 0 -4341282.6856355667 -7857667.132132411 0 -7857667.132132411 -20100806.697229147 0 0 0 0 -7491512.5098648071 -17153526.808032751 0 -17153526.808032751 -28219838.308212399 0 0 0 0 -13441015.53950119 -23543890.503334284 0 -23543890.503334284 -21810349.57084465 0 0 0 0 -27975192.535725594 -13455936.554144025 0 -13455936.554144025 -17601774.216691971 0 0 0 0 -22910846.798686981 -28536839.276631117 0 -28536839.276631117 -18265056.390835047 0 0 0 0 -30280074.797255039 -1214133.9494186044 0 -1214133.9494186044 -12104357.435419083 0 0 0 0 -24348349.001821518 -9511270.0839761496 0 -9511270.0839761496 -13503485.182228088 0 0 0 0 -35517666.438617706 -15997609.047839642 0 -15997609.047839642 -21251025.763670683 0 0 0 0 -61966858.405222416 -17370591.086404741 0 -17370591.086404741 -12147075.352284908 0 0 0 0 -39599234.920944214 -8706272.2316949368 0 -8706272.2316949368 297474.80338323116 0 0 0 0 -51626148.146889687 -42275260.197347403 0 -42275260.197347403 -55712059.985199928 0 0 0 0 -50716776.644775391 -26468360.175213456 0 -26468360.175213456 -18098405.730499744 0 0 0 0 -44162422.692949414 -31281872.820794553 0 -31281872.820794553 -15138318.866658211 0 0 0 0 -41329328.928449631 -10486960.060093403 0 -10486960.060093403 -11446543.971957088 0 0 0 0 -26341901.012107849 -5245944.711951524 0 -5245944.711951524 -5876607.3611593246 0 0 0 0 -27539130.209802628 -5296484.0548036098 0 -5296484.0548036098 -4470065.2546160221 0 0 0 0 -24940106.700259209 4843955.7738502026 0 4843955.7738502026 -5887196.8341178894 0 0 0 0 -21072390.503962517 3307009.0040612221 0 3307009.0040612221 -10002170.891665649 0 0 0 0 -27250891.487132549 8939862.3627512455 0 8939862.3627512455 21894302.787090302 0 0 0 0 -1144921.1943626404 50104.886811733246 0 50104.886811733246 -5492499.660414353 0 0 0 0 -10353391.662911415 9933530.5690550804 0 9933530.5690550804 23343695.74152565 0 0 0 0 -4960055.9463114738 1959962.5447477698 0 1959962.5447477698 3968393.7758789062 0 0 0 0 24774852.392381191 28099075.879792929 0 28099075.879792929 16107474.039007425 0 0 0 0 -254868.81857604627 21545.269653009018 0 21545.269653009018 185549.92947554123 0 0 0 0 -78051106.956526756 -36945526.300872445 0 -36945526.300872445 -21151949.339863777 0 0 0 0 -89299142.760009766 -49005429.640842915 0 -49005429.640842915 -26212262.475764036 0 0 0 0 5396416.3821697235 23223564.249832153 0 23223564.249832153 18873253.951118171 0 0 0 0 -553159.51465388667 10709.570933437441 0 10709.570933437441 363008.02706790576 0 0 0 0 -82859481.036570549 -42177652.060057044 0 -42177652.060057044 -9376188.4088969231 0 0 0 0 -16820.148723464576 23264.89027089579 0 23264.89027089579 -62408.02040291857 0 0 0 0 -97355561.378632545 -56803401.006546736 0 -56803401.006546736 -23867693.53260088 0 0 0 0 -87419920.518514633 -34516081.428671122 0 -34516081.428671122 -22246449.011845589 0 0 0 0 -109357722.2388401 -75243365.763401151 0 -75243365.763401151 -30050413.37426877 0 0 0 0 -47607565.263564944 -17035291.794618189 0 -17035291.794618189 -12634166.530358315 0 0 0 0 -27491699.561388016 -21275467.882500648 0 -21275467.882500648 -22921532.309975743 0 0 0 0 -57818.593539024034 -104291.70974751655 0 -104291.70974751655 -147881.615115911 0 0 0 0 1198971.0978126526 -20820070.269763649 0 -20820070.269763649 -11932660.398523092 0 0 0 0 291104.77843832131 -921238.20180884213 0 -921238.20180884213 411974.01255386125 0 0 0 0 85234.374341964722 -2593612.7163586617 0 -2593612.7163586617 6888951.7471866608 0 0 0 0 172155.69200325012 -14803920.082416892 0 -14803920.082416892 -27946084.28665638 0 0 0 0 -5068028.3666849136 -9925595.6035738587 0 -9925595.6035738587 77043634.686932087 0 0 0 0 904746.70041799545 -7664960.7720533013 0 -7664960.7720533013 2528957.8229255676 0 0 0 0 -3350987.065656662 -10747243.239528656 0 -10747243.239528656 4463705.2264059186 0 0 0 0 14973291.082146764 -3321155.4731839001 0 -3321155.4731839001 -16871747.334795475 0 0 0 0 -1238961.6402244568 -44728662.892272234 0 -44728662.892272234 -38790255.654753685 0 0 0 0 -36333706.704398155 -48740620.093070328 0 -48740620.093070328 -21451173.441921234 0 0 0 0 -6870199.702589035 -36818524.03133893 0 -36818524.03133893 21199857.161310196 0 0 0 0 19884573.008974075 -50888642.965380907 0 -50888642.965380907 -29063643.523367167 0 0 0 0 5173468.3934144974 -40007415.527215481 0 -40007415.527215481 -39054450.450242043 0 0 0 0 3864799.5172929764 -40402563.134875298 0 -40402563.134875298 -34146354.139345169 0 0 0 0 8682313.0995096266 -31364538.438740604 0 -31364538.438740604 -57171688.750416994 0 0 0 0 8430860.2426038086 -39060410.18233072 0 -39060410.18233072 -38779132.355165482 0 0 0 0 -2985446.065990448 -51012567.645910025 0 -51012567.645910025 -24935676.176625252 0 0 0 0 -16798380.509588242 -30732530.791963816 0 -30732530.791963816 -26219162.621064186 0 0 0 0 -24895257.559988022 -35911418.576618433 0 -35911418.576618433 -23362407.389286041 0 0 0 0 -47664704.621464252 -32659828.699645579 0 -32659828.699645579 -47722979.205887318 0 0 0 0 -45274406.902651787 -21113864.472407669 0 -21113864.472407669 -40819847.019015312 0 0 0 0 -7500173.18151474 -13237536.406967163 0 -13237536.406967163 -42964296.688211918 0 0 0 0 21351288.243484497 -47177187.606539011 0 -47177187.606539011 -47427317.57804966 0 0 0 0 49908178.924552917 -34981480.749410391 0 -34981480.749410391 -41238594.517157912 0 0 0 0 19030807.588654041 -62187099.732249022 0 -62187099.732249022 26523922.770383596 0 0 0 0 -35679570.187504768 60497598.671649337 0 60497598.671649337 24906309.504229307 0 0 0 0 -180880860.64953899 -8566661.5600517988 0 -8566661.5600517988 71272345.945368648 0 0 0 0 161137.3575834902 -266889.68774919875 0 -266889.68774919875 108951.48474112886 0 0 0 0 74113186.819793701 -5702607.6068915725 0 -5702607.6068915725 -85585152.59381938 0 0 0 0 52578437.712530136 14591340.916474819 0 14591340.916474819 -18514651.111651182 0 0 0 0 5342832.0703840256 -78080956.294489384 0 -78080956.294489384 -42962403.164504409 0 0 0 0 -422323431.86944103 -94700051.850606203 0 -94700051.850606203 -12363633.715810701 0 0 0 0 -214087732.35806561 82272929.61343956 0 82272929.61343956 -99096297.734939575 0 0 0 0 -170898633.11244202 -18402606.86783126 0 -18402606.86783126 -19108830.956096411 0 0 0 0 -122805.54966743849 566084.44596877787 0 566084.44596877787 -3460311.5827049725 0 0 0 0 -275946726.6713686 -55038073.50216043 0 -55038073.50216043 22916961.914409637 0 0 0 0 60626.21739660576 8578.1433950499631 0 8578.1433950499631 -1219128.692406992 0 0 0 0 -123227154.05027199 -107126158.77959293 0 -107126158.77959293 -11400682.145868778 0 0 0 0 56149368.693208694 127638368.27740693 0 127638368.27740693 115222875.45304346 0 0 0 0 131348558.59453583 5782806.6474151611 0 5782806.6474151611 765554.86531448364 0 0 0 0 -866821.75902415381 2032138.2538040481 0 2032138.2538040481 -2963130.8837361457 0 0 0 0 122341629.33426094 141747885.57327551 0 141747885.57327551 99918554.685730934 0 0 0 0 -32835335.451695442 18687198.804362297 0 18687198.804362297 37879657.476471901 0 0 0 0 -688027.2182309553 1699471.5855328287 0 1699471.5855328287 -5577049.4617973026 0 0 0 0 -12142801.037972927 -38532247.734946251 0 -38532247.734946251 6184451.4391236305 0 0 0 0 35559802.823584795 40826869.931272984 0 40826869.931272984 44899035.742908478 0 0 0 0 54477644.5105443 34152933.065499544 0 34152933.065499544 -18432.500692367554 0 0 0 0 2327686.7005381584 -7864381.0523262024 0 -7864381.0523262024 -25768727.909064293 0 0 0 0 -175329272.68185568 619828.92483478785 0 619828.92483478785 30867907.655925989 0 0 0 0 -184346286.98900938 -15548452.681928158 0 -15548452.681928158 9973048.0020475388 0 0 0 0 -139354328.30828285 -6932252.2805068493 0 -6932252.2805068493 8323011.142765522 0 0 0 0 -160530257.92620754 -29618113.450761199 0 -29618113.450761199 7314725.5041911602 0 0 0 0 -159984705.01617813 -18850648.372503042 0 -18850648.372503042 6875902.7996640205 0 0 0 0 -160128814.36299133 -17654033.022444963 0 -17654033.022444963 -448052.26737964153 0 0 0 0 -32751548.110821724 -9690009.5101222992 0 -9690009.5101222992 -91467626.572410583 0 0 0 0 -36015143.064210892 485914.68541717529 0 485914.68541717529 -46703787.582279205 0 0 0 0 -86578578.206965446 24942320.010343552 0 24942320.010343552 -39411584.836624146 0 0 0 0 -45693989.610391617 23205843.771204948 0 23205843.771204948 -70287198.518640518 0 0 0 0 -73151343.566732407 24707710.601027012 0 24707710.601027012 -41284491.055330276 0 0 0 0 -71322777.824207306 17806672.728527069 0 17806672.728527069 -16088665.759376526 0 0 0 0 -57876756.650999069 6930334.3315887451 0 6930334.3315887451 -48523393.559965134 0 0 0 0 -59048101.019467354 27822627.13690567 0 27822627.13690567 -22945561.738642693 0 0 0 0 -70017918.136771202 28903484.684034348 0 28903484.684034348 -6544689.7691036463 0 0 0 0 -92335454.18885231 39701061.584050179 0 39701061.584050179 -22179891.415781021 0 0 0 0 -80760904.181539536 23248861.259806633 0 23248861.259806633 -6937191.9980125427 0 0 0 0 -87859778.042675018 12234301.759119987 0 12234301.759119987 -714968.8594212532 0 0 0 0 -117362930.54874229 11436025.090445518 0 11436025.090445518 -544030.06257557869 0 0 0 0 -139399371.67441368 31309682.445114136 0 31309682.445114136 -18246708.329986572 0 0 0 0 -105832243.33575964 53415873.549742222 0 53415873.549742222 -65551417.668058395 0 0 0 0 -160237219.52974033 6748296.8669977188 0 6748296.8669977188 -31790284.667020798 0 0 0 0 -140597011.4459953 -64286620.962582834 0 -64286620.962582834 -33297542.920487404 0 0 0 0 -255311851.55161619 -67181660.377902031 0 -67181660.377902031 -30053502.950359344 0 0 0 0 -59287482.633694649 -25216654.230926514 0 -25216654.230926514 -17623663.571287632 0 0 0 0 -59274043.310809612 -25013249.968263149 0 -25013249.968263149 -14590157.116189957 0 0 0 0 91579085.808601618 50535738.971165657 0 50535738.971165657 31400115.778926849 0 0 0 0 126656693.59189111 82734182.379135609 0 82734182.379135609 22413607.31703186 0 0 0 0 63170168.729011893 89007599.696718216 0 89007599.696718216 46967971.321550369 0 0 0 0 40733792.112967968 43492637.272740364 0 43492637.272740364 4351695.2306585312 0 0 0 0 -6875616.8074005842 46533083.914258957 0 46533083.914258957 23135544.743754387 0 0 0 0 -75682243.08814621 -715500.16725540161 0 -715500.16725540161 38415320.652715683 0 0 0 0 -3617531.8973385096 117943810.0136787 0 117943810.0136787 190293748.50605774 0 0 0 0 -2066388.1004800093 1433242.0939449403 0 1433242.0939449403 1124607.8268231768 0 0 0 0 207412491.59994364 319993367.47136116 0 319993367.47136116 245474269.80021143 0 0 0 0 63974.784033221775 714417.11923990492 0 714417.11923990492 -1403732.5830397331 0 0 0 0 125530430.24306273 94207718.253559232 0 94207718.253559232 -68005805.330097198 0 0 0 0 304249700.82513428 311916851.3659687 0 311916851.3659687 -67371897.59176445 0 0 0 0 -571483640.83691978 118823257.38377953 0 118823257.38377953 420162808.37982178 0 0 0 0 -257453900.53453302 62884486.263731003 0 62884486.263731003 -50887661.460008621 0 0 0 0 -140881088.40223694 75892585.332305908 0 75892585.332305908 -236103285.34536362 0 0 0 0 -141057879.25265512 38194609.766922198 0 38194609.766922198 -51440369.531505585 0 0 0 0 -66070533.920127869 28174578.740097046 0 28174578.740097046 -79888301.555054665 0 0 0 0 -98848577.484102249 -82557268.835755825 0 -82557268.835755825 -153629348.92695999 0 0 0 0 -283187362.4854126 -262734630.54232216 0 -262734630.54232216 -316011611.64123631 0 0 0 0 -173425955.56292152 -21977132.828644753 0 -21977132.828644753 188080616.18233871 0 0 0 0 -1930350.3136502951 3204932.9260789575 0 3204932.9260789575 65989.1746266298 0 0 0 0 502466.04557275772 233355.6813583374 0 233355.6813583374 167335588.5968895 0 0 0 0 -106463686.87292147 -34835293.590499878 0 -34835293.590499878 203098792.0285759 0 0 0 0 -22951030.996792793 56984115.894597054 0 56984115.894597054 133002715.96326542 0 0 0 0 -2043756.0090770721 -41954002.64964962 0 -41954002.64964962 17122930.848142624 0 0 0 0 -35839986.907902241 -11628891.013720512 0 -11628891.013720512 10918619.536911011 0 0 0 0 -93098016.588350296 -40999449.953903198 0 -40999449.953903198 47516543.468097687 0 0 0 0 -68076065.049685955 23337137.645234346 0 23337137.645234346 -66191914.16374588 0 0 0 0 -6643636.1162290573 6489193.426363945 0 6489193.426363945 -96871075.738319397 0 0 0 0 -26686844.849669933 10123186.841493607 0 10123186.841493607 -79964929.356800079 0 0 0 0 -16902551.558018684 -28503265.493849754 0 -28503265.493849754 -27312909.422496796 0 0 0 0 -7206303.965616703 2739023.1702854633 0 2739023.1702854633 736907.96726989746 0 0 0 0 -7244406.5841655731 3096300.2725272179 0 3096300.2725272179 -348595.69896864891 0 0 0 0 -29779211.554759979 1056331.1968622208 0 1056331.1968622208 63739230.337225914 0 0 0 0 -22432665.139276862 30335224.221724868 0 30335224.221724868 929641.86134910583 0 0 0 0 -9957005.053612709 24558621.434033394 0 24558621.434033394 -28321418.333621979 0 0 0 0 -9087193.9834432602 12008649.398105145 0 12008649.398105145 -5401882.8456707001 0 0 0 0 -16923647.534025192 7229900.391251564 0 7229900.391251564 1133265.9515238255 0 0 0 0 -9607171.5600799341 2788242.5751119601 0 2788242.5751119601 2708834.7747485931 0 0 0 0 -6673011.3106594086 3397651.642308712 0 3397651.642308712 1404053.6978526115 0 0 0 0 3102093.0242977142 40890342.877717257 0 40890342.877717257 -27152628.046652168 0 0 0 0 71954061.431041718 -15285097.354026318 0 -15285097.354026318 -18260458.954510212 0 0 0 0 -901218.84515090473 707907.10992111685 0 707907.10992111685 337097.94452385302 0 0 0 0 -4934412.591730102 7878087.8772504982 0 7878087.8772504982 -5394499.9595592525 0 0 0 0 13546688.480065852 38544034.787127495 0 38544034.787127495 -27035803.852073669 0 0 0 0 -12238443.339434709 3521901.2339542541 0 3521901.2339542541 1642189.8661150457 0 0 0 0 -43563363.218357086 793552.54616236687 0 793552.54616236687 26573553.528738976 0 0 0 0 -21462121.459717751 1989753.5148439407 0 1989753.5148439407 -13297503.267309189 0 0 0 0 -2147852.3458919525 -11996847.987069607 0 -11996847.987069607 -13340444.731952906 0 0 0 0 -29243951.286830902 15355339.516919374 0 15355339.516919374 -11103580.603053436 0 0 0 0 612832.08823204041 -12953534.169593871 0 -12953534.169593871 9240992.9526873827 0 0 0 0 -66368679.446678162 12950023.100908756 0 12950023.100908756 26797166.710402489 0 0 0 0 -37002918.654580832 -10787263.38450411 0 -10787263.38450411 39751351.670583963 0 0 0 0 -36496741.152878284 -13641817.291233897 0 -13641817.291233897 15032511.446941495 0 0 0 0 -1213573.0073724971 579972.91914689355 0 579972.91914689355 451120.89783760253 0 0 0 0 -12437802.217967987 44149944.696675658 0 44149944.696675658 -94068407.846527338 0 0 0 0 -24293279.942426682 30863863.262873769 0 30863863.262873769 -23089111.078068674 0 0 0 0 33659756.765205383 10680832.106333196 0 10680832.106333196 -72572086.314429387 0 0 0 0 33456129.992296219 59809538.36624372 0 59809538.36624372 -153921637.59468973 0 0 0 0 132943.6450623665 -103083.3459846396 0 -103083.3459846396 -888728.8141925215 0 0 0 0 -155597042.12497139 50791283.625400424 0 50791283.625400424 238985287.49306929 0 0 0 0 54931246.73106575 -14456116.872396916 0 -14456116.872396916 -236144229.52870286 0 0 0 0 -167819561.92919159 -383579874.78082091 0 -383579874.78082091 -119017783.19927585 0 0 0 0 -104780448.79014206 -92822410.190149814 0 -92822410.190149814 193586326.43399537 0 0 0 0 -51263519.808795929 -82106516.482604146 0 -82106516.482604146 -73435963.570831448 0 0 0 0 26004170.408466339 -18129468.331787109 0 -18129468.331787109 -7305270.8101453781 0 0 0 0 -10869435.600185394 11730570.307219863 0 11730570.307219863 890196.50249409676 0 0 0 0 1993226.4880183786 450715.82706393907 0 450715.82706393907 -1377871.3167681911 0 0 0 0 -67103096.557788789 53994202.08213117 0 53994202.08213117 166933664.97707605 0 0 0 0 -5621006.487736702 3470216.3454098701 0 3470216.3454098701 -412949.19368219376 0 0 0 0 -10811201.513073206 6065636.720963547 0 6065636.720963547 -709732.13711408107 0 0 0 0 -4657427.031879425 4250527.1351938248 0 4250527.1351938248 216548.21890735626 0 0 0 0 -5597117.1444350053 3356351.4686528239 0 3356351.4686528239 -1431041.352556353 0 0 0 0 -23559573.95792532 9170672.9215976074 0 9170672.9215976074 51554227.828098059 0 0 0 0 -787831.44998168945 9277926.6065337062 0 9277926.6065337062 2676692.4228329659 0 0 0 0 -1734838.551079209 949065.5462609604 0 949065.5462609604 522562.97276321979 0 0 0 0 76623327.814554214 -60014682.652412891 0 -60014682.652412891 -599049336.51271868 0 0 0 0 -6647432.5215568542 3392703.8233747482 0 3392703.8233747482 -1567012.3212915659 0 0 0 0 -6771675.7419913085 1566875.3804226634 0 1566875.3804226634 790920.91863470897 0 0 0 0 -299291.16518108547 523751.40303597017 0 523751.40303597017 126988.24879880765 0 0 0 0 -6599044.7907009125 3665166.6044888496 0 3665166.6044888496 -351511.15461683273 0 0 0 0 -305895913.17526054 -240127675.85219836 0 -240127675.85219836 -273105288.96888673 0 0 0 0 -360565216.99151707 -78656187.884390026 0 -78656187.884390026 -32253000.902935505 0 0 0 0 -182968874.23551178 -398835431.3837328 0 -398835431.3837328 -41417156.650411248 0 0 0 0 -77344004.568092346 65978883.021013975 0 65978883.021013975 -451909122.6614542 0 0 0 0 -89264987.585176468 3607528.3406591415 0 3607528.3406591415 -83159280.734005451 0 0 0 0 -37835044.984031677 24659028.480759144 0 24659028.480759144 -180736246.70417058 0 0 0 0 -135361660.16166687 -96543529.123669624 0 -96543529.123669624 -131455892.29565257 0 0 0 0 -135772054.19783419 -63243958.061615139 0 -63243958.061615139 -94050325.597324371 0 0 0 0 -184811357.98698616 -42637616.016278505 0 -42637616.016278505 7549620.2637979649 0 0 0 0 -66651810.162712097 -47058434.936347008 0 -47058434.936347008 -95816545.548395634 0 0 0 0 -126636237.63204384 -83573788.761321783 0 -83573788.761321783 -81856399.27556324 0 0 0 0 -247170512.28921509 -102869340.48161435 0 -102869340.48161435 -47564383.559326172 0 0 0 0 -162810337.08306503 -33644605.64590168 0 -33644605.64590168 19284637.758787513 0 0 0 0 -228041997.48907042 12868293.037111163 0 12868293.037111163 21801669.7736063 0 0 0 0 -2166623.7992741242 3837387.3456950812 0 3837387.3456950812 -6824122.5131070577 0 0 0 0 -16083889.154051781 65279401.97902894 0 65279401.97902894 -56609699.089896917 0 0 0 0 -8233522.2189591471 3764909.4636499779 0 3764909.4636499779 -36872.041888626642 0 0 0 0 -17837876.7619524 -10780110.749615669 0 -10780110.749615669 -20446490.948390961 0 0 0 0 3655733.7801618576 10561252.665155411 0 10561252.665155411 -35139777.924645424 0 0 0 0 -4903553.8417916298 -11406927.568321168 0 -11406927.568321168 14059233.295656204 0 0 0 0 -4084655.1966256844 1690823.3175584525 0 1690823.3175584525 1824039.144145038 0 0 0 0 11588249.993415833 -2171350.7703429461 0 -2171350.7703429461 -1331713.7392055392 0 0 0 0 -1467298.0305222142 350686.88329823175 0 350686.88329823175 -799288.80386155203 0 0 0 0 -91635196.559440613 -112299832.56530511 0 -112299832.56530511 -98738967.417357445 0 0 0 0 -111651446.78090668 -193058508.30024147 0 -193058508.30024147 -234450390.51859868 0 0 0 0 -210931830.69837236 63455642.182177722 0 63455642.182177722 -26019622.495326042 0 0 0 0 -337428719.94197845 -164185225.36426926 0 -164185225.36426926 51479606.73030591 0 0 0 0 -292217812.31202316 45204694.743746728 0 45204694.743746728 10457730.167375565 0 0 0 0 -420228006.87664032 -126786318.77340385 0 -126786318.77340385 116061915.2425831 0 0 0 0 41726478.066861153 75707872.442220017 0 75707872.442220017 -56172570.101293743 0 0 0 0 -83163760.263525009 -152112872.62343106 0 -152112872.62343106 -174034226.14540344 0 0 0 0 29189364.62370491 -33020644.011457741 0 -33020644.011457741 -139704895.29665864 0 0 0 0 -294637924.36557865 -255401255.17757902 0 -255401255.17757902 -204249315.61084294 0 0 0 0 -386573260.22850227 -197558670.26474679 0 -197558670.26474679 -53893929.181355953 0 0 0 0 -393719519.65911293 97180071.46071887 0 97180071.46071887 41405.056352972984 0 0 0 0 -384254.12750226911 -156797.42382058967 0 -156797.42382058967 -60008.185438859728 0 0 0 0 -202557708.51242828 -116229502.5492208 0 -116229502.5492208 5877852.6548237801 0 0 0 0 -319647.58862955007 387023.19459222443 0 387023.19459222443 475915.67902492092 0 0 0 0 168685218.92405957 -101397856.86891674 0 -101397856.86891674 38193558.478826761 0 0 0 0 -375831654.97444391 156763104.6160475 0 156763104.6160475 -2829962.8492026329 0 0 0 0 -143021140.86030197 -124979921.7885434 0 -124979921.7885434 188763341.816571 0 0 0 0 -346785548.14682746 -274236141.84039348 0 -274236141.84039348 141678727.79554415 0 0 0 0 -84422026.787415504 28655014.575085819 0 28655014.575085819 46084747.931732893 0 0 0 0 -69643659.48415947 57386558.939828396 0 57386558.939828396 -75333511.364007503 0 0 0 0 780410.46381473541 -34055683.281601571 0 -34055683.281601571 38613717.495410867 0 0 0 0 -22487916.571102142 -34086312.247400619 0 -34086312.247400619 70183742.250627205 0 0 0 0 -1141847.8437059168 -378525.88252120931 0 -378525.88252120931 114884.88921926403 0 0 0 0 -899005.84548187256 -5709.0422177910805 0 -5709.0422177910805 516155.74513566494 0 0 0 0 -1165282.0905647278 -84481.302493602037 0 -84481.302493602037 788845.26226460934 0 0 0 0 -1788759.726366723 44580.641000703443 0 44580.641000703443 600452.42609162792 0 0 0 0 -1425661.4632549286 107497.09827798605 0 107497.09827798605 949295.62107729912 0 0 0 0 -45566083.051273346 -52725655.395590544 0 -52725655.395590544 -38733227.027304649 0 0 0 0 -1834892.2552013397 532506.09872072935 0 532506.09872072935 579827.54135304689 0 0 0 0 -1353816.4780152703 665800.15390610741 0 665800.15390610741 829472.14447168098 0 0 0 0 -1098347.2775038353 802198.85642983671 0 802198.85642983671 178035.09889862232 0 0 0 0 -107273768.09916538 8043859.8444913961 0 8043859.8444913961 -8150258.8847284317 0 0 0 0 -1135842.4757461548 -154269.44637811184 0 -154269.44637811184 529717.15597987175 0 0 0 0 -162201632.45401764 -81080937.739729285 0 -81080937.739729285 6266752.8535690308 0 0 0 0 -245136314.71991539 -79891602.458125591 0 -79891602.458125591 21182507.10054183 0 0 0 0 -243215834.29827547 -62828359.103228152 0 -62828359.103228152 47998467.280137062 0 0 0 0 -253897613.16360092 -19823438.531680942 0 -19823438.531680942 40572117.658919811 0 0 0 0 -160681893.59056211 -56070167.977976918 0 -56070167.977976918 -53896827.369451046 0 0 0 0 -143976984.63650703 -5418307.9036210775 0 -5418307.9036210775 -34122073.044724464 0 0 0 0 -226734122.86265182 -12163391.937907219 0 -12163391.937907219 60585762.094127178 0 0 0 0 -184964623.89082336 74037695.49580884 0 74037695.49580884 69864962.514842033 0 0 0 0 -251819245.6436348 -11461851.128993273 0 -11461851.128993273 67628982.403316498 0 0 0 0 -389268863.06378174 -20497203.778611183 0 -20497203.778611183 97395792.132837534 0 0 0 0 -303644432.56568718 35780953.977879286 0 35780953.977879286 35445520.990350723 0 0 0 0 -335426052.52114487 -141357882.10307932 0 -141357882.10307932 24979618.52482605 0 0 0 0 -302273935.66782093 26182461.130890131 0 26182461.130890131 97790804.974801064 0 0 0 0 -114830584.50699997 45018527.750067472 0 45018527.750067472 -79258275.207295895 0 0 0 0 -117303018.1901741 -5778576.6916983128 0 -5778576.6916983128 22675366.791689634 0 0 0 0 -250360854.37648392 -71012196.104578495 0 -71012196.104578495 56615002.235071182 0 0 0 0 -122926122.90401459 -61999931.126750946 0 -61999931.126750946 -21573843.476359326 0 0 0 0 -214926556.50673294 -108627763.41384256 0 -108627763.41384256 -21801766.551013947 0 0 0 0 42429520.814239502 -83005643.029735565 0 -83005643.029735565 -131718278.22520828 0 0 0 0 -1315867.2241183035 -547077.91095345886 0 -547077.91095345886 926458.65471724956 0 0 0 0 -104952557.02895355 -39044444.505155325 0 -39044444.505155325 -13123255.15858078 0 0 0 0 -503613500.57955551 -400825729.88778496 0 -400825729.88778496 -238920366.22449398 0 0 0 0 -168335003.0131073 -265732665.46457767 0 -265732665.46457767 -184603954.7991581 0 0 0 0 -163831228.46324062 -283136462.799312 0 -283136462.799312 -488042616.09756947 0 0 0 0 -390968351.48058701 -120741468.24174309 0 -120741468.24174309 18852193.056009293 0 0 0 0 -46116.487270019483 -43446.796835154761 0 -43446.796835154761 49810.750911760144 0 0 0 0 -397633793.78104401 293339497.70620704 0 293339497.70620704 -66056333.092417955 0 0 0 0 -635082.01574688964 66578.429376417771 0 66578.429376417771 188926.50157148496 0 0 0 0 -436488785.82060051 199785986.76789522 0 199785986.76789522 -107638968.86132526 0 0 0 0 -733031268.0839119 -21453680.36699295 0 -21453680.36699295 27999749.823835731 0 0 0 0 -710258872.01969147 -285206274.75597715 0 -285206274.75597715 -60897678.857782841 0 0 0 0 92392534.932092667 78348444.444001198 0 78348444.444001198 -382437417.18641686 0 0 0 0 6808.4989830451086 -198782.26541770436 0 -198782.26541770436 -828750.52313634055 0 0 0 0 -370848275.24114609 -68415657.810841322 0 -68415657.810841322 139361320.78459883 0 0 0 0 -590115238.10398388 -69754794.27073735 0 -69754794.27073735 146623913.49489355 0 0 0 0 -738787.34888419881 -112272.47618237324 0 -112272.47618237324 464703.99770948058 0 0 0 0 -1332950.063331604 4088.2548699378967 0 4088.2548699378967 279251.03552961349 0 0 0 0 -136867570.37846279 -1652383.015664041 0 -1652383.015664041 -806456.46902084351 0 0 0 0 -6825671.2900905609 -5253303.7013819218 0 -5253303.7013819218 -8999543.7000689507 0 0 0 0 -7715328.983417511 -1027898.6360512376 0 -1027898.6360512376 235364.61944848299 0 0 0 0 -9119848.1563816071 -6008597.1244941354 0 -6008597.1244941354 -4377045.9762010574 0 0 0 0 -820672.69951464119 495257.27934131678 0 495257.27934131678 456677.26255098055 0 0 0 0 -1247087.641746521 55692.123221278191 0 55692.123221278191 274536.72577524185 0 0 0 0 -25868075.263982773 19624977.836605996 0 19624977.836605996 41606112.51926595 0 0 0 0 -6460839.5031242371 -7061752.8105968237 0 -7061752.8105968237 -62892128.447930217 0 0 0 0 16216981.922054291 68969305.67806071 0 68969305.67806071 22558750.175875723 0 0 0 0 -2734916.6816933528 -477286.36483191466 0 -477286.36483191466 1402835.0877394548 0 0 0 0 9463568.2889080048 28908107.67575112 0 28908107.67575112 27116652.839422464 0 0 0 0 5573318.6067352295 21338605.711977065 0 21338605.711977065 104133411.88361058 0 0 0 0 -45470539.09431839 48292608.685320139 0 48292608.685320139 20276483.952338159 0 0 0 0 -33807747.597236633 9997555.9023154378 0 9997555.9023154378 51597404.972646713 0 0 0 0 -37527853.022071838 16033881.868039608 0 16033881.868039608 42046774.629310608 0 0 0 0 -44078820.021483421 11630827.395637492 0 11630827.395637492 39912712.764595389 0 0 0 0 -96125962.386590958 99273199.778532624 0 99273199.778532624 -50246655.996721506 0 0 0 0 -1067175.8493983354 -85860.922383738332 0 -85860.922383738332 83753.390313824624 0 0 0 0 -59680442.259105682 -146718136.34912634 0 -146718136.34912634 -70502406.959961504 0 0 0 0 3788387.6308822632 37391914.23395136 0 37391914.23395136 -148779186.76202083 0 0 0 0 71389710.326433182 -308260840.39775079 0 -308260840.39775079 -233961029.94219297 0 0 0 0 199881.51947003696 -407889.45156036038 0 -407889.45156036038 -2070218.0618292128 0 0 0 0 -166861467.13319016 46580528.282822549 0 46580528.282822549 93920391.186928749 0 0 0 0 -97056674.12804985 -41662463.804089308 0 -41662463.804089308 122163346.92298698 0 0 0 0 23734990.080035686 73245451.630776644 0 73245451.630776644 -70700324.645978212 0 0 0 0 -41965841.263469696 -60515606.856813908 0 -60515606.856813908 6935721.8213313818 0 0 0 0 -78457233.176130295 59236267.498737335 0 59236267.498737335 20859060.424776554 0 0 0 0 140294387.13274765 -46892322.762551785 0 -46892322.762551785 -33022117.418226957 0 0 0 0 24997241.246952057 121699052.42970133 0 121699052.42970133 40576577.430908203 0 0 0 0 -125608524.59081268 8570626.946305275 0 8570626.946305275 26603190.715742856 0 0 0 0 -118603963.48073578 -4069916.0477674007 0 -4069916.0477674007 155362445.90457916 0 0 0 0 132174420.09524727 -186509944.37020707 0 -186509944.37020707 -152222286.72407913 0 0 0 0 136406231.71154785 39095625.134921312 0 39095625.134921312 -41437296.065308809 0 0 0 0 135388.93941850215 -455212.1059840396 0 -455212.1059840396 -2069623.1036067964 0 0 0 0 44431065.878797531 28854429.352916598 0 28854429.352916598 -37187910.146697879 0 0 0 0 -2931743.2666015625 11816370.334484816 0 11816370.334484816 -7354682.0100259781 0 0 0 0 4597110.2515115738 -2010799.0332170129 0 -2010799.0332170129 38661082.154988289 0 0 0 0 -77735434.799509048 152562675.51419121 0 152562675.51419121 57087249.302505493 0 0 0 0 -199346899.27387142 -89674380.57903485 0 -89674380.57903485 765555.99043262005 0 0 0 0 23764714.241249084 -2852708.0476181507 0 -2852708.0476181507 17168757.626631409 0 0 0 0 -2374779.6734499931 -126210671.95380542 0 -126210671.95380542 -73344032.64949441 0 0 0 0 -194692025.90193558 69819770.82767868 0 69819770.82767868 70983096.004701376 0 0 0 0 -52551.604339949787 -432935.49955084641 0 -432935.49955084641 -420215.80950665439 0 0 0 0 -70555690.687137604 -138101776.41224384 0 -138101776.41224384 -48348206.175065875 0 0 0 0 -117050658.04350281 107559557.08643073 0 107559557.08643073 -20491838.994672298 0 0 0 0 -114550203.74963379 4943283.0413025022 0 4943283.0413025022 15952277.205598116 0 0 0 0 -224117857.97451591 -26637778.251167417 0 -26637778.251167417 73358622.080577374 0 0 0 0 -56780883.950344086 37338617.707937241 0 37338617.707937241 31369848.540698171 0 0 0 0 38122820.042896271 -44991741.219588399 0 -44991741.219588399 42935772.554177999 0 0 0 0 -372519.52886019088 -968488.51674913871 0 -968488.51674913871 -809989.57330923399 0 0 0 0 82966989.129699707 -84131699.684184551 0 -84131699.684184551 62304940.443120837 0 0 0 0 -73789130.109758377 -46141510.229965173 0 -46141510.229965173 147351820.4475348 0 0 0 0 31670281.784980774 -162000839.83924115 0 -162000839.83924115 176843022.91612816 0 0 0 0 59882339.314629078 9257142.8636269271 0 9257142.8636269271 -40020067.091649532 0 0 0 0 41554705.098566055 -14488565.525808573 0 -14488565.525808573 78334749.146686912 0 0 0 0 -4646416.9004554749 -135694437.40031359 0 -135694437.40031359 164957607.44133472 0 0 0 0 -629180.28547498956 -1074611.6290920139 0 -1074611.6290920139 -812331.87416521017 0 0 0 0 -16748940.488442659 -104825985.88539854 0 -104825985.88539854 -25985118.185970306 0 0 0 0 -71957543.487354279 -124668183.20141006 0 -124668183.20141006 -59469078.778802395 0 0 0 0 -103309226.61756134 -108202308.82092762 0 -108202308.82092762 -32633106.784645557 0 0 0 0 -73980931.092718124 -94528299.105377197 0 -94528299.105377197 -27835775.048954725 0 0 0 0 -229542733.61965179 -12401561.43026495 0 -12401561.43026495 18497308.191121101 0 0 0 0 -93143385.938043594 -79049586.456617117 0 -79049586.456617117 -38668749.711676598 0 0 0 0 -50312683.999891281 23081686.982036114 0 23081686.982036114 46030898.054491207 0 0 0 0 -105936211.65058899 -18768001.524896979 0 -18768001.524896979 17860447.434694529 0 0 0 0 -137503630.06717682 20142972.989315271 0 20142972.989315271 59029849.074274063 0 0 0 0 -20683117.036987066 -61307465.883971497 0 -61307465.883971497 98040057.085330009 0 0 0 0 -227642936.99276161 143332251.74667573 0 143332251.74667573 -15765796.934856772 0 0 0 0 5831.2557538244873 126411.50151772425 0 126411.50151772425 -311784.9975708467 0 0 0 0 -39383635.260288239 -160089773.87065256 0 -160089773.87065256 -64721299.852799416 0 0 0 0 -155823190.27356911 -217472295.18489945 0 -217472295.18489945 -32654799.572924614 0 0 0 0 282752690.39726257 59831192.829257965 0 59831192.829257965 78124773.864498138 0 0 0 0 -66470.274575414485 -4232.7731921933591 0 -4232.7731921933591 67084.993620050373 0 0 0 0 -38948793.340848088 -20004917.121348124 0 -20004917.121348124 50660291.947020054 0 0 0 0 -39396816.161499023 891078.99646282196 0 891078.99646282196 -19403738.805276155 0 0 0 0 -11477502.31806469 -9061920.6011782885 0 -9061920.6011782885 -8270067.2603123188 0 0 0 0 -444930.02826919639 -347677.99589192821 0 -347677.99589192821 114300.91636058292 0 0 0 0 -1695174.0206364393 640970.00564257801 0 640970.00564257801 -125464.45686817169 0 0 0 0 -440320.36880755221 536596.47295291442 0 536596.47295291442 -21223.336137441453 0 0 0 0 -45630950.453988135 -15296051.654359296 0 -15296051.654359296 15115338.206237793 0 0 0 0 -376245477.88195229 -45673118.222530127 0 -45673118.222530127 46477883.382332087 0 0 0 0 -184004913.34340668 154772678.06225395 0 154772678.06225395 -112486388.72506356 0 0 0 0 -39613791.713779449 9614293.027076602 0 9614293.027076602 14516497.650710583 0 0 0 0 98927146.462249756 -166812576.820225 0 -166812576.820225 -304317283.64501238 0 0 0 0 -40550349.398504257 94323916.376341224 0 94323916.376341224 -7315909.5824718475 0 0 0 0 -356595.61038487777 -510135.50113859493 0 -510135.50113859493 -379640.53230858047 0 0 0 0 -402824077.35067749 101434708.02773905 0 101434708.02773905 225853135.52676117 0 0 0 0 -376947875.39468479 230861466.75667691 0 230861466.75667691 159015499.03855276 0 0 0 0 -460219163.72094727 -27775340.20891428 0 -27775340.20891428 55192651.753448009 0 0 0 0 -304134233.77727842 35675532.400228381 0 35675532.400228381 36596909.595873833 0 0 0 0 -232836726.11090469 -187991424.90133667 0 -187991424.90133667 -6384853.8003592491 0 0 0 0 5606734.2442951202 -199290877.1663394 0 -199290877.1663394 -45643619.040772438 0 0 0 0 -47286976.444179535 -125592331.23831463 0 -125592331.23831463 -6246127.486395359 0 0 0 0 -39615763.226043701 -110791725.28505111 0 -110791725.28505111 -54545136.400066853 0 0 0 0 -90778519.430316925 -91762726.188448906 0 -91762726.188448906 -32160392.782719612 0 0 0 0 -89746173.709821701 -25439366.554471016 0 -25439366.554471016 14871640.555496693 0 0 0 0 -44365029.482460022 -7895546.5665614605 0 -7895546.5665614605 17011838.662385941 0 0 0 0 -14138322.20249176 -13171682.488332748 0 -13171682.488332748 -17365870.266759396 0 0 0 0 -47412521.31848526 11078640.643845499 0 11078640.643845499 -31997305.911335945 0 0 0 0 102608828.84572005 -46693574.419811055 0 -46693574.419811055 20648505.760472298 0 0 0 0 -47831651.316160202 160436786.10018694 0 160436786.10018694 -77876471.759782314 0 0 0 0 -112462.37473627646 126180.21800988261 0 126180.21800988261 -295505.03373359772 0 0 0 0 151418176.0320425 -15245625.687083125 0 -15245625.687083125 -81898282.939090729 0 0 0 0 -120969319.09910393 18674417.189436436 0 18674417.189436436 31975804.256823063 0 0 0 0 -68085332.080042839 -54171073.537010074 0 -54171073.537010074 -4280074.8028998375 0 0 0 0 16564649.910770416 48137336.754729271 0 48137336.754729271 -56290214.459857464 0 0 0 0 4782250.0954990387 -3948488.3736903667 0 -3948488.3736903667 5268664.4684810638 0 0 0 0 -1321114.2304940962 451823.38715770002 0 451823.38715770002 491556.24155531311 0 0 0 0 33589137.063729227 22533081.790882692 0 22533081.790882692 -17797301.336643219 0 0 0 0 -13367439.521942139 -10601850.536801338 0 -10601850.536801338 11939793.355950356 0 0 0 0 -17123745.16894722 -10960295.04031086 0 -10960295.04031086 15010829.403118849 0 0 0 0 -18514897.143291473 -2832673.5601224899 0 -2832673.5601224899 13350076.620749474 0 0 0 0 -14014298.591369629 -7096521.4663653374 0 -7096521.4663653374 17087692.088851452 0 0 0 0 -63166426.653709412 -11279653.882258892 0 -11279653.882258892 31124987.60644263 0 0 0 0 -24605211.649851799 -13947344.998629689 0 -13947344.998629689 28856473.148901463 0 0 0 0 32569795.750677109 -13667308.910995841 0 -13667308.910995841 -22829502.867209196 0 0 0 0 -376118.58115352149 220326.08402163535 0 220326.08402163535 127768.89893770637 0 0 0 0 -15799765.756931305 -13949093.485898256 0 -13949093.485898256 11468690.18818748 0 0 0 0 37936621.973968506 -22312444.429263711 0 -22312444.429263711 -6066406.9714078903 0 0 0 0 -10716844.072432041 -15112976.314093411 0 -15112976.314093411 27124714.811050415 0 0 0 0 -20704811.982152939 -3053083.4796977043 0 -3053083.4796977043 13995490.652313709 0 0 0 0 -3037901.5162067413 8063559.50699687 0 8063559.50699687 20990390.398385525 0 0 0 0 -18514537.278446198 -2659564.1754364967 0 -2659564.1754364967 10587388.612448215 0 0 0 0 -22047232.774814606 3564211.165822506 0 3564211.165822506 23182784.744031191 0 0 0 0 -34334460.317481995 -4639510.0302863121 0 -4639510.0302863121 26349131.915159583 0 0 0 0 -25288752.932653427 -6540546.467451334 0 -6540546.467451334 32813099.531953812 0 0 0 0 -27537376.932625771 4793227.1260697842 0 4793227.1260697842 38124782.741014004 0 0 0 0 -45673722.23767662 14836097.393935204 0 14836097.393935204 10397407.885195017 0 0 0 0 2004598.1109200716 -945400.5993052721 0 -945400.5993052721 185135.47040510178 0 0 0 0 2324865.7864723206 -3237783.0534436703 0 -3237783.0534436703 1145474.2632808685 0 0 0 0 -5537705.0958023071 -8722447.6128783226 0 -8722447.6128783226 33730227.976963043 0 0 0 0 4856010.7853183746 6726639.3180863857 0 6726639.3180863857 -3992455.1105241776 0 0 0 0 -20450863.134746552 -20593155.121450186 0 -20593155.121450186 -17530098.672975063 0 0 0 0 -43237.318884106353 -182163.20571385609 0 -182163.20571385609 -46810.197263422073 0 0 0 0 -18237856.609384537 14487257.956170559 0 14487257.956170559 -13166283.910551071 0 0 0 0 -39096450.578296661 -28267355.719012499 0 -28267355.719012499 -8430088.6162414551 0 0 0 0 -48077626.42893219 -23070994.840438366 0 -23070994.840438366 -3972361.2684013844 0 0 0 0 -30356295.456695557 -9504217.4218893051 0 -9504217.4218893051 -6437260.1708750725 0 0 0 0 138349.81691876892 -28840.32033097418 0 -28840.32033097418 -163511.20334531181 0 0 0 0 7281695.5852527618 -30188444.958714247 0 -30188444.958714247 -1158911.4374871254 0 0 0 0 -15197033.732273102 -13155654.731002688 0 -13155654.731002688 39006582.090925455 0 0 0 0 40159771.822881699 -23224726.439934731 0 -23224726.439934731 -15135167.080320597 0 0 0 0 -15606508.209709167 -20922138.286343694 0 -20922138.286343694 -41982680.545939922 0 0 0 0 -34743571.305936813 9779905.1166142225 0 9779905.1166142225 5472410.1921771765 0 0 0 0 -7573722.6528644562 -9960505.5085610151 0 -9960505.5085610151 -17666560.52144745 0 0 0 0 -6532831.3453845978 -6672217.6812626123 0 -6672217.6812626123 -11491689.066771746 0 0 0 0 -9639417.3087511063 -8074722.8007333875 0 -8074722.8007333875 -7277623.5872292519 0 0 0 0 -10251188.409757614 -6241350.8972141743 0 -6241350.8972141743 -11479276.305242538 0 0 0 0 -3315078.7065830231 -4131593.2077410817 0 -4131593.2077410817 -7173216.687121043 0 0 0 0 -8938188.6783943176 -9603394.3932908773 0 -9603394.3932908773 -6228513.5099701732 0 0 0 0 -16580166.421403885 -9308577.4335861206 0 -9308577.4335861206 -6227443.575820893 0 0 0 0 -13918680.296895504 -15358000.045102358 0 -15358000.045102358 -6031017.2378251553 0 0 0 0 -25660491.946855545 -15538274.819234014 0 -15538274.819234014 -1693102.6793348193 0 0 0 0 -21850765.259991646 -30061746.037635058 0 -30061746.037635058 -51823.078639268875 0 0 0 0 -10069571.350322723 -30275892.597401738 0 -30275892.597401738 -6956215.526745379 0 0 0 0 -12505061.50547123 -28788376.188761652 0 -28788376.188761652 -7426362.3763403893 0 0 0 0 -12271887.327904701 -25811959.274551153 0 -25811959.274551153 -17713255.170918465 0 0 0 0 -6495732.5335006714 -16038399.69036901 0 -16038399.69036901 -7734599.5932615995 0 0 0 0 -9926135.8694992065 -12600202.969340682 0 -12600202.969340682 -11179728.617982149 0 0 0 0 -3303993.97996521 -6092094.4982721806 0 -6092094.4982721806 -18308594.031484008 0 0 0 0 -7997310.4752597809 -10003469.806730211 0 -10003469.806730211 -10163295.215434074 0 0 0 0 -4503249.0305728912 -10867385.173910975 0 -10867385.173910975 -19457374.637569904 0 0 0 0 19987787.413547516 -20990501.8015275 0 -20990501.8015275 -17215004.919937983 0 0 0 0 -8962440.326634407 -49015813.2969203 0 -49015813.2969203 -29769698.298435807 0 0 0 0 73192092.557062149 -45636279.418958575 0 -45636279.418958575 -37006559.578009367 0 0 0 0 -3504003.2507465426 384189.0063822947 0 384189.0063822947 378952.04164455243 0 0 0 0 -4802103.9608459473 -698640.54070663452 0 -698640.54070663452 -1209391.8269793987 0 0 0 0 -5406564.9922399521 11463801.546832655 0 11463801.546832655 28208740.463630386 0 0 0 0 33597327.425546646 4879635.2459209561 0 4879635.2459209561 -15059212.896548986 0 0 0 0 -137095.26902437396 159572.20648653177 0 159572.20648653177 92882.563437914243 0 0 0 0 -16040079.79450655 -2909002.6918996722 0 -2909002.6918996722 55534864.501239598 0 0 0 0 -1896263.3458864074 126029.15402932162 0 126029.15402932162 147811.08911284633 0 0 0 0 2447441.1033315659 2717171.5570629854 0 2717171.5570629854 18704010.638244554 0 0 0 0 -928111.65264892578 -582601.52417266369 0 -582601.52417266369 1656191.1726512313 0 0 0 0 -8648286.6016378403 -9104712.8607106805 0 -9104712.8607106805 -7687673.8422651291 0 0 0 0 -7164139.423084259 -6769437.4473599195 0 -6769437.4473599195 -6886319.7966588736 0 0 0 0 -1931981.513202725 -570244.59690488852 0 -570244.59690488852 700624.85669132986 0 0 0 0 -14854215.330551147 25516302.44599843 0 25516302.44599843 -66577478.068823516 0 0 0 0 6803.5982652679086 -149902.00199848745 0 -149902.00199848745 -70771.089761589188 0 0 0 0 -31216636.00392437 35186483.383738056 0 35186483.383738056 -37399700.223097801 0 0 0 0 3888663.4156179428 -1813863.9717782736 0 -1813863.9717782736 -18919530.228063345 0 0 0 0 -8293424.6770076752 -11747645.892210364 0 -11747645.892210364 -2145656.4369968176 0 0 0 0 -784170.00513076782 -5155687.9207308292 0 -5155687.9207308292 6475156.6148097795 0 0 0 0 -5020789.2582874298 -15051913.117482305 0 -15051913.117482305 -26245870.607392669 0 0 0 0 -462409.378862557 -207000.27348926337 0 -207000.27348926337 323625.32632289175 0 0 0 0 6712329.9695854187 -15514380.233451366 0 -15514380.233451366 -15775940.191727996 0 0 0 0 -21930236.017688751 5333041.1914319992 0 5333041.1914319992 -23260995.109408855 0 0 0 0 2163253.5930438042 15230183.169838481 0 15230183.169838481 -33779378.357810736 0 0 0 0 -73532266.617549896 51039413.310423613 0 51039413.310423613 -46253451.679200418 0 0 0 0 -46848947.644908905 49092008.568724751 0 49092008.568724751 -49102061.291895628 0 0 0 0 -157759667.79160309 49088874.486428618 0 49088874.486428618 -17251148.651827097 0 0 0 0 -88398312.066333771 18072694.587171674 0 18072694.587171674 -5504925.7837889194 0 0 0 0 -99105567.424682617 21681266.690707326 0 21681266.690707326 -4562774.7749637663 0 0 0 0 -58045648.20844841 -100571720.76368856 0 -100571720.76368856 -12728259.021915495 0 0 0 0 -3328194.2961238939 295196.35884475056 0 295196.35884475056 281311.42664943793 0 0 0 0 -173428075.25043654 -29488153.541896969 0 -29488153.541896969 10432274.356915474 0 0 0 0 -21509490.905373573 -41028957.603796363 0 -41028957.603796363 -8563215.6740834713 0 0 0 0 -83508346.122177124 -50544381.681339025 0 -50544381.681339025 14997264.596014321 0 0 0 0 -36337182.709621429 -8783840.2159721851 0 -8783840.2159721851 -16475671.855016336 0 0 0 0 -71472460.091513634 15791604.328703105 0 15791604.328703105 -12687728.182709098 0 0 0 0 -46682536.755218506 -9611843.6844969988 0 -9611843.6844969988 -5016991.78901124 0 0 0 0 -20230311.694404602 -19096145.595567226 0 -19096145.595567226 -2163153.4777026772 0 0 0 0 -30025173.543096542 -38258892.837504864 0 -38258892.837504864 -9360070.3637945652 0 0 0 0 -21016655.584317684 -14477182.248277545 0 -14477182.248277545 6368329.5956790447 0 0 0 0 -12101946.075731277 -14834579.230062246 0 -14834579.230062246 5792030.2680724859 0 0 0 0 -37556916.154172897 599801.76059830189 0 599801.76059830189 10034805.633239508 0 0 0 0 -10723844.573068619 -1526051.1470694542 0 -1526051.1470694542 9663134.666952014 0 0 0 0 -22400552.903900146 6079186.1885871887 0 6079186.1885871887 22019058.420946121 0 0 0 0 -60468989.341521263 12206525.059453249 0 12206525.059453249 -11863425.123699427 0 0 0 0 -21169225.880159378 -4323071.2310427427 0 -4323071.2310427427 -8588193.936434269 0 0 0 0 -31017128.128591061 22184949.232834607 0 22184949.232834607 1560475.8685135841 0 0 0 0 -17567688.364527702 10074492.41771099 0 10074492.41771099 15688804.650099516 0 0 0 0 -7991706.1988296509 -7905452.8845348358 0 -7905452.8845348358 -32260823.989087343 0 0 0 0 1074071.880408287 45014624.471958429 0 45014624.471958429 23582439.879059553 0 0 0 0 -4930376.008523941 7689308.2641029358 0 7689308.2641029358 9615140.3397758007 0 0 0 0 -3874111.9619998932 24063668.640203953 0 24063668.640203953 17836150.775614858 0 0 0 0 16758048.350126266 10707756.867237926 0 10707756.867237926 21038761.019612074 0 0 0 0 -496989.44694328308 39812.919705152512 0 39812.919705152512 309935.5995644927 0 0 0 0 297622.43271160126 18836369.737312138 0 18836369.737312138 27751993.4136343 0 0 0 0 -548773.24271345232 -81352.737906335853 0 -81352.737906335853 336264.73986212676 0 0 0 0 -228689.81551938038 99196.348060151096 0 99196.348060151096 357428.00197397918 0 0 0 0 4906004.2774982452 15304503.118149757 0 15304503.118149757 21171530.144437954 0 0 0 0 -277671.90755271912 -77073.157593011856 0 -77073.157593011856 307001.02454948425 0 0 0 0 -9505375.0187373161 1264405.9000006914 0 1264405.9000006914 1174749.2913546562 0 0 0 0 -217742.05872154236 -101475.93146729469 0 -101475.93146729469 277898.94148182869 0 0 0 0 -235034.85334014893 -68817.320657730103 0 -68817.320657730103 247370.06323027611 0 0 0 0 -254007.12223065132 168569.56413700478 0 168569.56413700478 287707.70061957836 0 0 0 0 -1111374.4378013611 -3869315.8533603847 0 -3869315.8533603847 15670592.663696289 0 0 0 0 -16899239.353302002 2735347.137185812 0 2735347.137185812 19562773.232322693 0 0 0 0 -6110961.2293767929 -231649.82464230061 0 -231649.82464230061 19867115.877575874 0 0 0 0 -461373.0259125391 -291247.02365714638 0 -291247.02365714638 410036.99364370166 0 0 0 0 -139581.84838867188 -367188.51353645325 0 -367188.51353645325 391283.75771522522 0 0 0 0 -4698864.6463422775 3432157.3271714449 0 3432157.3271714449 22896553.654938579 0 0 0 0 -144202.83674049377 -406086.05696558952 0 -406086.05696558952 439197.85442376137 0 0 0 0 -176344.6864832975 -380576.42633501452 0 -380576.42633501452 -49356.356504228781 0 0 0 0 4465166.7630977631 4180257.7176220417 0 4180257.7176220417 4083261.6469247341 0 0 0 0 -741855.87842941284 -8699336.4380836487 0 -8699336.4380836487 19263355.114471555 0 0 0 0 147602.66962376051 -20838.883015851025 0 -20838.883015851025 -185890.79362040665 0 0 0 0 -3447811.4803504944 851434.01402616501 0 851434.01402616501 33048312.894165993 0 0 0 0 -175344.35059263278 -186495.82270005904 0 -186495.82270005904 208651.98385225632 0 0 0 0 3919339.6671943665 3022236.4531607628 0 3022236.4531607628 15733188.069591522 0 0 0 0 -246649.24273300171 -8511626.4132056236 0 -8511626.4132056236 23762337.939002991 0 0 0 0 -1349122.1292419434 -3147531.7563428879 0 -3147531.7563428879 25389195.788375854 0 0 0 0 -790561.54854202271 288097.37478375435 0 288097.37478375435 669159.04233312607 0 0 0 0 -130473.81220739428 -267592.60628104681 0 -267592.60628104681 32932.80681267468 0 0 0 0 -64561.718459129333 -3601940.9328638315 0 -3601940.9328638315 19115591.817286491 0 0 0 0 2290736.8373832703 -4828776.1827716827 0 -4828776.1827716827 6478667.8397655487 0 0 0 0 366047.14007902145 495469.21604800224 0 495469.21604800224 11194869.860390663 0 0 0 0 3304289.2106056213 -1981024.2751438618 0 -1981024.2751438618 -12840719.56375885 0 0 0 0 -219899.92681041826 -310242.68488531868 0 -310242.68488531868 -102742.86490755848 0 0 0 0 87717.030515676364 -1237.7043693508022 0 -1237.7043693508022 -192806.17086497624 0 0 0 0 3865813.6038722992 -10432047.24503231 0 -10432047.24503231 11933411.288202286 0 0 0 0 3285599.3380298615 -13277762.700837374 0 -13277762.700837374 8891366.8878507614 0 0 0 0 1158979.2507324219 -14231600.668808937 0 -14231600.668808937 16566740.037049294 0 0 0 0 230771.55075073242 -14538624.179589748 0 -14538624.179589748 16498819.272404671 0 0 0 0 412367.63682174683 -13435706.459884405 0 -13435706.459884405 17460321.134997368 0 0 0 0 -1604737.4514656067 -14130503.804754972 0 -14130503.804754972 21107735.429634571 0 0 0 0 225643.44799804688 -9562070.7787423134 0 -9562070.7787423134 14566186.942576885 0 0 0 0 -905860.9538860321 -13591497.931463003 0 -13591497.931463003 21267849.230851114 0 0 0 0 -887383.25252151489 -14071907.83423543 0 -14071907.83423543 17220420.252857685 0 0 0 0 -2757688.2539901733 -11294614.512805939 0 -11294614.512805939 20726706.817761421 0 0 0 0 -260285.74196052551 -109772.58305108547 0 -109772.58305108547 339010.20663404465 0 0 0 0 -722438.41069412231 -736263.48861980438 0 -736263.48861980438 1679028.7406628132 0 0 0 0 -24646.118857126683 -269540.94790539012 0 -269540.94790539012 26119.400433020375 0 0 0 0 696519.06851387024 -20121.938946962357 0 -20121.938946962357 -1238023.7144727707 0 0 0 0 -1289095.063747406 446773.5412068367 0 446773.5412068367 861330.78271269798 0 0 0 0 5916797.6472759247 -5981057.4977642894 0 -5981057.4977642894 3344160.6505317688 0 0 0 0 -583128.66962814331 1443650.4614419937 0 1443650.4614419937 -742456.06759130955 0 0 0 0 78995.246946622618 -6640.5104243650567 0 -6640.5104243650567 -110209.52908307151 0 0 0 0 9560980.1252689362 -19477422.674480438 0 -19477422.674480438 14890250.083657742 0 0 0 0 18174588.720476151 -12938464.628347397 0 -12938464.628347397 2339453.1454284787 0 0 0 0 4850228.652633667 1461608.5056293011 0 1461608.5056293011 1560132.8981328011 0 0 0 0 -12413980.095777988 -10435786.252013147 0 -10435786.252013147 -5224896.1715655327 0 0 0 0 2855597.2158699036 -1321018.2550253868 0 -1321018.2550253868 -1985093.9298820496 0 0 0 0 -184161.98548451951 186528.12499073148 0 186528.12499073148 354911.00467122928 0 0 0 0 -17443542.478754997 -8272301.7066807747 0 -8272301.7066807747 -5721011.8080639839 0 0 0 0 -24390665.991344452 -1646076.5583958626 0 -1646076.5583958626 22509995.089853764 0 0 0 0 -88392.744021588005 118726.73225431331 0 118726.73225431331 155049.04684671341 0 0 0 0 23110495.180915833 -31541790.102740049 0 -31541790.102740049 24713723.097973347 0 0 0 0 41303785.350063324 -11981012.038198709 0 -11981012.038198709 5997558.5366930962 0 0 0 0 -7716764.3537902832 949246.66943883896 0 949246.66943883896 27682330.644508362 0 0 0 0 -24472199.784973145 -15085299.731480122 0 -15085299.731480122 40418841.213434696 0 0 0 0 -4745777.6747112274 -27427449.760073185 0 -27427449.760073185 32493521.422422647 0 0 0 0 -421317.30658340454 -8466001.9420733452 0 -8466001.9420733452 -4140118.5478844643 0 0 0 0 -5458208.161886692 -15666491.288437724 0 -15666491.288437724 13308750.089014053 0 0 0 0 -13788710.742384911 -13942578.256590843 0 -13942578.256590843 13978694.590397835 0 0 0 0 13690989.968191147 -22075305.586370945 0 -22075305.586370945 8222576.2496709824 0 0 0 0 9149498.1323459148 985574.21809718013 0 985574.21809718013 1482118.7655277252 0 0 0 0 -22421694.039989471 -8602592.5727021694 0 -8602592.5727021694 158588.19260334969 0 0 0 0 -5863872.8496217728 -10911845.674879789 0 -10911845.674879789 -18259709.176381111 0 0 0 0 -5977499.3954315186 -8808484.2796320915 0 -8808484.2796320915 -3758793.5890681744 0 0 0 0 -22416101.709100723 -51130156.118161678 0 -51130156.118161678 17129209.760848999 0 0 0 0 -957013.65487289429 24709604.30570507 0 24709604.30570507 -21205418.464483261 0 0 0 0 -82101007.562180519 119994407.74123263 0 119994407.74123263 -132928500.6619072 0 0 0 0 -965435.88136886107 -404848.950169174 0 -404848.950169174 -107508.69857075438 0 0 0 0 -18518336.455886841 -7692625.5360708237 0 -7692625.5360708237 -2177100.0526123047 0 0 0 0 -24596842.78017807 673907.95174598694 0 673907.95174598694 -8285176.2066326141 0 0 0 0 121334.50276285317 105124.38162057288 0 105124.38162057288 -186233.84956181888 0 0 0 0 5514806.0911827087 -78504.358882665634 0 -78504.358882665634 -19991081.751775742 0 0 0 0 -28556018.178295135 13647359.770927191 0 13647359.770927191 -6276775.7396757603 0 0 0 0 -7748143.2073402405 -2983567.0344119072 0 -2983567.0344119072 1630060.9498300552 0 0 0 0 172978.45587634807 153282.56613192707 0 153282.56613192707 -258406.57665088354 0 0 0 0 -15668003.756336212 -15722420.415991545 0 -15722420.415991545 13099428.01254487 0 0 0 0 -35537225.335769653 28711898.429148912 0 28711898.429148912 -16571835.473351479 0 0 0 0 -90306928.258274078 -4718907.4157340527 0 -4718907.4157340527 45444141.271446228 0 0 0 0 -21652246.150756836 6809290.3273149729 0 6809290.3273149729 12856671.788001537 0 0 0 0 -3487592.3992233276 -20040115.427186489 0 -20040115.427186489 38903261.237973213 0 0 0 0 -5016164.286989212 -3793997.2555141449 0 -3793997.2555141449 6505632.7774343491 0 0 0 0 312050.33099365234 -16114324.724724352 0 -16114324.724724352 17406902.472270489 0 0 0 0 1162283.1348133087 -19043034.346220493 0 -19043034.346220493 17596981.051329136 0 0 0 0 -441507.43543434143 -16994969.452278614 0 -16994969.452278614 16545504.485147238 0 0 0 0 -1397275.7139720917 -16574337.461396456 0 -16574337.461396456 19543125.605749607 0 0 0 0 -41785739.006889343 13762583.739084482 0 13762583.739084482 7826083.6227645874 0 0 0 0 99048.846402879339 93641.853472030722 0 93641.853472030722 -121379.3772210665 0 0 0 0 -34093759.449398994 127156.4442987442 0 127156.4442987442 13333978.2613554 0 0 0 0 -18118842.353285074 1232949.6376284957 0 1232949.6376284957 6815075.2094955444 0 0 0 0 -11244601.795627594 -548690.12800836563 0 -548690.12800836563 1498478.6053123474 0 0 0 0 -18407068.920473099 3368385.5274894238 0 3368385.5274894238 2798047.216340065 0 0 0 0 -15726872.710970402 4772726.0796751976 0 4772726.0796751976 661236.24215221405 0 0 0 0 -14463696.375833511 499658.6411998868 0 499658.6411998868 1218430.844912529 0 0 0 0 -7734449.4979362488 2485313.8682808876 0 2485313.8682808876 133480.05408525467 0 0 0 0 -18646035.818874359 2828411.8696131706 0 2828411.8696131706 1407222.3284549713 0 0 0 0 -23216959.044765472 5758690.0723580122 0 5758690.0723580122 903910.94569587708 0 0 0 0 -24608773.079465866 11223575.671201706 0 11223575.671201706 -1985933.5067820549 0 0 0 0 -24906471.454202652 2396361.9159021378 0 2396361.9159021378 4058832.8436338902 0 0 0 0 -15911608.116695404 4358547.6123170853 0 4358547.6123170853 5958939.4760303497 0 0 0 0 -17403625.596311331 -8501274.4744196236 0 -8501274.4744196236 6387757.1244125366 0 0 0 0 -11714346.520435333 -4679716.4811372757 0 -4679716.4811372757 -1876592.314602375 0 0 0 0 -25867807.273683548 8708945.8857182264 0 8708945.8857182264 3736893.0352621078 0 0 0 0 -3072677.7841758728 -3144585.4310808182 0 -3144585.4310808182 -1813746.894244194 0 0 0 0 -602134.2675590422 137256.61358886724 0 137256.61358886724 -33735.371968999971 0 0 0 0 -11622012.923812389 2175621.3041107655 0 2175621.3041107655 18516877.45423317 0 0 0 0 1812469.6010513306 119580.87170100212 0 119580.87170100212 -5688130.4580688477 0 0 0 0 -2909827.3014300507 556141.66730427835 0 556141.66730427835 988819.98803107301 0 0 0 0 -11984371.693958282 -12019749.295413971 0 -12019749.295413971 -6880862.5268557072 0 0 0 0 -3771832.818501689 -720764.90780154802 0 -720764.90780154802 1573456.8009467092 0 0 0 0 -5217087.3592090607 -647307.6520986557 0 -647307.6520986557 1614865.5732440948 0 0 0 0 -11242970.09992218 -6235024.682551384 0 -6235024.682551384 9260394.8014178276 0 0 0 0 -3068371.6448554136 -1506811.3242232881 0 -1506811.3242232881 739129.87482978171 0 0 0 0 -12420049.041851997 3196405.1851100922 0 3196405.1851100922 5211883.7095594406 0 0 0 0 -2227263.6700312309 214175.60617124243 0 214175.60617124243 144616.31631953269 0 0 0 0 -4902051.8998022079 2617118.9112472534 0 2617118.9112472534 -7106923.404094696 0 0 0 0 -3638485.1288221423 -1097313.8843179215 0 -1097313.8843179215 959203.89403924788 0 0 0 0 -1999213.1313743591 -1459512.9299247265 0 -1459512.9299247265 1366590.6371393204 0 0 0 0 -2976251.1434650421 -1674661.4051136971 0 -1674661.4051136971 2070197.340722084 0 0 0 0 -9851053.8759307861 1339287.5684257001 0 1339287.5684257001 1206255.2264709473 0 0 0 0 -2921466.9495692253 -1582040.1135042906 0 -1582040.1135042906 722043.21978092194 0 0 0 0 -14692969.156515121 10871311.933748245 0 10871311.933748245 -9559837.0493392944 0 0 0 0 -20360661.727573395 11285961.072350979 0 11285961.072350979 3410891.7675256729 0 0 0 0 -20930745.718925476 8100883.6563034058 0 8100883.6563034058 3291680.9229373932 0 0 0 0 -11890182.47290802 5276497.1842842102 0 5276497.1842842102 -674590.37071609497 0 0 0 0 -3033153.8151283264 -2045581.6784377098 0 -2045581.6784377098 -617431.92773556709 0 0 0 0 -10359316.065952301 305937.93910217285 0 305937.93910217285 2457650.6448917389 0 0 0 0 -6566586.9628429413 2925912.8952641487 0 2925912.8952641487 -2777729.7822151184 0 0 0 0 -9057263.3240394592 2612506.5378670692 0 2612506.5378670692 -408662.72738975286 0 0 0 0 -7577711.5366268158 -4625617.8511276245 0 -4625617.8511276245 1986754.6172549725 0 0 0 0 -3468961.8464819184 -1234701.5453774785 0 -1234701.5453774785 936776.61089410842 0 0 0 0 -1891037.3924560547 -1081400.4833083153 0 -1081400.4833083153 2049772.2744660378 0 0 0 0 -4507922.9705693126 280737.60550780781 0 280737.60550780781 1216572.9971508584 0 0 0 0 -3070349.1693856362 -2136248.3185491655 0 -2136248.3185491655 1052524.5724174008 0 0 0 0 -10260590.322948456 -7315596.3346166611 0 -7315596.3346166611 -13408416.418142796 0 0 0 0 -9966059.0702571869 8465215.1847987175 0 8465215.1847987175 -26138792.53054285 0 0 0 0 -4976516.4582348494 -620661.89342377754 0 -620661.89342377754 1458411.5976380059 0 0 0 0 -1530674.9356800877 -1107528.6593914852 0 -1107528.6593914852 573569.04919232568 0 0 0 0 -3828539.478143692 -2250388.2612977028 0 -2250388.2612977028 -10306010.910798848 0 0 0 0 -8664411.8214874268 1558628.2209777832 0 1558628.2209777832 -7825676.2724781036 0 0 0 0 -231595.68372544646 -201701.80081260949 0 -201701.80081260949 97318.853756137192 0 0 0 0 -2978405.9030458312 -1820987.568586776 0 -1820987.568586776 312509.17903204227 0 0 0 0 -3382428.3976707458 -862612.45409798622 0 -862612.45409798622 754622.39040017128 0 0 0 0 -11318961.124507904 -3726534.0764036179 0 -3726534.0764036179 -1677181.4850959778 0 0 0 0 -2962728.3834991455 -1228305.2671072483 0 -1228305.2671072483 2993458.7966110706 0 0 0 0 -4451925.4439634029 -2362692.990941464 0 -2362692.990941464 524698.78859113692 0 0 0 0 -3791847.5122070312 -1283622.5724654198 0 -1283622.5724654198 1155988.1420016289 0 0 0 0 -5372858.3340205885 -1418218.7261645179 0 -1418218.7261645179 2418675.7369053918 0 0 0 0 -2966075.1427154541 -1261170.6061177254 0 -1261170.6061177254 3106518.9035983086 0 0 0 0 -2635404.4086799622 -1026906.9170414209 0 -1026906.9170414209 2198975.5225095749 0 0 0 0 -6117177.3295715572 -418034.8202921506 0 -418034.8202921506 1666442.7092135614 0 0 0 0 -11701023.480636597 -3599356.8394197747 0 -3599356.8394197747 12369231.300949395 0 0 0 0 -4300740.6702404022 -7749432.0473362692 0 -7749432.0473362692 -7137711.8932862878 0 0 0 0 -3611301.2817897797 -1579312.7850836515 0 -1579312.7850836515 581865.24483156204 0 0 0 0 -4102249.9339675903 -972912.44186115265 0 -972912.44186115265 331284.63520687819 0 0 0 0 -2832541.3505765982 -3305927.5724142035 0 -3305927.5724142035 -2003629.4143834161 0 0 0 0 -3992880.4139188174 -2549527.2001841329 0 -2549527.2001841329 -1012192.9145663409 0 0 0 0 -6194917.5182151794 -934373.11223363876 0 -934373.11223363876 1732984.1227278709 0 0 0 0 -3114635.8390556835 -1330699.1190352393 0 -1330699.1190352393 1777319.1020288491 0 0 0 0 -10206918.244524002 -5898933.3893885612 0 -5898933.3893885612 9900081.9882354736 0 0 0 0 -3118519.9105148315 -277117.30409574509 0 -277117.30409574509 541223.17464733124 0 0 0 0 -3303815.5488507394 -809868.62132336665 0 -809868.62132336665 1719968.0899609514 0 0 0 0 -12909.786668461951 -542957.66528085619 0 -542957.66528085619 7356.733478859067 0 0 0 0 -3183925.1971549988 -995701.58937168121 0 -995701.58937168121 1908514.5412325859 0 0 0 0 -2567934.799621582 -1435200.6958084106 0 -1435200.6958084106 2287025.0598549843 0 0 0 0 -2101271.3658292778 -1029228.4509132095 0 -1029228.4509132095 1594617.1506334103 0 0 0 0 -2169244.3733839989 -493198.95823258162 0 -493198.95823258162 1111235.3036985397 0 0 0 0 -18230709.215847015 -18002017.478187889 0 -18002017.478187889 -72858.655038997531 0 0 0 0 -17635015.965904236 14045684.767827988 0 14045684.767827988 3726316.8042396903 0 0 0 0 -3297631.0196426176 -862345.44078211859 0 -862345.44078211859 2844627.6922773416 0 0 0 0 -1830948.5212860107 -1354558.841545105 0 -1354558.841545105 1246284.7391119003 0 0 0 0 -11632918.605079651 5611524.3724246919 0 5611524.3724246919 15230901.757794514 0 0 0 0 -3095979.2978744507 -2023607.8760938644 0 -2023607.8760938644 499272.21956253052 0 0 0 0 -3013586.36026796 -1831772.6793860029 0 -1831772.6793860029 237089.11722249258 0 0 0 0 -2437784.2043834059 -1641512.2352798954 0 -1641512.2352798954 1809674.0998606989 0 0 0 0 -4080893.3484438173 -1602334.0938405693 0 -1602334.0938405693 5021713.5221071215 0 0 0 0 -4951003.1442680582 624759.2170622698 0 624759.2170622698 -4173691.2744903564 0 0 0 0 -3119790.0571594238 -2055236.6620664597 0 -2055236.6620664597 461639.16197967529 0 0 0 0 -2235865.6259874105 -2170635.3925940096 0 -2170635.3925940096 2760759.9227481484 0 0 0 0 -21157958.180908203 -2235463.1585546471 0 -2235463.1585546471 19936091.38685143 0 0 0 0 -2655297.7740773614 -1340870.0200528465 0 -1340870.0200528465 5964528.8884743853 0 0 0 0 -606272.10626923922 -1400440.4722667141 0 -1400440.4722667141 -14132.446212354786 0 0 0 0 14794936.258396506 3110881.9602077426 0 3110881.9602077426 -3677150.2753455639 0 0 0 0 -17577100.296386719 -524154.41952879727 0 -524154.41952879727 -8286774.3881814927 0 0 0 0 -12773119.492866516 -7741577.5862175077 0 -7741577.5862175077 25712992.611652061 0 0 0 0 -12047389.601650238 -21373866.943212442 0 -21373866.943212442 -14702183.268876798 0 0 0 0 -24839527.699863434 -16810632.698321093 0 -16810632.698321093 20409504.864700556 0 0 0 0 -24959992.202527523 -10452182.123281796 0 -10452182.123281796 10159830.326010346 0 0 0 0 -26553350.434053898 -23839820.297417745 0 -23839820.297417745 8680705.2677948028 0 0 0 0 -25011750.261219025 -7560230.5782046393 0 -7560230.5782046393 -5187740.5296279863 0 0 0 0 -11948391.959388733 -19530332.211963654 0 -19530332.211963654 3849879.0971789062 0 0 0 0 -5702245.7603645325 -4314179.5049699359 0 -4314179.5049699359 -663224.77568148077 0 0 0 0 4673889.6042709351 7582527.5906176567 0 7582527.5906176567 9524490.0858368874 0 0 0 0 -2248555.5778229181 -875288.10696091689 0 -875288.10696091689 -31190.191880721191 0 0 0 0 -2849890.691522751 -585616.28525933996 0 -585616.28525933996 1632321.3157473495 0 0 0 0 -2343536.6301078796 -1944857.4969095886 0 -1944857.4969095886 497842.98386025429 0 0 0 0 -6349879.2804569509 -1493954.3192684818 0 -1493954.3192684818 1463815.4879215718 0 0 0 0 -1313618.5554046631 -2132929.0843186378 0 -2132929.0843186378 253201.90467071533 0 0 0 0 -2276723.3996409178 -3073149.4755783807 0 -3073149.4755783807 -413595.47484935226 0 0 0 0 -4323963.5788116455 -3292960.0645808168 0 -3292960.0645808168 -2256763.616576761 0 0 0 0 -2385253.2539757304 -3273649.3307795026 0 -3273649.3307795026 -2124584.1120413383 0 0 0 0 -7346218.372177124 -3381987.4066776633 0 -3381987.4066776633 64896.371650524437 0 0 0 0 -6186419.0347671509 -3203075.9601677209 0 -3203075.9601677209 67468.095563080162 0 0 0 0 -5387131.6265449524 -17705381.833414592 0 -17705381.833414592 -16462037.571940973 0 0 0 0 -674175.65465017781 -1750374.7589948562 0 -1750374.7589948562 -232859.35116319131 0 0 0 0 16374570.845672607 -12168919.07333114 0 -12168919.07333114 -822885.32499582879 0 0 0 0 -6171589.294593811 -4486034.249994345 0 -4486034.249994345 470396.11783652008 0 0 0 0 -12050332.818052292 -5156369.6828386709 0 -5156369.6828386709 -4000403.2221525311 0 0 0 0 -976220.83092498779 268266.53871703148 0 268266.53871703148 -6449266.894762136 0 0 0 0 72968327.780502319 16859673.923151836 0 16859673.923151836 -2030056.479804039 0 0 0 0 -724888.76578414254 -37474.150175444782 0 -37474.150175444782 374391.54917001724 0 0 0 0 21885954.060100555 17142072.138554364 0 17142072.138554364 -355986.77381312847 0 0 0 0 5082644.236831665 6007597.1979005337 0 6007597.1979005337 2736574.5218821764 0 0 0 0 12650849.699699402 7353938.2246570587 0 7353938.2246570587 -652856.22965431213 0 0 0 0 9263657.4499359131 11232454.509855628 0 11232454.509855628 8888747.5220110416 0 0 0 0 -2756549.7394714355 14518496.175969601 0 14518496.175969601 22910724.250092149 0 0 0 0 7587018.5049953461 16985372.278650612 0 16985372.278650612 -212914.12301373482 0 0 0 0 2014578.3335533142 5538758.5173143148 0 5538758.5173143148 13199376.753323793 0 0 0 0 -18573919.126037598 10187141.113642097 0 10187141.113642097 9681172.6070528571 0 0 0 0 11318821.616218567 14105950.600188494 0 14105950.600188494 9745473.2116502784 0 0 0 0 -26661346.870792389 -15632078.7160815 0 -15632078.7160815 28772293.314551711 0 0 0 0 -20070321.417694092 11724152.721950233 0 11724152.721950233 8616380.7977449894 0 0 0 0 -66406447.603553772 3571048.9117134809 0 3571048.9117134809 13061786.807388902 0 0 0 0 -33790654.731002808 27292559.548525035 0 27292559.548525035 19928998.549375176 0 0 0 0 -43080752.547101974 2650564.2485744357 0 2650564.2485744357 2874016.1612230539 0 0 0 0 -87489123.076751709 6350429.1383823752 0 6350429.1383823752 9699556.0943941474 0 0 0 0 -94602478.429374695 -23161989.442053139 0 -23161989.442053139 -3407213.0312066674 0 0 0 0 -101201669.66294098 -12575215.704067826 0 -12575215.704067826 11899472.085045338 0 0 0 0 -99520143.227043152 -18229656.610593915 0 -18229656.610593915 19606322.096445382 0 0 0 0 -115834954.99918365 -28033789.06992662 0 -28033789.06992662 24742675.782674313 0 0 0 0 -80327964.501358032 -42891314.005589366 0 -42891314.005589366 2615418.7221364975 0 0 0 0 -79888992.863807678 -16946226.198360324 0 -16946226.198360324 17362383.472994566 0 0 0 0 -64931747.234771729 -17682293.910603285 0 -17682293.910603285 8537949.9349458218 0 0 0 0 -118204544.57652044 -65684593.636329062 0 -65684593.636329062 11466578.245922089 0 0 0 0 50407410.063587189 -1382940.8137331009 0 -1382940.8137331009 -12451715.154642105 0 0 0 0 -174262.79155041929 254660.36400763877 0 254660.36400763877 123456.25128334132 0 0 0 0 17796473.437271118 -5757792.3021569252 0 -5757792.3021569252 2002249.5338888168 0 0 0 0 12197840.206161499 -5401283.8436962217 0 -5401283.8436962217 3346943.5897554606 0 0 0 0 21121008.687286377 -5715821.0710644722 0 -5715821.0710644722 1430785.3768204451 0 0 0 0 31024652.894561768 6641401.3171628714 0 6641401.3171628714 1488642.3940006495 0 0 0 0 18361605.892929077 5926380.2742693424 0 5926380.2742693424 7004082.4082258232 0 0 0 0 34575389.086004257 -7475616.0854008049 0 -7475616.0854008049 -3094588.0691413879 0 0 0 0 21764531.344581604 -15014817.264800906 0 -15014817.264800906 -3551837.1728224754 0 0 0 0 42233404.386217117 -24624741.294335842 0 -24624741.294335842 -23001044.080425262 0 0 0 0 23584532.706207275 -14231373.875348091 0 -14231373.875348091 -3721993.8337244987 0 0 0 0 40739987.499603271 -19356393.737892628 0 -19356393.737892628 -7673433.4502029419 0 0 0 0 -70706856.965423584 -76152623.665104389 0 -76152623.665104389 -29931193.058941364 0 0 0 0 -22976576.515045166 -52552540.504384518 0 -52552540.504384518 -56005089.226890564 0 0 0 0 -52198667.410053253 -19792203.623231173 0 -19792203.623231173 9131959.421071291 0 0 0 0 -48446072.900306702 -2264687.5479564667 0 -2264687.5479564667 21083833.10780549 0 0 0 0 -46535110.719459534 -30505505.534296513 0 -30505505.534296513 -13990202.446381569 0 0 0 0 -78504694.789398193 -35314000.15026021 0 -35314000.15026021 10955720.342525959 0 0 0 0 -47919992.184844971 -22193544.059316039 0 -22193544.059316039 2455951.8669114113 0 0 0 0 -21198884.228779793 7811357.4225618839 0 7811357.4225618839 470457.18643951416 0 0 0 0 -9929048.432322368 -2244191.5075631151 0 -2244191.5075631151 882512.24696160154 0 0 0 0 -41225459.403606415 15925731.785555005 0 15925731.785555005 53155782.916435719 0 0 0 0 -4591191.540222168 14434408.320759296 0 14434408.320759296 -3561791.0567488372 0 0 0 0 -6144980.8355522156 -1676500.6779253483 0 -1676500.6779253483 -7904559.5921854973 0 0 0 0 -10027267.809481621 -23526793.85577327 0 -23526793.85577327 10487422.550984859 0 0 0 0 3466371.9057617188 -16947590.83069396 0 -16947590.83069396 -34333267.60538733 0 0 0 0 -2839958.9061470032 -5096172.5017123222 0 -5096172.5017123222 -13705062.57241869 0 0 0 0 -4400903.1338298321 -1691481.3732181787 0 -1691481.3732181787 -10587704.458979607 0 0 0 0 -4052747.5868735313 -253106.70280444622 0 -253106.70280444622 -20699653.022062302 0 0 0 0 -15706279.448795319 -13927182.408968449 0 -13927182.408968449 -6591195.6782612801 0 0 0 0 -11155848.557634354 -6147444.6182832718 0 -6147444.6182832718 -22047531.78708148 0 0 0 0 -10775080.347194672 -8434705.7174835205 0 -8434705.7174835205 -4220306.9845862389 0 0 0 0 -1859652.9777688291 -2737892.8847212028 0 -2737892.8847212028 -1120161.2961534718 0 0 0 0 -11990533.128646851 -10191147.544370651 0 -10191147.544370651 -7469737.0759577751 0 0 0 0 -11381272.825279236 -7223320.7266459465 0 -7223320.7266459465 -5875199.9866437912 0 0 0 0 -10756974.891767502 -6893730.6664881706 0 -6893730.6664881706 -331820.02863693237 0 0 0 0 -15908770.626903534 -8147805.0924634933 0 -8147805.0924634933 5402172.7490515709 0 0 0 0 -16531646.621894836 -11207066.436034203 0 -11207066.436034203 2880573.3959026337 0 0 0 0 -10229201.846199792 -2847350.8364064908 0 -2847350.8364064908 1027099.887498588 0 0 0 0 -133909424.48574066 -63321347.911105156 0 -63321347.911105156 -54149531.579942703 0 0 0 0 -168772686.11009979 -30751635.241418839 0 -30751635.241418839 4141706.2454188764 0 0 0 0 -261582667.15972137 -30994954.360369205 0 -30994954.360369205 38281940.85308218 0 0 0 0 -194263203.60053253 -64289511.520252943 0 -64289511.520252943 -32017747.538181305 0 0 0 0 -193718359.47847366 -56078282.667598248 0 -56078282.667598248 -31671492.846084431 0 0 0 0 -306970895.14087105 -171518886.24580479 0 -171518886.24580479 -142826907.59750843 0 0 0 0 -95186773.986209869 -23276637.94289875 0 -23276637.94289875 -49140825.909600377 0 0 0 0 -143827853.57505989 -90649333.616402864 0 -90649333.616402864 -140158539.5098877 0 0 0 0 -117425206.29939079 42049600.497023821 0 42049600.497023821 -127448616.66013718 0 0 0 0 -94337845.07636261 -1817200.7557165623 0 -1817200.7557165623 -45228792.613904953 0 0 0 0 -187560759.49308395 -24225682.944511414 0 -24225682.944511414 -42894561.6531111 0 0 0 0 -138263742.57842731 48667408.666379809 0 48667408.666379809 -67414179.04664278 0 0 0 0 -264045061.34252548 106236344.92618227 0 106236344.92618227 -265428258.46520424 0 0 0 0 -63042365.938940048 -151396654.63941932 0 -151396654.63941932 -260334713.85170317 0 0 0 0 -624969.42399499007 -310743.72638297162 0 -310743.72638297162 -141722.96299735014 0 0 0 0 -361652236.91541862 -110976883.61781436 0 -110976883.61781436 -37747023.213126183 0 0 0 0 -21492106.278203011 -35950162.431499362 0 -35950162.431499362 -46982753.044840813 0 0 0 0 -6945477.4410095215 -11959830.982624054 0 -11959830.982624054 -35916928.423787117 0 0 0 0 -160784326.52533722 132427852.18298388 0 132427852.18298388 -68115229.692072392 0 0 0 0 -397919461.01255989 3322666.3744456768 0 3322666.3744456768 22535091.394804001 0 0 0 0 -186960132.8309288 38869342.976749897 0 38869342.976749897 25473116.302052855 0 0 0 0 -59411162.597349167 41956528.407787085 0 41956528.407787085 -34852643.93522644 0 0 0 0 -157019211.88661385 5124723.1935608387 0 5124723.1935608387 14456609.610486031 0 0 0 0 -10001461.268981934 5828506.439848423 0 5828506.439848423 -8197498.001039505 0 0 0 0 -17949381.236911774 -3105061.4512319565 0 -3105061.4512319565 -10183094.145325422 0 0 0 0 -27418621.4765625 21462741.471921921 0 21462741.471921921 -16470741.913305283 0 0 0 0 17885632.130390167 -4428904.3294353485 0 -4428904.3294353485 -8587678.0923638344 0 0 0 0 -16327527.491020203 2216064.3462014198 0 2216064.3462014198 12421715.814178467 0 0 0 0 -2676139.5898933411 3924533.0600042343 0 3924533.0600042343 3893909.2797431946 0 0 0 0 -787817.20272642002 852412.58341030497 0 852412.58341030497 -818471.12820106326 0 0 0 0 16807373.092516303 7800351.2090518177 0 7800351.2090518177 -3153705.9803791046 0 0 0 0 -2974730.3583420776 386641.32445025654 0 386641.32445025654 -23740.56675790844 0 0 0 0 9067818.2381448746 -3271857.9322993755 0 -3271857.9322993755 -418969.05905437469 0 0 0 0 2134540.9677658081 -2235394.3362770081 0 -2235394.3362770081 4163508.6623413563 0 0 0 0 -23911941.137275696 -8201064.8741927147 0 -8201064.8741927147 19724724.576132894 0 0 0 0 8694425.3813352585 -5608867.9029929638 0 -5608867.9029929638 -12646280.876106262 0 0 0 0 -1781466.3011910655 -480737.09221615782 0 -480737.09221615782 -233293.73783951369 0 0 0 0 -31276525.531719208 -40545369.339984417 0 -40545369.339984417 -32591626.94696629 0 0 0 0 -39915732.51058054 -53868845.308641136 0 -53868845.308641136 -4589213.9873037338 0 0 0 0 -31788695.628816605 -79485495.888187885 0 -79485495.888187885 -88833623.761004448 0 0 0 0 -42668892.80361557 -41294368.766139984 0 -41294368.766139984 -19423224.901916981 0 0 0 0 -37804855.273910522 -35802626.467896938 0 -35802626.467896938 -4390748.4989233017 0 0 0 0 -24048152.810119629 -5990858.0088524818 0 -5990858.0088524818 15376066.127187252 0 0 0 0 -6211742.1103591919 3559719.1067638397 0 3559719.1067638397 13533719.907822609 0 0 0 0 658276.78177642822 -4687658.3401892185 0 -4687658.3401892185 -7924328.0223388672 0 0 0 0 -28473435.149627686 -7683456.1307911873 0 -7683456.1307911873 28692497.107390404 0 0 0 0 -24396148.347019196 5355048.4438514709 0 5355048.4438514709 14228216.167856216 0 0 0 0 -3303632.6454544067 4520940.1672677994 0 4520940.1672677994 3883137.0770559311 0 0 0 0 -5125630.3581533432 6439002.3056633472 0 6439002.3056633472 -2555674.2537155151 0 0 0 0 -3848869.1100499677 2654921.9300767593 0 2654921.9300767593 -514583.16109242244 0 0 0 0 12408022.456155777 28976375.51792717 0 28976375.51792717 39051796.971282959 0 0 0 0 -639524.30638487265 504319.62521267857 0 504319.62521267857 395547.61173624359 0 0 0 0 7523802.9348983765 9785520.061164856 0 9785520.061164856 -4010098.4107837677 0 0 0 0 1194651.6171073914 17729655.294694424 0 17729655.294694424 19138164.333483696 0 0 0 0 -22050311.442152023 -22915228.846206188 0 -22915228.846206188 24543279.412910461 0 0 0 0 -4458482.1522445679 -3495066.1982975006 0 -3495066.1982975006 13240397.184884071 0 0 0 0 -1053189.2134074331 304806.91845810786 0 304806.91845810786 437293.17580056796 0 0 0 0 -18351224.054100037 28442922.501819849 0 28442922.501819849 55270486.365720749 0 0 0 0 -45134837.932199001 -8331076.1380844116 0 -8331076.1380844116 33984405.994318008 0 0 0 0 -14696399.506334305 9417189.3042869568 0 9417189.3042869568 10115287.012560844 0 0 0 0 -14890920.484464645 8805568.880053997 0 8805568.880053997 56895084.305731773 0 0 0 0 -33817665.415729523 45517385.679207325 0 45517385.679207325 8624100.6717090607 0 0 0 0 -4786040.2954940796 2417906.0400495529 0 2417906.0400495529 -320351.55276489258 0 0 0 0 -9253959.603515625 -1906319.9098262787 0 -1906319.9098262787 1386383.0848073959 0 0 0 0 -4907874.0543448012 -2079744.7440891461 0 -2079744.7440891461 1196207.5928428406 0 0 0 0 -6660492.9466485977 -12863246.698340654 0 -12863246.698340654 9581862.5756473541 0 0 0 0 -6567819.3540840149 -1087513.9652519226 0 -1087513.9652519226 -2482016.9299106598 0 0 0 0 -10095116.373153687 1687121.5984201431 0 1687121.5984201431 644855.86002731323 0 0 0 0 -10358801.985313416 2126299.0924291611 0 2126299.0924291611 108684.26323127747 0 0 0 0 -10083604.225288391 2704288.7944154739 0 2704288.7944154739 -2574401.2683048248 0 0 0 0 -13416108.363082886 3716350.2149906158 0 3716350.2149906158 1331314.1249380112 0 0 0 0 -12325540.979728699 5009182.5646314621 0 5009182.5646314621 -4641932.608165741 0 0 0 0 -216263.99608655833 651809.29298446793 0 651809.29298446793 52799.125885131769 0 0 0 0 -9864759.6552124023 -3911478.9153385162 0 -3911478.9153385162 -2219124.8020391464 0 0 0 0 -4874905.5018501282 -1396036.076748848 0 -1396036.076748848 -4941217.2621536255 0 0 0 0 -7476209.1214370728 7239703.2104969025 0 7239703.2104969025 -1627585.6092147827 0 0 0 0 -4100356.6068595182 2025016.3555366769 0 2025016.3555366769 -203096.80011038715 0 0 0 0 -20505165.563117981 -3049896.9084739685 0 -3049896.9084739685 846411.7968711853 0 0 0 0 302459.63494778797 28545.095060825348 0 28545.095060825348 -211304.91015303507 0 0 0 0 -17503829.843086243 2771534.3462848663 0 2771534.3462848663 -116165.56031417847 0 0 0 0 -14988787.513656616 -2684855.3879814148 0 -2684855.3879814148 -1530569.9902591705 0 0 0 0 -9865124.4019470215 63761.750726699829 0 63761.750726699829 -4215939.0873146057 0 0 0 0 -11648518.206054688 1697481.1723060608 0 1697481.1723060608 -463746.6692905426 0 0 0 0 -12671686.0415802 3954911.4705839157 0 3954911.4705839157 -3114559.8446846008 0 0 0 0 -12718932.156909943 2076577.3153071404 0 2076577.3153071404 -313830.13232040405 0 0 0 0 -12249467.067314148 3282539.7836971283 0 3282539.7836971283 1572104.6964931488 0 0 0 0 -12349106.595539093 3395594.7302212715 0 3395594.7302212715 6292203.3979091644 0 0 0 0 -4506530.2485523224 8210865.1395238042 0 8210865.1395238042 3434175.6869277954 0 0 0 0 -2520631.3438796569 1080231.3001069129 0 1080231.3001069129 300425.57956675626 0 0 0 0 -12308612.105941772 1781905.6539983749 0 1781905.6539983749 3497662.0526294708 0 0 0 0 -11746324.032989502 3502109.3830871582 0 3502109.3830871582 3338055.0881538391 0 0 0 0 -10954702.058166504 1918132.433347702 0 1918132.433347702 4001297.8637552261 0 0 0 0 -4068776.7488021851 2040953.4952583313 0 2040953.4952583313 1148700.6483879089 0 0 0 0 -8844757.0799713135 -2108200.2299747467 0 -2108200.2299747467 476038.41372299194 0 0 0 0 -9250534.2557601929 4328409.6715707779 0 4328409.6715707779 6012655.0038719177 0 0 0 0 -10945435.55834198 11389716.974177837 0 11389716.974177837 5545630.9873542786 0 0 0 0 -11027690.297737122 4045104.3495788574 0 4045104.3495788574 6098079.9218177795 0 0 0 0 -9298711.1392669678 6346465.4808998108 0 6346465.4808998108 8909553.7756690979 0 0 0 0 -14390877.930282593 1988552.7344207764 0 1988552.7344207764 10532484.115339665 0 0 0 0 -12697211.275884628 2428608.9114966393 0 2428608.9114966393 6534013.1704845428 0 0 0 0 -12126437.854629517 3848291.3180274963 0 3848291.3180274963 9406333.6147346497 0 0 0 0 -11552043.122764587 -8747.8027143478394 0 -8747.8027143478394 4664997.1279325485 0 0 0 0 -14460038.24224472 284743.82102349401 0 284743.82102349401 9304745.4374694824 0 0 0 0 -11436996.602916718 213188.73931884766 0 213188.73931884766 418514.32096385956 0 0 0 0 -11932629.097229004 2981808.2310342789 0 2981808.2310342789 1639243.9348201752 0 0 0 0 -11762319.906124115 2472184.5945119858 0 2472184.5945119858 3061480.90184021 0 0 0 0 -18664253.515808105 -1848602.6245708466 0 -1848602.6245708466 12398941.842525482 0 0 0 0 -23961144.148040771 -2212711.5277194977 0 -2212711.5277194977 13322641.599541664 0 0 0 0 -19905764.965942383 -6093412.4233436584 0 -6093412.4233436584 5921580.248626709 0 0 0 0 -11579385.951316655 -4660318.7628429513 0 -4660318.7628429513 1675896.5114059448 0 0 0 0 -18216323.57800293 -2551955.2100772858 0 -2551955.2100772858 12316029.22379303 0 0 0 0 -16774317.566261292 -5782476.1564807892 0 -5782476.1564807892 14071796.128511429 0 0 0 0 -9598644.2373104095 -6048129.9393548965 0 -6048129.9393548965 5488557.8180179596 0 0 0 0 -18326452.203678131 -1972895.4814071655 0 -1972895.4814071655 12008394.87518692 0 0 0 0 -16036692.02507019 -996929.50420570374 0 -996929.50420570374 9182812.0964809656 0 0 0 0 -16388416.659332275 664575.26278305054 0 664575.26278305054 10533025.756838679 0 0 0 0 -16594733.489494324 1506439.3381185532 0 1506439.3381185532 12592689.690567017 0 0 0 0 -16599733.641136169 1823220.3804597855 0 1823220.3804597855 19210434.564224243 0 0 0 0 -13742005.428216934 13822663.177327633 0 13822663.177327633 3858956.1883049011 0 0 0 0 -14406737.077232361 6999861.8922691345 0 6999861.8922691345 11771796.894750595 0 0 0 0 -15997961.573532104 10119813.555387497 0 10119813.555387497 6997721.7764453888 0 0 0 0 -14150391.267372131 -688763.49050235748 0 -688763.49050235748 10440302.561201096 0 0 0 0 -13220579.595726013 -2858181.9892845154 0 -2858181.9892845154 13654625.132422447 0 0 0 0 -19236023.319648743 -665138.70589447021 0 -665138.70589447021 14904713.120031357 0 0 0 0 -19734853.796993256 4664820.6981096268 0 4664820.6981096268 13449659.044545174 0 0 0 0 -18001854.645080566 1027080.4311923981 0 1027080.4311923981 10083220.34529686 0 0 0 0 -7838808.7363471985 3040009.0158262253 0 3040009.0158262253 6727087.5791854858 0 0 0 0 -32626236.832977295 -5909974.4842400551 0 -5909974.4842400551 9978256.7016239166 0 0 0 0 -82323396.762626648 -63868573.152592659 0 -63868573.152592659 -14998626.861347198 0 0 0 0 -27252662.885986328 -16111854.257716179 0 -16111854.257716179 -2265801.206161499 0 0 0 0 -21483308.274887085 -7818989.5077085495 0 -7818989.5077085495 7278346.7026939392 0 0 0 0 -14651113.932540894 -10361457.877331734 0 -10361457.877331734 -7915437.2620697021 0 0 0 0 -663019.20792527869 -45805.698138345033 0 -45805.698138345033 1287293.3899239465 0 0 0 0 -2287665.7720564334 2374280.1757563371 0 2374280.1757563371 6313584.7700366974 0 0 0 0 -19950679.332504272 -17746463.666847229 0 -17746463.666847229 -9146161.4413223267 0 0 0 0 -2971633.1704978161 851639.83794871531 0 851639.83794871531 1685437.5788690322 0 0 0 0 -12034115.062965393 953662.99838495255 0 953662.99838495255 19018914.68728447 0 0 0 0 2967683.7861785889 -1926195.0753822327 0 -1926195.0753822327 5865704.8892019987 0 0 0 0 -9957609.7877657022 718803.04880846641 0 718803.04880846641 14224808.795001984 0 0 0 0 -10472224.434875488 -4862036.4272155762 0 -4862036.4272155762 17459135.389690399 0 0 0 0 -8792497.3277511597 -648002.27794837952 0 -648002.27794837952 6892576.1076011658 0 0 0 0 -16085527.573955536 8434073.6623082161 0 8434073.6623082161 11806936.286135674 0 0 0 0 -44760196.113643646 62603589.176437378 0 62603589.176437378 61492447.698928833 0 0 0 0 -45309925.358169556 42023060.609808922 0 42023060.609808922 -17694600.158325672 0 0 0 0 7004230.8625564575 6364890.9642629623 0 6364890.9642629623 -3122209.0855169296 0 0 0 0 -81768377.469055176 -41788915.654784203 0 -41788915.654784203 -67530185.676212311 0 0 0 0 -208259.15612100437 -11735.586112778634 0 -11735.586112778634 394038.00255613308 0 0 0 0 -30507956.634090424 26695085.440517426 0 26695085.440517426 -121511.00640296936 0 0 0 0 -48667945.206733704 38782455.606538296 0 38782455.606538296 9923874.8535842896 0 0 0 0 140385634.19100952 119482201.01479912 0 119482201.01479912 885922.36033344269 0 0 0 0 -63639216.134056091 -57519242.208984375 0 -57519242.208984375 -54858632.266263962 0 0 0 0 -95129669.088027954 -152259923.58995342 0 -152259923.58995342 -62679446.181198418 0 0 0 0 -423590.73831980862 44815.381095677614 0 44815.381095677614 815866.49018757977 0 0 0 0 -16368764.810165405 120211302.92948532 0 120211302.92948532 126620165.29234886 0 0 0 0 -368455118.83212662 -49385474.709278584 0 -49385474.709278584 232402854.6782093 0 0 0 0 -626460.83994824439 525533.83073304314 0 525533.83073304314 106178.58248714218 0 0 0 0 -9332728.7614345551 39984621.209396839 0 39984621.209396839 -72269606.419984818 0 0 0 0 -53683184.326286316 110709361.86198616 0 110709361.86198616 -48799850.316291332 0 0 0 0 87468556.506763697 52081385.379193723 0 52081385.379193723 -19422305.205111504 0 0 0 0 -18507494.595314026 -140154394.27779865 0 -140154394.27779865 -99379166.737808704 0 0 0 0 101770751.98340988 133081371.70780909 0 133081371.70780909 115310941.65301132 0 0 0 0 228702906.75036621 87340861.493235588 0 87340861.493235588 -315246761.93475151 0 0 0 0 -606307.63387555815 1257444.4044354372 0 1257444.4044354372 -1711310.2451986335 0 0 0 0 -14697087.155672073 10175766.498386383 0 10175766.498386383 10511430.194122314 0 0 0 0 -190931.59596419334 -2393881.8540199399 0 -2393881.8540199399 -2181897.4162883759 0 0 0 0 -21737923.86826992 37812023.185561895 0 37812023.185561895 61393745.043212891 0 0 0 0 36273305.535484314 -18593315.610637188 0 -18593315.610637188 25296623.947509766 0 0 0 0 375217.73095472902 82114.39133807458 0 82114.39133807458 -135369.11928700609 0 0 0 0 8749464.590965271 546326.4581451416 0 546326.4581451416 -6236374.9722213745 0 0 0 0 -1698839.106238842 -2544754.0285012126 0 -2544754.0285012126 -396583.89600944519 0 0 0 0 -1962274.24730956 1119532.5393806519 0 1119532.5393806519 -263315.87624590565 0 0 0 0 -8151955.4387168884 31006621.870744705 0 31006621.870744705 1752256.9452314377 0 0 0 0 -768081.67930311337 684090.50485182833 0 684090.50485182833 -554023.84834244335 0 0 0 0 -909816.93222427368 5228041.0973439217 0 5228041.0973439217 2827715.1156845093 0 0 0 0 -3179705.4918694496 -87632.193627536297 0 -87632.193627536297 -11063708.023715973 0 0 0 0 -79456810.6440292 1254597.550688535 0 1254597.550688535 9873668.8725786209 0 0 0 0 -45774828.633926392 -17610424.882903099 0 -17610424.882903099 7871164.1644763947 0 0 0 0 -149745074.64352417 -1098837.1285839081 0 -1098837.1285839081 17882902.755970001 0 0 0 0 -79799859.208084106 9561725.9187045097 0 9561725.9187045097 3611012.0069637299 0 0 0 0 -184656293.37563324 -25693266.187353373 0 -25693266.187353373 25347353.954440117 0 0 0 0 -195429901.57857323 -57626267.562121868 0 -57626267.562121868 -8245597.6933617592 0 0 0 0 -123141802.59557152 -18185993.329471111 0 -18185993.329471111 8520921.3588411808 0 0 0 0 602879.67206478119 3707745.8641637862 0 3707745.8641637862 5069391.5929193497 0 0 0 0 -121635003.81866455 -12146509.486250401 0 -12146509.486250401 13172227.217525601 0 0 0 0 -605105.33646515943 447626.95527013484 0 447626.95527013484 -310560.62337096781 0 0 0 0 842236.65781784058 -6342557.3523759842 0 -6342557.3523759842 -2911346.5210261345 0 0 0 0 -174696.3755270876 739064.35223631375 0 739064.35223631375 -1314097.2926832158 0 0 0 0 -6907819.2773170471 4922857.5192508698 0 4922857.5192508698 -9475828.4775695801 0 0 0 0 -311414594.31864166 -899295.4305472374 0 -899295.4305472374 20255407.083707333 0 0 0 0 -4265892.6440041065 18945335.750083447 0 18945335.750083447 -27198892.706710815 0 0 0 0 -367290020.65594864 -89642458.381924629 0 -89642458.381924629 -633502.06230258942 0 0 0 0 -253826.47463547438 151346.57180232927 0 151346.57180232927 -91340.698661649134 0 0 0 0 3108533.6325383186 7998490.9746790528 0 7998490.9746790528 -21608394.961761475 0 0 0 0 -172555154.74398804 -24022335.616319418 0 -24022335.616319418 1379778.0859594345 0 0 0 0 -251780039.1566658 -64095945.383492947 0 -64095945.383492947 -23734908.621984959 0 0 0 0 -215119276.68532753 37805288.355149269 0 37805288.355149269 -70471674.428204536 0 0 0 0 -128727986.97473526 527020.75846385956 0 527020.75846385956 -5974594.85704422 0 0 0 0 -168764780.32915878 19986878.668446064 0 19986878.668446064 -16314902.538809776 0 0 0 0 -153497252.83325195 5786524.2198109627 0 5786524.2198109627 12511217.364653707 0 0 0 0 -139645561.71687698 -16634011.732573509 0 -16634011.732573509 13905709.732289314 0 0 0 0 -197601378.78800964 -6529296.3916320801 0 -6529296.3916320801 38956524.950689316 0 0 0 0 -240756302.39639473 3111202.4799222946 0 3111202.4799222946 36815066.426931381 0 0 0 0 -203258649.88114548 -11541282.511018276 0 -11541282.511018276 44213127.934304476 0 0 0 0 -200363590.27709389 -7670843.4877786636 0 -7670843.4877786636 39329033.449764252 0 0 0 0 -155706610.65637207 -36994305.841676235 0 -36994305.841676235 3598942.7333889604 0 0 0 0 -206705968.33033323 -23002984.981129348 0 -23002984.981129348 31620065.106003761 0 0 0 0 -152109676.47248077 -19604142.603525162 0 -19604142.603525162 7627909.2148351669 0 0 0 0 -185946611.44373322 -15546647.976121664 0 -15546647.976121664 31672823.336011887 0 0 0 0 -335054302.1880188 134369393.28569865 0 134369393.28569865 10357965.659384727 0 0 0 0 -226730354.77894211 124861420.90493846 0 124861420.90493846 -38869675.683129311 0 0 0 0 -76995614.395042419 36453540.203226089 0 36453540.203226089 14849259.33689785 0 0 0 0 -251839010.93280029 14418217.802604914 0 14418217.802604914 38964071.35943222 0 0 0 0 -113602926.20000362 -22842435.595878303 0 -22842435.595878303 -7768957.3521857262 0 0 0 0 -3107701.6407219209 -79128.888807086158 0 -79128.888807086158 878171.94767860509 0 0 0 0 -100758535.06658363 -34098453.30327481 0 -34098453.30327481 78676784.689758778 0 0 0 0 -382095318.08019257 274944537.9599371 0 274944537.9599371 -117923833.22775173 0 0 0 0 -83217944.94342041 122551367.50265074 0 122551367.50265074 -46317838.369154453 0 0 0 0 -58259612.626909256 -272876546.06333447 0 -272876546.06333447 93049967.704870224 0 0 0 0 -1327644.9997881707 42812.328343694797 0 42812.328343694797 359494.9958993718 0 0 0 0 -123927252.06013107 -102537530.88016796 0 -102537530.88016796 69047589.521535873 0 0 0 0 -288297451.52138603 -165182433.59007397 0 -165182433.59007397 54426789.801218033 0 0 0 0 -147675417.0275507 -23802397.008894563 0 -23802397.008894563 -36945154.439369202 0 0 0 0 -244987027.83741379 3520999.4955663681 0 3520999.4955663681 -34411618.273834705 0 0 0 0 74991366.108445168 -29230146.197897434 0 -29230146.197897434 -62073208.810522079 0 0 0 0 -75703083.23897934 141178561.50475836 0 141178561.50475836 73929927.506300926 0 0 0 0 -198060078.97725677 -129416297.82219672 0 -129416297.82219672 318417530.19726086 0 0 0 0 5652.771711435169 244585.45585308503 0 244585.45585308503 -554183.78497846983 0 0 0 0 -258256337.46769333 7781506.945084095 0 7781506.945084095 13630787.274366617 0 0 0 0 52560418.890773773 4858639.082628727 0 4858639.082628727 -6784890.8298707008 0 0 0 0 24424390.822727203 -12225013.848126173 0 -12225013.848126173 11783336.727576256 0 0 0 0 66073809.966438293 62226473.055009842 0 62226473.055009842 56998685.788062096 0 0 0 0 41720521.519199371 109092438.71327496 0 109092438.71327496 -25466464.240112543 0 0 0 0 -3744825.8145941943 -316318.26101934933 0 -316318.26101934933 1267272.7509856762 0 0 0 0 -3528281.5540790558 52964550.79545784 0 52964550.79545784 168212930.27484941 0 0 0 0 29265873.271011353 -45017134.909171581 0 -45017134.909171581 -16402778.681751251 0 0 0 0 -111823409.98521423 -16765793.987306118 0 -16765793.987306118 -2847941.9976540804 0 0 0 0 -588610.93378625624 -1442666.9642561302 0 -1442666.9642561302 647894.69582064997 0 0 0 0 26243987.624534607 -48626809.145910561 0 -48626809.145910561 31902414.892806053 0 0 0 0 86694060.309753418 -19358653.779251695 0 -19358653.779251695 -12620505.130486846 0 0 0 0 -17618789.523515701 -34171463.708756089 0 -34171463.708756089 -11228228.415570021 0 0 0 0 -2272814.5307934098 -290201.96521892515 0 -290201.96521892515 874821.06844664889 0 0 0 0 -599605.34683227539 -7175384.5668531656 0 -7175384.5668531656 -39093099.561813056 0 0 0 0 -41454692.571491241 -92819623.470428705 0 -92819623.470428705 -225706419.28805465 0 0 0 0 -874144.76353504881 5714.6469224551693 0 5714.6469224551693 332230.35052664409 0 0 0 0 -60241670.396653175 40548203.191570133 0 40548203.191570133 -12781063.454164982 0 0 0 0 -52760346.442935944 15468499.769152403 0 15468499.769152403 -3957159.7715733051 0 0 0 0 33407838.04193306 65371555.859565973 0 65371555.859565973 56873808.694548607 0 0 0 0 -484287.59940461162 -1140265.9588249922 0 -1140265.9588249922 248625.81926990859 0 0 0 0 -41713699.413379669 10915902.993835926 0 10915902.993835926 -2096230.337228775 0 0 0 0 144635950.59793282 139873056.94171095 0 139873056.94171095 101660436.47580528 0 0 0 0 28003.532390152104 -521459.5222829571 0 -521459.5222829571 -58236.463026753161 0 0 0 0 34901869.181804657 -14437309.647088766 0 -14437309.647088766 158590455.04141808 0 0 0 0 -92176921.580617905 127319653.42087328 0 127319653.42087328 65990536.78093338 0 0 0 0 -112726474.00212479 38010660.225652218 0 38010660.225652218 194231797.54586744 0 0 0 0 -108717457.98602867 -53971975.797076464 0 -53971975.797076464 83634075.440750122 0 0 0 0 -87314615.337095261 -17650298.379170418 0 -17650298.379170418 65752888.476761341 0 0 0 0 -98887639.110233307 7276430.0423343182 0 7276430.0423343182 17837038.79648447 0 0 0 0 -92683120.100845337 -19554560.349527836 0 -19554560.349527836 67390995.391693234 0 0 0 0 -67954300.50566864 3164473.6570339203 0 3164473.6570339203 65590934.880641341 0 0 0 0 -108956840.63766384 37666715.003612995 0 37666715.003612995 58449284.181386948 0 0 0 0 -50331036.334564209 4738361.8438925743 0 4738361.8438925743 19060331.937565804 0 0 0 0 -5556999.1033782959 -28422603.502537012 0 -28422603.502537012 23602489.302897453 0 0 0 0 -79013374.043958664 -38368816.045856595 0 -38368816.045856595 22764204.500950813 0 0 0 0 91508734.015228271 -73338006.69160974 0 -73338006.69160974 11218761.253914118 0 0 0 0 -91143683.74004364 -121132366.09791332 0 -121132366.09791332 46703348.276319265 0 0 0 0 -211324210.17482758 44047252.113460779 0 44047252.113460779 39071577.266901493 0 0 0 0 -290173342.08918619 -97765538.077210277 0 -97765538.077210277 47831519.23508358 0 0 0 0 -239249422.75120163 145652660.79297292 0 145652660.79297292 -71506842.883502245 0 0 0 0 255155552.47106171 -31272821.747032344 0 -31272821.747032344 -222994554.1209836 0 0 0 0 -188352732.10928345 112374037.15841714 0 112374037.15841714 32035346.216181993 0 0 0 0 -306875955.41427326 -149720862.17666578 0 -149720862.17666578 10473217.02887702 0 0 0 0 -129088610.31876373 -43687145.449325562 0 -43687145.449325562 72401275.079484582 0 0 0 0 -70750979.372156143 -34704696.518155895 0 -34704696.518155895 55414466.565064907 0 0 0 0 200262313.5392189 69382494.783638656 0 69382494.783638656 -4003244.271514684 0 0 0 0 109991080.50687408 19681842.542085886 0 19681842.542085886 34050463.783285528 0 0 0 0 -75420193.95179987 -21023812.393464096 0 -21023812.393464096 64118219.09758991 0 0 0 0 102463874.0662384 -93456482.769829392 0 -93456482.769829392 126927.85664928526 0 0 0 0 225268481.4352684 -37693474.672419257 0 -37693474.672419257 -31416054.11819616 0 0 0 0 -79306969.72193718 -119532450.59142809 0 -119532450.59142809 -240615.60351487633 0 0 0 0 -32971659.382013321 -13120814.65507555 0 -13120814.65507555 58642387.000524521 0 0 0 0 -111876074.93262863 -55331811.153138757 0 -55331811.153138757 69731484.395847648 0 0 0 0 -164241545.47037506 94045455.728934079 0 94045455.728934079 -36021171.728203058 0 0 0 0 -394023.78799889609 -1972.0698223654181 0 -1972.0698223654181 209418.80518236954 0 0 0 0 -242076955.48358536 -19670228.591538787 0 -19670228.591538787 77693774.467707619 0 0 0 0 -328234.52073669434 -161019.76449106637 0 -161019.76449106637 597.88432079843437 0 0 0 0 -389974.31125640869 -134405.44391784424 0 -134405.44391784424 141863.9730136047 0 0 0 0 -33814409.646911621 5688577.2067958117 0 5688577.2067958117 17006725.218568623 0 0 0 0 -77260595.389041901 -1131589.18339324 0 -1131589.18339324 16383207.962673396 0 0 0 0 -31994218.462417603 -32061964.830794275 0 -32061964.830794275 -4596553.4551706314 0 0 0 0 -117399530.17278671 -47274897.360803813 0 -47274897.360803813 59712470.472301841 0 0 0 0 -138470137.09132385 -81358470.321991742 0 -81358470.321991742 41488127.293641806 0 0 0 0 -14384906.472129822 -14247356.684266865 0 -14247356.684266865 -14509040.034472704 0 0 0 0 -20160652.399238586 -93711334.362950683 0 -93711334.362950683 -56935366.037379146 0 0 0 0 38564724.233774185 -4961979.1185617447 0 -4961979.1185617447 -6304549.3543479443 0 0 0 0 19869.619327659719 -149269.75383935682 0 -149269.75383935682 -56804.178890601848 0 0 0 0 -96192355.414470673 -50574759.47479254 0 -50574759.47479254 1387738.1149996519 0 0 0 0 24313713.432678223 -46842695.799712181 0 -46842695.799712181 25592045.979534149 0 0 0 0 23799467.432275772 -40729267.78538397 0 -40729267.78538397 -43001404.889055252 0 0 0 0 -69746909.34664917 -7045955.4813370705 0 -7045955.4813370705 980140.13318228722 0 0 0 0 -132641187.99058914 9702632.549357295 0 9702632.549357295 -60670279.242694378 0 0 0 0 -109883814.0496788 -83376455.724041283 0 -83376455.724041283 -72901178.529450893 0 0 0 0 65650421.032676697 62835481.25491643 0 62835481.25491643 52443241.202312112 0 0 0 0 53946416.733520508 -23626722.296449661 0 -23626722.296449661 -89144141.666023731 0 0 0 0 207182098.47840881 -39986357.029059827 0 -39986357.029059827 -127596764.70419788 0 0 0 0 40809844.954330444 32516003.976497889 0 32516003.976497889 -34686676.233599424 0 0 0 0 -10903174.586029053 -71503008.772856116 0 -71503008.772856116 -100685849.28821087 0 0 0 0 -44899508.796035767 28613812.207917333 0 28613812.207917333 -49184829.720749795 0 0 0 0 48839456.438304901 -111046801.907866 0 -111046801.907866 15646815.784491539 0 0 0 0 -67638658.54133606 -21476247.174613416 0 -21476247.174613416 -37531391.831183434 0 0 0 0 233511859.53290176 91049398.292565227 0 91049398.292565227 -86886781.542385459 0 0 0 0 -55036.152905792929 -370184.2614349667 0 -370184.2614349667 -96047.042583211267 0 0 0 0 -31396.932643376291 -538484.82291762903 0 -538484.82291762903 71770.877347050933 0 0 0 0 -126092700.15765381 -66203509.183367372 0 -66203509.183367372 35310865.849532068 0 0 0 0 627037.20113563538 4962562.9340317547 0 4962562.9340317547 -3187804.6504045129 0 0 0 0 -34849757.961898804 1528232.9584877789 0 1528232.9584877789 290961.353500247 0 0 0 0 -627940.81420597434 -239298.82668815088 0 -239298.82668815088 108724.77542639954 0 0 0 0 -570038.07250976562 -301900.34525435505 0 -301900.34525435505 98448.323331043255 0 0 0 0 -535317.47910308838 -247235.6246508481 0 -247235.6246508481 162813.41981454624 0 0 0 0 -481231.92630386353 -248684.7672655333 0 -248684.7672655333 -248.21815259541353 0 0 0 0 -68240006.788672447 158029599.15250617 0 158029599.15250617 -147431943.72790131 0 0 0 0 -421399.75849367306 -336590.6070505511 0 -336590.6070505511 -161713.20063548448 0 0 0 0 -78840568.368480682 86713206.21127139 0 86713206.21127139 -47803933.237472385 0 0 0 0 -2075636.2375717163 -115914294.54189241 0 -115914294.54189241 76468318.858942151 0 0 0 0 -852604.81186541915 -110080.10957840364 0 -110080.10957840364 232504.02353132167 0 0 0 0 135023581.69106293 136546115.22632003 0 136546115.22632003 19846285.63451428 0 0 0 0 28730760.673603058 -41559052.193321623 0 -41559052.193321623 -259491028.84846804 0 0 0 0 -971119398.08563995 176333351.85790312 0 176333351.85790312 157912946.371117 0 0 0 0 84302059.512992859 -113003546.59707522 0 -113003546.59707522 4660239.0271578133 0 0 0 0 -414254088.87812614 -51525667.160962984 0 -51525667.160962984 33678545.806373343 0 0 0 0 -178593942.39936829 -18864321.740310412 0 -18864321.740310412 241999.32914427164 0 0 0 0 -155746876.87358093 -85792191.044941202 0 -85792191.044941202 -24182883.938185491 0 0 0 0 -1479936.5989494324 -35608942.980862707 0 -35608942.980862707 17622833.981513336 0 0 0 0 -26905008.257553101 -16706725.533034785 0 -16706725.533034785 4719533.4926891485 0 0 0 0 -76105555.37821579 -137905996.22235888 0 -137905996.22235888 5641191.9962832425 0 0 0 0 29011140.777618408 -9363610.614493452 0 -9363610.614493452 35053269.536664501 0 0 0 0 1720805.4958114624 -27031153.184198007 0 -27031153.184198007 59361507.459805161 0 0 0 0 -962828649.69898987 290388467.08410239 0 290388467.08410239 20027060.830631495 0 0 0 0 -741447.25517177582 -571607.10311544593 0 -571607.10311544593 -191124.04809410981 0 0 0 0 -530619.5470102001 -19818.418245834298 0 -19818.418245834298 176032.75900312682 0 0 0 0 -105139525.45973206 -63633678.871005177 0 -63633678.871005177 -100164529.43673444 0 0 0 0 -902060904.61143494 102519772.95673347 0 102519772.95673347 132362154.92737508 0 0 0 0 -341880337.8581543 -159622548.10843182 0 -159622548.10843182 -71280080.643538952 0 0 0 0 -684568063.61663818 235306070.08351088 0 235306070.08351088 -275911750.94129992 0 0 0 0 -498255883.81451416 318043871.77382278 0 318043871.77382278 -247973771.78445137 0 0 0 0 -697116199.66801262 78353622.135576129 0 78353622.135576129 20743328.683837891 0 0 0 0 -282152207.69541168 21431397.762542725 0 21431397.762542725 726348.98145651817 0 0 0 0 -283115705.274189 19167023.052627087 0 19167023.052627087 -4278841.9373574257 0 0 0 0 -438202752.04929352 186848988.92455626 0 186848988.92455626 -12156713.289786816 0 0 0 0 20376211.977073669 -40865151.96766714 0 -40865151.96766714 41068453.536339596 0 0 0 0 -427079009.90524673 182224249.58938134 0 182224249.58938134 -27481050.511488438 0 0 0 0 -1738349.0153821185 -1514401.915507948 0 -1514401.915507948 -831129.54955531971 0 0 0 0 50856418.781862736 29056877.171920814 0 29056877.171920814 8226476.5973269939 0 0 0 0 47257818.409217834 25087811.980009198 0 25087811.980009198 12240555.014499187 0 0 0 0 -313650.64639983978 311772.70447467826 0 311772.70447467826 -358905.56193825236 0 0 0 0 -135270451.88330427 -88980471.783812016 0 -88980471.783812016 -29554458.021416247 0 0 0 0 -134881997.30490494 -49249978.961549208 0 -49249978.961549208 -20280950.836578786 0 0 0 0 48963565.257507324 21825152.026779175 0 21825152.026779175 17919164.973059654 0 0 0 0 -102227638.41131592 -77006728.21948728 0 -77006728.21948728 -31140314.697024092 0 0 0 0 -94682451.951942444 -70479377.968373358 0 -70479377.968373358 -33324244.668060005 0 0 0 0 -71700648.059677124 -59716361.409457445 0 -59716361.409457445 -35709903.21105998 0 0 0 0 -73297817.412097931 -57903370.534672797 0 -57903370.534672797 -30178790.500996783 0 0 0 0 -45932807.164211273 -53556468.04834903 0 -53556468.04834903 -42009010.369228959 0 0 0 0 -42120437.908117294 -24371325.191644527 0 -24371325.191644527 -20132858.322133094 0 0 0 0 -27679900.214878082 -38639099.61166434 0 -38639099.61166434 -41815932.840820596 0 0 0 0 -78612627.290630341 -38379442.849103302 0 -38379442.849103302 -32809424.193878591 0 0 0 0 -84303423.781555176 -53624569.860892624 0 -53624569.860892624 -29554398.576713547 0 0 0 0 -75025427.539741516 -43739603.031213731 0 -43739603.031213731 -45057350.794000328 0 0 0 0 -64055000.297576904 -54478388.079322979 0 -54478388.079322979 -44758810.975551367 0 0 0 0 -87287236.136493683 -55608370.400499806 0 -55608370.400499806 -27088196.473501205 0 0 0 0 -61088287.009167194 -37177055.084651858 0 -37177055.084651858 -27692454.734521896 0 0 0 0 -50269863.297622681 -43314420.454206914 0 -43314420.454206914 -32210455.468024716 0 0 0 0 19687610.281734467 6554640.4913965464 0 6554640.4913965464 -11688720.547522545 0 0 0 0 23119691.135364532 3879463.2887885571 0 3879463.2887885571 -11049044.655786514 0 0 0 0 -298587.32394382823 427513.73713484127 0 427513.73713484127 -1013411.6908093547 0 0 0 0 -98093183.765159607 -34515313.447030678 0 -34515313.447030678 -40710204.59935683 0 0 0 0 52113024.340438843 17937912.100132227 0 17937912.100132227 15546975.511025429 0 0 0 0 36022689.673080444 23338615.158334732 0 23338615.158334732 17767140.506119609 0 0 0 0 -39676.40369630605 -47210.969630981795 0 -47210.969630981795 49333.04098734702 0 0 0 0 41151154.772850037 13674527.661383629 0 13674527.661383629 16869350.058319092 0 0 0 0 -15989537.638702393 -18259182.397072315 0 -18259182.397072315 -24240289.714131832 0 0 0 0 8373682.3998184204 -10680319.991577148 0 -10680319.991577148 -21888442.175812244 0 0 0 0 30711.820106506348 -1163812.9628715515 0 -1163812.9628715515 -14856197.998076439 0 0 0 0 -96014.65113067627 -9053536.009757638 0 -9053536.009757638 -24192250.84960103 0 0 0 0 -343947.17571765184 -408478.41424325015 0 -408478.41424325015 152706.20587074192 0 0 0 0 -2313850.7803039551 -4601017.5909056664 0 -4601017.5909056664 -10275688.666880131 0 0 0 0 826403.80268859863 -4904545.9143652916 0 -4904545.9143652916 -20872829.06651783 0 0 0 0 -1404903.9192314148 -4860678.5079126358 0 -4860678.5079126358 -15876419.791374207 0 0 0 0 -1756832.7844848633 -5565380.233707428 0 -5565380.233707428 -16163469.691622496 0 0 0 0 -1155585.3804779053 -5260540.5889172554 0 -5260540.5889172554 -16293091.552294493 0 0 0 0 -4700352.2382354736 -6543219.8202633858 0 -6543219.8202633858 -13846987.304136276 0 0 0 0 -4793230.1598892212 -6420506.9092009068 0 -6420506.9092009068 -10875042.347616673 0 0 0 0 -1766791.4627227783 -5133328.0302171707 0 -5133328.0302171707 -15769245.164998531 0 0 0 0 -3948470.7138404846 -10432102.50641489 0 -10432102.50641489 -20064069.535466909 0 0 0 0 527277.98300933838 -2427024.350295186 0 -2427024.350295186 -21800599.060444832 0 0 0 0 -3768068.8612995148 -6828473.328134656 0 -6828473.328134656 -15546610.364170551 0 0 0 0 -4406476.0485229492 -8424760.0046749115 0 -8424760.0046749115 -16009752.831969738 0 0 0 0 -5910037.8698272705 -6504046.1755852699 0 -6504046.1755852699 -11049380.53493309 0 0 0 0 -5706428.0780029297 -8807653.8938589096 0 -8807653.8938589096 -12519337.383677721 0 0 0 0 -7177777.2374191284 -9471416.7824332714 0 -9471416.7824332714 -15387109.493503988 0 0 0 0 -6998361.3458604813 -5879171.3611719124 0 -5879171.3611719124 -15825557.899986744 0 0 0 0 1000215.6265335083 1232426.0196650028 0 1232426.0196650028 -1475330.8507999182 0 0 0 0 -400482.89934158325 -2913611.3189676404 0 -2913611.3189676404 10692.731885433197 0 0 0 0 1138623.3963470459 647497.0402482748 0 647497.0402482748 -2667183.1750564575 0 0 0 0 501861.23148727417 524321.40348893404 0 524321.40348893404 -1647798.2432659864 0 0 0 0 -72343.018292793073 377343.45738616586 0 377343.45738616586 154475.43405265338 0 0 0 0 39300385.826004028 42756037.274854898 0 42756037.274854898 -4364937.26765728 0 0 0 0 39270745.41746521 1414218.0974922627 0 1414218.0974922627 22938362.997055277 0 0 0 0 -184600.12310936023 145367.76083886344 0 145367.76083886344 -5872.5670363649697 0 0 0 0 528445.72107315063 1183916.4590604305 0 1183916.4590604305 264522.31032323837 0 0 0 0 4916912.5673446655 976710.27342230082 0 976710.27342230082 274251.00315675139 0 0 0 0 3170841.8037185669 -1892732.1776833534 0 -1892732.1776833534 299798.94563227892 0 0 0 0 5820627.056678772 -3604387.0122357011 0 -3604387.0122357011 1360980.9596973658 0 0 0 0 4383805.2229156494 -2406573.2954242527 0 -2406573.2954242527 2031975.62859869 0 0 0 0 5759083.7888879776 -3293294.9305276424 0 -3293294.9305276424 1765490.1012852192 0 0 0 0 7132382.37840271 -4174131.6233721972 0 -4174131.6233721972 2240077.9469335973 0 0 0 0 8523150.8650817871 -1988879.1300652064 0 -1988879.1300652064 2624246.0057274075 0 0 0 0 7810073.7105445862 -1457094.2770303935 0 -1457094.2770303935 2231112.2725621462 0 0 0 0 9241391.4268493652 2265823.6396688269 0 2265823.6396688269 7008781.1552314907 0 0 0 0 6046023.1822681427 287941.79383418465 0 287941.79383418465 5916624.9921699502 0 0 0 0 16013008.975334167 -237847.17134170234 0 -237847.17134170234 3340874.6733901501 0 0 0 0 8401306.0203781128 -2031580.9850320294 0 -2031580.9850320294 3060467.8576735705 0 0 0 0 11225188.207565308 -3753401.1894028634 0 -3753401.1894028634 2267780.4596683923 0 0 0 0 13434758.509536743 -5700130.5149781778 0 -5700130.5149781778 2758298.057159692 0 0 0 0 8265044.2785949707 -5468477.4592612982 0 -5468477.4592612982 3274203.8282871246 0 0 0 0 5873647.5402183533 -535010.346367836 0 -535010.346367836 2540309.5388971567 0 0 0 0 -179315802.91991329 -111731130.10903862 0 -111731130.10903862 -23946028.312105358 0 0 0 0 58825684.054458618 -22261508.839793146 0 -22261508.839793146 -82296122.161462784 0 0 0 0 -251643.69393225573 460519.83058160171 0 460519.83058160171 198612.55712340886 0 0 0 0 -73293631.292205811 43579680.159554899 0 43579680.159554899 30572326.295677334 0 0 0 0 -75934084.46723175 10814479.420876265 0 10814479.420876265 -77109870.162937522 0 0 0 0 -101297788.94075775 -89176687.64916271 0 -89176687.64916271 -109535319.74740285 0 0 0 0 -80668193.714981079 -31379287.101261795 0 -31379287.101261795 -24374581.16770649 0 0 0 0 -65381065.348365784 7644091.5979225934 0 7644091.5979225934 40912670.789126366 0 0 0 0 -21457960.256591797 9142268.0784100294 0 9142268.0784100294 7609674.6256412864 0 0 0 0 -48267681.006954551 -35563650.166122355 0 -35563650.166122355 -1178812.423430264 0 0 0 0 -106061729.29063416 -33542384.437413696 0 -33542384.437413696 15216090.798798632 0 0 0 0 -124396487.09413147 -82772289.276938602 0 -82772289.276938602 -33208736.170453046 0 0 0 0 -111375572.52878189 -43665675.07556536 0 -43665675.07556536 8347523.8879919052 0 0 0 0 -184946811.5365448 -54570904.837173946 0 -54570904.837173946 3113841.8866050541 0 0 0 0 -136639293.56686401 -45026413.964967713 0 -45026413.964967713 -23867243.905070417 0 0 0 0 -74429092.042388916 -63915493.361937761 0 -63915493.361937761 -19499884.129915208 0 0 0 0 -62309363.515296936 -52322430.998497553 0 -52322430.998497553 -48459675.785851002 0 0 0 0 -87731302.855995178 -72475032.88178131 0 -72475032.88178131 -43087853.2016761 0 0 0 0 -146758465.71427917 -23428912.199581183 0 -23428912.199581183 -47271067.048634887 0 0 0 0 -97637449.161209106 -81015369.283907562 0 -81015369.283907562 -68932268.487250507 0 0 0 0 -119825592.84109497 -39611765.05257374 0 -39611765.05257374 -75609650.762443125 0 0 0 0 -5256775.6833763123 -29428551.558202647 0 -29428551.558202647 -32804079.890856639 0 0 0 0 -21691219.784626007 -21213639.886809472 0 -21213639.886809472 5911433.3206567727 0 0 0 0 -15472315.595657349 -38443750.693417713 0 -38443750.693417713 -35338105.168427922 0 0 0 0 -56266359.541736603 -64732875.4756817 0 -64732875.4756817 -22974483.955396421 0 0 0 0 -47675272.417388916 -22789391.750895366 0 -22789391.750895366 315522.39838159084 0 0 0 0 51257280.969709396 9055298.9726434611 0 9055298.9726434611 1042823.8902101889 0 0 0 0 -6116605.0615997314 -5912993.8906137049 0 -5912993.8906137049 68086522.214520723 0 0 0 0 15892094.040287018 -58288564.8589589 0 -58288564.8589589 18605342.686533093 0 0 0 0 -47574081.612215996 -15834088.815579215 0 -15834088.815579215 96322718.105249703 0 0 0 0 15774660.852256775 58076175.1706319 0 58076175.1706319 61649343.164075643 0 0 0 0 -8633899.4631462097 17706866.807032079 0 17706866.807032079 63922924.651625127 0 0 0 0 -12892909.387332916 15865629.597425746 0 15865629.597425746 67253844.904720217 0 0 0 0 -7489047.8594093323 29290885.219915908 0 29290885.219915908 82527157.385483503 0 0 0 0 2786327.3720359802 -26548675.177922908 0 -26548675.177922908 19396383.424541462 0 0 0 0 -687335.96258865856 -253481.3740391396 0 -253481.3740391396 19855.267037990372 0 0 0 0 -12716536.769416809 16774721.326516606 0 16774721.326516606 19116382.436722539 0 0 0 0 22559537.458278656 11724854.87471934 0 11724854.87471934 3936839.1440600529 0 0 0 0 3551764.5056533813 27717475.003661316 0 27717475.003661316 25250069.745056257 0 0 0 0 2325565.3492584229 -17703422.992288619 0 -17703422.992288619 29287739.814350691 0 0 0 0 -3773631.1203434467 1107003.5434929326 0 1107003.5434929326 -7450930.8474909365 0 0 0 0 -43346237.855964661 -2690311.3163115866 0 -2690311.3163115866 15094798.933005393 0 0 0 0 -1219743.9780328076 -1276472.9433604181 0 -1276472.9433604181 4310541.5384286549 0 0 0 0 -31750219.490779877 -9056214.0757358242 0 -9056214.0757358242 11677520.62879432 0 0 0 0 -22959741.445854187 -7524403.7199929394 0 -7524403.7199929394 56729200.809638716 0 0 0 0 -23044080.474639893 -4217599.6411463637 0 -4217599.6411463637 9532845.9095533881 0 0 0 0 -24853603.282691956 14297964.666278221 0 14297964.666278221 10626645.743107159 0 0 0 0 -22228597.321754456 7062189.5374011844 0 7062189.5374011844 1061450.185104087 0 0 0 0 -505643.1167393474 -1135958.4114063475 0 -1135958.4114063475 2614567.3388873041 0 0 0 0 -33640258.254946232 7220630.9356097588 0 7220630.9356097588 5428525.4295981452 0 0 0 0 -15897671.955354691 8528456.9716337807 0 8528456.9716337807 -954855.97237306088 0 0 0 0 -22595929.158127785 5895868.9518627608 0 5895868.9518627608 -1459680.7909900472 0 0 0 0 -15105651.340744019 1219548.2447214834 0 1219548.2447214834 -7926607.9721292332 0 0 0 0 -140509.01838038306 -839969.80520606227 0 -839969.80520606227 1199365.1821605861 0 0 0 0 -34798176.471244812 -19201194.301468879 0 -19201194.301468879 -22675163.065061808 0 0 0 0 -4745259.3591384888 -22104887.052932642 0 -22104887.052932642 -29829924.591949455 0 0 0 0 -12268255.872430801 2286415.0375736067 0 2286415.0375736067 -8986089.094810918 0 0 0 0 1777451.9849700928 -3348491.3791109025 0 -3348491.3791109025 -6752615.8481342867 0 0 0 0 -24503735.62689209 -11361755.751793563 0 -11361755.751793563 -18983446.326562487 0 0 0 0 -12782579.769268036 3815350.4910961017 0 3815350.4910961017 -14079032.349814937 0 0 0 0 -33509370.171047211 -10124695.407602213 0 -10124695.407602213 -10927385.459217405 0 0 0 0 -42721741.585700989 -25731664.599422812 0 -25731664.599422812 -22827582.981609598 0 0 0 0 -14542618.436790466 -15101388.290085547 0 -15101388.290085547 -27378576.798000261 0 0 0 0 -42452440.902521133 -25052377.201732974 0 -25052377.201732974 -25130905.81710425 0 0 0 0 -54085538.518947601 -35817946.452957816 0 -35817946.452957816 -25355467.984185815 0 0 0 0 -25628619.978363037 -18226596.873632625 0 -18226596.873632625 -25565649.04109779 0 0 0 0 -45216649.470262527 -19488457.897646844 0 -19488457.897646844 -16709458.784854144 0 0 0 0 -52517350.552585602 -28074977.191988796 0 -28074977.191988796 -18511530.44131995 0 0 0 0 -40345467.896409988 -20333489.936569691 0 -20333489.936569691 -24166850.75268238 0 0 0 0 -80636413.961845398 -27393255.98941344 0 -27393255.98941344 -19182673.916977033 0 0 0 0 -64006049.390350342 -38476939.545840472 0 -38476939.545840472 -21404029.139587611 0 0 0 0 -79427541.955863237 -52860402.913436338 0 -52860402.913436338 -35875415.923859149 0 0 0 0 -56962248.490497589 -23470213.49305363 0 -23470213.49305363 -21475678.191342324 0 0 0 0 -28119911.426933289 -2087978.2234421968 0 -2087978.2234421968 4244590.9621440694 0 0 0 0 -25714530.148302078 -9628098.4434974268 0 -9628098.4434974268 -19367503.860361524 0 0 0 0 -42657209.552921295 -17278526.517383318 0 -17278526.517383318 -2712596.7909227386 0 0 0 0 18560.658096457857 -510491.86243658699 0 -510491.86243658699 408204.23233425402 0 0 0 0 -20559707.678779602 -8855270.5106789656 0 -8855270.5106789656 -10846033.735975303 0 0 0 0 -40091544.764987946 -8651499.6468740292 0 -8651499.6468740292 2351366.0376498774 0 0 0 0 -39511444.537586808 -21533695.711173568 0 -21533695.711173568 -15446421.842736483 0 0 0 0 -46948257.593479156 -24889451.973442741 0 -24889451.973442741 -6166858.7185805961 0 0 0 0 -53043057.084108353 -28130431.900834993 0 -28130431.900834993 -7465789.2354182079 0 0 0 0 -58428931.146972656 -19117529.801879771 0 -19117529.801879771 -3553992.3283814797 0 0 0 0 -51305717.106721878 -24511781.237601899 0 -24511781.237601899 -1947.1790126224005 0 0 0 0 75238.814677982708 -304344.39801849797 0 -304344.39801849797 88559.181363121766 0 0 0 0 -64038284.170188904 -37576375.539924376 0 -37576375.539924376 -13570542.431907579 0 0 0 0 -58402058.813224792 -31784437.763006099 0 -31784437.763006099 -9826732.8961116225 0 0 0 0 -265803.76567465439 -597127.25823342521 0 -597127.25823342521 -454589.56502604176 0 0 0 0 -2265458.8357620239 -2355370.4343886655 0 -2355370.4343886655 -896083.3017323073 0 0 0 0 -60599260.685214043 1971467.5347765209 0 1971467.5347765209 -1811061.4030374885 0 0 0 0 -12695.157288033515 -7845.5002470719628 0 -7845.5002470719628 -104200.62926946771 0 0 0 0 -54762512.057487488 -24880605.338255346 0 -24880605.338255346 -28837865.549703471 0 0 0 0 -54303068.518966675 -27772235.010151029 0 -27772235.010151029 -10832687.854856297 0 0 0 0 -49575200.307388306 -30812601.923736218 0 -30812601.923736218 -13956061.965905901 0 0 0 0 -55344910.0885849 -29229986.188132796 0 -29229986.188132796 -26643.788147800682 0 0 0 0 -59306794.256721497 -34241200.383619122 0 -34241200.383619122 -5233448.4697667044 0 0 0 0 -58379112.38825798 -31134728.148718305 0 -31134728.148718305 -5357689.2202833369 0 0 0 0 -342595.06462113746 -384518.69100326486 0 -384518.69100326486 -270648.64902978088 0 0 0 0 -3490836.5067119598 -2565895.8149751457 0 -2565895.8149751457 -689.7317660692047 0 0 0 0 -59252207.585096359 -34603816.289724536 0 -34603816.289724536 -7954234.9741379321 0 0 0 0 -1920890.8559761047 -2138303.6230728244 0 -2138303.6230728244 -993793.71718715876 0 0 0 0 -1870431.4648780823 -1927736.2256524446 0 -1927736.2256524446 -819728.30403519981 0 0 0 0 -651940.53898620605 -3228305.089327476 0 -3228305.089327476 -1775.0465973492817 0 0 0 0 1505676.2302093506 -1747807.2826507208 0 -1747807.2826507208 -1434380.0522910487 0 0 0 0 -1104867.3614864349 -2063868.9071086303 0 -2063868.9071086303 -1430595.7628798867 0 0 0 0 -847748.55313301086 -2357756.4670469137 0 -2357756.4670469137 -1750768.0492550544 0 0 0 0 -2148038.8786010742 -2163772.4428375782 0 -2163772.4428375782 -791633.0598805988 0 0 0 0 5315761.7155380249 -3460683.3523375988 0 -3460683.3523375988 -6594850.9228670597 0 0 0 0 -230764.39417118207 -1120899.4118793369 0 -1120899.4118793369 555495.54109579185 0 0 0 0 -62019352.519453049 -38172668.292664789 0 -38172668.292664789 -23493596.31251882 0 0 0 0 -65555.538983458653 370733.43647821993 0 370733.43647821993 -1926593.3130794994 0 0 0 0 5334074.2385463715 4055528.4612070918 0 4055528.4612070918 -2142206.0628652573 0 0 0 0 -2793465.1307692528 -1323680.8601273894 0 -1323680.8601273894 286111.46746444702 0 0 0 0 -1488545.4597349167 -7468619.0518764257 0 -7468619.0518764257 -6208249.3310832977 0 0 0 0 3252297.8574295044 -4763180.0623831749 0 -4763180.0623831749 -10357256.549700499 0 0 0 0 -58219165.916164398 -33723736.199917853 0 -33723736.199917853 -23384460.858921692 0 0 0 0 -84326788.163257599 -38965413.054984272 0 -38965413.054984272 -20364712.840628713 0 0 0 0 -1571096.0115761757 -1991868.8643235266 0 -1991868.8643235266 -7282540.1823587418 0 0 0 0 -7117936.483625412 -8684223.6724398136 0 -8684223.6724398136 -9372157.1663951874 0 0 0 0 -74297.067446695641 -253829.41026846692 0 -253829.41026846692 -90077.579476864776 0 0 0 0 -3063121.3085479736 -4781932.1400303841 0 -4781932.1400303841 -10184431.141130686 0 0 0 0 -3976796.5856781006 -5841982.3918762207 0 -5841982.3918762207 -6118420.3243150711 0 0 0 0 -1128384.0771408305 -973821.51244120393 0 -973821.51244120393 860140.66056454519 0 0 0 0 -7229949.0927963257 -7149226.7851336002 0 -7149226.7851336002 -6521095.1884450912 0 0 0 0 -3169759.9353790283 -4430015.3617539406 0 -4430015.3617539406 -6477517.0060634613 0 0 0 0 -1052243.1881942749 -1635669.5120389154 0 -1635669.5120389154 -1918755.0722412243 0 0 0 0 -343243.98215588648 -830869.29777741805 0 -830869.29777741805 -787680.93159201287 0 0 0 0 -940103.48654747009 -1300072.3209237903 0 -1300072.3209237903 -588911.10702753067 0 0 0 0 -1361638.7356872559 -1025973.02870965 0 -1025973.02870965 -765297.04529225826 0 0 0 0 -1579618.6215667725 -1305182.4394498467 0 -1305182.4394498467 -1016572.7946997881 0 0 0 0 -433893.31401506346 -703667.58254312351 0 -703667.58254312351 -900388.30932295322 0 0 0 0 -211656.1378326416 -941208.83031927515 0 -941208.83031927515 -1196553.3918814829 0 0 0 0 -496464.78921127319 -871279.56333348015 0 -871279.56333348015 -1164063.5948383063 0 0 0 0 682464.00412654877 -122010.16410265584 0 -122010.16410265584 -692039.81764031039 0 0 0 0 -1399152.0520025399 -982479.64277826622 0 -982479.64277826622 -309142.24671552691 0 0 0 0 -65845.053754452616 -195992.12180835614 0 -195992.12180835614 -373867.4938377717 0 0 0 0 -323558.68673706055 -254901.15230780104 0 -254901.15230780104 -505.9576313213322 0 0 0 0 -1318160.9347801208 -1199614.3348343372 0 -1199614.3348343372 -1518164.3664953709 0 0 0 0 -1080898.5607779883 -703738.02483299095 0 -703738.02483299095 -164662.0032689076 0 0 0 0 -451705.08204269409 -327582.16361737065 0 -327582.16361737065 299521.27961895487 0 0 0 0 -449403.39723968506 99215.925271878863 0 99215.925271878863 -3952.2757690323533 0 0 0 0 -1143253.1061146744 -510349.07847016095 0 -510349.07847016095 -78153.303182266973 0 0 0 0 -2609254.2172641754 -1762617.7088368712 0 -1762617.7088368712 -500431.35537968751 0 0 0 0 184467.45413970947 121111.44678396342 0 121111.44678396342 -685.35181414059309 0 0 0 0 -2657.0408946089447 -895.44360829051584 0 -895.44360829051584 52.447564733373 0 0 0 0 -2591601.5559387207 -1634216.3723932179 0 -1634216.3723932179 -705987.04719853681 0 0 0 0 -1453970.8744354248 -1750467.3421647549 0 -1750467.3421647549 -860377.12778973579 0 0 0 0 -1264205.3870773315 -1479734.6750341654 0 -1479734.6750341654 -488627.86660575867 0 0 0 0 -1451604.4385662079 -1203815.2650941312 0 -1203815.2650941312 -894880.19860887527 0 0 0 0 -1096763.2988548279 -1414007.7718088031 0 -1414007.7718088031 -805607.6607889533 0 0 0 0 -2534925.0211791992 -661491.87507524143 0 -661491.87507524143 -504.05895771391198 0 0 0 0 -3147858.8437461853 -888904.87084432074 0 -888904.87084432074 -84115.546798335636 0 0 0 0 -1014376.1417388916 -144371.76964343898 0 -144371.76964343898 598286.35486842878 0 0 0 0 1327563.2873363495 602524.63766212075 0 602524.63766212075 -944593.66775344592 0 0 0 0 -1917.8222268521786 41.460148142185062 0 41.460148142185062 -215.09018110139456 0 0 0 0 -1974624.6908187866 -1193615.9584825244 0 -1193615.9584825244 -893500.2828906395 0 0 0 0 -656903.84413909912 -857199.46997856104 0 -857199.46997856104 -849597.7207213745 0 0 0 0 -1350033.5372447968 -1430666.6529078782 0 -1430666.6529078782 -855561.04652810097 0 0 0 0 -1299612.797105711 -537427.32805641252 0 -537427.32805641252 -61264.027900095709 0 0 0 0 -2226366.9170455933 -386199.98433977365 0 -386199.98433977365 1086976.4424717724 0 0 0 0 -325928.73198795319 -752512.19907872379 0 -752512.19907872379 853602.66697108746 0 0 0 0 -4021770.9339103699 -1201557.4955638628 0 -1201557.4955638628 410603.45283417613 0 0 0 0 -1616932.7486550622 -931397.01497345837 0 -931397.01497345837 -48246.874888643593 0 0 0 0 -468038.98009300232 -258011.65513274074 0 -258011.65513274074 -772854.59694051743 0 0 0 0 -2590792.6938323975 -729518.36545622349 0 -729518.36545622349 411497.51993715763 0 0 0 0 -4449697.2682113647 -2095601.3009648323 0 -2095601.3009648323 -7378.863905787468 0 0 0 0 -160612.78579000384 -37828.095595063642 0 -37828.095595063642 -10706.604014605284 0 0 0 0 -1355561.3999938965 -1655415.2636258006 0 -1655415.2636258006 -2212.3229718804359 0 0 0 0 -476648.66685339343 -197198.95820419863 0 -197198.95820419863 -71144.721044016769 0 0 0 0 -707605.09013557434 -990273.70413851738 0 -990273.70413851738 -579714.60549426079 0 0 0 0 1569011.8023166656 -947877.09215033054 0 -947877.09215033054 -729248.99827551842 0 0 0 0 -996659.32599188015 -910472.05583626777 0 -910472.05583626777 -951264.53298359923 0 0 0 0 1500740.6374051273 -4997000.2857463099 0 -4997000.2857463099 2592188.7586774826 0 0 0 0 -1030953.2123222351 -1249936.3600765467 0 -1249936.3600765467 -516333.28217184544 0 0 0 0 -851481.67578887939 -1520234.1384416223 0 -1520234.1384416223 -1113839.1806926131 0 0 0 0 -158083.04541110992 -920628.80215379596 0 -920628.80215379596 -642451.48929357529 0 0 0 0 -992082.63533592224 -1145864.8455056846 0 -1145864.8455056846 -506526.73864626884 0 0 0 0 -991309.50179290771 -1145383.7054516077 0 -1145383.7054516077 -511620.22364202142 0 0 0 0 -1126209.1415252686 -1262318.4092521667 0 -1262318.4092521667 -502237.11429226398 0 0 0 0 -1177099.0314540863 -1202942.0626107454 0 -1202942.0626107454 -157100.53290170431 0 0 0 0 -1150205.9475783464 -1075651.8724852758 0 -1075651.8724852758 342148.52112513862 0 0 0 0 -6539307.964553833 -8262627.934743166 0 -8262627.934743166 -8280495.8386320174 0 0 0 0 -1261281.3606958389 -8420505.9621764421 0 -8420505.9621764421 -16362177.084565163 0 0 0 0 -391743.55527412519 -487475.94617351796 0 -487475.94617351796 320591.06486872793 0 0 0 0 2414276.4783935547 -4148113.3425409794 0 -4148113.3425409794 -2364951.1269977093 0 0 0 0 -8519483.9845924377 -11668899.89540112 0 -11668899.89540112 -14547153.999811232 0 0 0 0 -2981698.8775844574 -11454356.540075481 0 -11454356.540075481 -25450178.008142412 0 0 0 0 -1290071.2567901611 -17628606.575426459 0 -17628606.575426459 -36395756.658449113 0 0 0 0 -10444520.58165741 -19606803.305260241 0 -19606803.305260241 -20549443.815059438 0 0 0 0 -6877568.4980430603 -11713684.218539476 0 -11713684.218539476 -10160386.740662336 0 0 0 0 -7774838.1816415787 -5086764.6284854263 0 -5086764.6284854263 -20410426.276544094 0 0 0 0 -1611191.984992981 -10229434.953953743 0 -10229434.953953743 -21629848.770493269 0 0 0 0 -2002898.2372055054 -5712820.3125953674 0 -5712820.3125953674 -15288410.943852901 0 0 0 0 -5361713.4296875 -3613465.9598734379 0 -3613465.9598734379 -4189877.4515304565 0 0 0 0 1003384.7298278809 -6223242.1967189312 0 -6223242.1967189312 -3247990.8070802689 0 0 0 0 -1112436.56980896 -1135238.1548993587 0 -1135238.1548993587 -486755.34864601493 0 0 0 0 -4756207.9504432678 -2150716.9618612826 0 -2150716.9618612826 -7259957.7324852943 0 0 0 0 -1421064.9426715318 -726701.07207081839 0 -726701.07207081839 345544.23472307326 0 0 0 0 -4939400.397315979 -4327837.7851285934 0 -4327837.7851285934 -3919855.1300029755 0 0 0 0 -128655.86114421673 -4063.3886209512129 0 -4063.3886209512129 114799.99967913004 0 0 0 0 -1244889.9946403503 -795906.02370166779 0 -795906.02370166779 -645246.87609004974 0 0 0 0 -435712.33514785767 -110381.79775679111 0 -110381.79775679111 200249.12622594833 0 0 0 0 -386178.31174468994 -2066212.4154376388 0 -2066212.4154376388 283697.21190261841 0 0 0 0 -330005.61297341436 -434906.87473939266 0 -434906.87473939266 -424268.5382418232 0 0 0 0 -721270.06271435088 -255504.18363143876 0 -255504.18363143876 -168378.10292674089 0 0 0 0 -5771719.7920532227 1154859.5187811852 0 1154859.5187811852 815948.91099143028 0 0 0 0 -1094130.9559291378 -559939.14519537659 0 -559939.14519537659 406936.35661640065 0 0 0 0 8790252.093460083 -1677165.955681324 0 -1677165.955681324 -2622429.8305678368 0 0 0 0 7729001.4879016876 -9237569.4684962109 0 -9237569.4684962109 1848766.9359946251 0 0 0 0 7945250.759979248 -5971045.402451992 0 -5971045.402451992 2727389.1015529633 0 0 0 0 10563587.314381599 -5903112.7212897241 0 -5903112.7212897241 1729418.6300065517 0 0 0 0 -269583.15152037703 -282166.03445962025 0 -282166.03445962025 135603.02035119885 0 0 0 0 10088814.684459686 -4790251.2285963297 0 -4790251.2285963297 -133813.40499806404 0 0 0 0 -665253.09555129521 137983.17724868283 0 137983.17724868283 213416.61697676987 0 0 0 0 -13523987.124633789 -11950420.588582218 0 -11950420.588582218 -9717294.8301560879 0 0 0 0 -9267391.3073577881 -4635237.8150699139 0 -4635237.8150699139 -1515700.548034668 0 0 0 0 -13289006.558868408 -11374314.381069183 0 -11374314.381069183 -11627549.805784941 0 0 0 0 -7934908.5433197021 -11048146.082226992 0 -11048146.082226992 -13246694.252401352 0 0 0 0 -13528904.458183289 -12936685.850498796 0 -12936685.850498796 -9301781.7259536982 0 0 0 0 -37265877.187051773 -16865735.190411314 0 -16865735.190411314 12916150.288365602 0 0 0 0 -13905246.374752045 -13138554.811930984 0 -13138554.811930984 -6684204.9213418961 0 0 0 0 -20455505.495384216 -63920.476801723242 0 -63920.476801723242 407619.77939735353 0 0 0 0 -12746097.739854813 -15222917.398886949 0 -15222917.398886949 8881678.6295958757 0 0 0 0 -251729.94134642696 153610.87377668545 0 153610.87377668545 127279.14100148587 0 0 0 0 43787746.283336639 -3304098.9682777971 0 -3304098.9682777971 -5855611.0643155798 0 0 0 0 16375469.042312533 -11058755.524293555 0 -11058755.524293555 -435088.36931800842 0 0 0 0 16323933.21182251 -2326735.180767715 0 -2326735.180767715 832294.69123804569 0 0 0 0 -9926589.3166160583 -7509000.86994946 0 -7509000.86994946 22190536.998337001 0 0 0 0 26131933.730728149 -22123595.011477068 0 -22123595.011477068 2313729.2575287819 0 0 0 0 -8326650.9858627319 -9754047.9862442017 0 -9754047.9862442017 6893742.7016662359 0 0 0 0 -9175917.8289031982 -22446528.419540375 0 -22446528.419540375 11402755.686028808 0 0 0 0 -13411627.372833252 -12244606.372160867 0 -12244606.372160867 6911746.5959118903 0 0 0 0 -3644193.0493774414 -10235757.002996713 0 -10235757.002996713 4964386.6760022342 0 0 0 0 -8153043.8551564217 -11297716.01530006 0 -11297716.01530006 7386474.1414589882 0 0 0 0 -3253241.5753326416 -8799059.2133029699 0 -8799059.2133029699 8530319.1332139969 0 0 0 0 -2694150.9880981445 -10956722.860809445 0 -10956722.860809445 6735343.8370784521 0 0 0 0 142189.94934844971 -10111286.713733673 0 -10111286.713733673 5955979.8928646445 0 0 0 0 -3749365.5367126465 -11518852.448783547 0 -11518852.448783547 6030541.0584006906 0 0 0 0 318983.54421234131 -10922057.221941233 0 -10922057.221941233 5219734.7092266977 0 0 0 0 5568358.3385314941 -11290037.747169971 0 -11290037.747169971 4604459.2344941795 0 0 0 0 4983452.157585144 -9106874.1141097546 0 -9106874.1141097546 3692459.6362206936 0 0 0 0 9400779.6274147034 -8300751.37175956 0 -8300751.37175956 3202440.5837542713 0 0 0 0 3775403.1568222046 -7440330.3016019464 0 -7440330.3016019464 3354335.0513412952 0 0 0 0 5158074.9767565727 -7063837.6270210668 0 -7063837.6270210668 3422898.6068054438 0 0 0 0 44630.294639587402 -8768149.0484808683 0 -8768149.0484808683 5198488.2007958293 0 0 0 0 3703519.526560545 -9707613.3943680227 0 -9707613.3943680227 5435273.9053605795 0 0 0 0 -799532.95804977417 -8921169.5215355456 0 -8921169.5215355456 8918675.2367734909 0 0 0 0 2507537.7240447998 -6009592.9056119919 0 -6009592.9056119919 3286374.9013915062 0 0 0 0 2456155.6381344795 -5313355.1893633083 0 -5313355.1893633083 3570852.5487678051 0 0 0 0 554359.97470092773 -1973254.9275677204 0 -1973254.9275677204 -301534.27163052559 0 0 0 0 -1251039.5599937439 -3764294.2338929027 0 -3764294.2338929027 7576310.8235782385 0 0 0 0 -6446600.6372451782 -3395083.5161873698 0 -3395083.5161873698 20354540.959399879 0 0 0 0 -215020.00261413865 -268067.73948973464 0 -268067.73948973464 199261.7755053711 0 0 0 0 -10783933.370628357 -11845585.469934553 0 -11845585.469934553 14582438.825417042 0 0 0 0 -18174194.481184006 -1239010.2420479655 0 -1239010.2420479655 1446831.6834231615 0 0 0 0 -26071299.273025513 1146793.9983641654 0 1146793.9983641654 2702388.3344976902 0 0 0 0 -21485625.616539001 -4627812.1792790294 0 -4627812.1792790294 1785019.4112634733 0 0 0 0 -29678352.825668335 -9026557.7235673666 0 -9026557.7235673666 1531397.8286923636 0 0 0 0 -14800416.087330818 -7766665.5331211314 0 -7766665.5331211314 -16860166.638994694 0 0 0 0 148846.78465979779 461451.30334114842 0 461451.30334114842 -144583.49565569908 0 0 0 0 -4099560.4219245911 -4575862.558752954 0 -4575862.558752954 -1786731.3872877061 0 0 0 0 -13801370.91758728 -2530490.7437193096 0 -2530490.7437193096 692918.78805620968 0 0 0 0 -3212162.2018299103 198674.01046273112 0 198674.01046273112 -7519757.5772809684 0 0 0 0 -25189007.722747803 -3984478.9757720828 0 -3984478.9757720828 11788342.097595215 0 0 0 0 -333340.43822145462 -1649716.3695879523 0 -1649716.3695879523 -1645786.9405486584 0 0 0 0 -1000987.4111328125 -10322796.330561638 0 -10322796.330561638 6667593.4283601046 0 0 0 0 146535.06644375948 449001.46037422027 0 449001.46037422027 -145220.83914376632 0 0 0 0 -16399443.452412128 -3607396.544994086 0 -3607396.544994086 216277.0033582449 0 0 0 0 4792045.528137207 -9116236.5287545919 0 -9116236.5287545919 -1194313.5746165663 0 0 0 0 -2234412.0759544373 -7079709.4553133845 0 -7079709.4553133845 3027650.27820611 0 0 0 0 4795073.1017532349 -9006432.0145839453 0 -9006432.0145839453 1447039.0136488676 0 0 0 0 6312249.7174530029 -5920851.7122256756 0 -5920851.7122256756 2757202.631103754 0 0 0 0 5701594.7281894684 -7414242.4992903471 0 -7414242.4992903471 434231.97330498695 0 0 0 0 79484.338406854309 239438.16706186067 0 239438.16706186067 -81061.472516966518 0 0 0 0 16389875.227207184 -9973373.4657105207 0 -9973373.4657105207 -3176.0063321590424 0 0 0 0 -27073027.800365448 -2215957.6565388441 0 -2215957.6565388441 1049491.5669015646 0 0 0 0 -26739822.886646271 -1492587.7592005134 0 -1492587.7592005134 1393535.7222319245 0 0 0 0 -244895.32276371494 37416.951215168461 0 37416.951215168461 28437.78655568033 0 0 0 0 -27630639.306098938 274319.70671483874 0 274319.70671483874 496334.12290501595 0 0 0 0 -23429185.136611938 495304.11440896988 0 495304.11440896988 442604.08979821205 0 0 0 0 1278159.2107391357 2891376.022832036 0 2891376.022832036 -6148937.0242360234 0 0 0 0 58270.512988289818 154388.93618761189 0 154388.93618761189 176655.72338731028 0 0 0 0 -25219226.216409683 -2631174.1408522129 0 -2631174.1408522129 -144728.47488093376 0 0 0 0 -4264012.6669864655 -5609903.7849657536 0 -5609903.7849657536 -1130025.0092523396 0 0 0 0 -4427829.6203602366 -753111.39995767176 0 -753111.39995767176 621161.53433620674 0 0 0 0 -19465840.194301605 -967021.56073445082 0 -967021.56073445082 19932095.364242792 0 0 0 0 -2221329.2077941895 10691700.560141325 0 10691700.560141325 -1108300.6209270954 0 0 0 0 3549445.5856246948 -5098924.8335664272 0 -5098924.8335664272 -2901.3131742477417 0 0 0 0 2745049.0118370056 -10806494.110179424 0 -10806494.110179424 2878652.3364329338 0 0 0 0 -6353773.8798904419 -8394297.0812602043 0 -8394297.0812602043 3217588.7279834747 0 0 0 0 -2685512.2974819541 -5588482.4425231703 0 -5588482.4425231703 5342300.5729408264 0 0 0 0 -2124863.4795544688 -1182680.2091758894 0 -1182680.2091758894 -382421.37167938193 0 0 0 0 -2772924.1408996582 -3391182.1106128693 0 -3391182.1106128693 -265424.69849994779 0 0 0 0 -2624197.747051239 -728218.64563133463 0 -728218.64563133463 -121840.31651883229 0 0 0 0 -6121208.1792449951 3467177.4456630861 0 3467177.4456630861 3371200.6614536317 0 0 0 0 -3985549.0926341377 -1128345.4546603605 0 -1128345.4546603605 336847.07290113554 0 0 0 0 -1062521.3315175772 58553.267563597299 0 58553.267563597299 742299.34314935934 0 0 0 0 -7673517.8517112732 -1567101.5804345671 0 -1567101.5804345671 643468.4880913666 0 0 0 0 -8325341.9902305603 2966942.3184929071 0 2966942.3184929071 3286848.4054040033 0 0 0 0 -2723533.6149024963 -1372523.7398266154 0 -1372523.7398266154 241625.40862840915 0 0 0 0 -2796249.0155487061 -799102.53993626498 0 -799102.53993626498 661.32254272318039 0 0 0 0 -2945655.8671550751 -704370.13995366287 0 -704370.13995366287 -56968.217858692282 0 0 0 0 -3891604.7448768616 -704809.44123689411 0 -704809.44123689411 1122132.5956298052 0 0 0 0 -4888954.7497177124 -1310905.2296900873 0 -1310905.2296900873 4871724.6082526874 0 0 0 0 -2656556.8296375275 -450720.75255464076 0 -450720.75255464076 1714669.9822103237 0 0 0 0 -9639923.64412117 23961.685437468037 0 23961.685437468037 -1276.0183137242016 0 0 0 0 -4197722.7166519165 -2014399.6099597693 0 -2014399.6099597693 -540938.80127210054 0 0 0 0 -8375969.6483648419 -1635083.2134325285 0 -1635083.2134325285 1480639.8186191805 0 0 0 0 -4414842.0343475342 -1431284.4153894205 0 -1431284.4153894205 1267201.2228875137 0 0 0 0 -4259360.9856367111 -1342333.64800214 0 -1342333.64800214 -474.63467161099516 0 0 0 0 -4981349.7694664001 -1095639.1887241483 0 -1095639.1887241483 800328.12448250304 0 0 0 0 -4096127.8567295074 -1284851.0978357962 0 -1284851.0978357962 837681.05655450467 0 0 0 0 -4577997.1494941711 -903065.43950028939 0 -903065.43950028939 1744749.9790891381 0 0 0 0 -8926136.9092731476 1761095.4620931065 0 1761095.4620931065 1612190.8961523278 0 0 0 0 -1319718.1111483406 -61688.390422804281 0 -61688.390422804281 574023.54969188513 0 0 0 0 -4167139.8319396973 -1539901.5272670677 0 -1539901.5272670677 608597.76306823315 0 0 0 0 -5675695.8563861847 -2419113.2472429899 0 -2419113.2472429899 306245.81738966494 0 0 0 0 -6409922.1390190125 566548.66123857209 0 566548.66123857209 -39865.327795070596 0 0 0 0 -8553629.4837970734 -743549.31937907171 0 -743549.31937907171 2289.7876151156838 0 0 0 0 -5058539.1088180542 -613652.06362422043 0 -613652.06362422043 -698695.71907797083 0 0 0 0 -4063995.8473968506 -773717.6059485625 0 -773717.6059485625 -685.36263238362994 0 0 0 0 -5058874.7694472969 -693143.20632565184 0 -693143.20632565184 651458.67012798833 0 0 0 0 -110832.45799893141 -127814.000849267 0 -127814.000849267 87529.624419847416 0 0 0 0 -1922049.8359298706 -2664873.8348562829 0 -2664873.8348562829 -1164062.3236421533 0 0 0 0 -4893232.7144203186 -110111.55479831249 0 -110111.55479831249 459071.84820635058 0 0 0 0 -5562294.8673210144 -670421.90446780273 0 -670421.90446780273 1331932.4173494428 0 0 0 0 -5415958.4109344482 -1210836.3068257528 0 -1210836.3068257528 2556124.5607052594 0 0 0 0 -4804029.6593551636 -812798.33492352767 0 -812798.33492352767 -606936.09139350103 0 0 0 0 -3398830.2638813425 446782.19506783551 0 446782.19506783551 196478.5994742355 0 0 0 0 -3265659.4332942963 2062629.5999897504 0 2062629.5999897504 1042362.6507198606 0 0 0 0 -4436590.1863098145 954826.42088780273 0 954826.42088780273 3299276.3394780261 0 0 0 0 -4107697.3944091797 -833064.71914650872 0 -833064.71914650872 569337.44693469908 0 0 0 0 -6752190.8249931335 -1263.5371744348668 0 -1263.5371744348668 2904519.4174508955 0 0 0 0 -3744271.4220733643 -2305369.1351885125 0 -2305369.1351885125 2084907.8222841104 0 0 0 0 15439.026112806052 -140749.66087361227 0 -140749.66087361227 -8354.6994718248952 0 0 0 0 -4874658.3975219727 -1456892.0224822741 0 -1456892.0224822741 2018013.5511471899 0 0 0 0 -2934192.0816802979 -1690745.1513144709 0 -1690745.1513144709 1725849.0273565296 0 0 0 0 -2747073.180860186 635674.60719191842 0 635674.60719191842 769452.25348072383 0 0 0 0 -8104451.829990387 567211.52876827121 0 567211.52876827121 8362801.7683926225 0 0 0 0 -1164569.1710109711 -3642495.908064574 0 -3642495.908064574 4344470.375805676 0 0 0 0 -4755970.8799371719 -1475630.9204722047 0 -1475630.9204722047 1906176.2495499849 0 0 0 0 -7052054.299987793 4865719.4886623621 0 4865719.4886623621 1938553.8077211231 0 0 0 0 -940935.21977686137 252576.22750074137 0 252576.22750074137 521148.63205213554 0 0 0 0 -4366312.6447563171 -83529.439447134733 0 -83529.439447134733 849910.16196018457 0 0 0 0 -3424260.2460041046 -1161616.7526205033 0 -1161616.7526205033 1655819.4967435002 0 0 0 0 -3052760.767414093 -500339.55794620514 0 -500339.55794620514 1504067.2529998124 0 0 0 0 -1555785.8816833496 -9501.4308571815491 0 -9501.4308571815491 1460570.8257487565 0 0 0 0 1235246.3185310364 2912970.6458609104 0 2912970.6458609104 1460621.0268304348 0 0 0 0 -1726644.5593223572 21827.142973214388 0 21827.142973214388 1631059.7379946113 0 0 0 0 -1287535.5388655178 1538055.0372199677 0 1538055.0372199677 1132124.9548777582 0 0 0 0 -1215138.3525238037 2086609.2508251667 0 2086609.2508251667 3324382.9946587086 0 0 0 0 -4805787.7004820667 -317922.73029251164 0 -317922.73029251164 902740.37143153418 0 0 0 0 -3008258.2009849548 9963294.599039793 0 9963294.599039793 10319388.135668278 0 0 0 0 -2256402.574312889 1467625.3902253229 0 1467625.3902253229 1879653.5151341022 0 0 0 0 -3205787.160566384 541825.94847506611 0 541825.94847506611 237427.127334269 0 0 0 0 -3445665.3881645203 -325618.80490756035 0 -325618.80490756035 2783128.7483121157 0 0 0 0 -4034.7908410280943 25302.334320432914 0 25302.334320432914 -7881.671206388748 0 0 0 0 -4836095.649520874 -2606497.2415264235 0 -2606497.2415264235 -466258.36894267378 0 0 0 0 881080.06966400146 622383.61611092556 0 622383.61611092556 -1185678.1954429438 0 0 0 0 -4298831.3638688922 -905972.60790346446 0 -905972.60790346446 -803008.98190910462 0 0 0 0 -94435.443761806935 77093.959784942679 0 77093.959784942679 -50020.539747161827 0 0 0 0 -1612295.1615505219 1719597.4536309105 0 1719597.4536309105 -141089.71618665662 0 0 0 0 -253334.81320953369 -1212647.6712821333 0 -1212647.6712821333 -1616.137138299629 0 0 0 0 32337.172210693359 988073.0377566535 0 988073.0377566535 442085.87793025654 0 0 0 0 26624.332332611084 967421.95205331687 0 967421.95205331687 307826.49592450634 0 0 0 0 39719.532064437866 1014576.0202325513 0 1014576.0202325513 430405.02470402606 0 0 0 0 -219873.09378728457 132306.63132616784 0 132306.63132616784 2167.4454007373088 0 0 0 0 -714169.36919403076 644626.08734023105 0 644626.08734023105 -46203.583499249071 0 0 0 0 -782556.0043296814 -125785.43649086682 0 -125785.43649086682 375486.41183130164 0 0 0 0 215651.17431640625 -509597.47652103112 0 -509597.47652103112 345.72580277767486 0 0 0 0 -201194.06206921861 139290.52006250713 0 139290.52006250713 -72415.188504760707 0 0 0 0 -1202619.7922172546 37710.060066106729 0 37710.060066106729 519541.68032961769 0 0 0 0 -1170971.3525695801 -38653.02070866595 0 -38653.02070866595 -97826.297281676205 0 0 0 0 -489101.53115081787 -916328.63585426938 0 -916328.63585426938 486867.14896195813 0 0 0 0 -1309655.1966896057 751083.56809378229 0 751083.56809378229 1046062.2898058388 0 0 0 0 -355871.24068772234 189564.21315538138 0 189564.21315538138 -11454.528021747965 0 0 0 0 -218367.09543509409 218846.29719996639 0 218846.29719996639 -62887.23317340514 0 0 0 0 -1219720.4541627131 383641.96962341852 0 383641.96962341852 138092.3663205558 0 0 0 0 -345518.25965881348 1361900.383359313 0 1361900.383359313 805276.94672080874 0 0 0 0 -1704131.0451278687 1923863.3533111773 0 1923863.3533111773 4000819.2070433535 0 0 0 0 -376255.40450286865 2629373.5425837897 0 2629373.5425837897 -250954.2907349728 0 0 0 0 -200976.77906799316 339209.7204175964 0 339209.7204175964 398961.28056561947 0 0 0 0 -301069.43481401354 495069.75258540851 0 495069.75258540851 39323.874941736773 0 0 0 0 -3175497.2013942748 -248694.54056378198 0 -248694.54056378198 306026.26926620555 0 0 0 0 -4462001.4952659607 6824118.9271285329 0 6824118.9271285329 14075611.750297684 0 0 0 0 -3508131.2881347165 173565.92380146962 0 173565.92380146962 133514.63769131224 0 0 0 0 -3571248.7687492371 2306181.3510948569 0 2306181.3510948569 5522343.546510458 0 0 0 0 304367.34568786621 -1260142.3541893065 0 -1260142.3541893065 -2046316.6257451177 0 0 0 0 -86871.037689208984 1460773.5391981155 0 1460773.5391981155 2298180.1958107352 0 0 0 0 -3186742.8632354736 3449295.4390507936 0 3449295.4390507936 -58298.805340230465 0 0 0 0 -411537.50263500214 -1660364.3381319102 0 -1660364.3381319102 4415199.2425577939 0 0 0 0 -4029191.6705932617 2309087.0403114557 0 2309087.0403114557 -416949.14580348134 0 0 0 0 -77527.767482677475 36847.075065132231 0 36847.075065132231 13903.823935330671 0 0 0 0 -5706791.0460357666 5504809.5444346666 0 5504809.5444346666 -3490348.0251355171 0 0 0 0 -523636.28471343964 398620.07147505612 0 398620.07147505612 49500.844727494579 0 0 0 0 -406807.63305664062 -401217.84395445883 0 -401217.84395445883 -690916.27132713795 0 0 0 0 -5602955.2711639404 -1151241.3431472778 0 -1151241.3431472778 -1368201.7339934111 0 0 0 0 -272519.29972396046 207882.53471055022 0 207882.53471055022 -54654.006086858433 0 0 0 0 263997.90749359131 1628452.0662562288 0 1628452.0662562288 136179.89307652134 0 0 0 0 3700219.8434944153 -1508198.6300569475 0 -1508198.6300569475 -9316520.5341446996 0 0 0 0 6478354.3336830139 4172364.926615715 0 4172364.926615715 -10399034.385491282 0 0 0 0 -20347.655190572143 171076.18276485684 0 171076.18276485684 -18431.806106499625 0 0 0 0 4070955.3354110718 10905913.694110528 0 10905913.694110528 1150781.6901773708 0 0 0 0 5905872.1202907562 8789389.0598477758 0 8789389.0598477758 -7928107.1733444929 0 0 0 0 -3936502.6076976527 296916.75881926669 0 296916.75881926669 107980.7514325651 0 0 0 0 -11352807.400239944 7366930.8578173816 0 7366930.8578173816 23571938.454000004 0 0 0 0 744247.3681936264 -132876.19457136682 0 -132876.19457136682 -2741418.479962368 0 0 0 0 -2458095.7801017761 256239.60289140977 0 256239.60289140977 1517140.8543670103 0 0 0 0 -2356612.8730125427 149203.09326822497 0 149203.09326822497 760772.57609694824 0 0 0 0 -2934378.1082878113 414465.13634620607 0 414465.13634620607 1469198.6636091843 0 0 0 0 -2880433.9364109039 1266794.2865437269 0 1266794.2865437269 3346123.7266973555 0 0 0 0 -2658074.7833194733 1711341.8516029418 0 1711341.8516029418 390138.82789766788 0 0 0 0 -2261545.0295372009 273310.55775466561 0 273310.55775466561 922001.00251021981 0 0 0 0 -1652440.0024013519 56333.452166723087 0 56333.452166723087 458081.0933024995 0 0 0 0 -1528727.2090873718 86017.173488856293 0 86017.173488856293 -2172527.8358955868 0 0 0 0 -4244120.0021209717 4895156.397157602 0 4895156.397157602 -1078716.9271784127 0 0 0 0 -9734151.7095222473 -2780200.4051590115 0 -2780200.4051590115 5716416.2475508451 0 0 0 0 -302328.65368843824 -132117.72911604308 0 -132117.72911604308 105398.22317704077 0 0 0 0 -13290174.937026978 -1557559.392156329 0 -1557559.392156329 386970.09315426648 0 0 0 0 -9206764.198975563 -8197790.8414434334 0 -8197790.8414434334 -5738824.990332365 0 0 0 0 -3784882.6478252411 424423.58290842548 0 424423.58290842548 124114.13548460603 0 0 0 0 -8029622.4513053894 -2723153.8255546838 0 -2723153.8255546838 3262829.9772119522 0 0 0 0 -1659126.1871086024 -313210.39507937315 0 -313210.39507937315 123069.75807195624 0 0 0 0 -1149394.9520149231 -696703.17527210712 0 -696703.17527210712 1018365.172240451 0 0 0 0 -934690.62792205811 -327728.06792244315 0 -327728.06792244315 288731.72257220745 0 0 0 0 -5292749.6446304321 -350733.14337083697 0 -350733.14337083697 7481592.0896868706 0 0 0 0 230449.89710617065 -1029890.9739797711 0 -1029890.9739797711 3447814.4181576371 0 0 0 0 -1541571.4786751848 -785475.00744619942 0 -785475.00744619942 -24312.931716090541 0 0 0 0 -1614927.0690817833 -361458.9868432954 0 -361458.9868432954 507235.57878565788 0 0 0 0 -4923623.4096031189 -4532792.7319323272 0 -4532792.7319323272 6431003.5206454396 0 0 0 0 -1476498.7157096863 -175358.69429200888 0 -175358.69429200888 756948.21845372021 0 0 0 0 910443.10705566406 -3423497.5228494406 0 -3423497.5228494406 3934023.062897861 0 0 0 0 -4939566.135761261 -2243938.7406872325 0 -2243938.7406872325 3696420.3415082879 0 0 0 0 -2438860.3983917236 -1605183.9685868472 0 -1605183.9685868472 -3348194.003551729 0 0 0 0 -2643122.365562439 -4152.0117768216878 0 -4152.0117768216878 887137.30460033566 0 0 0 0 -1855139.541015625 -4846378.7831531763 0 -4846378.7831531763 41706.999502897263 0 0 0 0 -2407564.5916748047 -375764.35272675753 0 -375764.35272675753 338155.06977127492 0 0 0 0 -1181218.037557032 -505725.17536281049 0 -505725.17536281049 494505.15289004607 0 0 0 0 -2330763.7546136286 133633.06926744245 0 133633.06926744245 20658.909281002911 0 0 0 0 -1490631.9942319782 -3560.6206350196153 0 -3560.6206350196153 281424.86699186073 0 0 0 0 -2978696.008767128 -59582.941906798631 0 -59582.941906798631 -873582.64862620831 0 0 0 0 -36705.990303039551 3268666.5253295898 0 3268666.5253295898 -16178933.739279509 0 0 0 0 -11581695.282764435 2653890.7692199349 0 2653890.7692199349 15467123.6860708 0 0 0 0 -111864.34515588055 11544.18206240423 0 11544.18206240423 5295.3108730732347 0 0 0 0 -11859.62271668762 75698.922352473484 0 75698.922352473484 13745.074182716693 0 0 0 0 -1352556.4666252136 -1494055.0253620148 0 -1494055.0253620148 1184409.0000611544 0 0 0 0 639878.6002702713 3617376.0076684654 0 3617376.0076684654 -1423762.977758944 0 0 0 0 -1541883.2418487854 -441240.89168141549 0 -441240.89168141549 434128.88119597465 0 0 0 0 -2118108.1583404541 -213101.60087949038 0 -213101.60087949038 839858.06236381829 0 0 0 0 -1869101.8833494261 -112614.497267887 0 -112614.497267887 -38636.285187759662 0 0 0 0 -2250385.4373550415 139222.99188057333 0 139222.99188057333 356386.4744797051 0 0 0 0 -1969722.6475067139 -4641558.5084023476 0 -4641558.5084023476 5760121.4240995385 0 0 0 0 -7049669.1433830261 2945.1559438109398 0 2945.1559438109398 2971666.9554597735 0 0 0 0 -9912325.0435714722 127173.95007611066 0 127173.95007611066 6343624.0589442858 0 0 0 0 -1523468.5249271393 -1088815.3959958553 0 -1088815.3959958553 2251370.2362033129 0 0 0 0 3068997.2774925232 381747.35481722653 0 381747.35481722653 1323537.0512551665 0 0 0 0 -1599154.8041992188 422216.12885186076 0 422216.12885186076 1827785.3652991951 0 0 0 0 -1612282.6547600999 476568.93449197896 0 476568.93449197896 1206714.5272624614 0 0 0 0 -5704333.1696472168 -957206.26484157145 0 -957206.26484157145 3512981.8570591807 0 0 0 0 -389453.90299224854 -1386463.2104885951 0 -1386463.2104885951 1448322.1702418327 0 0 0 0 -5682228.7189178467 188454.11124891043 0 188454.11124891043 726691.59493758529 0 0 0 0 -6259258.5589599609 -2092973.2479423434 0 -2092973.2479423434 1362204.4402886033 0 0 0 0 -5754394.3341488838 -211798.48345083091 0 -211798.48345083091 1700018.6943333745 0 0 0 0 -7166831.3339996338 -3265965.7451157868 0 -3265965.7451157868 4320930.7200270444 0 0 0 0 -6008562.826171875 -5097265.7712083757 0 -5097265.7712083757 -2598950.2192220092 0 0 0 0 -3683691.4146957397 359464.17719878629 0 359464.17719878629 -8793665.3876426704 0 0 0 0 -7857856.0375862122 4574863.7330809236 0 4574863.7330809236 -3503394.913468577 0 0 0 0 -3699806.152361393 533746.52649883181 0 533746.52649883181 -361091.16011720896 0 0 0 0 -6294694.8893623352 1040223.1216278337 0 1040223.1216278337 4388155.3961202353 0 0 0 0 -6249493.398475647 1823836.3142465577 0 1823836.3142465577 1867578.6812864323 0 0 0 0 -4968978.5072669983 2410189.7693815678 0 2410189.7693815678 -2901758.0776114464 0 0 0 0 -1799560.3590698242 4691807.1215607971 0 4691807.1215607971 -3155236.0764011052 0 0 0 0 -5711046.7164573669 7908304.531934794 0 7908304.531934794 -2405226.2179850936 0 0 0 0 -12505048.984893799 5808509.228171356 0 5808509.228171356 2362613.1487424709 0 0 0 0 -370161.25463052094 -126133.83484138548 0 -126133.83484138548 126458.40796344756 0 0 0 0 1705495.5863313675 1236987.2474157177 0 1236987.2474157177 -280204.53116098046 0 0 0 0 528511.92739677429 6665029.1959672831 0 6665029.1959672831 -2412222.5275131613 0 0 0 0 1855416.8957366943 -26861548.84647274 0 -26861548.84647274 13006338.979333512 0 0 0 0 -2893762.3166046143 2875762.5255928338 0 2875762.5255928338 117397.02993822098 0 0 0 0 -2987959.4764213562 836362.57242123783 0 836362.57242123783 -836072.6400283277 0 0 0 0 -3158737.1314239502 4428767.9443908185 0 4428767.9443908185 -2218325.0561438203 0 0 0 0 -2565888.2945480347 925685.35363674164 0 925685.35363674164 5635883.692522049 0 0 0 0 -5930966.865776062 562929.69398166239 0 562929.69398166239 4220689.3279787302 0 0 0 0 -1283557.9908676147 861834.38796716928 0 861834.38796716928 4212258.362976633 0 0 0 0 -1234650.2190239653 -417135.69287434872 0 -417135.69287434872 446459.27035702224 0 0 0 0 -2319900.0763397217 3756481.8193764091 0 3756481.8193764091 5808293.1372105256 0 0 0 0 -3535677.8368701935 -4100470.8111917228 0 -4100470.8111917228 53715.253205180168 0 0 0 0 -1798032.3728037365 415968.47741677414 0 415968.47741677414 334005.71151988429 0 0 0 0 -526359.58484649658 738731.54003638029 0 738731.54003638029 1086791.6575881988 0 0 0 0 -1075871.8886719886 71015.77018983895 0 71015.77018983895 489883.10105494439 0 0 0 0 -290191.34056854248 715132.95023334026 0 715132.95023334026 1682889.2385546118 0 0 0 0 -1535477.5648374464 -293895.47346462496 0 -293895.47346462496 631665.41672948794 0 0 0 0 1910034.5777206421 3605348.0742442831 0 3605348.0742442831 1570123.3106532395 0 0 0 0 622059.07997512817 1025907.00075984 0 1025907.00075984 -2643771.0225750059 0 0 0 0 -2227939.8346203603 592585.90601746086 0 592585.90601746086 755627.46102791827 0 0 0 0 -6574847.6624603271 1902548.0935630798 0 1902548.0935630798 -7207510.0074190199 0 0 0 0 3478943.2152023315 1769981.7210743204 0 1769981.7210743204 -1619483.9387871623 0 0 0 0 1136697.8270111084 1171487.0113201737 0 1171487.0113201737 2824462.6850556508 0 0 0 0 69101.540896464139 54717.672789632343 0 54717.672789632343 -31728.485493002176 0 0 0 0 261303.51089169458 1119606.0684147305 0 1119606.0684147305 -268599.61534385325 0 0 0 0 -3381239.3320541382 -13524.873094409704 0 -13524.873094409704 305509.09654766321 0 0 0 0 -829987.076171875 2131016.9652903676 0 2131016.9652903676 -1429174.245747149 0 0 0 0 -121246.60356395133 -139771.06818636903 0 -139771.06818636903 -78778.4232672488 0 0 0 0 -548195.9514465332 -470716.34022897482 0 -470716.34022897482 -180592.36712026596 0 0 0 0 -1296548.6811199188 6054191.3715472817 0 6054191.3715472817 1687110.570881784 0 0 0 0 -14911968.123931885 16503338.904158249 0 16503338.904158249 -14678488.214771777 0 0 0 0 -1858007.8120616022 551423.74304505438 0 551423.74304505438 912417.99209371791 0 0 0 0 -6195601.6589355469 -3493008.9221100509 0 -3493008.9221100509 1471625.7161168158 0 0 0 0 -27616936.55373764 8127050.1962377131 0 8127050.1962377131 -2975031.9133993685 0 0 0 0 -3094676.2400093079 -102528.74183374643 0 -102528.74183374643 -1478319.3561434448 0 0 0 0 -5935909.2412424088 -10831520.986496598 0 -10831520.986496598 -18459396.377763361 0 0 0 0 24294.950465003029 -235238.67735999427 0 -235238.67735999427 -97454.108960610421 0 0 0 0 -10483088.394637585 -7817651.246175006 0 -7817651.246175006 -5807279.7497912645 0 0 0 0 -10702167.785057545 -8348401.5004943162 0 -8348401.5004943162 -5528962.2070212364 0 0 0 0 -3480370.5790634155 -6955861.2265179157 0 -6955861.2265179157 -10421186.1924932 0 0 0 0 -6729805.6393852234 -5772680.2897279263 0 -5772680.2897279263 -4970122.3361580372 0 0 0 0 -1733648.1836338043 -1927524.0719358325 0 -1927524.0719358325 -4101333.8722436428 0 0 0 0 2092300.3500213623 -51889.081196635962 0 -51889.081196635962 -7799200.7976284251 0 0 0 0 -3185445.7863082886 -319271.9000454843 0 -319271.9000454843 1113267.9836218059 0 0 0 0 -1025065.0327339172 -933343.97716069221 0 -933343.97716069221 -2467656.9308097363 0 0 0 0 -543284.89911842346 1198824.3217395395 0 1198824.3217395395 147369.91008102894 0 0 0 0 -2940446.4708709717 -2244810.5104691982 0 -2244810.5104691982 -2645568.3469329178 0 0 0 0 -1064553.1885557175 184487.50055217743 0 184487.50055217743 1501375.0397215486 0 0 0 0 -1523798.4450683687 -193789.63894912088 0 -193789.63894912088 593599.45329748699 0 0 0 0 -414574.07087173779 -44565.26670715306 0 -44565.26670715306 246552.2336922799 0 0 0 0 -1276728.5535583496 1304949.0989762843 0 1304949.0989762843 2210241.1799399257 0 0 0 0 -1137341.8865356445 -208247.04385817051 0 -208247.04385817051 335515.76322567463 0 0 0 0 -124763.47721481323 408532.51966071129 0 408532.51966071129 -1876510.4910036325 0 0 0 0 -2127809.3152084351 -789386.79767858982 0 -789386.79767858982 -2105592.879794091 0 0 0 0 -1526857.581363678 644342.8997490406 0 644342.8997490406 -1683246.2509543896 0 0 0 0 -3750615.8895606995 1549589.7701310515 0 1549589.7701310515 -358691.41167020798 0 0 0 0 -1223455.7073218822 1797311.3247748986 0 1797311.3247748986 -509181.36526083946 0 0 0 0 -3909459.9566650391 -312876.87529158592 0 -312876.87529158592 -2033311.9694473743 0 0 0 0 -3803033.916847229 -768204.03774642944 0 -768204.03774642944 -91540.576886415482 0 0 0 0 -3508959.3357753754 -1585304.3744053841 0 -1585304.3744053841 -2774291.4442307949 0 0 0 0 -2809930.3699474335 -596465.13269859552 0 -596465.13269859552 -2137662.0632610321 0 0 0 0 -3150524.6328048706 -1418912.4203777313 0 -1418912.4203777313 -2803158.8581094742 0 0 0 0 -3612265.651763916 -1768074.8542592525 0 -1768074.8542592525 -2613046.9019348621 0 0 0 0 -3197222.0444869995 -1960762.6395702362 0 -1960762.6395702362 -3354640.7474576235 0 0 0 0 -2036003.0282363892 -556841.97905504704 0 -556841.97905504704 -2435876.5355091095 0 0 0 0 -1614791.8221321106 -1905037.0482741594 0 -1905037.0482741594 -3402065.4382300377 0 0 0 0 -4122649.0096321106 -3131973.991102457 0 -3131973.991102457 -4092864.0841543078 0 0 0 0 -2247909.8823852539 -1696613.0874866247 0 -1696613.0874866247 -3897094.2134394646 0 0 0 0 -2588340.9969100952 -3371217.8644971848 0 -3371217.8644971848 -5688039.6477515697 0 0 0 0 -5165282.752872467 -2935247.9959127903 0 -2935247.9959127903 -3529157.9588580132 0 0 0 0 -5324559.6280498505 -4691646.9197153822 0 -4691646.9197153822 -4138761.1163880825 0 0 0 0 -4616009.640663147 -3228332.1441962719 0 -3228332.1441962719 -4181504.0567066669 0 0 0 0 -3922032.6648836136 -1824390.9997302294 0 -1824390.9997302294 -2553890.271042347 0 0 0 0 -3321336.5513534546 -1617646.1392400861 0 -1617646.1392400861 -3085929.6423187256 0 0 0 0 -3649769.8007621765 -2407106.5730447769 0 -2407106.5730447769 -3712366.7295000553 0 0 0 0 -4715106.4431266785 -2354457.7278857231 0 -2354457.7278857231 -3474880.5947351456 0 0 0 0 -5102122.5320472717 -2600420.8118839264 0 -2600420.8118839264 -3691675.137676239 0 0 0 0 -4075987.6823043823 -2770870.2012791634 0 -2770870.2012791634 -4009392.7425811291 0 0 0 0 -6867080.0081644058 -3445230.4014775753 0 -3445230.4014775753 -3181585.4357447624 0 0 0 0 -6813054.2068748474 -3551941.2923789024 0 -3551941.2923789024 -3588487.6832625866 0 0 0 0 -8909236.0538153648 -3232418.3229768276 0 -3232418.3229768276 767831.61841273308 0 0 0 0 -10231020.937488556 -3924680.4772074223 0 -3924680.4772074223 -2714142.9023532867 0 0 0 0 -828232.89001435135 -464907.74645560421 0 -464907.74645560421 -164634.63208136987 0 0 0 0 -7524443.2358093262 -4992709.3980251551 0 -4992709.3980251551 -1669492.2827990055 0 0 0 0 -9870954.9483222961 -6928780.5556308031 0 -6928780.5556308031 -1603667.0980165005 0 0 0 0 -11546119.061230659 -5857574.1022894382 0 -5857574.1022894382 -1219088.7846448421 0 0 0 0 -11140364.664171219 -8389587.2497732043 0 -8389587.2497732043 -3119406.7069091797 0 0 0 0 -9966887.5200614929 -6781060.2026685476 0 -6781060.2026685476 -1744221.4716869593 0 0 0 0 -10209944.724742889 -4858583.7636150122 0 -4858583.7636150122 -3100691.1135649681 0 0 0 0 -7343600.2023010254 -7423109.9543063641 0 -7423109.9543063641 -5277852.9075318575 0 0 0 0 -2549032.3173942566 -606253.56277608871 0 -606253.56277608871 -220959.68336886168 0 0 0 0 -2662415.6513662338 -387025.56411005557 0 -387025.56411005557 366378.26561951637 0 0 0 0 -2027889.3602027893 -4028259.7387042046 0 -4028259.7387042046 -2827562.3719930649 0 0 0 0 -1204027.1023483276 -974440.50528758764 0 -974440.50528758764 -1071839.4897315502 0 0 0 0 -2998510.1118922234 -964366.97040745616 0 -964366.97040745616 332137.25427913666 0 0 0 0 -3033106.970682621 -843432.66517524421 0 -843432.66517524421 2166964.1010065079 0 0 0 0 -4415731.1253490448 -770125.89868962765 0 -770125.89868962765 6456912.7567737103 0 0 0 0 -3646504.9223098755 -1641540.5527838469 0 -1641540.5527838469 1131207.8221907616 0 0 0 0 -4129238.375869751 -5875762.2023431063 0 -5875762.2023431063 775182.2418615818 0 0 0 0 -5369536.8621482849 -5209784.5686973333 0 -5209784.5686973333 4282022.1989855766 0 0 0 0 -2216566.0526275635 -159477.16014431417 0 -159477.16014431417 461098.94667387009 0 0 0 0 -1585325.085521698 1036669.2400771379 0 1036669.2400771379 2370352.1696126461 0 0 0 0 -1440978.6730762923 43542.968298664317 0 43542.968298664317 161717.96253990929 0 0 0 0 -2129703.4490509033 -69410.024651885033 0 -69410.024651885033 126568.99052166939 0 0 0 0 -8814448.315574646 -2856854.8717620373 0 -2856854.8717620373 1109506.4325113297 0 0 0 0 -5707521.9825744629 1210043.9666614532 0 1210043.9666614532 -942064.86333870888 0 0 0 0 -1255204.2327537537 1510047.5241925716 0 1510047.5241925716 -1003295.7584862113 0 0 0 0 -9237240.9575881958 798045.27557432652 0 798045.27557432652 1810854.1241895258 0 0 0 0 -2793656.0890979767 -750741.32822480798 0 -750741.32822480798 507341.98975014687 0 0 0 0 -374086.10625970364 -98379.289585740771 0 -98379.289585740771 246066.69968849182 0 0 0 0 -1941867.933864126 -59787.197360051796 0 -59787.197360051796 370210.90615059575 0 0 0 0 -1622979.8727893829 81165.18507617712 0 81165.18507617712 97543.526742756367 0 0 0 0 -1530213.5420565605 -320527.77035561204 0 -320527.77035561204 423083.1845215559 0 0 0 0 -1265688.1120074224 17969.033431592397 0 17969.033431592397 431336.04548393143 0 0 0 0 -1353205.0429338254 -331181.75442999089 0 -331181.75442999089 447227.89750246896 0 0 0 0 -6130517.1395645142 -140122.4552822113 0 -140122.4552822113 1140167.3617835045 0 0 0 0 -433587.2554397583 735746.53153693676 0 735746.53153693676 1158368.0051709414 0 0 0 0 -1088882.4528884888 82116.942059278488 0 82116.942059278488 1764232.8899658918 0 0 0 0 -1260406.2785138376 -473066.2484719092 0 -473066.2484719092 551918.88285380136 0 0 0 0 -2595127.5631484985 -3448014.6097683907 0 -3448014.6097683907 -293682.78980457783 0 0 0 0 -6784322.2526626587 -88346.007078289986 0 -88346.007078289986 -242162.75466752052 0 0 0 0 -2764616.9521255493 -1044665.1691486835 0 -1044665.1691486835 -1527910.7383525372 0 0 0 0 -1941032.2700576782 1163725.1735041142 0 1163725.1735041142 954183.59433507919 0 0 0 0 -3138894.5323257446 -1039989.9919507504 0 -1039989.9919507504 -475025.54369306564 0 0 0 0 297457.71317100525 -248916.11999851465 0 -248916.11999851465 -1225770.4038329124 0 0 0 0 -1860565.7744903564 -353470.40850770473 0 -353470.40850770473 -1359380.3547649384 0 0 0 0 -3295473.8826522827 -581143.84553718567 0 -581143.84553718567 -1217810.4046820402 0 0 0 0 -3500866.6435317993 -1324167.94820261 0 -1324167.94820261 -1356647.7248085737 0 0 0 0 -3895488.2562599182 -1736490.3815896511 0 -1736490.3815896511 -2340891.930082947 0 0 0 0 -2761129.8445167542 -1289030.6158546209 0 -1289030.6158546209 -2404298.5370492935 0 0 0 0 -3347935.8685112 -1034239.1060779095 0 -1034239.1060779095 -2248704.1859564781 0 0 0 0 -3313254.761882782 -1878257.9113345146 0 -1878257.9113345146 -3407530.1219687462 0 0 0 0 -3691269.2478580475 -1994672.6259536743 0 -1994672.6259536743 -3953979.3279616833 0 0 0 0 -4289426.2175531387 -2182603.1024771631 0 -2182603.1024771631 -3347132.293156147 0 0 0 0 -8373710.27186203 -2031677.7878232002 0 -2031677.7878232002 -1709899.0485743284 0 0 0 0 -5090077.5720806122 -509342.7775605917 0 -509342.7775605917 -1158605.4501700401 0 0 0 0 -5246944.3111343384 -691729.19536542892 0 -691729.19536542892 -1347819.2076516151 0 0 0 0 -4812081.2885475159 -512273.43635129929 0 -512273.43635129929 -1783904.6953032017 0 0 0 0 -4904134.215801239 -2245224.9301822186 0 -2245224.9301822186 -2831917.2411265373 0 0 0 0 -3567186.4736061096 -1196345.3063981533 0 -1196345.3063981533 -1969383.2408251762 0 0 0 0 -3420632.6842799187 465192.50376941264 0 465192.50376941264 -1100518.8074617386 0 0 0 0 -4117810.8458442688 -911000.00286650658 0 -911000.00286650658 -1010449.9781997204 0 0 0 0 -853432.5244534302 531720.23530618474 0 531720.23530618474 32915.961748203728 0 0 0 0 -1880565.89417243 -656657.37452706695 0 -656657.37452706695 84808.798963785172 0 0 0 0 -1975996.6591796484 -369007.16173257399 0 -369007.16173257399 98824.844885171275 0 0 0 0 -4763377.4769716263 -290784.86752253771 0 -290784.86752253771 -1401287.1610617638 0 0 0 0 -279270.04328096029 293866.18884391896 0 293866.18884391896 37904.549557458144 0 0 0 0 -2240784.388458252 -26472.322817087173 0 -26472.322817087173 274003.82728570607 0 0 0 0 -2091024.4463233948 -285768.38163352013 0 -285768.38163352013 -1444876.7504897118 0 0 0 0 -2130235.3461036682 -662203.94096148014 0 -662203.94096148014 276632.0330541674 0 0 0 0 -2212996.7204508781 -264164.23984235525 0 -264164.23984235525 49096.638472080231 0 0 0 0 -677302.59267902374 -698864.67716914415 0 -698864.67716914415 4631708.1515702009 0 0 0 0 -10039713.313885212 13381476.538663656 0 13381476.538663656 -8753830.9182446003 0 0 0 0 -3586579.7162836362 -1114017.2273811414 0 -1114017.2273811414 63913.493084941234 0 0 0 0 -7527427.9907383919 7135396.0883539021 0 7135396.0883539021 6578580.9478946924 0 0 0 0 -2179316.8440285074 946665.34762570425 0 946665.34762570425 773335.90163044736 0 0 0 0 -5544331.37974058 403856.76634349022 0 403856.76634349022 2471923.2603206583 0 0 0 0 80166.941529691219 -2120159.3041801956 0 -2120159.3041801956 -11014458.962755203 0 0 0 0 86683.122762680054 -2918248.4734306335 0 -2918248.4734306335 -1605140.9998135567 0 0 0 0 -3420600.1624102667 -758344.75233215839 0 -758344.75233215839 -284518.81453492015 0 0 0 0 -2479684.553850174 -546715.13234490156 0 -546715.13234490156 1576835.1059514284 0 0 0 0 -11121392.072506905 -5513897.140462935 0 -5513897.140462935 -3321180.0986967087 0 0 0 0 -1767806.328540802 218913.08879446983 0 218913.08879446983 -1118511.6498346329 0 0 0 0 -2818067.7533111572 2691447.3325147629 0 2691447.3325147629 -18605059.133725166 0 0 0 0 -437074.57678794861 -1450597.6493605822 0 -1450597.6493605822 2058142.2929743603 0 0 0 0 -465106.28383255005 -1738489.5860926211 0 -1738489.5860926211 204223.54103726149 0 0 0 0 -64873.960647493601 324753.13258764776 0 324753.13258764776 367320.0514285221 0 0 0 0 -4215177.4260705607 -1044177.0238062218 0 -1044177.0238062218 1056186.0703095458 0 0 0 0 -13271904.987884521 -15520048.770168304 0 -15520048.770168304 18274184.052528381 0 0 0 0 -463120.01565551758 -858370.90967613459 0 -858370.90967613459 3413280.6381187439 0 0 0 0 -2797372.9498754041 -1591068.1256398947 0 -1591068.1256398947 468793.32535392267 0 0 0 0 -480441.26346253417 -1668145.5132253331 0 -1668145.5132253331 -332321.80170406809 0 0 0 0 14795653.012828827 4796664.8811915517 0 4796664.8811915517 3732290.3923969567 0 0 0 0 -4333273.6855697632 855813.8199313283 0 855813.8199313283 12432149.480279312 0 0 0 0 -3550519.3681228291 -1944231.3648381049 0 -1944231.3648381049 100346.19849480543 0 0 0 0 -20544.396862024441 94540.394186729711 0 94540.394186729711 114133.78326012159 0 0 0 0 -3496583.569278717 -4513965.2020389736 0 -4513965.2020389736 -4312422.0350872874 0 0 0 0 -803407.7453289032 -848562.44876036048 0 -848562.44876036048 1846416.0085694194 0 0 0 0 -325208.87531661987 -1300027.8588248789 0 -1300027.8588248789 -1163532.2936217561 0 0 0 0 -4391960.1721305847 -3270173.2864022255 0 -3270173.2864022255 -5162260.8408465385 0 0 0 0 -6552704.0633430481 -202097.12863814831 0 -202097.12863814831 -1206501.0996627808 0 0 0 0 -18072542.175794601 -2944915.6903272122 0 -2944915.6903272122 10214637.053780302 0 0 0 0 -4162267.3481769562 -2028739.6393985748 0 -2028739.6393985748 -4500513.7298598289 0 0 0 0 -3921356.04728508 -2360335.5418043137 0 -2360335.5418043137 -4071668.1360062361 0 0 0 0 -4044605.0405414188 -1025378.4677975706 0 -1025378.4677975706 438289.19316098432 0 0 0 0 -10071428.432958603 -3708726.5559987128 0 -3708726.5559987128 552508.66652345657 0 0 0 0 -8215547.70210886 1392104.4065246657 0 1392104.4065246657 1162135.551651299 0 0 0 0 -4655368.9849922657 120527.97655303217 0 120527.97655303217 708885.02289891243 0 0 0 0 -4576292.5799102783 -1762940.1552422643 0 -1762940.1552422643 1241071.5402816236 0 0 0 0 -4993599.9255590439 -2014426.876097139 0 -2014426.876097139 1643005.8589589 0 0 0 0 -1906416.5721619111 -952620.80398309999 0 -952620.80398309999 613435.62231689552 0 0 0 0 -3619862.9449443817 -1771601.7683405876 0 -1771601.7683405876 2048378.4060661793 0 0 0 0 -2992444.0516796112 -1558310.4255396128 0 -1558310.4255396128 1465900.4646953046 0 0 0 0 -3370588.3426814117 -1290243.2895172548 0 -1290243.2895172548 638628.80745320837 0 0 0 0 32285331.767606735 -17875811.141575754 0 -17875811.141575754 -2403041.8464579582 0 0 0 0 5024967.6172180176 -815821.68501746655 0 -815821.68501746655 28595598.568873525 0 0 0 0 466407.90833282471 -3826043.3090101928 0 -3826043.3090101928 -5363739.415396478 0 0 0 0 192213.3357235007 -432404.04144580686 0 -432404.04144580686 -73879.078175334507 0 0 0 0 -2514094.9881565571 -2991519.1674860269 0 -2991519.1674860269 1438016.6019006968 0 0 0 0 -1439549.3793315887 -1567663.0464498103 0 -1567663.0464498103 1330485.1454184055 0 0 0 0 -3920234.2489624023 -3751233.7307067513 0 -3751233.7307067513 -456049.72588527203 0 0 0 0 -50591412.909420013 -34532338.08566767 0 -34532338.08566767 36510283.193697929 0 0 0 0 -60170762.05452919 -21923733.267190389 0 -21923733.267190389 1300769.5436176062 0 0 0 0 -70690988.959489822 28889424.265079737 0 28889424.265079737 565536.88904488087 0 0 0 0 45171207.306331635 26927794.86258018 0 26927794.86258018 -51508014.705896854 0 0 0 0 45283042.839147568 -1496648.4835709631 0 -1496648.4835709631 -33064429.111961842 0 0 0 0 7449675.0775032043 77305009.230902493 0 77305009.230902493 -72757881.544077575 0 0 0 0 -16727486.136501312 15572980.128505051 0 15572980.128505051 -3908614.8628789186 0 0 0 0 -11907980.276489258 -1767568.2325682044 0 -1767568.2325682044 6233383.7464489937 0 0 0 0 882532.38225746155 4177371.6135261953 0 4177371.6135261953 -1142919.3861272335 0 0 0 0 486072.34930992126 -996341.58418095112 0 -996341.58418095112 5362505.8263273239 0 0 0 0 11598380.567865372 -4298366.5746929646 0 -4298366.5746929646 4184764.3808429241 0 0 0 0 -2970376.0283279419 -2043140.1109693497 0 -2043140.1109693497 4861224.6800814271 0 0 0 0 -1512893.751209259 842340.89286628366 0 842340.89286628366 6315576.9600895345 0 0 0 0 -14605464.077363968 -6816111.0891871601 0 -6816111.0891871601 6288139.9707931876 0 0 0 0 -9405388.6170635223 1908118.5478233695 0 1908118.5478233695 6858728.1170509942 0 0 0 0 -22819521.597687244 -11192187.400788516 0 -11192187.400788516 2812929.04933846 0 0 0 0 -25933595.944881439 3263394.9225704074 0 3263394.9225704074 6823875.4670257568 0 0 0 0 -17329380.441467047 6823525.4021266624 0 6823525.4021266624 4704079.8860783577 0 0 0 0 -21500513.165235519 -9841937.2257170677 0 -9841937.2257170677 1327316.7269331217 0 0 0 0 -22987219.24162674 -17260656.208069503 0 -17260656.208069503 -3872961.8761245012 0 0 0 0 -23003858.25327301 -10110275.038496584 0 -10110275.038496584 5062398.4066128731 0 0 0 0 -13582437.384413719 -12215928.264040023 0 -12215928.264040023 -1183208.9760059714 0 0 0 0 -15729091.059512138 -8671182.1179157645 0 -8671182.1179157645 5540910.713781178 0 0 0 0 -13081311.073652267 -7301383.8193041384 0 -7301383.8193041384 4793138.2206465006 0 0 0 0 -15518355.740386963 -8303563.1075683683 0 -8303563.1075683683 1100248.6000243097 0 0 0 0 -11206066.217868805 -8930053.4160316139 0 -8930053.4160316139 1105350.1579344273 0 0 0 0 -9544428.5880699158 -6953469.9967550039 0 -6953469.9967550039 -4036803.4054053128 0 0 0 0 -1634933.1202690601 332927.3685191907 0 332927.3685191907 2217228.6538699865 0 0 0 0 -5982143.429444313 -3345176.9878378212 0 -3345176.9878378212 10704114.804600537 0 0 0 0 -81589.488889694214 -9243119.3210844994 0 -9243119.3210844994 -9625066.7621272504 0 0 0 0 -13731140.726455688 -21556043.653386921 0 -21556043.653386921 -8763153.9650571346 0 0 0 0 -636730.88992786873 269395.01850714115 0 269395.01850714115 187814.60009898062 0 0 0 0 -16141328.652679443 -3620591.7085533142 0 -3620591.7085533142 4271731.7498019934 0 0 0 0 -4324000.1166763306 351195.64774441719 0 351195.64774441719 532728.12510633469 0 0 0 0 -7642271.9917650567 -1625561.5948658586 0 -1625561.5948658586 1373996.3549095236 0 0 0 0 -14119276.518670082 184825.15342152119 0 184825.15342152119 7242496.196365118 0 0 0 0 -3623059.4502889225 -443645.10869285977 0 -443645.10869285977 1541895.9196916334 0 0 0 0 -4527110.7364383992 -157382.52660927258 0 -157382.52660927258 776082.07218780473 0 0 0 0 -6940867.4005775452 -2349313.5232694149 0 -2349313.5232694149 -2295263.7019619942 0 0 0 0 -4364038.8583087921 -1521362.3931749165 0 -1521362.3931749165 2202219.0126886591 0 0 0 0 -5158309.7810249329 -2543898.0306859016 0 -2543898.0306859016 -3693932.6096057296 0 0 0 0 -630533.55715370178 114501.75810839236 0 114501.75810839236 -513937.97470825911 0 0 0 0 -2701052.1389827728 2522737.0332119465 0 2522737.0332119465 926732.72762018442 0 0 0 0 -3538143.8208084106 -107322.24163272977 0 -107322.24163272977 -379422.71006670594 0 0 0 0 -1917460.5997524261 -1769143.1015042365 0 -1769143.1015042365 262287.10007154942 0 0 0 0 -5350637.5258026123 -1820356.6098332405 0 -1820356.6098332405 394133.46201047301 0 0 0 0 -3794431.5338153839 -391267.16623520851 0 -391267.16623520851 528668.74828538299 0 0 0 0 -2666562.184336341 280164.10547356401 0 280164.10547356401 1646276.3035043797 0 0 0 0 -3733039.8360333443 -193898.49069185555 0 -193898.49069185555 713411.6064568758 0 0 0 0 -3914498.7488059998 -541227.46578291059 0 -541227.46578291059 1268284.1173677444 0 0 0 0 -3359607.15325737 338745.98644730449 0 338745.98644730449 648852.36244383454 0 0 0 0 -2865634.4904670715 -647161.36489757895 0 -647161.36489757895 1095919.4994630814 0 0 0 0 -4044549.6417837143 -438662.43762727082 0 -438662.43762727082 1872106.1366947889 0 0 0 0 -2431642.9914287459 474627.87070802739 0 474627.87070802739 1568537.4770559873 0 0 0 0 -4620821.0210723877 972356.86270904541 0 972356.86270904541 3563729.4342153072 0 0 0 0 -4379580.348985672 -908113.0783970654 0 -908113.0783970654 1217449.3244140595 0 0 0 0 -15809524.387418747 -5104372.0109555721 0 -5104372.0109555721 3103413.5198874474 0 0 0 0 -21636740.471629143 2313529.7042065859 0 2313529.7042065859 11086883.52072525 0 0 0 0 -4101854.4085974693 1225444.7086009979 0 1225444.7086009979 -2896831.0269403458 0 0 0 0 -12391565.189338684 -5228033.5396118164 0 -5228033.5396118164 -8550764.178194046 0 0 0 0 -37775897.841032028 -20540512.64710474 0 -20540512.64710474 -1520937.9657874107 0 0 0 0 -484680.00751575641 -228455.53419059934 0 -228455.53419059934 -27943.808119773166 0 0 0 0 12047362.160702705 44852082.341166854 0 44852082.341166854 30701422.44814539 0 0 0 0 3232277.1069965363 2602000.5471036434 0 2602000.5471036434 7413918.3055794239 0 0 0 0 -37839524.060583115 -14877223.248093605 0 -14877223.248093605 11343463.294820189 0 0 0 0 -29609875.423332214 -14443775.155226469 0 -14443775.155226469 11310136.952215672 0 0 0 0 -16787754.928350687 -12396206.263745278 0 -12396206.263745278 2198103.3571710587 0 0 0 0 -22638599.13807869 -8742593.9710981846 0 -8742593.9710981846 12064600.60403806 0 0 0 0 -5580967.0530929565 6943254.3780431747 0 6943254.3780431747 7859288.206038475 0 0 0 0 -14329436.411579609 1628898.2872814834 0 1628898.2872814834 22144746.185612202 0 0 0 0 -1633010.7820031447 -846268.43710418791 0 -846268.43710418791 -189585.81742523331 0 0 0 0 -22525098.562383175 -11401504.180217147 0 -11401504.180217147 -2357919.5453710556 0 0 0 0 12317141.268292427 24655791.380528688 0 24655791.380528688 19871965.427105457 0 0 0 0 3416265.2901940346 1646288.8266597986 0 1646288.8266597986 6704054.1391468048 0 0 0 0 -8667502.4680652618 4437539.1758341789 0 4437539.1758341789 15140213.55743885 0 0 0 0 1511468.7783117294 12889701.721646309 0 12889701.721646309 12476751.45501411 0 0 0 0 -3751387.9547176138 -1876730.9689373621 0 -1876730.9689373621 -422754.27459582314 0 0 0 0 -14302444.759469032 -6280355.9932798147 0 -6280355.9932798147 1852889.1141655445 0 0 0 0 -5343041.6711502075 -3837803.7698571682 0 -3837803.7698571682 -4325202.3528680205 0 0 0 0 -1399232.5524578094 3666361.5264937878 0 3666361.5264937878 4864162.8854771852 0 0 0 0 -21673488.143785954 -11160821.421435952 0 -11160821.421435952 -1508965.48331213 0 0 0 0 -10310959.576231003 5617034.6849644184 0 5617034.6849644184 7950763.8757145405 0 0 0 0 -6306993.2411899567 1172923.1542077065 0 1172923.1542077065 11775511.144815922 0 0 0 0 -19158105.119539261 -6783717.9788360596 0 -6783717.9788360596 95590.504309177399 0 0 0 0 -7288010.6593780518 6246513.0607562065 0 6246513.0607562065 5520604.1105723381 0 0 0 0 -18946331.860988617 -6395635.8498330116 0 -6395635.8498330116 1887607.8654658794 0 0 0 0 -28115052.732809067 -5667801.7394213676 0 -5667801.7394213676 2178291.4610834122 0 0 0 0 -25798894.387960434 -8428125.412894249 0 -8428125.412894249 -3254441.0923610926 0 0 0 0 -29723102.491062164 -17740980.676113129 0 -17740980.676113129 -6360194.6917283535 0 0 0 0 -25523398.503807068 -17243545.247847557 0 -17243545.247847557 -11486700.012934685 0 0 0 0 -38601836.064365387 -19351410.159239292 0 -19351410.159239292 -15947804.232018471 0 0 0 0 700324.57046222687 168711.97133541107 0 168711.97133541107 -4460963.9677517414 0 0 0 0 -40049660.703033447 -21774253.141829967 0 -21774253.141829967 -8847199.8775625229 0 0 0 0 -33585682.964260101 -20130547.866843224 0 -20130547.866843224 -29493958.541677475 0 0 0 0 -33667091.137638092 -24593572.509576797 0 -24593572.509576797 -19767940.004563332 0 0 0 0 -34706521.581144333 -13787513.902171254 0 -13787513.902171254 -7131835.7601013184 0 0 0 0 -42720320.525901794 -44142321.532023668 0 -44142321.532023668 -29580415.537516944 0 0 0 0 -25081873.499204636 -4585189.1675651073 0 -4585189.1675651073 3898569.8398623466 0 0 0 0 -27645996.268217087 -16067143.17460537 0 -16067143.17460537 -8917712.3068723679 0 0 0 0 -49948903.053009033 -36961413.667969942 0 -36961413.667969942 -13197815.489131808 0 0 0 0 -22174539.905433655 -17484872.529188156 0 -17484872.529188156 -10711197.203463316 0 0 0 0 -30931650.335603714 -19014088.675244331 0 -19014088.675244331 -2501584.0414261818 0 0 0 0 -43800051.271492004 -17165783.975000143 0 -17165783.975000143 3973694.4806313515 0 0 0 0 -56163261.522151947 -18333937.709546328 0 -18333937.709546328 67971449.785093307 0 0 0 0 -43183227.356761932 -34029949.062985897 0 -34029949.062985897 8429173.5700039864 0 0 0 0 -2099672.3341407776 -9365462.0699415207 0 -9365462.0699415207 10449635.670800209 0 0 0 0 39039742.845434189 41219009.920513391 0 41219009.920513391 30312502.79873848 0 0 0 0 -182656.79931528866 -51413.347901856061 0 -51413.347901856061 152082.02458941052 0 0 0 0 -224286.4157436844 -21597.72936008079 0 -21597.72936008079 41993.364560341462 0 0 0 0 -4320265.0312347412 17402403.674158573 0 17402403.674158573 63789201.470359802 0 0 0 0 -16159927.975561738 -2388334.5188541263 0 -2388334.5188541263 -9043531.0474238396 0 0 0 0 -17141068.303199768 5959065.902302742 0 5959065.902302742 31470649.71846056 0 0 0 0 9285878.7164974213 8223258.9258770943 0 8223258.9258770943 23144332.078123569 0 0 0 0 31117351.467712879 6947190.906144917 0 6947190.906144917 4830815.4744100571 0 0 0 0 -41282571.64192009 -17637446.896149158 0 -17637446.896149158 17119674.845920801 0 0 0 0 -29398339.208667755 31508584.557348251 0 31508584.557348251 -5833066.2471624315 0 0 0 0 49662.34633657313 176830.77721876511 0 176830.77721876511 -49385.357547101565 0 0 0 0 18848927.785303593 -26853611.890731573 0 -26853611.890731573 17359151.842505455 0 0 0 0 -77676156.206235886 25203653.800491095 0 25203653.800491095 20205713.186140537 0 0 0 0 -7465946.4851741791 -2132777.1448550224 0 -2132777.1448550224 1935207.0628557205 0 0 0 0 -469885.20537348837 -266399.66344068479 0 -266399.66344068479 338889.82863754383 0 0 0 0 -5218278.7397861481 27841952.221127033 0 27841952.221127033 3675990.9012601376 0 0 0 0 -658248.63356052618 -74880.297535631806 0 -74880.297535631806 74682.247599836905 0 0 0 0 -34904838.312277794 -28786540.906035542 0 -28786540.906035542 -17195494.315752029 0 0 0 0 -13640763.886844635 5051988.9008164406 0 5051988.9008164406 20074945.279358864 0 0 0 0 -16159929.907553673 2999070.6177074909 0 2999070.6177074909 10933942.107664108 0 0 0 0 -25329430.445985794 -7422949.3409149647 0 -7422949.3409149647 18469586.71871233 0 0 0 0 -19340830.214503765 -5227506.6204209924 0 -5227506.6204209924 18930784.875042915 0 0 0 0 -11140734.381290436 -439992.20887446404 0 -439992.20887446404 11800949.95064104 0 0 0 0 -6260147.5143737793 -2816335.2456231117 0 -2816335.2456231117 11841098.480567291 0 0 0 0 10234697.869197845 -11648721.95993042 0 -11648721.95993042 15332880.44903326 0 0 0 0 -16467331.609534264 -9546842.5745363235 0 -9546842.5745363235 25132941.363956451 0 0 0 0 -14623466.949914932 -11485739.616705418 0 -11485739.616705418 24564777.642357349 0 0 0 0 -11287461.972866058 -10675869.126458168 0 -10675869.126458168 14846063.94886899 0 0 0 0 -13057643.740465164 -8403577.5914846659 0 -8403577.5914846659 22709729.451898575 0 0 0 0 -12632680.500787735 -8864059.0586447716 0 -8864059.0586447716 15625336.586616039 0 0 0 0 -5614422.8234424591 -7342083.8655877113 0 -7342083.8655877113 11946241.960958481 0 0 0 0 -11310214.073078394 -9218764.5780886859 0 -9218764.5780886859 11327910.987205505 0 0 0 0 -17871583.330221176 3132190.8756303787 0 3132190.8756303787 -3892155.2447929382 0 0 0 0 -11868805.425990343 -3064785.5594525635 0 -3064785.5594525635 2870947.092956543 0 0 0 0 -3349773.0607740879 -8209696.9540764689 0 -8209696.9540764689 -5632925.0967159271 0 0 0 0 -6997249.1307106018 -8679718.7059798241 0 -8679718.7059798241 -5702084.0871329308 0 0 0 0 -8059138.5026283264 -6601557.3410720825 0 -6601557.3410720825 -758510.18785810471 0 0 0 0 -8366370.0057163239 -8843301.2030053139 0 -8843301.2030053139 96990.105135917664 0 0 0 0 -11497.469656052999 310822.79576466559 0 310822.79576466559 147161.26389758196 0 0 0 0 -23048006.29347229 -14543420.018343449 0 -14543420.018343449 -13583316.953611851 0 0 0 0 -26721923.49694252 -23892515.495217443 0 -23892515.495217443 -21712066.103096962 0 0 0 0 -27077578.243737698 -10558420.090167522 0 -10558420.090167522 4730459.670882225 0 0 0 0 -15296854.800037384 -15705610.110780716 0 -15705610.110780716 10534230.416330338 0 0 0 0 -6565755.4994316101 -11891669.643063545 0 -11891669.643063545 4816850.2441074848 0 0 0 0 -14754052.318906784 -17180143.671114445 0 -17180143.671114445 33051823.345275402 0 0 0 0 -1907592.5546165854 -1249320.6731618461 0 -1249320.6731618461 80924.308553104755 0 0 0 0 2755249.3545970917 -100715.80832719803 0 -100715.80832719803 2246812.0986270905 0 0 0 0 3526953.4683647156 5587451.9783444405 0 5587451.9783444405 -3261465.6707191467 0 0 0 0 -43810718.068967819 -11487529.876746178 0 -11487529.876746178 3687598.5979642868 0 0 0 0 -32255166.766472816 -23814869.529506922 0 -23814869.529506922 -10258669.765703201 0 0 0 0 -18427058.22304821 -15360761.79663682 0 -15360761.79663682 10059253.820045948 0 0 0 0 -20253412.049982071 -4511993.5520720482 0 -4511993.5520720482 -15274750.091478229 0 0 0 0 -25390265.38404274 6049188.1761856079 0 6049188.1761856079 30366658.441827297 0 0 0 0 -9030975.1124651954 -1861695.655790705 0 -1861695.655790705 1100612.4320785808 0 0 0 0 1123462.7109928131 3692780.0082774162 0 3692780.0082774162 -4126430.7891442776 0 0 0 0 -40167241.683903694 -42532093.840065837 0 -42532093.840065837 -6034796.4587450027 0 0 0 0 -75371.444522025995 132262.81590001518 0 132262.81590001518 115241.80268039042 0 0 0 0 13111994.320075989 -38678855.59657383 0 -38678855.59657383 -34214733.274840355 0 0 0 0 -6362011.1824703217 -3151141.517216742 0 -3151141.517216742 -8416665.9104149342 0 0 0 0 -11927524.614295959 4464919.9080414772 0 4464919.9080414772 -1180154.4923801422 0 0 0 0 -5591787.0834846497 -1325552.3444103003 0 -1325552.3444103003 -11129338.087890983 0 0 0 0 -10040995.602958679 -3555209.1793744564 0 -3555209.1793744564 -8683477.8610095978 0 0 0 0 -13056503.410614014 -8852708.7425892353 0 -8852708.7425892353 -4361325.4773316383 0 0 0 0 -4153178.0698665502 -2353087.3557557454 0 -2353087.3557557454 -166336.4318557987 0 0 0 0 -9946811.2694234848 -13184721.513351202 0 -13184721.513351202 -11416847.827510953 0 0 0 0 -27581695.368793488 -10769188.269703627 0 -10769188.269703627 12335185.725455523 0 0 0 0 3677841.1527180076 -4770714.0486235525 0 -4770714.0486235525 -177615.69419813156 0 0 0 0 -9255554.4724264257 -1660008.2653442558 0 -1660008.2653442558 1297827.6834414867 0 0 0 0 -11612078.058078766 -1077639.4110972881 0 -1077639.4110972881 -8236096.9409852028 0 0 0 0 -6632270.9476928711 -1783982.6035174131 0 -1783982.6035174131 -12308304.651370674 0 0 0 0 -9723106.2769093364 -2404015.0268299184 0 -2404015.0268299184 854335.63029987249 0 0 0 0 -2631996.8968595639 -1140079.7998209829 0 -1140079.7998209829 46436.432324886555 0 0 0 0 24411187.080299377 -28098308.306948304 0 -28098308.306948304 -4693757.2846839428 0 0 0 0 -7463303.7701339722 -22551586.194592714 0 -22551586.194592714 -3880150.7167053223 0 0 0 0 -16116112.317667007 -12112542.890574783 0 -12112542.890574783 982474.61199951172 0 0 0 0 -1680572.4618988037 -13565942.617329895 0 -13565942.617329895 2596496.7372009754 0 0 0 0 9856868.7505760193 -23981516.250026226 0 -23981516.250026226 472352.63889479637 0 0 0 0 18774583.416717529 -24027327.511761785 0 -24027327.511761785 -4637660.4581956863 0 0 0 0 208800.59566879272 -10785050.358424038 0 -10785050.358424038 -417120.99223852158 0 0 0 0 -4978577.3843345642 -9249163.1381064057 0 -9249163.1381064057 539013.33368909359 0 0 0 0 -7409983.0999660492 -10101476.991330229 0 -10101476.991330229 6111055.7889152169 0 0 0 0 -3970303.3754005432 -12229408.307236075 0 -12229408.307236075 4149193.1418876648 0 0 0 0 -507920.96643829346 -10265408.026196361 0 -10265408.026196361 4539142.7733131051 0 0 0 0 -5221059.2548675537 -8320446.3777167201 0 -8320446.3777167201 3105637.9272265434 0 0 0 0 687007.46234130859 -10463185.251002014 0 -10463185.251002014 4700947.5344483852 0 0 0 0 -2613958.3142089844 -13606400.304949701 0 -13606400.304949701 3202336.0330912471 0 0 0 0 6317359.5431060791 -13270703.355184138 0 -13270703.355184138 3900962.6463524103 0 0 0 0 -422291.07404541969 -11320520.634133361 0 -11320520.634133361 5511334.8237668872 0 0 0 0 12789419.541607857 -9752207.3735115603 0 -9752207.3735115603 3005830.0255925655 0 0 0 0 7574032.9351730347 -9765403.3496211767 0 -9765403.3496211767 4051356.4752839804 0 0 0 0 16850202.107347488 -12457259.95865117 0 -12457259.95865117 1587098.0451264381 0 0 0 0 15020825.066753387 -10574074.405974209 0 -10574074.405974209 2277156.0768251419 0 0 0 0 9148887.1861419678 -17084525.312676311 0 -17084525.312676311 3122340.7946041077 0 0 0 0 -6574200.3060760498 -9423781.7703738213 0 -9423781.7703738213 -14607615.613003969 0 0 0 0 -9388540.6307907104 1367989.1493805647 0 1367989.1493805647 -12856588.515688062 0 0 0 0 -6116254.1760644913 -4212182.9725227654 0 -4212182.9725227654 -9575001.4036071301 0 0 0 0 -2977084.3215293884 -12253234.623531669 0 -12253234.623531669 1006177.4256504774 0 0 0 0 -7611277.6044969559 -10856993.519915864 0 -10856993.519915864 3402464.5204124451 0 0 0 0 -4803120.3255982399 -5423979.3624035604 0 -5423979.3624035604 -7383519.9498494864 0 0 0 0 13201090.928514481 -15422944.781803519 0 -15422944.781803519 -3874775.7783617973 0 0 0 0 82902.432581161149 256192.63673612941 0 256192.63673612941 -81899.173623404931 0 0 0 0 -35091148.093341827 -427052.75165998936 0 -427052.75165998936 2918730.5270366669 0 0 0 0 -9258555.6555728912 -2313417.5439788997 0 -2313417.5439788997 -13305450.658367634 0 0 0 0 -27798091.958343506 -12650086.392085552 0 -12650086.392085552 -18388275.074849248 0 0 0 0 -31324940.195767879 11820021.864873081 0 11820021.864873081 -8260996.4142913818 0 0 0 0 -9122455.0337524414 791711.39953291416 0 791711.39953291416 -29568548.707645178 0 0 0 0 -5111437.1306610107 2954574.6426364183 0 2954574.6426364183 -20138935.043447018 0 0 0 0 -6493489.8785171509 19625.877566099167 0 19625.877566099167 -3834312.1861987114 0 0 0 0 -6616170.6484238803 6651259.6231165407 0 6651259.6231165407 -12463581.07687664 0 0 0 0 5685140.7665052414 -770692.46470993757 0 -770692.46470993757 -9640071.6794707775 0 0 0 0 -1921637.3379268646 5768144.3068501949 0 5768144.3068501949 -7898703.6253578663 0 0 0 0 -11795787.502979279 4833434.1565150023 0 4833434.1565150023 -19320340.481072053 0 0 0 0 -11787541.405666351 4213747.5630890727 0 4213747.5630890727 -6908970.2631983161 0 0 0 0 -29552328.495758057 -13126496.885798812 0 -13126496.885798812 -7169788.3509604931 0 0 0 0 -27929214.21495676 6765427.0106862243 0 6765427.0106862243 -8960886.6855996847 0 0 0 0 -9966852.0487289429 -383351.13420200348 0 -383351.13420200348 -6635749.9654865861 0 0 0 0 -10497859.548736572 4807029.7845615149 0 4807029.7845615149 -12930237.42383185 0 0 0 0 -9512592.2430896759 -2200670.4513041973 0 -2200670.4513041973 484878.862657547 0 0 0 0 -16914628.380313873 -9272032.6372973919 0 -9272032.6372973919 -3292476.7410439253 0 0 0 0 -17060115.005840302 1568251.1055033207 0 1568251.1055033207 -1384696.7409914732 0 0 0 0 -8193882.8140728427 -1514001.2844816735 0 -1514001.2844816735 1271909.0573628279 0 0 0 0 -11932917.128951073 316567.22099849582 0 316567.22099849582 5504231.9261620045 0 0 0 0 -12386010.781970024 8220893.7393522263 0 8220893.7393522263 21680069.608669758 0 0 0 0 -13066013.603443146 -6427860.3729729652 0 -6427860.3729729652 1910080.9131067395 0 0 0 0 -8637693.8726141565 -1977531.2108930512 0 -1977531.2108930512 996831.25978996186 0 0 0 0 -3626912.8072947552 -1362035.6239318559 0 -1362035.6239318559 -371362.43597340467 0 0 0 0 -7431672.6467323303 2259121.0236275196 0 2259121.0236275196 -10948908.049987316 0 0 0 0 -15422949.701395988 -12561537.307478428 0 -12561537.307478428 -5524805.423848629 0 0 0 0 -31663781.21458292 -10179672.623650372 0 -10179672.623650372 -5792996.5421800613 0 0 0 0 -27163916.553318024 5256240.1486573219 0 5256240.1486573219 -11336588.407283068 0 0 0 0 -5348211.6009750366 -1734101.4128292799 0 -1734101.4128292799 -5037831.8824825287 0 0 0 0 -1164933.0342392605 -380245.69314474519 0 -380245.69314474519 -48467.166357479175 0 0 0 0 -7945959.302148819 3614577.1403728127 0 3614577.1403728127 1379919.2145934105 0 0 0 0 -570052939.47871971 -151122162.98117685 0 -151122162.98117685 -226728446.56128317 0 0 0 0 -1712492816.521698 -84170605.694119751 0 -84170605.694119751 -423597785.78526652 0 0 0 0 -650998.1717659682 111800.20713886432 0 111800.20713886432 -113103.48974216125 0 0 0 0 -1571875384.1081314 -413064830.56928998 0 -413064830.56928998 125470129.09505035 0 0 0 0 -685647232.14872742 -319702622.9111678 0 -319702622.9111678 -64666897.158381075 0 0 0 0 -944768442.49133682 -259890185.54038733 0 -259890185.54038733 -9751791.9716312643 0 0 0 0 -792937389.0942421 -206895165.60347438 0 -206895165.60347438 -80954034.917225674 0 0 0 0 -852934863.95932007 -278291782.30733234 0 -278291782.30733234 -49250502.028118804 0 0 0 0 -1266842.1678635608 100406.99270114023 0 100406.99270114023 -81101.596156817948 0 0 0 0 -861225399.16736269 -327655878.26151663 0 -327655878.26151663 -76069183.877215058 0 0 0 0 -797141852.89731979 -277329310.46731013 0 -277329310.46731013 -89678608.78373684 0 0 0 0 -800074569.83386612 -325819540.59496796 0 -325819540.59496796 -113996501.05039492 0 0 0 0 -578466083.34497261 -208519434.51328236 0 -208519434.51328236 88087253.275215507 0 0 0 0 -586026981.72011781 -272695562.00848222 0 -272695562.00848222 4271310.0417036414 0 0 0 0 -553291224.20454025 -167442359.47044578 0 -167442359.47044578 69526260.983159423 0 0 0 0 -591738781.90895844 -203843607.72096699 0 -203843607.72096699 145641822.92302305 0 0 0 0 -546757955.17557144 -194204846.84384096 0 -194204846.84384096 -11374093.916516557 0 0 0 0 -306680040.25099182 -29316770.197620627 0 -29316770.197620627 -10911182.195577309 0 0 0 0 -602163143.34201813 80304563.816055059 0 80304563.816055059 15171534.111538872 0 0 0 0 -87944726.745313644 -22400352.045865986 0 -22400352.045865986 -42916826.713227376 0 0 0 0 -226344496.90762711 67359658.617219388 0 67359658.617219388 -55110240.619983286 0 0 0 0 -110485832.2703743 -10552747.253994644 0 -10552747.253994644 -80449403.179321408 0 0 0 0 25671228.986515045 -49324314.834941357 0 -49324314.834941357 -58374560.323898911 0 0 0 0 -82991370.050865173 17642670.477380455 0 17642670.477380455 -59434919.080765069 0 0 0 0 54253035.179748535 63654743.614962935 0 63654743.614962935 -76137731.854160517 0 0 0 0 -170580453.70489311 337243265.77903855 0 337243265.77903855 13271578.04878372 0 0 0 0 -367166665.38948822 39506806.114670664 0 39506806.114670664 -18893683.575957075 0 0 0 0 -827486365.21106339 363237803.61534011 0 363237803.61534011 60968983.076824248 0 0 0 0 -266255162.08968544 164780899.55646884 0 164780899.55646884 -76649720.246124148 0 0 0 0 -1461135975.5007401 -627843468.1880641 0 -627843468.1880641 -421481743.98056352 0 0 0 0 -1196786.5811191406 385119.26297374535 0 385119.26297374535 -120926.30361932452 0 0 0 0 -623435640.72709274 -549818449.85475314 0 -549818449.85475314 -447069496.59918404 0 0 0 0 1129384.6150894165 39629823.731124103 0 39629823.731124103 128976888.38369381 0 0 0 0 18024341.195994377 -80197289.035886034 0 -80197289.035886034 27523317.11709547 0 0 0 0 -16568264.881664276 -27650675.499792933 0 -27650675.499792933 30292422.860684931 0 0 0 0 -25294107.567401886 -64204265.984002709 0 -64204265.984002709 105788650.28917611 0 0 0 0 -308456699.97347069 -239988770.07451773 0 -239988770.07451773 -233512152.44107467 0 0 0 0 -2875009.1956566945 1024759.5996848848 0 1024759.5996848848 -224923.67986112123 0 0 0 0 -285788830.91487122 -269013785.39046305 0 -269013785.39046305 -231466683.80650997 0 0 0 0 -570628097.59618378 -367313109.08905625 0 -367313109.08905625 -180333708.52156153 0 0 0 0 -621420912.88638687 -148630551.91749826 0 -148630551.91749826 -76711054.150608525 0 0 0 0 -284966182.12691116 -301002453.43899977 0 -301002453.43899977 -312357623.83038217 0 0 0 0 -1120437427.3867874 -223046162.43238202 0 -223046162.43238202 -86189808.328280732 0 0 0 0 -782512490.4777565 -15076286.22882222 0 -15076286.22882222 -305247208.98712176 0 0 0 0 -945277502.05913353 -155876993.86148295 0 -155876993.86148295 -96959905.925978169 0 0 0 0 -787058018.79243946 -34459032.467205137 0 -34459032.467205137 -93361466.40295589 0 0 0 0 -653213777.06504059 67898415.651822075 0 67898415.651822075 -71772277.793437988 0 0 0 0 -942734871.16138077 99332442.911599368 0 99332442.911599368 97139544.784953833 0 0 0 0 -682623223.84726334 -149213921.23759052 0 -149213921.23759052 -44280520.23639413 0 0 0 0 -116679461.63719749 -175507417.21036807 0 -175507417.21036807 -69055237.846020907 0 0 0 0 -1008078.4335891008 -138594.55095916707 0 -138594.55095916707 268317.66312645667 0 0 0 0 -399508245.77362823 307794165.29860896 0 307794165.29860896 168586160.00080267 0 0 0 0 -279713417.26499748 -39135967.885205775 0 -39135967.885205775 -85327.078640458989 0 0 0 0 -942879701.10738766 -341484971.35833675 0 -341484971.35833675 81844068.547139734 0 0 0 0 -766442056.31075525 -101006280.33736278 0 -101006280.33736278 -16433339.099593163 0 0 0 0 -548992.36009968072 -210377.99172190018 0 -210377.99172190018 30689.434176999705 0 0 0 0 -790740604.81969452 11009103.454467481 0 11009103.454467481 396036240.85369974 0 0 0 0 -813297.08730748668 10070.987910579424 0 10070.987910579424 110710.95028559261 0 0 0 0 -714706826.49137115 -479876339.69286472 0 -479876339.69286472 -15857124.021467179 0 0 0 0 -98790463.204216003 6280286.6826214194 0 6280286.6826214194 52069064.712060809 0 0 0 0 -864503838.24302721 88244796.882788405 0 88244796.882788405 209098681.04980755 0 0 0 0 -473167912.55676651 -91191370.700295448 0 -91191370.700295448 39966891.852744102 0 0 0 0 -585637400.5026207 -254026992.53819302 0 -254026992.53819302 53972559.322477221 0 0 0 0 -155564151.85609436 -133763030.17925477 0 -133763030.17925477 -34032717.955866873 0 0 0 0 -378663462.52295303 -324429123.82614267 0 -324429123.82614267 25183704.461015131 0 0 0 0 -474615270.5931015 -276888323.18509597 0 -276888323.18509597 48574234.219891965 0 0 0 0 -439308518.03442764 -113205555.17984326 0 -113205555.17984326 -52672963.748226121 0 0 0 0 -412818627.17860413 -239963769.90005594 0 -239963769.90005594 -86072754.349842936 0 0 0 0 -377090048.67488861 -242692292.38334262 0 -242692292.38334262 -86009401.256754562 0 0 0 0 -165430602.31208038 -162970953.29985148 0 -162970953.29985148 -148659218.22941086 0 0 0 0 -365337893.50046539 -191279199.65449387 0 -191279199.65449387 -38397928.660013877 0 0 0 0 -3867665.6333875023 1419879.8292975891 0 1419879.8292975891 -256201.89702666999 0 0 0 0 -173569569.52840042 -150559637.73771167 0 -150559637.73771167 -51281741.435491048 0 0 0 0 -160137875.34822083 -196190727.70927536 0 -196190727.70927536 -55951789.881153002 0 0 0 0 775538.24064731598 17590481.171347946 0 17590481.171347946 19505707.216726184 0 0 0 0 -17371770.058334351 -4388997.3693506718 0 -4388997.3693506718 10756755.801565327 0 0 0 0 -120258781.31320286 33700668.075524099 0 33700668.075524099 -45685020.252283633 0 0 0 0 -5007818.3979169093 1567523.5663211993 0 1567523.5663211993 100061.52611651679 0 0 0 0 -13299836.310688019 4516774.2670395374 0 4516774.2670395374 10509922.228613205 0 0 0 0 -45093809.572952271 -92015964.046714723 0 -92015964.046714723 -301883922.28246671 0 0 0 0 -392569310.48764038 -122400989.16388103 0 -122400989.16388103 -18928918.921318233 0 0 0 0 -186262006.15068817 -102895034.6433817 0 -102895034.6433817 -9458650.5514707863 0 0 0 0 -396516760.57685852 13000445.725890398 0 13000445.725890398 40721948.425540328 0 0 0 0 -30974106.24628067 -225746788.39251542 0 -225746788.39251542 -46501484.125367701 0 0 0 0 -241921.46678968519 -156209.76462241821 0 -156209.76462241821 -154603.1098266418 0 0 0 0 -194582474.03549576 -213889434.37660539 0 -213889434.37660539 -19837381.885887802 0 0 0 0 -147397887.68425751 8142992.990929544 0 8142992.990929544 12029401.752543001 0 0 0 0 -326785186.4450531 23682915.254007623 0 23682915.254007623 18473930.911573857 0 0 0 0 -192319535.9562645 -30072046.565047324 0 -30072046.565047324 -16652753.30257526 0 0 0 0 -193381699.48824787 -61924418.437116854 0 -61924418.437116854 6048154.5160349607 0 0 0 0 -213430059.7533474 -21529661.135335945 0 -21529661.135335945 21589179.161167085 0 0 0 0 -169874434.90929031 -39909381.083218545 0 -39909381.083218545 14195.781049759702 0 0 0 0 -121956965.50395203 -8312586.4236106277 0 -8312586.4236106277 16114582.551945508 0 0 0 0 -42236617.645526886 -21185211.07615459 0 -21185211.07615459 -12196895.492401242 0 0 0 0 -114326566.28224182 -30218289.307503112 0 -30218289.307503112 36936.529210008623 0 0 0 0 -24132660.983848572 3030414.2231967999 0 3030414.2231967999 46052.718662700747 0 0 0 0 -9877469.4343795776 10869864.808583291 0 10869864.808583291 -15517335.989530744 0 0 0 0 -2160156.9065122101 -174839.93439362757 0 -174839.93439362757 -40025.645068561913 0 0 0 0 -159591911.33747482 -49992019.917531803 0 -49992019.917531803 9516129.4847911671 0 0 0 0 -5918498.0467147827 3578849.6229322115 0 3578849.6229322115 -7472741.4688522033 0 0 0 0 -2679240.0708509954 -170752.04403624125 0 -170752.04403624125 -72349.047377574898 0 0 0 0 -53549798.793819427 -58161227.844317049 0 -58161227.844317049 -18040463.614170358 0 0 0 0 -5467166.2462806702 -1146154.3794292193 0 -1146154.3794292193 1353082.4492543135 0 0 0 0 -1516819.1295161545 -476089.93605632614 0 -476089.93605632614 424991.57064927107 0 0 0 0 -3050465.3375015259 -3238844.7129501048 0 -3238844.7129501048 -1621353.3049942618 0 0 0 0 -42303076.371025085 -38563702.47551541 0 -38563702.47551541 -16919320.276082873 0 0 0 0 -425293.8301246576 -137693.58576187026 0 -137693.58576187026 79512.277974719778 0 0 0 0 -29523217.072669983 -6250968.1157384068 0 -6250968.1157384068 3173276.4281457365 0 0 0 0 -20555911.326019287 -8544256.9318730831 0 -8544256.9318730831 -5496040.0868924856 0 0 0 0 -24078048.793014526 -2130961.142917797 0 -2130961.142917797 6290618.4277314544 0 0 0 0 -17088328.406761169 -5193619.7424920499 0 -5193619.7424920499 -2413410.2710239887 0 0 0 0 -17769003.506856441 -8223282.9699599519 0 -8223282.9699599519 -2313804.1621191204 0 0 0 0 -15924428.068481445 -3823433.3809412718 0 -3823433.3809412718 2240751.2071131468 0 0 0 0 -16226423.950305462 468542.90649662353 0 468542.90649662353 4304124.0369173288 0 0 0 0 -15550209.648456573 1003902.795244664 0 1003902.795244664 4561759.1629328132 0 0 0 0 -10116265.546829224 2491106.8538161516 0 2491106.8538161516 6499883.2930998802 0 0 0 0 -10898583.742164612 -3574886.1246438622 0 -3574886.1246438622 904926.08846080303 0 0 0 0 -1987606.0382922459 -1921010.2727402095 0 -1921010.2727402095 680606.3806123028 0 0 0 0 -11411300.944137573 -4523097.2495469451 0 -4523097.2495469451 -788742.52420970798 0 0 0 0 -10905401.892471313 -3902006.8031268716 0 -3902006.8031268716 1501077.0204122066 0 0 0 0 -10024184.58416748 223605.64276790619 0 223605.64276790619 2355520.6261057258 0 0 0 0 -14404752.97813797 -6348683.2707903385 0 -6348683.2707903385 -5071.5020782351494 0 0 0 0 -15762036.005218506 -2138236.517069146 0 -2138236.517069146 2786882.803157568 0 0 0 0 -8994207.0293884277 -241246.72689527273 0 -241246.72689527273 4026235.8140412569 0 0 0 0 -14978411.076080322 690764.61442989111 0 690764.61442989111 12612487.20294404 0 0 0 0 -5598117.055519104 -5912861.096259594 0 -5912861.096259594 -13295202.946069241 0 0 0 0 -778329.6489852136 -32838.464464170858 0 -32838.464464170858 35198.255420050817 0 0 0 0 -18803888.592453003 -10055264.416253626 0 -10055264.416253626 11388062.822698116 0 0 0 0 -11527557.189170837 -4243429.4650857747 0 -4243429.4650857747 3793445.7370128632 0 0 0 0 -14683382.14087677 -9661533.8317505717 0 -9661533.8317505717 -4927530.1906774044 0 0 0 0 -786286.89213838987 212216.96022769902 0 212216.96022769902 479659.36431861942 0 0 0 0 -10718747.741691589 6844730.1383086443 0 6844730.1383086443 4301491.0609874725 0 0 0 0 -7336674.8073196411 -4926331.8819031715 0 -4926331.8819031715 -5225854.5015502498 0 0 0 0 -5289755.3172874451 2970773.9397670925 0 2970773.9397670925 1001632.6139047146 0 0 0 0 -3415836.136874754 -997422.17987033748 0 -997422.17987033748 623689.48408404435 0 0 0 0 -9617262.3241863251 339477.62917086482 0 339477.62917086482 1120497.4869456291 0 0 0 0 -6532973.5384292603 -2603276.7289191484 0 -2603276.7289191484 5418892.3695778847 0 0 0 0 -2193504.1482631564 -1152600.6229944564 0 -1152600.6229944564 164795.56125692697 0 0 0 0 -2311558.7072105408 -402419.91702753305 0 -402419.91702753305 622325.02843046188 0 0 0 0 -2137565.5592727661 -344565.90007436275 0 -344565.90007436275 545257.1896957159 0 0 0 0 -1708140.0400314331 -875027.02368432283 0 -875027.02368432283 690643.88520121574 0 0 0 0 -1755932.113471387 -430066.60372440796 0 -430066.60372440796 246603.09217067042 0 0 0 0 -2272605.6724591255 -461791.70602440834 0 -461791.70602440834 450822.70230925083 0 0 0 0 -2241254.6827735901 -261085.2608667016 0 -261085.2608667016 -207168.22893512249 0 0 0 0 -4813146.3246917725 -4960228.2574209571 0 -4960228.2574209571 493522.4337054491 0 0 0 0 -3305175.091003418 -93165.455809652805 0 -93165.455809652805 -105413.90479660034 0 0 0 0 1438232.9112319946 -5896563.3302441537 0 -5896563.3302441537 -1769910.667712152 0 0 0 0 -1561792.2910669316 -1136124.9171641339 0 -1136124.9171641339 24579.192920596397 0 0 0 0 -2703613.9551105499 -390737.30663666129 0 -390737.30663666129 -50517.312413573265 0 0 0 0 7454.3094074763358 16709.905402208678 0 16709.905402208678 -5657.9761775219522 0 0 0 0 -4176818.5634078979 -885855.31553709507 0 -885855.31553709507 768551.7354221344 0 0 0 0 2450049.1216087341 -16113899.256505609 0 -16113899.256505609 -5535791.9046323299 0 0 0 0 -8459843.52135849 424010.53399038315 0 424010.53399038315 4144071.8911806345 0 0 0 0 -3584160.1412687302 -10868158.033080176 0 -10868158.033080176 16264962.576080561 0 0 0 0 -476986.57637694152 -124746.71900372487 0 -124746.71900372487 3356.0967234978452 0 0 0 0 -1760423.418505101 -2051362.392505656 0 -2051362.392505656 381641.76612453378 0 0 0 0 -9944241.0061321259 -56717.32563675195 0 -56717.32563675195 1266283.5813963413 0 0 0 0 -11311783.990590334 -7924213.2366109118 0 -7924213.2366109118 470337.88753867149 0 0 0 0 -4809881.8821144104 -1538432.6452074647 0 -1538432.6452074647 -1348910.9600932598 0 0 0 0 -5517160.2376342602 -197933.1961511285 0 -197933.1961511285 1598925.2164010135 0 0 0 0 -9507104.9356155396 -20086.38053894043 0 -20086.38053894043 287411.83725747466 0 0 0 0 -36216940.718013763 -2733763.1941578984 0 -2733763.1941578984 25716990.315795422 0 0 0 0 -5687408.0153007507 -15664455.453466237 0 -15664455.453466237 -16065760.150045395 0 0 0 0 -1352128.6081075668 -8007093.1039512753 0 -8007093.1039512753 13079675.122070551 0 0 0 0 -395030.0617196653 -990113.40632052894 0 -990113.40632052894 145562.99866296843 0 0 0 0 5667938.473236084 -7011417.4417897463 0 -7011417.4417897463 11211005.154069483 0 0 0 0 -29267467.713733673 -29761121.540163457 0 -29761121.540163457 44213861.829200149 0 0 0 0 -17178956.977867126 -59298582.94081533 0 -59298582.94081533 9701750.7675356269 0 0 0 0 -33181316.157411575 -17689211.666033477 0 -17689211.666033477 14892751.534226656 0 0 0 0 -26148157.702919006 -10178335.234908581 0 -10178335.234908581 17280134.263833642 0 0 0 0 -10484827.118255615 -3713054.4392310381 0 -3713054.4392310381 11689747.499969423 0 0 0 0 -18300298.812469482 -12974994.042204261 0 -12974994.042204261 6772745.6032726169 0 0 0 0 3120906.9132080078 -26011660.768822908 0 -26011660.768822908 -6566986.5517332256 0 0 0 0 1411608.3629615307 -38587204.510421008 0 -38587204.510421008 -23449102.251056015 0 0 0 0 -11772437.681163788 -31144735.301428184 0 -31144735.301428184 -16259242.983935885 0 0 0 0 -19067102.37858963 -1532720.9907407314 0 -1532720.9907407314 3431820.453943707 0 0 0 0 -23107557.050937653 20616855.646075189 0 20616855.646075189 -58469251.029408567 0 0 0 0 -15345106.670087814 -46204960.187938787 0 -46204960.187938787 -68670907.72386004 0 0 0 0 41200653.494403839 -19766776.568374842 0 -19766776.568374842 -28185939.401538245 0 0 0 0 20157971.342189789 -39494948.340825193 0 -39494948.340825193 -31519514.100348081 0 0 0 0 80135.873557526618 -43784.156951135956 0 -43784.156951135956 -55191.698633267544 0 0 0 0 219851.63789367676 -974683.02177029848 0 -974683.02177029848 1254512.8769369312 0 0 0 0 -2608789.0103368759 2067531.9344422147 0 2067531.9344422147 -1989842.9846965075 0 0 0 0 -1672943.9018670216 -108614.60424438212 0 -108614.60424438212 282220.58061482443 0 0 0 0 -1105006.3312676419 -723450.17809069809 0 -723450.17809069809 -125976.16152618744 0 0 0 0 -2972599.7449989319 -261819.71680849791 0 -261819.71680849791 178231.23739089072 0 0 0 0 5866473.8300933838 1676210.5394022018 0 1676210.5394022018 -5909863.5232210159 0 0 0 0 -4108597.4187989235 -600640.98940068856 0 -600640.98940068856 204290.08408463001 0 0 0 0 -3466915.8165512085 653278.57503986359 0 653278.57503986359 91497.146631717682 0 0 0 0 -2538095.565960113 104590.68227688409 0 104590.68227688409 116923.55722861836 0 0 0 0 4074852.3220252991 -1433214.8510207534 0 -1433214.8510207534 -18889856.729369849 0 0 0 0 4046193.8164176941 -3339599.5464767516 0 -3339599.5464767516 487872.75519433618 0 0 0 0 -5797261.5237197876 4370401.3641734943 0 4370401.3641734943 5887179.6157353222 0 0 0 0 -4744959.8442344666 4352122.7965607643 0 4352122.7965607643 4657099.2849058509 0 0 0 0 -5566787.6471939087 1108777.8995079994 0 1108777.8995079994 4874274.0443951115 0 0 0 0 -4976760.6386184692 91298.613921940327 0 91298.613921940327 1292701.4393574595 0 0 0 0 -1015181.2474368964 -163526.53987632971 0 -163526.53987632971 97361.199736167837 0 0 0 0 -3773765.0509357452 921481.47520932555 0 921481.47520932555 1160669.703284502 0 0 0 0 -3368389.0530662537 -306862.06940889359 0 -306862.06940889359 308337.54305359721 0 0 0 0 -5619071.6765518188 2661732.8230586424 0 2661732.8230586424 1651158.8788288385 0 0 0 0 -4431362.5802841187 1489055.4277818501 0 1489055.4277818501 2742572.7066335082 0 0 0 0 363103.78580856323 2842035.2344237342 0 2842035.2344237342 1576873.4936013222 0 0 0 0 5890241.9322967529 5264530.9074669331 0 5264530.9074669331 -2322411.3039104939 0 0 0 0 -315409.6017047721 -96134.846839077771 0 -96134.846839077771 41404.614554342959 0 0 0 0 -3407664.6634845734 -1117435.1489945799 0 -1117435.1489945799 585240.57875064015 0 0 0 0 -4406383.8199577332 3245283.7039656937 0 3245283.7039656937 188455.0936100632 0 0 0 0 -2749867.7778625488 5758591.809132576 0 5758591.809132576 -13340168.103767484 0 0 0 0 -3030651.7574367523 7856119.9495678917 0 7856119.9495678917 -1636830.9253603816 0 0 0 0 -7754602.5781326294 7598328.46500054 0 7598328.46500054 3653042.6178104132 0 0 0 0 -7145892.5818004608 4555944.6880152645 0 4555944.6880152645 9040094.2120863125 0 0 0 0 -12548743.211471558 15001757.519809183 0 15001757.519809183 -1333330.054977335 0 0 0 0 -23611445.99637413 2595343.2954290276 0 2595343.2954290276 21569888.276381534 0 0 0 0 -294178.86111188866 58295.32906955923 0 58295.32906955923 48647.251758002676 0 0 0 0 -106202790.89919281 77249039.653802961 0 77249039.653802961 -23253098.706729606 0 0 0 0 56640294.800865173 -7131687.5195230059 0 -7131687.5195230059 -63580129.594296172 0 0 0 0 -134904054.93098021 -124588938.74856266 0 -124588938.74856266 70907181.968520015 0 0 0 0 -125560126.92690659 58205880.863196164 0 58205880.863196164 35022776.346416801 0 0 0 0 13613260.069541931 24896099.61281861 0 24896099.61281861 25551743.565879013 0 0 0 0 -32567859.742912292 -4543866.3094487227 0 -4543866.3094487227 7883938.4109555297 0 0 0 0 10788724.431121826 -6896460.1718860827 0 -6896460.1718860827 -22395205.508914903 0 0 0 0 -4724890.2605781555 -12332082.008795887 0 -12332082.008795887 19698875.240706567 0 0 0 0 -2130001.5568618774 2657289.0927013159 0 2657289.0927013159 5165817.3981334269 0 0 0 0 8300595.1025724411 -7524018.3100675996 0 -7524018.3100675996 -3291129.0697380677 0 0 0 0 -352934.95361389033 245319.10536781605 0 245319.10536781605 202953.25411123646 0 0 0 0 9742700.0751342773 878264.79734312743 0 878264.79734312743 -1797422.1986873504 0 0 0 0 5234624.5013647079 13172575.790922398 0 13172575.790922398 8209549.6493508294 0 0 0 0 -4180207.0604088418 135607.24003017158 0 135607.24003017158 241306.91923919221 0 0 0 0 9054786.5991821289 13177137.689379752 0 13177137.689379752 -16655152.898384362 0 0 0 0 -32185036.054262161 3985520.9060314074 0 3985520.9060314074 28475801.324312404 0 0 0 0 -4420215.5341469031 186063.80778301158 0 186063.80778301158 209583.88679023593 0 0 0 0 1450599.2281570435 -11718759.213891983 0 -11718759.213891983 23628273.920132846 0 0 0 0 -7258913.7275543213 -5801751.0856089443 0 -5801751.0856089443 4553229.1645752387 0 0 0 0 -1862232.7192792892 -153713.29163163807 0 -153713.29163163807 -2399963.5004993491 0 0 0 0 -2260589.6202163696 -5612001.6175071681 0 -5612001.6175071681 -4878049.6066479273 0 0 0 0 -1195551.3570709229 -1972462.9371867571 0 -1972462.9371867571 801158.97650010884 0 0 0 0 -2595551.3854423696 -471669.86635199655 0 -471669.86635199655 38062.532611837814 0 0 0 0 -250079.2685568817 -654474.42720334465 0 -654474.42720334465 181655.54119203502 0 0 0 0 1375087.1374034882 3530598.4848777317 0 3530598.4848777317 3396836.7707261145 0 0 0 0 -5897039.1081161499 -1263164.7231138349 0 -1263164.7231138349 6820179.1815238297 0 0 0 0 -433167.06970720622 -3762.1876918422058 0 -3762.1876918422058 1446.1896510145452 0 0 0 0 -1462464.5092257727 828618.36492311675 0 828618.36492311675 913244.8042634906 0 0 0 0 -704284.67417907715 -127852.18129788339 0 -127852.18129788339 309422.64245897532 0 0 0 0 -1861597.5186520508 114772.38011017162 0 114772.38011017162 175012.38004898431 0 0 0 0 -1484686.8575172424 -163805.95339483023 0 -163805.95339483023 259029.92075258493 0 0 0 0 -1607792.1444819383 -292654.61588625424 0 -292654.61588625424 497898.10665021226 0 0 0 0 -4002533.9285774231 -134112.67128461599 0 -134112.67128461599 -721156.43796348572 0 0 0 0 -1778150.7937705237 -179571.93792528589 0 -179571.93792528589 182950.14042541571 0 0 0 0 -833832.60121664405 98383.447206066921 0 98383.447206066921 -18791.348920307326 0 0 0 0 -1266849.5601997375 -23279.856555998325 0 -23279.856555998325 191855.29089212418 0 0 0 0 -699350.7364654541 -70992.939574956894 0 -70992.939574956894 76755.21145927906 0 0 0 0 -1569509.6698554456 116714.01105460711 0 116714.01105460711 295456.21830377408 0 0 0 0 -659410.0901184082 -251844.92605209351 0 -251844.92605209351 643962.24744415283 0 0 0 0 -3299420.7434112318 139186.71816618275 0 139186.71816618275 159928.45517391886 0 0 0 0 -1150244.9349594116 45281.548779726028 0 45281.548779726028 50183.51918399334 0 0 0 0 -875898.69422100671 -363970.36762562697 0 -363970.36762562697 408206.45827232231 0 0 0 0 -1106720.4719085693 -154938.83383333683 0 -154938.83383333683 282543.53755545616 0 0 0 0 -2574222.8606638052 -421772.2969208603 0 -421772.2969208603 862186.12431916082 0 0 0 0 -750169.4606628418 -254101.06622886658 0 -254101.06622886658 655378.50498425961 0 0 0 0 -3298770.9631333435 192113.66261607967 0 192113.66261607967 207592.13172237092 0 0 0 0 -601187.99822998047 -279248.20163321495 0 -279248.20163321495 29642.232448101044 0 0 0 0 -12543821.03313446 -2065809.0820360482 0 -2065809.0820360482 -872659.09505307674 0 0 0 0 -635264.25645189313 -108929.67182043009 0 -108929.67182043009 29359.743849343969 0 0 0 0 -9042752.5834236145 -528751.43783270568 0 -528751.43783270568 395779.77332746983 0 0 0 0 -1184553.1160978312 -140039.70332140476 0 -140039.70332140476 60304.271927906477 0 0 0 0 -1182881.2707099915 -44927.097237952054 0 -44927.097237952054 258882.3724556379 0 0 0 0 -2094270.8634304013 680185.94012088142 0 680185.94012088142 500917.02736171341 0 0 0 0 -1544490.4449234009 -627664.31841504574 0 -627664.31841504574 -407356.42774182558 0 0 0 0 -3771459.8656616211 339167.43500287831 0 339167.43500287831 109109.08388756774 0 0 0 0 -2466793.298406601 84766.816225831397 0 84766.816225831397 -411942.76694134995 0 0 0 0 -2771040.1422710419 -700832.41468933225 0 -700832.41468933225 438010.79221713543 0 0 0 0 -2386930.3084106445 -472565.07016667724 0 -472565.07016667724 380933.77225720882 0 0 0 0 -2921147.2891998291 -400474.14686214924 0 -400474.14686214924 1141754.1908318996 0 0 0 0 -1543250.0578565449 600518.94944517128 0 600518.94944517128 451383.04157240596 0 0 0 0 -3044193.469291687 385879.24265819788 0 385879.24265819788 1095294.8725378513 0 0 0 0 -5165031.8833694458 4670535.9496312886 0 4670535.9496312886 1583600.2454024702 0 0 0 0 -15343643.931858063 -191410.19488108158 0 -191410.19488108158 1868352.3518577814 0 0 0 0 -228317.36942776665 95122.709663027897 0 95122.709663027897 101153.9158295262 0 0 0 0 -20972747.882637024 12209492.74035624 0 12209492.74035624 15389265.085185409 0 0 0 0 -2092346.0575485229 -237913.00305479765 0 -237913.00305479765 1026508.2773995399 0 0 0 0 -52082932.865203857 -16352760.309570394 0 -16352760.309570394 18023763.873024039 0 0 0 0 -2519095.686958313 396082.21763312817 0 396082.21763312817 537488.89993989468 0 0 0 0 -1789122.6172409058 -551539.16903710365 0 -551539.16903710365 1155117.6544944346 0 0 0 0 -1804657.8349208832 -681393.01408901811 0 -681393.01408901811 724608.0656567812 0 0 0 0 -989996.08900928497 -810546.40573866665 0 -810546.40573866665 734110.25350224972 0 0 0 0 -4372375.3456726074 -7407923.7876062011 0 -7407923.7876062011 4045056.9255689615 0 0 0 0 -1490204.5241470337 135885.23567254841 0 135885.23567254841 1219141.380538702 0 0 0 0 -762602.57278280705 -124065.95681041875 0 -124065.95681041875 567664.19387560175 0 0 0 0 687250.21131896973 -427687.03913162654 0 -427687.03913162654 -913.78062273342198 0 0 0 0 -2119498.7807064056 4790730.6466466058 0 4790730.6466466058 -64052799.841799155 0 0 0 0 -1297976.807416081 537186.99376458488 0 537186.99376458488 583923.13057093159 0 0 0 0 -40125959.128845215 -12051286.527621821 0 -12051286.527621821 32779903.969600618 0 0 0 0 -1420353.9404125856 -300401.23797119781 0 -300401.23797119781 96877.368998384234 0 0 0 0 -59511434.230010986 32780289.631126624 0 32780289.631126624 4024781.3584683705 0 0 0 0 7754.6911233179271 -165527.94901037402 0 -165527.94901037402 -738032.58763736556 0 0 0 0 355648.47275924683 -1363562.4162217677 0 -1363562.4162217677 265159.13457679749 0 0 0 0 -7422962.4740085602 959091.71074997378 0 959091.71074997378 -1509725.8775951718 0 0 0 0 -7314560.3522453308 1249235.3210350024 0 1249235.3210350024 -1138143.896666243 0 0 0 0 18553373.909197718 -2286228.6724606911 0 -2286228.6724606911 -3651159.2353854724 0 0 0 0 -545575.28664860874 -294878.71886573383 0 -294878.71886573383 541337.02409157006 0 0 0 0 -677065.370262146 -544359.58396631479 0 -544359.58396631479 834889.05079907179 0 0 0 0 1145965.8454518318 7646478.1172750425 0 7646478.1172750425 -578879.09061959293 0 0 0 0 -808241.40855026245 -1350286.2864651084 0 -1350286.2864651084 697742.45794469118 0 0 0 0 -851928.25793457031 -1529195.9006977379 0 -1529195.9006977379 243214.47466681898 0 0 0 0 2166727.7417373657 -505890.96885454655 0 -505890.96885454655 -4143487.6788765788 0 0 0 0 2894735.0784692764 -2915973.2949636951 0 -2915973.2949636951 -428975.31788784266 0 0 0 0 -2534455.2125854492 -1713773.9708232731 0 -1713773.9708232731 885213.80165827274 0 0 0 0 -5793293.4155006409 -1167957.4905184414 0 -1167957.4905184414 1131375.7815506877 0 0 0 0 -4593168.5523071289 -4826673.9211675841 0 -4826673.9211675841 -672437.28017037548 0 0 0 0 3841581.1635971069 -8892182.937021859 0 -8892182.937021859 -1158947.19274652 0 0 0 0 7785236.9918146133 -1638299.0022630617 0 -1638299.0022630617 -3933057.5160759687 0 0 0 0 14833.652017138898 -21859.488539278507 0 -21859.488539278507 -168652.33854678323 0 0 0 0 -127079.4130897522 8288374.4281926155 0 8288374.4281926155 -14544352.300217096 0 0 0 0 40396308.360450745 -32332247.260986786 0 -32332247.260986786 -12607540.590840457 0 0 0 0 -16410582.144710541 -24991720.457506325 0 -24991720.457506325 -9739271.0030729715 0 0 0 0 -48186846.475709915 65803.855838021322 0 65803.855838021322 -1880001.1639103149 0 0 0 0 -14643241.427280426 -241348.28684895195 0 -241348.28684895195 -2028239.873352739 0 0 0 0 3050.0405945144594 -99489.140012965538 0 -99489.140012965538 -450348.68411157961 0 0 0 0 -10478395.335098267 2702989.6536567165 0 2702989.6536567165 -1252782.7060596386 0 0 0 0 -17666680.635412216 3623990.4443402071 0 3623990.4443402071 -1128088.6281689806 0 0 0 0 -13569638.187408447 876587.90243768482 0 876587.90243768482 -998530.53035789006 0 0 0 0 -12805679.958507538 623830.80327815434 0 623830.80327815434 221.38915337594548 0 0 0 0 -13335993.385096073 7235.5755081041934 0 7235.5755081041934 -716306.86820548843 0 0 0 0 -13657078.427728176 1603476.3343793305 0 1603476.3343793305 492815.43428519578 0 0 0 0 -10691457.936973572 523602.12906451611 0 523602.12906451611 485.75100875648297 0 0 0 0 -4295993.6344364583 -1311388.7672144247 0 -1311388.7672144247 -756031.23165389756 0 0 0 0 -9276652.6622619629 574204.0513912125 0 574204.0513912125 2623.8834466733124 0 0 0 0 -11533510.768827438 -861419.37716239435 0 -861419.37716239435 84169.841741719283 0 0 0 0 -10699053.118858337 1018484.3705184741 0 1018484.3705184741 -1107162.99758896 0 0 0 0 -12897269.118150234 -952051.54144696682 0 -952051.54144696682 -2684624.2979212445 0 0 0 0 -10660070.529067993 -740330.46420816658 0 -740330.46420816658 305564.29750647582 0 0 0 0 -11029644.076568604 464929.49193901382 0 464929.49193901382 1246876.9845867995 0 0 0 0 -12247916.404056549 6137079.6195101747 0 6137079.6195101747 -10904230.543995488 0 0 0 0 16543301.694095612 7611661.4391191071 0 7611661.4391191071 -17119265.519732796 0 0 0 0 32371673.114746094 12033132.073839458 0 12033132.073839458 -19058056.561443567 0 0 0 0 -67436.216199465096 82491.817200844642 0 82491.817200844642 -38257.037062002608 0 0 0 0 -48271208.446424484 17013420.605878413 0 17013420.605878413 64106322.134304598 0 0 0 0 29765426.079841614 2158990.9034852237 0 2158990.9034852237 -31399908.272013161 0 0 0 0 -2848317.9963822365 -74078.289869791828 0 -74078.289869791828 1924719.7668546438 0 0 0 0 -1507894.7345714569 -410845.80437521636 0 -410845.80437521636 1205968.2078887448 0 0 0 0 -1704265.9339523315 330136.98749309778 0 330136.98749309778 -1589460.5751241203 0 0 0 0 -3338760.9271430969 -4667200.8097603098 0 -4667200.8097603098 -280593.71418991685 0 0 0 0 -4310832.197661031 311598.53950137598 0 311598.53950137598 134576.54076790847 0 0 0 0 -3805590.7247085571 -1853541.793810457 0 -1853541.793810457 7157312.5202996731 0 0 0 0 -82774416.252250671 27681925.638285197 0 27681925.638285197 66584927.467319354 0 0 0 0 -9281725.0308952332 5484381.9013224393 0 5484381.9013224393 13307927.124907061 0 0 0 0 -4492617.1894234046 254967.85406321497 0 254967.85406321497 178209.53018743929 0 0 0 0 29260901.045711517 -9987370.1771925539 0 -9987370.1771925539 -17927193.020668332 0 0 0 0 3458892.3900508881 -2150129.7554906625 0 -2150129.7554906625 -11170005.741492299 0 0 0 0 -487664.62532204017 -8304.8783833775669 0 -8304.8783833775669 288135.89029569132 0 0 0 0 -3762858.3624382019 -8299493.9688628353 0 -8299493.9688628353 2563575.1220039753 0 0 0 0 -3354000.1269741058 -1129629.7133770362 0 -1129629.7133770362 1239316.1535995752 0 0 0 0 -4515816.9465246201 -1202881.7557084523 0 -1202881.7557084523 5194586.0473694503 0 0 0 0 -2124412.6854473855 -119288.58633007598 0 -119288.58633007598 43751.303367345012 0 0 0 0 -23881272.09698391 6940717.9431748018 0 6940717.9431748018 -1201543.1579122283 0 0 0 0 -1940526.5343907811 778177.28818882909 0 778177.28818882909 43096.620202411752 0 0 0 0 -212043.44726030342 336195.80821624724 0 336195.80821624724 3285.485842670857 0 0 0 0 28581677.512142181 -10867478.717537586 0 -10867478.717537586 4767888.7464913577 0 0 0 0 -12016193.959184647 -13029291.62724793 0 -13029291.62724793 10188549.54023033 0 0 0 0 -2296824.4309921265 5654060.0052700341 0 5654060.0052700341 9069433.2732295394 0 0 0 0 -2411531.8184700012 -462225.80668765306 0 -462225.80668765306 2789986.3946091929 0 0 0 0 -3900715.769695282 -2098249.938100636 0 -2098249.938100636 2796446.2642134079 0 0 0 0 -3505965.2374343872 -3543045.51923877 0 -3543045.51923877 974367.36484798603 0 0 0 0 -718635.75687599182 -3108759.2406510711 0 -3108759.2406510711 -3362596.4756774306 0 0 0 0 -1396393.0777549744 -1716591.594536081 0 -1716591.594536081 1021462.7227093531 0 0 0 0 -1286503.0262622833 -179282.83197426796 0 -179282.83197426796 296023.64154869318 0 0 0 0 -1946057.0110224467 -259241.81358549208 0 -259241.81358549208 -47206.096565693369 0 0 0 0 -2101292.4484922886 -101556.65266996529 0 -101556.65266996529 1071382.1549272984 0 0 0 0 -2514285.0793075562 -2398692.9981939644 0 -2398692.9981939644 3885100.9767490625 0 0 0 0 -2153639.4790229797 4338474.8088221252 0 4338474.8088221252 -2569849.7156727314 0 0 0 0 -552417.62171268463 1528293.7248408198 0 1528293.7248408198 -649262.14210176468 0 0 0 0 -2945333.6779899597 458336.91887843609 0 458336.91887843609 205008.86033904552 0 0 0 0 -2430620.3371009827 -513359.27802562714 0 -513359.27802562714 -321442.62635111809 0 0 0 0 -3298406.7657279968 260526.16664630175 0 260526.16664630175 614406.85892283916 0 0 0 0 -215065.86831632815 -97237.849382659886 0 -97237.849382659886 131803.81037723605 0 0 0 0 -1633396.4733409882 1189017.8080683947 0 1189017.8080683947 902417.84010222554 0 0 0 0 -384868.60256474465 -229556.17599418014 0 -229556.17599418014 16033.669426388078 0 0 0 0 -1159190.4046516418 -1262730.3881928921 0 -1262730.3881928921 531990.76936089993 0 0 0 0 -141683.39264835045 -116710.40678757662 0 -116710.40678757662 20120.328927589566 0 0 0 0 -1372311.8840532303 -8042874.5160908699 0 -8042874.5160908699 -14604259.321822226 0 0 0 0 1040462.7326927185 -48701.777915656567 0 -48701.777915656567 -4295930.9158345461 0 0 0 0 -4470457.3187255859 6499335.0179262161 0 6499335.0179262161 -11999000.09915787 0 0 0 0 -15645428.210393906 11825668.291557312 0 11825668.291557312 -6066437.8563420773 0 0 0 0 -36569542.221450806 -744802.74922138453 0 -744802.74922138453 3466667.1726434231 0 0 0 0 -8871256.4380836487 -2312834.3480279446 0 -2312834.3480279446 2835171.007971406 0 0 0 0 -16488888.93612957 8124963.7331321239 0 8124963.7331321239 295506.82621574402 0 0 0 0 -7958615.8847961426 3095932.9483613968 0 3095932.9483613968 2613384.1842889786 0 0 0 0 -9396374.5373535156 3819513.3339650631 0 3819513.3339650631 2909054.035558939 0 0 0 0 -8319340.6723251343 -1777370.5198769569 0 -1777370.5198769569 4593228.1069135666 0 0 0 0 -13667231.066841125 -1255593.1192563474 0 -1255593.1192563474 3699383.7515518665 0 0 0 0 -7337628.8652267456 -923222.52552318573 0 -923222.52552318573 3317958.6771450043 0 0 0 0 -7248219.0773887634 -487287.5839073658 0 -487287.5839073658 4522605.6543889046 0 0 0 0 -4433948.3011169434 5876580.7490946054 0 5876580.7490946054 -3606753.0130828619 0 0 0 0 -7158330.904800415 6468251.1935343742 0 6468251.1935343742 -3847212.7918080091 0 0 0 0 -5747452.9938240051 4771964.6998044252 0 4771964.6998044252 -2201682.9225361347 0 0 0 0 -8809202.7310891151 6460981.2892088145 0 6460981.2892088145 -855826.23010182381 0 0 0 0 -5995623.3353385925 4039912.5353337526 0 4039912.5353337526 1034681.4456882477 0 0 0 0 -6130041.2640419006 4662912.4023882151 0 4662912.4023882151 -27566.46294760704 0 0 0 0 -3861359.8452377319 3002399.2511726618 0 3002399.2511726618 1013263.5582456589 0 0 0 0 -5666662.4511909485 1915129.5081353188 0 1915129.5081353188 3206720.0664923191 0 0 0 0 -8637744.3069419861 3754606.5951801538 0 3754606.5951801538 2677437.6155824661 0 0 0 0 -4556726.6977539062 828961.85912930965 0 828961.85912930965 2265743.4216396809 0 0 0 0 -6194178.8340625763 2680530.621255219 0 2680530.621255219 2175133.2761654854 0 0 0 0 -3326202.4565811157 -229325.93717169762 0 -229325.93717169762 7204074.6900362968 0 0 0 0 -4066557.2350196838 -1456989.9977298975 0 -1456989.9977298975 5168396.4906606674 0 0 0 0 -8245409.477973938 -1382947.1512534618 0 -1382947.1512534618 5781248.7594852448 0 0 0 0 -5950978.2185058594 -2435516.4863829613 0 -2435516.4863829613 7380949.4095444679 0 0 0 0 -6702476.0880126953 513875.02398657799 0 513875.02398657799 5017174.5221512914 0 0 0 0 -10263354.840000153 2243654.8745852113 0 2243654.8745852113 5343912.6550226212 0 0 0 0 -2846637.5709648132 -1556606.160882473 0 -1556606.160882473 4315566.062905252 0 0 0 0 -7859441.1030540466 876058.60509735346 0 876058.60509735346 5036103.8561930656 0 0 0 0 -5272817.1868782043 -1548564.0399993658 0 -1548564.0399993658 8469757.6024055481 0 0 0 0 -3887332.6861581802 -3795217.8525237441 0 -3795217.8525237441 6619916.3897051811 0 0 0 0 -4623984.5438098907 161970.84210777283 0 161970.84210777283 1862453.6356264353 0 0 0 0 -5973101.0745067596 -5198253.7773652077 0 -5198253.7773652077 -406161.2234120965 0 0 0 0 -7494518.9942746162 1920997.3320505321 0 1920997.3320505321 784952.54761242867 0 0 0 0 -3585736.037764159 -311137.77503085276 0 -311137.77503085276 47341.870055363979 0 0 0 0 -5523596.9710235596 513234.20105910301 0 513234.20105910301 2778765.8495330811 0 0 0 0 -4371629.096408844 -442997.06351780891 0 -442997.06351780891 2928541.3418799341 0 0 0 0 -3620847.330123649 -488861.77087363414 0 -488861.77087363414 -186342.31222357671 0 0 0 0 -2900532.6695090141 -130578.5252019139 0 -130578.5252019139 16033.253426186799 0 0 0 0 -4628599.6664505005 196155.85017883778 0 196155.85017883778 1402246.3203005791 0 0 0 0 -2333541.1729316711 -364260.22424066067 0 -364260.22424066067 328663.60030961037 0 0 0 0 -3461269.9309301376 2050962.2020147443 0 2050962.2020147443 440467.36806130409 0 0 0 0 -1858244.165397644 -123338.45430338383 0 -123338.45430338383 1521215.4641119242 0 0 0 0 -2616309.0681284927 385884.38215722656 0 385884.38215722656 -433167.41504514555 0 0 0 0 -4304612.9656715393 863246.21834039688 0 863246.21834039688 1790584.0566908121 0 0 0 0 -4338528.6268424988 2041299.7222570181 0 2041299.7222570181 483051.80649483204 0 0 0 0 -4505251.5040740967 2535397.4463248253 0 2535397.4463248253 -886275.27227562666 0 0 0 0 -3863657.5320668221 2930626.9655138776 0 2930626.9655138776 -647720.71155524254 0 0 0 0 -3411292.2506408691 -468869.06273114681 0 -468869.06273114681 -269162.89621716738 0 0 0 0 -2540204.0225097947 -327227.56565551739 0 -327227.56565551739 166537.47650022712 0 0 0 0 -3806751.0162763596 -69290.422740399837 0 -69290.422740399837 -107811.18298625946 0 0 0 0 -3678364.0492858887 339008.76654398441 0 339008.76654398441 -370628.61027723551 0 0 0 0 -521997.83841929026 55271.592037400231 0 55271.592037400231 167470.84661936155 0 0 0 0 -2397449.7992600724 -91317.08698836714 0 -91317.08698836714 -425966.41355603957 0 0 0 0 -2651108.8185138702 192646.33736628294 0 192646.33736628294 742758.37149763107 0 0 0 0 -2270696.0339565277 -354153.00911390781 0 -354153.00911390781 10179.206907749176 0 0 0 0 -2264775.799621582 -287308.42330551147 0 -287308.42330551147 717149.73873099685 0 0 0 0 -222706.05741500854 -1632632.433195889 0 -1632632.433195889 -934594.00938534737 0 0 0 0 -2310932.9584980011 -520101.1534614563 0 -520101.1534614563 1862921.9846605062 0 0 0 0 -1891821.7930870056 100293.05012625456 0 100293.05012625456 801478.59740567207 0 0 0 0 -2619883.5371530578 601888.12009758409 0 601888.12009758409 332338.84669930942 0 0 0 0 -7796661.4517045021 1361781.3829450905 0 1361781.3829450905 7567137.2131311893 0 0 0 0 -24744.858585678972 126540.3034284274 0 126540.3034284274 -18454.042022514644 0 0 0 0 825044.9856262207 6745679.2898647189 0 6745679.2898647189 -1500916.9271241687 0 0 0 0 -2746834.5154190063 1198013.2088791728 0 1198013.2088791728 5362124.0100926757 0 0 0 0 -3537644.6701091314 -53081.488783317152 0 -53081.488783317152 167984.27041113313 0 0 0 0 -1417171.7219543681 -519746.97292126913 0 -519746.97292126913 218245.09270334448 0 0 0 0 -1342246.8236541748 -803522.09039151669 0 -803522.09039151669 4734372.9033620358 0 0 0 0 -2595314.5719505232 2095276.981796877 0 2095276.981796877 1061134.6705818828 0 0 0 0 -4494582.2589941025 -19224.307451583445 0 -19224.307451583445 2828331.7771981955 0 0 0 0 -10273135.419265747 2070349.9444407225 0 2070349.9444407225 2157257.2024881914 0 0 0 0 -2466024.9823379517 1302282.8456362486 0 1302282.8456362486 -141217.06790857017 0 0 0 0 -666847.68396198517 222379.27999902307 0 222379.27999902307 91035.165899627624 0 0 0 0 -9978217.6325616837 5681319.9129623286 0 5681319.9129623286 -1923412.7769583017 0 0 0 0 -8180737.3877468109 235775.13966880366 0 235775.13966880366 -1918509.5675209239 0 0 0 0 -5559227.6756057739 2488791.5991520062 0 2488791.5991520062 3201818.6290733293 0 0 0 0 -4660009.7653646469 3750857.7796472907 0 3750857.7796472907 2849371.1558291912 0 0 0 0 -1877586.1255681189 551873.90267425403 0 551873.90267425403 621335.50457822846 0 0 0 0 -4007761.3925952911 -1984333.6965647489 0 -1984333.6965647489 4831808.5331878513 0 0 0 0 -5685367.1299781799 3574055.8357535601 0 3574055.8357535601 -6204.0805932879448 0 0 0 0 -9613518.2523212433 -2154787.1317752004 0 -2154787.1317752004 9636443.1326075792 0 0 0 0 -3510089.0128577929 315931.65051738161 0 315931.65051738161 89710.651075422822 0 0 0 0 -4111554.7417733669 3287616.5666967034 0 3287616.5666967034 -583640.53705465794 0 0 0 0 -5707850.1559772491 -2446824.5640121102 0 -2446824.5640121102 3696211.32231462 0 0 0 0 -2722433.0633815471 593985.29577142932 0 593985.29577142932 398932.39297685993 0 0 0 0 -554967.5040622279 -427401.44246097049 0 -427401.44246097049 240490.82517705427 0 0 0 0 -4300455.6977176666 1994032.9691659212 0 1994032.9691659212 -1873872.5757378936 0 0 0 0 -3313434.9607686996 601953.76161518693 0 601953.76161518693 88910.100302219391 0 0 0 0 -8642915.9726843834 733241.21153753251 0 733241.21153753251 3780817.0124521255 0 0 0 0 -3389788.60969753 1348654.630685112 0 1348654.630685112 419353.73693362495 0 0 0 0 -2520835.0990257263 1875874.0220901966 0 1875874.0220901966 -178934.37411803007 0 0 0 0 -2905874.3522987366 242999.12749575078 0 242999.12749575078 438836.61454200745 0 0 0 0 -2774390.6721820831 1107455.4385010898 0 1107455.4385010898 2644463.1145170927 0 0 0 0 -2803874.3896644115 -6162246.2070433721 0 -6162246.2070433721 1500196.9303041697 0 0 0 0 -1182404.5827608258 321186.66361089563 0 321186.66361089563 566333.45904282434 0 0 0 0 -5087669.9828901291 4556198.2453911453 0 4556198.2453911453 1493791.615357697 0 0 0 0 -6590492.7576951981 1360601.6675029099 0 1360601.6675029099 4269866.0902068466 0 0 0 0 -3544829.6690143943 871132.0591923903 0 871132.0591923903 13843.621730848601 0 0 0 0 -4454177.091334343 1495906.8053323254 0 1495906.8053323254 1161335.5132886618 0 0 0 0 -11977525.788866043 5058053.367493391 0 5058053.367493391 -389809.50734567642 0 0 0 0 -9548689.6131191254 3109053.0010559559 0 3109053.0010559559 998399.57501900196 0 0 0 0 -3481525.7120536887 1257237.8190009771 0 1257237.8190009771 1144823.6880000397 0 0 0 0 -9693002.296875 5603215.5304906368 0 5603215.5304906368 1204180.8629502058 0 0 0 0 -10226865.733203888 3966929.9513032436 0 3966929.9513032436 -125320.93403768539 0 0 0 0 -3279601.3613391379 1870296.3001709043 0 1870296.3001709043 -124402.99505000029 0 0 0 0 -2469101.3052558899 1680748.8090993166 0 1680748.8090993166 2988041.3146149218 0 0 0 0 -8331429.9651126862 5068955.7213220894 0 5068955.7213220894 2714147.3208031058 0 0 0 0 -280700.21750068665 1502602.0609173477 0 1502602.0609173477 835046.76152980328 0 0 0 0 -5787197.6891816072 2017493.2828884521 0 2017493.2828884521 1295440.4903119709 0 0 0 0 -2450092.5166015625 -336176.20655566454 0 -336176.20655566454 466527.39091992378 0 0 0 0 -2432537.6327360431 1000770.5286096865 0 1000770.5286096865 -129856.72580428177 0 0 0 0 -1549316.3597784042 1969996.4223574549 0 1969996.4223574549 -2225953.5045135021 0 0 0 0 -671589.35551643372 1135654.0879863501 0 1135654.0879863501 871770.72272777557 0 0 0 0 -981838.49406178761 -491525.29301336454 0 -491525.29301336454 -685784.44756292785 0 0 0 0 -8647907.1308984756 2489196.2020417452 0 2489196.2020417452 -2453382.1244535446 0 0 0 0 -6851883.4725723267 4151844.5017310381 0 4151844.5017310381 -4472992.9238471985 0 0 0 0 -3415601.3438200513 2788281.5215327116 0 2788281.5215327116 335403.55486003362 0 0 0 0 -771521.60966539197 -4307.1535465603229 0 -4307.1535465603229 480418.76598235941 0 0 0 0 -7087896.7893447876 756329.60997307301 0 756329.60997307301 1127486.3187609911 0 0 0 0 -7937051.8605499268 6142077.2052127123 0 6142077.2052127123 -2174873.6583947539 0 0 0 0 -4448197.4432228487 -999983.44156430475 0 -999983.44156430475 -83397.096649658401 0 0 0 0 -4139048.5855865479 922527.38551384211 0 922527.38551384211 1035232.7491964102 0 0 0 0 -486572.15222907811 71920.591903442517 0 71920.591903442517 136088.61631927296 0 0 0 0 -3946755.5536259878 838925.32301518787 0 838925.32301518787 866472.61846465664 0 0 0 0 -2525113.2195320129 437686.56130594015 0 437686.56130594015 1849275.9815622568 0 0 0 0 -6863148.5596961975 -1946234.5999667645 0 -1946234.5999667645 -642034.10933172703 0 0 0 0 -8522153.5877285004 -1698153.1822321415 0 -1698153.1822321415 -649786.54771661758 0 0 0 0 -8849566.8887405396 -885264.02684915066 0 -885264.02684915066 930980.75780630112 0 0 0 0 -2812895.428671306 319731.03308389802 0 319731.03308389802 -844041.19254545588 0 0 0 0 -6260748.1352119446 -2745370.5049335361 0 -2745370.5049335361 366748.37552261353 0 0 0 0 -7652155.4102249146 3364242.0683717728 0 3364242.0683717728 -869189.99178135395 0 0 0 0 -8628250.9994373322 -3032205.1940603256 0 -3032205.1940603256 2025248.8414112329 0 0 0 0 2767365.2207336426 -4899193.2580854297 0 -4899193.2580854297 -1639351.418081522 0 0 0 0 -1724969.9956446281 427024.21447208896 0 427024.21447208896 -278160.11538204632 0 0 0 0 -6955443.3006668091 -7571372.8972436339 0 -7571372.8972436339 463754.00622606277 0 0 0 0 3018628.0078010559 4621993.6308450699 0 4621993.6308450699 -737359.14632678032 0 0 0 0 -18185658.033336639 -1079422.5953685641 0 -1079422.5953685641 3086651.8677303791 0 0 0 0 -22349116.79473114 -6563308.5831054449 0 -6563308.5831054449 -3026833.1534199715 0 0 0 0 -18647639.032230377 -12305641.060772181 0 -12305641.060772181 -17708500.457434177 0 0 0 0 -29213301.240577698 3031540.1935062408 0 3031540.1935062408 -11712847.381144524 0 0 0 0 -13104775.010513306 -3618882.1761516333 0 -3618882.1761516333 -4634400.982005775 0 0 0 0 -7322632.9840774536 -9139307.9934161901 0 -9139307.9934161901 -6121598.4898964167 0 0 0 0 -10826280.891435623 -2624672.4587125778 0 -2624672.4587125778 3319356.8916349411 0 0 0 0 -8909618.3661346436 -1913224.1084730625 0 -1913224.1084730625 2633050.7693296671 0 0 0 0 -3175341.9679965973 7006213.0594234467 0 7006213.0594234467 -1215413.0015207529 0 0 0 0 -12865479.818901062 -136286.3377404213 0 -136286.3377404213 3835485.0119622424 0 0 0 0 -3117003.9211127227 1747284.4525954244 0 1747284.4525954244 -13686.113357077586 0 0 0 0 -4444300.679019928 1805424.3331000805 0 1805424.3331000805 3849.5124641358852 0 0 0 0 67190.879186630249 -4614233.0410913229 0 -4614233.0410913229 9186635.8068864346 0 0 0 0 1079545.0224990845 -3303763.9240970612 0 -3303763.9240970612 1527626.8806148767 0 0 0 0 1434617.4305725098 -7107785.3833432198 0 -7107785.3833432198 7497275.5517947674 0 0 0 0 -116041.27977738157 -2888.0367243392393 0 -2888.0367243392393 71044.959143198445 0 0 0 0 924071.61857223511 -4895693.8001004457 0 -4895693.8001004457 3285636.2821350098 0 0 0 0 -319262.8766719941 1972635.8467592057 0 1972635.8467592057 -29338.374962276197 0 0 0 0 -7974056.0814208984 4311475.9193793535 0 4311475.9193793535 -721112.40062639117 0 0 0 0 -11308722.32153511 22602977.595864117 0 22602977.595864117 -9242047.8877363205 0 0 0 0 13302990.333730698 2206243.7190825343 0 2206243.7190825343 1091227.9247602858 0 0 0 0 -70445592.577153683 3418000.7099850848 0 3418000.7099850848 -642323.7397313118 0 0 0 0 -19432012.311529875 -12886341.45407524 0 -12886341.45407524 -3065679.6728385091 0 0 0 0 -1712922.5074436339 919381.01492489316 0 919381.01492489316 328483.2066733244 0 0 0 0 188146.16526883282 4822.0583693310618 0 4822.0583693310618 -132058.95144257025 0 0 0 0 -133811.24055701122 61942.543608200271 0 61942.543608200271 48740.127379432379 0 0 0 0 -50188800.867359161 -5774196.1557081938 0 -5774196.1557081938 1880556.3205509186 0 0 0 0 -18626906.565040588 -26823362.395403147 0 -26823362.395403147 -34880719.853036523 0 0 0 0 7218457.1895828247 -13244285.67895472 0 -13244285.67895472 -6539048.2504929304 0 0 0 0 -4915708.883471489 -5980687.0853573084 0 -5980687.0853573084 4084382.680688858 0 0 0 0 -10802477.515350342 -4341087.2820849419 0 -4341087.2820849419 3654491.6100521684 0 0 0 0 -1496484.7050590515 34695360.874165043 0 34695360.874165043 -7957556.334777236 0 0 0 0 -8677418.884262085 -17021539.948736072 0 -17021539.948736072 -3867843.9225997925 0 0 0 0 4003015.5547370911 -25779536.358661443 0 -25779536.358661443 -24859707.376148269 0 0 0 0 -1819606.7724411171 935233.32384418603 0 935233.32384418603 62857.032861708605 0 0 0 0 -28668562.37953186 -9533429.6190044582 0 -9533429.6190044582 8700726.3195055723 0 0 0 0 -23619999.408836365 -9293863.2635461092 0 -9293863.2635461092 2321829.4309065342 0 0 0 0 -16410170.741653442 -19716546.252871871 0 -19716546.252871871 2701141.2021220922 0 0 0 0 -12049850.109428406 -16887096.925875425 0 -16887096.925875425 3197015.5361390114 0 0 0 0 -8797342.240852356 -6438424.2604682595 0 -6438424.2604682595 7396769.4427082539 0 0 0 0 -20831747.562397003 -2009043.533539772 0 -2009043.533539772 17528033.445543647 0 0 0 0 -881383.09036717378 254322.33698517294 0 254322.33698517294 142029.90086186735 0 0 0 0 -31060454.358444214 -615396.42636752129 0 -615396.42636752129 9491385.8729349375 0 0 0 0 -8135540.1107559204 -7707689.9168159366 0 -7707689.9168159366 11661580.63792032 0 0 0 0 -7980114.0846099854 732959.01432013512 0 732959.01432013512 766261.58870178461 0 0 0 0 9810271.3204650879 4726796.1096105576 0 4726796.1096105576 1124972.4151152298 0 0 0 0 -1472822.2962927558 492854.35012272932 0 492854.35012272932 301826.05334906059 0 0 0 0 6992890.3223457336 -376825.12425094843 0 -376825.12425094843 -671681.44522938132 0 0 0 0 1331575.6600379944 12606523.489905536 0 12606523.489905536 11263618.904555082 0 0 0 0 -6512190.5359458923 328189.07938221097 0 328189.07938221097 3694313.1866055429 0 0 0 0 -2002812.3340129852 9668115.952141799 0 9668115.952141799 5112056.9975018501 0 0 0 0 -1134466.8912124634 11496337.537516356 0 11496337.537516356 3347401.5184186697 0 0 0 0 7232576.6377325058 13808481.759294227 0 13808481.759294227 2301232.662968874 0 0 0 0 3362639.3574874997 3004704.990932636 0 3004704.990932636 -7833226.7132389545 0 0 0 0 11299123.005691528 2085048.0591241717 0 2085048.0591241717 -5624306.7643461227 0 0 0 0 3387416.6100865602 4347773.8186492249 0 4347773.8186492249 8189182.8442112207 0 0 0 0 -2875259.7736167908 -5197106.230982244 0 -5197106.230982244 -14472580.132952929 0 0 0 0 -5341278.7256546021 5074993.5256494284 0 5074993.5256494284 -6800309.1652606726 0 0 0 0 -6832511.2277259827 -2545740.7954422832 0 -2545740.7954422832 -21627630.408847809 0 0 0 0 -23271074.907791138 1890022.3792378902 0 1890022.3792378902 -15440459.232294649 0 0 0 0 -70985442.472793818 -8265033.624761261 0 -8265033.624761261 -10812597.275053024 0 0 0 0 -29962255.848373413 -13765989.740914941 0 -13765989.740914941 -32602499.067285538 0 0 0 0 -25218322.614597321 1816921.8335219622 0 1816921.8335219622 -4790664.2742154598 0 0 0 0 -26309792.432701111 7440617.4935313463 0 7440617.4935313463 -26043498.118320733 0 0 0 0 -7379854.6089324951 1689130.7685544491 0 1689130.7685544491 -5170796.2170567513 0 0 0 0 -305666.85634712037 245115.16996376682 0 245115.16996376682 -480765.35106250725 0 0 0 0 -1918255.146900177 1104898.1962060928 0 1104898.1962060928 479297.01529070735 0 0 0 0 -1605830.4271281913 609622.60753630102 0 609622.60753630102 302158.89951267967 0 0 0 0 -1607148.5099487305 -90833.105952203274 0 -90833.105952203274 -44869.870457470417 0 0 0 0 -1528457.0538787842 1541.029039144516 0 1541.029039144516 63295.194221377373 0 0 0 0 -876988.88004056551 393107.79992440902 0 393107.79992440902 -113093.01811767835 0 0 0 0 -1699311.5899511864 164868.67225540988 0 164868.67225540988 581086.64300030284 0 0 0 0 1596607.7899456024 1519598.6649540439 0 1519598.6649540439 841071.23963426985 0 0 0 0 -623908.84347369894 -508508.97520570271 0 -508508.97520570271 -447905.85044692713 0 0 0 0 56101535.788646698 27943648.052288845 0 27943648.052288845 -37473398.35550943 0 0 0 0 208417.74621582031 469599.38741341978 0 469599.38741341978 573273.75917184353 0 0 0 0 154545.46837847773 109684.86969837174 0 109684.86969837174 25775.614799823474 0 0 0 0 -39455552.510032654 15664039.296965417 0 15664039.296965417 44259192.537096955 0 0 0 0 152938.52001347393 -24977.446900457144 0 -24977.446900457144 -131068.04251554614 0 0 0 0 219065.6477355957 -163303.83661925793 0 -163303.83661925793 -494387.64147239923 0 0 0 0 194969.95070870221 -133086.85676497314 0 -133086.85676497314 -729858.57465350197 0 0 0 0 -474663.82971954346 -487422.74033548683 0 -487422.74033548683 -184629.79458266497 0 0 0 0 57941.662806907203 105178.35226828326 0 105178.35226828326 -303824.93307597865 0 0 0 0 1233508.6671447754 457377.49350783229 0 457377.49350783229 -1171208.4067429304 0 0 0 0 -7186548.8823990822 14440378.015862657 0 14440378.015862657 -28244243.393837117 0 0 0 0 -31579247.885190964 29797218.600118842 0 29797218.600118842 -4563860.9118516557 0 0 0 0 -100560771.34611893 41737565.857389182 0 41737565.857389182 -401140.44835114479 0 0 0 0 -4619.9702472118661 72858.591848590411 0 72858.591848590411 -92767.221590591391 0 0 0 0 949534.07669067383 87337749.673264384 0 87337749.673264384 -15934678.323454455 0 0 0 0 2761674.0773239136 2737993.5868766308 0 2737993.5868766308 -925492.56733947992 0 0 0 0 -1989959.5244617462 -1832879.6108257771 0 -1832879.6108257771 658288.78820538521 0 0 0 0 -109560.33018829022 89642.799535493366 0 89642.799535493366 -373586.35093927552 0 0 0 0 -179584.07398986816 -21586.870896100998 0 -21586.870896100998 1862454.1964140534 0 0 0 0 102010.49743652344 -1129257.9478204846 0 -1129257.9478204846 -4113856.3853763342 0 0 0 0 -1097547.7556152344 1433700.6402692795 0 1433700.6402692795 -450266.49814867973 0 0 0 0 -302078.95204257965 1779409.3925568461 0 1779409.3925568461 485628.39803242683 0 0 0 0 1209430.1939086914 461516.94448876381 0 461516.94448876381 -763134.24069297314 0 0 0 0 -598809.99493217468 1129296.2963710427 0 1129296.2963710427 -355212.50791454315 0 0 0 0 -4029593.1650123596 1501321.085634768 0 1501321.085634768 66282.022660851479 0 0 0 0 -1103001.822052002 1641246.5089887381 0 1641246.5089887381 -2125338.0813279748 0 0 0 0 -7687005.9840607643 3649807.5092923492 0 3649807.5092923492 -708405.93680286407 0 0 0 0 -2628192.9419784546 2177426.2790982723 0 2177426.2790982723 -2009901.8442279547 0 0 0 0 1646683.8723983765 3655797.9135394096 0 3655797.9135394096 -3837629.348762989 0 0 0 0 -592578.6901473999 3877869.1814296246 0 3877869.1814296246 -3819710.1639902592 0 0 0 0 -3428428.858127594 5770057.7193971276 0 5770057.7193971276 -1741661.8207367659 0 0 0 0 2192478.0562591553 1058900.3429920673 0 1058900.3429920673 -8278570.7588790655 0 0 0 0 10417136.677886963 4402895.9793152213 0 4402895.9793152213 -7204553.5165162683 0 0 0 0 2984444.0751018524 7052335.7526636422 0 7052335.7526636422 -2429051.288679719 0 0 0 0 8670233.1679391861 -3219643.0465948582 0 -3219643.0465948582 -29210076.612765312 0 0 0 0 3974095.7073516846 16744643.275571406 0 16744643.275571406 -9427149.4230052233 0 0 0 0 -3079157.1209983826 22678505.304381967 0 22678505.304381967 -13230808.564098358 0 0 0 0 4144483.6610565186 18540474.575614452 0 18540474.575614452 9477065.3263767958 0 0 0 0 31850427.213661194 25214168.669652939 0 25214168.669652939 -6395386.0644104332 0 0 0 0 29340677.834732056 527497.11872202158 0 527497.11872202158 16596981.678276777 0 0 0 0 -5866757.0651397705 28365991.945642292 0 28365991.945642292 14092241.596203983 0 0 0 0 47011944.813220978 17743774.957376301 0 17743774.957376301 -6449276.2646001577 0 0 0 0 -36485642.329792023 -3309091.2282144129 0 -3309091.2282144129 5194044.8341298103 0 0 0 0 -861633.88489049766 -22176.751770301722 0 -22176.751770301722 57581.84722336632 0 0 0 0 -23673753.883644104 10404891.831888735 0 10404891.831888735 43976.636702716351 0 0 0 0 -6631774.0601119995 4932497.6256152391 0 4932497.6256152391 -2043066.2919536829 0 0 0 0 -19763908.412246704 -5212504.16337502 0 -5212504.16337502 -1465261.7765327245 0 0 0 0 -21719356.130644798 7427540.7825256065 0 7427540.7825256065 -202544.77871417999 0 0 0 0 -8969601.3208618164 2285893.0793373585 0 2285893.0793373585 -143398.25592565536 0 0 0 0 -7311379.8602921879 1165753.6829652879 0 1165753.6829652879 -117770.00382381314 0 0 0 0 -11247114.745849609 1450313.0522293448 0 1450313.0522293448 2402709.0093755722 0 0 0 0 -11408423.571006775 1690707.1548532844 0 1690707.1548532844 2434456.932496231 0 0 0 0 -9867279.3697767258 2207500.3948844671 0 2207500.3948844671 -1206182.3785536289 0 0 0 0 -12477239.00100708 4043728.7769492865 0 4043728.7769492865 244577.41945445538 0 0 0 0 -11401450.068584442 1828374.5935809314 0 1828374.5935809314 2276298.731823951 0 0 0 0 -11274431.153999329 -1306754.7689504027 0 -1306754.7689504027 -1268743.8428742997 0 0 0 0 -11339118.496368408 1761538.0637524128 0 1761538.0637524128 1931575.7594671249 0 0 0 0 -17429759.260211945 1038487.575838387 0 1038487.575838387 1978340.3142591715 0 0 0 0 -8722190.0686740875 1019848.1816101074 0 1019848.1816101074 60465.235210597515 0 0 0 0 -11990863.279891968 37986184.086239994 0 37986184.086239994 -22247975.60485673 0 0 0 0 -22345034.430763245 23879499.002020001 0 23879499.002020001 32375211.024362981 0 0 0 0 -2926012.6093533998 163019.25304240175 0 163019.25304240175 371755.20430938131 0 0 0 0 -1738837.663860321 35036383.963574082 0 35036383.963574082 8803533.4127850533 0 0 0 0 490671.2716293335 32709930.593849301 0 32709930.593849301 5072077.6049206257 0 0 0 0 4015478.6912117004 35355496.091105461 0 35355496.091105461 6767252.3668239117 0 0 0 0 2341175.3423309326 36981733.918784291 0 36981733.918784291 8260956.9042197838 0 0 0 0 -6838577.2563643456 -13727090.718974281 0 -13727090.718974281 5170063.8277011514 0 0 0 0 -1633274.3016185891 -319467.82813373767 0 -319467.82813373767 873102.15282781445 0 0 0 0 -8456340.3901453018 627329.06063899398 0 627329.06063899398 464166.83554124832 0 0 0 0 -14790207.472160339 1194754.9417222142 0 1194754.9417222142 1629060.7065581083 0 0 0 0 -3159164.1773861558 58936.031908931211 0 58936.031908931211 111388.27887856786 0 0 0 0 -6819626.1741092475 1861547.2233053234 0 1861547.2233053234 -402847.86876418657 0 0 0 0 -4846730.0148792267 -4220966.793253541 0 -4220966.793253541 1893250.7605285645 0 0 0 0 -6727675.8948879242 2161256.2502003908 0 2161256.2502003908 -277454.15688407421 0 0 0 0 -8315671.6735258102 952704.48925173283 0 952704.48925173283 -1134660.46375072 0 0 0 0 -3946358.1305823755 -216156.75966879551 0 -216156.75966879551 243855.57954370251 0 0 0 0 -15808413.120780945 -5846796.1430223733 0 -5846796.1430223733 29418121.557368934 0 0 0 0 -1750549.3714084625 587560.96801310778 0 587560.96801310778 1766909.1653421968 0 0 0 0 -2826217.4080148805 500112.14248651173 0 500112.14248651173 -88805.814168033379 0 0 0 0 -3226659.0609066561 1246838.4770423672 0 1246838.4770423672 -192888.11904234049 0 0 0 0 -1613889.9350738525 181190.33224761486 0 181190.33224761486 1423990.7176554948 0 0 0 0 -3868723.0960529996 690666.18035163707 0 690666.18035163707 -397871.2770606532 0 0 0 0 -9199957.2590339184 9424031.7960141748 0 9424031.7960141748 1329314.4417588711 0 0 0 0 -20413230.523468018 12870581.931675613 0 12870581.931675613 41183487.689615443 0 0 0 0 2802812.0649983883 9975958.9827487394 0 9975958.9827487394 22231746.746446133 0 0 0 0 -39869038.568500519 26306682.332184911 0 26306682.332184911 15982467.732805401 0 0 0 0 -35577026.809673309 -4141834.4248662591 0 -4141834.4248662591 22653623.128002703 0 0 0 0 -1773716.2908668518 -1671408.5021592081 0 -1671408.5021592081 21119587.474231184 0 0 0 0 -8547626.9526367188 -17248787.436456531 0 -17248787.436456531 -1944520.4125347137 0 0 0 0 -16627167.238456726 -14674965.994006485 0 -14674965.994006485 -1654350.844193697 0 0 0 0 -42035470.154598236 -41649159.851062983 0 -41649159.851062983 -18731168.803021431 0 0 0 0 -5762015.3796329498 30248245.872934781 0 30248245.872934781 -15615515.081000924 0 0 0 0 -23154317.237312317 884290.63689467311 0 884290.63689467311 13984024.290311694 0 0 0 0 -99412339.326282501 11915254.407805264 0 11915254.407805264 13224921.609451681 0 0 0 0 -30395657.969215393 50087483.277220398 0 50087483.277220398 -55827381.729735494 0 0 0 0 -9239553.1039009094 15770864.163618803 0 15770864.163618803 -7307685.2883147299 0 0 0 0 -463416.81886291504 -5155447.2184498608 0 -5155447.2184498608 -31592275.510843515 0 0 0 0 -96057285.299272537 37325654.552121669 0 37325654.552121669 -14574243.470496416 0 0 0 0 -24876.740004027262 17220.025839793496 0 17220.025839793496 -148275.42568637116 0 0 0 0 -1899289.8374061584 -5879232.4826057553 0 -5879232.4826057553 -5869249.8538736701 0 0 0 0 -46331447.327581406 -35883044.002273172 0 -35883044.002273172 46330962.618390679 0 0 0 0 -99495544.887584686 31044416.678983271 0 31044416.678983271 -22592011.409821052 0 0 0 0 31395771.718536377 -2961523.5655703545 0 -2961523.5655703545 -20648224.511322379 0 0 0 0 162441.55310596898 -334963.06146840501 0 -334963.06146840501 -63982.310880780969 0 0 0 0 9985721.2717628479 1462183.3796130419 0 1462183.3796130419 -6808127.3474824801 0 0 0 0 -44926817.116786957 25275019.170910433 0 25275019.170910433 117056225.60498391 0 0 0 0 -777422.54121017456 -406755.54162028432 0 -406755.54162028432 -2304687.6105824113 0 0 0 0 8165311.6779842377 -10076257.24540282 0 -10076257.24540282 2322750.4551613331 0 0 0 0 7683016.5771636963 -8366157.9269965291 0 -8366157.9269965291 -3727522.986297369 0 0 0 0 -4796877.5128555298 -22242943.312714934 0 -22242943.312714934 -17840947.419614315 0 0 0 0 -10035323.143553734 -16582241.901583552 0 -16582241.901583552 11396566.651168287 0 0 0 0 449180.34184265137 -12077440.224595606 0 -12077440.224595606 12039658.710530661 0 0 0 0 -4281114.1439905651 -1084251.7750276253 0 -1084251.7750276253 -352971.54522580554 0 0 0 0 -3651433.9727031989 -1142803.9197983877 0 -1142803.9197983877 -345005.88113778923 0 0 0 0 -126776571.93480444 -46250585.244045787 0 -46250585.244045787 -15790222.787548214 0 0 0 0 -260957324.75983477 167088288.92776111 0 167088288.92776111 -48190652.53273803 0 0 0 0 -302865.11842516996 -674459.28371342947 0 -674459.28371342947 -58723.668456944986 0 0 0 0 -61917232.09526062 67651332.495693564 0 67651332.495693564 -26397004.214983463 0 0 0 0 -599670586.70581818 68169315.873827457 0 68169315.873827457 186120430.04098588 0 0 0 0 -944964144.45571136 252138400.58853355 0 252138400.58853355 146566113.81226853 0 0 0 0 -600068444.74974632 82823905.688882306 0 82823905.688882306 57950843.792643875 0 0 0 0 -302252989.81935883 105330124.39469633 0 105330124.39469633 -20748569.78074263 0 0 0 0 -594694462.0258503 252891562.54815462 0 252891562.54815462 76553482.080814242 0 0 0 0 -943762942.87386131 507249033.33939838 0 507249033.33939838 -79930868.80399397 0 0 0 0 -473338602.96662426 361327525.71983588 0 361327525.71983588 -153209102.63482681 0 0 0 0 -375654503.64843941 243454820.39851636 0 243454820.39851636 -148840457.35227066 0 0 0 0 -2974199.5085788248 -931008.42155943392 0 -931008.42155943392 -329366.33289766737 0 0 0 0 672975.15182669275 -1423502.8031623401 0 -1423502.8031623401 -237539.98031270021 0 0 0 0 -89435228.872348785 53824485.468344301 0 53824485.468344301 120035350.75248346 0 0 0 0 5054718.441245079 -5636638.0108476877 0 -5636638.0108476877 -3081603.4162697792 0 0 0 0 -511245.28656421788 -960433.69868878054 0 -960433.69868878054 -251667.14920384329 0 0 0 0 -372598902.07102013 654343107.75960147 0 654343107.75960147 -732172038.6102773 0 0 0 0 63396309.016357422 -235822922.79405379 0 -235822922.79405379 -420927937.07669413 0 0 0 0 -939659715.73059464 -1033830.4427166849 0 -1033830.4427166849 612467.52930126339 0 0 0 0 -340893.16140126809 -281020.85964316223 0 -281020.85964316223 -354584.37047835795 0 0 0 0 -349204998.49711609 -227887199.06084466 0 -227887199.06084466 4189000.0928850174 0 0 0 0 -942847249.36881065 -705503172.27940178 0 -705503172.27940178 -298005320.54950321 0 0 0 0 -431656027.66306877 -269056053.66807306 0 -269056053.66807306 -12930973.860371128 0 0 0 0 -944153394.31607437 -228187633.31278384 0 -228187633.31278384 99054652.026702344 0 0 0 0 -317098198.89754677 -120186880.89950791 0 -120186880.89950791 -16369536.680922385 0 0 0 0 -254502107.05828857 -151161011.79174584 0 -151161011.79174584 -49380432.513356254 0 0 0 0 -187325893.03060913 -234422518.08494851 0 -234422518.08494851 -160856297.05652905 0 0 0 0 32076469.565793991 -18892453.581519507 0 -18892453.581519507 -62356868.434602678 0 0 0 0 29859080.440963745 4048050.3671860993 0 4048050.3671860993 -23976959.885611683 0 0 0 0 -42225973.545009613 10580511.054885235 0 10580511.054885235 -23303255.662570976 0 0 0 0 -12635919.730920792 -6572419.1698130602 0 -6572419.1698130602 -49640885.36498604 0 0 0 0 -220627114.81202316 -136173678.33045793 0 -136173678.33045793 -84465659.634279698 0 0 0 0 -322539701.59414291 -53733796.642435372 0 -53733796.642435372 -874789.00726559758 0 0 0 0 -119819441.1808815 -77867530.996839553 0 -77867530.996839553 -20576046.905399829 0 0 0 0 -252789018.2371788 -58324749.209407017 0 -58324749.209407017 11923043.760769978 0 0 0 0 -47389207.337511063 47562331.942682393 0 47562331.942682393 -49215812.004984528 0 0 0 0 -147075835.96291733 24449790.215717401 0 24449790.215717401 -10281545.359936312 0 0 0 0 -336473883.1176796 -6392298.7203353792 0 -6392298.7203353792 -714474.97374418378 0 0 0 0 -182282545.04070663 -53729017.329108506 0 -53729017.329108506 -24267405.356507659 0 0 0 0 -428945595.37255096 -101165667.65060797 0 -101165667.65060797 -17947797.95808436 0 0 0 0 -447832364.33016777 -102638056.71729177 0 -102638056.71729177 6241305.4011165649 0 0 0 0 -435676095.40577316 -110939916.37293686 0 -110939916.37293686 4700266.3565340415 0 0 0 0 -316396629.88979149 -63152939.677488714 0 -63152939.677488714 5447141.5470992923 0 0 0 0 -462212983.45703793 -199129753.33076793 0 -199129753.33076793 -109387304.23740704 0 0 0 0 -416835852.95914078 -70938061.103385299 0 -70938061.103385299 53517132.215982869 0 0 0 0 -944905822.450634 -408339763.85498166 0 -408339763.85498166 -161013685.93169314 0 0 0 0 -1379554.5727757998 -61511.377935932018 0 -61511.377935932018 148744.08956058751 0 0 0 0 -464895032.28754807 -114032509.12485415 0 -114032509.12485415 89829466.729176879 0 0 0 0 -471691796.81142807 -150639561.9061085 0 -150639561.9061085 38840493.626400247 0 0 0 0 -426101009.7755928 -129106516.94545251 0 -129106516.94545251 46357540.830521151 0 0 0 0 -281041141.47231674 259990646.52863619 0 259990646.52863619 -112473026.95409879 0 0 0 0 -489742386.78949642 383655338.61709571 0 383655338.61709571 -178563314.52106118 0 0 0 0 -312135733.61976147 205953068.02071717 0 205953068.02071717 -120165405.52932668 0 0 0 0 -103290872.12371063 103970722.4305135 0 103970722.4305135 -186481146.86858812 0 0 0 0 -174708821.26182556 306657149.86088026 0 306657149.86088026 -340536579.76696777 0 0 0 0 -570818229.41079044 299823140.03044462 0 299823140.03044462 -58305888.200681105 0 0 0 0 -943665017.4320097 569399601.60829854 0 569399601.60829854 -198941459.41793105 0 0 0 0 -509347567.5813818 286811692.01797873 0 286811692.01797873 -55564679.994412214 0 0 0 0 -742319207.3452673 309685823.55346942 0 309685823.55346942 -231219.02793937013 0 0 0 0 -521469747.25936604 267935820.31486878 0 267935820.31486878 -64842103.882159576 0 0 0 0 -358838290.27057171 126657157.96740143 0 126657157.96740143 -75924931.41542384 0 0 0 0 -336499521.13622093 170659610.21897349 0 170659610.21897349 -89256875.684131444 0 0 0 0 -85614745.634929657 116133583.26293877 0 116133583.26293877 -138469391.01653337 0 0 0 0 -172819005.3220396 81023669.993769497 0 81023669.993769497 -101299866.80657893 0 0 0 0 -173492347.29414463 167818624.03434458 0 167818624.03434458 -152471198.16032687 0 0 0 0 -59127179.403666496 100600478.87019932 0 100600478.87019932 -85386850.248886794 0 0 0 0 -78529013.787275314 86985028.816094935 0 86985028.816094935 -94642169.416773528 0 0 0 0 -1967561.6719995085 146773.35439014737 0 146773.35439014737 751620.5215727014 0 0 0 0 -62974143.2108531 19765890.640422463 0 19765890.640422463 -50088907.100468367 0 0 0 0 -688374.22859954834 -296420.69478470087 0 -296420.69478470087 462975.96789503098 0 0 0 0 -882452.8031835556 -340227.88517549634 0 -340227.88517549634 1180221.8550745249 0 0 0 0 -1472887.1670875624 -180429.30349993799 0 -180429.30349993799 415900.01970412524 0 0 0 0 -448986.00573702483 -131196.77379375137 0 -131196.77379375137 347021.93140203168 0 0 0 0 4678402.3638763428 106024686.85223752 0 106024686.85223752 -181205160.00217831 0 0 0 0 -161059116.24444485 98987851.265218407 0 98987851.265218407 -62239114.77714622 0 0 0 0 -7265135.3303718567 -6334827.1320348382 0 -6334827.1320348382 6583730.5811755061 0 0 0 0 -2444328.8595606596 -135095.7745521178 0 -135095.7745521178 342799.90502024745 0 0 0 0 3251140.4857444763 -3634769.4373964611 0 -3634769.4373964611 -9932702.326206319 0 0 0 0 6845978.9460926056 27817508.89584139 0 27817508.89584139 20336577.447190505 0 0 0 0 -50795.466113991104 -107788.50158540829 0 -107788.50158540829 -8869.9768956355092 0 0 0 0 -3595535.3947257996 -31691.808539213613 0 -31691.808539213613 -3637452.9817171637 0 0 0 0 -6327694.0425605774 -7568049.3302828074 0 -7568049.3302828074 2602836.2873123884 0 0 0 0 37186.953466892242 5502020.7892412031 0 5502020.7892412031 8906114.4757108092 0 0 0 0 19697343.571320534 11711968.597053643 0 11711968.597053643 -7853518.7297924608 0 0 0 0 -35064172.050048828 -10192844.819537111 0 -10192844.819537111 7675017.4653290641 0 0 0 0 -1195523.8734808564 910.05253575625829 0 910.05253575625829 229205.10926651739 0 0 0 0 17927549.381859556 -5124463.7068930501 0 -5124463.7068930501 335992.69542044029 0 0 0 0 -355560.74265708216 79777.457617991604 0 79777.457617991604 382884.46185837436 0 0 0 0 1453656.1365852356 -9837831.6828547716 0 -9837831.6828547716 32462866.766135901 0 0 0 0 18533330.034068108 34612492.362985857 0 34612492.362985857 18404896.280255087 0 0 0 0 4264201.041929245 28298437.494995039 0 28298437.494995039 24573121.542822491 0 0 0 0 985548.20176267624 42876311.439663805 0 42876311.439663805 29830831.291705891 0 0 0 0 -10073485.268543243 24026777.237925105 0 24026777.237925105 24491365.230041578 0 0 0 0 -8020938.7441997528 31034769.330712333 0 31034769.330712333 -6843503.9617717713 0 0 0 0 -28765530.191013336 23892290.401946999 0 23892290.401946999 29991399.849147618 0 0 0 0 41999.744735717773 4883309.8580109328 0 4883309.8580109328 38775529.707597643 0 0 0 0 -137716.22848899104 -452399.2659708407 0 -452399.2659708407 -39395.81793752651 0 0 0 0 2484260.9276032448 -3218817.2374236514 0 -3218817.2374236514 39692.456107452512 0 0 0 0 -4423614.5279159546 46708770.884788856 0 46708770.884788856 117469137.12147254 0 0 0 0 -296965436.42970848 249582670.55596006 0 249582670.55596006 -279046918.75439882 0 0 0 0 -2044990.1088493681 264998.93804196897 0 264998.93804196897 342479.11192880501 0 0 0 0 -3744455.2728061676 2668208.2494815923 0 2668208.2494815923 5360604.0860488117 0 0 0 0 -166991029.8043623 560948675.90748382 0 560948675.90748382 -936240099.51846886 0 0 0 0 -630382.66088756546 243274.82623785408 0 243274.82623785408 27342.214513405477 0 0 0 0 -933846842.60850525 -457647.01341366605 0 -457647.01341366605 820362.99035500514 0 0 0 0 -429626.65199921466 75738.534919969825 0 75738.534919969825 72410.524357139497 0 0 0 0 -683475685.75805283 -551933421.17035747 0 -551933421.17035747 -227010723.10965803 0 0 0 0 -943629230.28575611 -525116545.84376764 0 -525116545.84376764 -197457163.56665087 0 0 0 0 -1893302.5940570831 -51174420.528548792 0 -51174420.528548792 -30239208.789522838 0 0 0 0 -644375.07654876448 78044.749245983083 0 78044.749245983083 52187.050212496921 0 0 0 0 124463595.29819107 33031592.504319459 0 33031592.504319459 -49505136.151190266 0 0 0 0 -923019005.80874825 -476061616.98640198 0 -476061616.98640198 -202539298.95625341 0 0 0 0 -504545669.49057198 -265962018.07269377 0 -265962018.07269377 -111277326.99821529 0 0 0 0 -1488986.3768151421 333982.80315061193 0 333982.80315061193 -87274.865363857461 0 0 0 0 -487224298.96946597 -175167049.2426559 0 -175167049.2426559 -66500988.315738648 0 0 0 0 -945129105.87786961 -254091290.18244824 0 -254091290.18244824 91096976.250471964 0 0 0 0 -631706644.27640915 -110513279.32838148 0 -110513279.32838148 133413561.99431327 0 0 0 0 -583803230.16603851 -108810173.76231825 0 -108810173.76231825 131098146.83060701 0 0 0 0 -569341487.79731035 -133359679.15013543 0 -133359679.15013543 42145567.481598079 0 0 0 0 -306825855.24703598 19690557.299939126 0 19690557.299939126 54949244.012098953 0 0 0 0 -571699879.65871286 -3227992.730687052 0 -3227992.730687052 87332512.337731838 0 0 0 0 -944646593.29092216 51307821.03227742 0 51307821.03227742 195210460.48704022 0 0 0 0 -2661722.4032897949 35858387.945306651 0 35858387.945306651 -7094956.7620435953 0 0 0 0 -19972241.872808456 -11147157.348464057 0 -11147157.348464057 -23691020.877160341 0 0 0 0 10800596.667303085 -41702611.287922144 0 -41702611.287922144 -14340804.513295352 0 0 0 0 -303163302.27741623 22192201.567411363 0 22192201.567411363 18262431.884349257 0 0 0 0 -230781806.14944267 -55517646.596154511 0 -55517646.596154511 52030835.310440511 0 0 0 0 -230727926.67571044 -54458144.996828005 0 -54458144.996828005 31588525.820246458 0 0 0 0 -173247974.56096458 22202224.27184625 0 22202224.27184625 10157774.789352935 0 0 0 0 1071232.8075749874 9428504.0463734381 0 9428504.0463734381 -2817754.3300167322 0 0 0 0 2628715.9773061574 -24125280.803998396 0 -24125280.803998396 -31203508.975709677 0 0 0 0 -2047258.9268690841 565643.32589037111 0 565643.32589037111 -396569.11430727865 0 0 0 0 -185507167.15352821 -156457896.61954057 0 -156457896.61954057 -70896963.101704389 0 0 0 0 -21842542.879760742 -38364034.432617806 0 -38364034.432617806 -20879100.944972634 0 0 0 0 -29738301.446074009 -21226257.621100437 0 -21226257.621100437 56485573.692166775 0 0 0 0 7444830.8757042885 27306440.707047377 0 27306440.707047377 57786895.665822126 0 0 0 0 39563808.053157806 3870444.9173222035 0 3870444.9173222035 -29164111.323442813 0 0 0 0 -3678587.874525547 13022389.253884211 0 13022389.253884211 27560945.184400797 0 0 0 0 1713252.7696094513 9239796.4588660598 0 9239796.4588660598 7978511.2979690246 0 0 0 0 -2334193.6598949432 14559275.010232419 0 14559275.010232419 22438181.963164851 0 0 0 0 -2562638.2362327576 24446839.014312431 0 24446839.014312431 33857223.740604036 0 0 0 0 39887.414015950635 -22608.704312586226 0 -22608.704312586226 -72128.52109927655 0 0 0 0 -765094.36745834351 10874191.983941004 0 10874191.983941004 26592367.032309294 0 0 0 0 -8984174.3815975189 2036727.9481489602 0 2036727.9481489602 8446533.038444072 0 0 0 0 -11754011.838265181 15863249.766284168 0 15863249.766284168 31573690.996440429 0 0 0 0 -5304091.4362077713 -1078699.2928355336 0 -1078699.2928355336 -13362866.882496476 0 0 0 0 -20496199.420949936 3304915.550502657 0 3304915.550502657 15557176.962351317 0 0 0 0 -2272745.8542480469 4281236.5025163889 0 4281236.5025163889 6040620.3213231862 0 0 0 0 -3295129.2319793701 6936700.4172786772 0 6936700.4172786772 5579072.6612574458 0 0 0 0 -573516.01503181458 2044062.2827940285 0 2044062.2827940285 -3339737.7066255212 0 0 0 0 -2995064.2816541679 558734.87317940779 0 558734.87317940779 -345131.71911302157 0 0 0 0 -1882919.4114532471 2624812.8636175394 0 2624812.8636175394 -8052922.9778879285 0 0 0 0 3273453.047044754 7894020.5732701421 0 7894020.5732701421 -10136362.561587274 0 0 0 0 2360525.7413482666 6194129.7402507067 0 6194129.7402507067 -11045106.765099227 0 0 0 0 1312297.2198224068 4044991.1959731877 0 4044991.1959731877 -11814528.08188343 0 0 0 0 6701256.6131286621 6469902.6226971149 0 6469902.6226971149 -11309103.403342396 0 0 0 0 -9731463.0514011383 13514485.743067861 0 13514485.743067861 -16423129.478462443 0 0 0 0 -32696485.489866257 13275182.641675532 0 13275182.641675532 976104.60675132275 0 0 0 0 -14708724.834671974 7276408.5674902499 0 7276408.5674902499 4548639.9273271561 0 0 0 0 9650836.3035049438 6295737.9588646889 0 6295737.9588646889 4072754.1006860733 0 0 0 0 -43436917.265167713 -7810419.9019073546 0 -7810419.9019073546 4177917.5883743763 0 0 0 0 -19524071.836930275 -3277949.418146193 0 -3277949.418146193 8910801.6708812714 0 0 0 0 -9594799.0232095718 1791085.7475682199 0 1791085.7475682199 -2864395.2795417309 0 0 0 0 -1793121.7908397317 8741012.6656885538 0 8741012.6656885538 13618701.232590199 0 0 0 0 -459053.4763149824 115425.90481850225 0 115425.90481850225 238909.83188095095 0 0 0 0 -7410063.8982658386 1124681.113920629 0 1124681.113920629 1178022.41382581 0 0 0 0 -6714539.3931977749 3119775.8697904497 0 3119775.8697904497 4020479.8224077225 0 0 0 0 -5672612.3967211246 954016.62120804191 0 954016.62120804191 121843.29911756516 0 0 0 0 -821218.44357575011 -135008.91913531348 0 -135008.91913531348 -65711.185587581713 0 0 0 0 -6114930.381729126 2616922.1557277143 0 2616922.1557277143 4959911.2399560809 0 0 0 0 -6134867.3022594452 3710693.7885635495 0 3710693.7885635495 3314139.3219479322 0 0 0 0 -3232320.2074956894 4898054.2656426728 0 4898054.2656426728 3809977.6314781904 0 0 0 0 -11492401.692064762 18214264.934647143 0 18214264.934647143 -66785.302959434688 0 0 0 0 -12739603.408256531 18835648.891079545 0 18835648.891079545 3861084.4594665542 0 0 0 0 -14384585.793165207 18731211.252330549 0 18731211.252330549 4755040.1786544062 0 0 0 0 -14253253.888151169 11776448.970128089 0 11776448.970128089 14693341.063092902 0 0 0 0 -14830265.736215115 8173831.0089074364 0 8173831.0089074364 -5521408.1831579432 0 0 0 0 -13556666.686849952 1246961.9531504698 0 1246961.9531504698 2867525.0999623537 0 0 0 0 -13768610.290464759 2898564.2457085885 0 2898564.2457085885 57829.175837993622 0 0 0 0 -12118006.948962212 440088.60668313503 0 440088.60668313503 2640658.6539684683 0 0 0 0 -13078246.315538406 1458087.9409038424 0 1458087.9409038424 2732788.0442691259 0 0 0 0 -17660892.897573471 -3270235.364968583 0 -3270235.364968583 1920379.2161631584 0 0 0 0 -16064071.386558533 83716.863278627396 0 83716.863278627396 6192442.2408668995 0 0 0 0 -11550465.639269829 -152359.36029396951 0 -152359.36029396951 2610608.3015481234 0 0 0 0 -13809809.700616837 -8232438.2401622534 0 -8232438.2401622534 -6020899.1287552118 0 0 0 0 -2601490.706169039 54073.094927643426 0 54073.094927643426 -942644.21657180786 0 0 0 0 -3307734.3357429504 10227955.644025356 0 10227955.644025356 30165515.203606933 0 0 0 0 1922857.2994194031 -7050194.747050643 0 -7050194.747050643 19783946.015662566 0 0 0 0 -129415.84511701204 -126668.11580271157 0 -126668.11580271157 8337.8894556106534 0 0 0 0 -2638825.9276641905 -4000379.0755940592 0 -4000379.0755940592 1411679.9140137434 0 0 0 0 -1063069.2903842926 -326822.2009524703 0 -326822.2009524703 519874.04642814398 0 0 0 0 -1031616.6438179016 -30537.562385559082 0 -30537.562385559082 519309.59595990181 0 0 0 0 -828964.45178446686 -330703.36376169883 0 -330703.36376169883 483441.05560043833 0 0 0 0 -2068305.0979614258 369226.27128964663 0 369226.27128964663 -113207.86491911113 0 0 0 0 -217708.59925283142 -69824.586436057463 0 -69824.586436057463 25991.957316380402 0 0 0 0 -5576948.7432641983 -1371257.9567903876 0 -1371257.9567903876 1044602.405937016 0 0 0 0 -12468805.956190109 -1511401.7266278267 0 -1511401.7266278267 3575836.4512224197 0 0 0 0 -797466.2099571228 -40111.612468004227 0 -40111.612468004227 467860.33063733578 0 0 0 0 -1483825.9026445858 -436382.36298969539 0 -436382.36298969539 648212.35648393119 0 0 0 0 -853298.55366706848 -468505.30649960041 0 -468505.30649960041 800829.40451216698 0 0 0 0 -15685096.471967697 8661504.8862189054 0 8661504.8862189054 -16543782.236400619 0 0 0 0 1694776.307276845 -534613.32075120509 0 -534613.32075120509 -2435971.4873447418 0 0 0 0 66531.173587223981 -102827.77017914411 0 -102827.77017914411 123230.02819577407 0 0 0 0 -1380229.8637686973 -347587.77196697332 0 -347587.77196697332 431990.84178070934 0 0 0 0 -11921574.507871628 2955294.5110225677 0 2955294.5110225677 537327.14429450035 0 0 0 0 -12276923.856513977 3428928.5977848768 0 3428928.5977848768 1043850.4703968763 0 0 0 0 -10549605.787853241 380818.47777348757 0 380818.47777348757 -524637.01051568985 0 0 0 0 -14654312.598396301 1548962.6961742043 0 1548962.6961742043 2524994.1079936028 0 0 0 0 -12227215.178705692 1952026.8814316392 0 1952026.8814316392 3290794.9518778324 0 0 0 0 -12708325.157636166 1118950.149147898 0 1118950.149147898 2198055.2680518627 0 0 0 0 -10098329.840655327 2022306.9899593592 0 2022306.9899593592 331290.5960381031 0 0 0 0 4200157.3634910583 5889113.3416112065 0 5889113.3416112065 -2025800.7378201634 0 0 0 0 -7440656.3917245865 6830898.1307837367 0 6830898.1307837367 5201376.6775817275 0 0 0 0 -10154167.359467506 1303297.0279825926 0 1303297.0279825926 1147231.4549181312 0 0 0 0 -9404479.3615875244 2637110.2116047144 0 2637110.2116047144 1590064.4379669726 0 0 0 0 -3024672.8042430878 3547526.0839025974 0 3547526.0839025974 -2592857.3873244226 0 0 0 0 -710117.28796005249 -76842.745696306229 0 -76842.745696306229 -1933950.3303910494 0 0 0 0 -3983963.993929863 -2354820.072090745 0 -2354820.072090745 -3250777.1347423792 0 0 0 0 -5236298.0339422226 92094.072048246861 0 92094.072048246861 -778209.62302494049 0 0 0 0 4013312.5951213837 -1724375.4285293818 0 -1724375.4285293818 -7928989.8178333044 0 0 0 0 3694825.6766095161 16864477.109591648 0 16864477.109591648 -13305404.844627917 0 0 0 0 5128096.9064142704 -623455.94061367214 0 -623455.94061367214 -38091066.785147309 0 0 0 0 8354745.3551282883 10430384.216415286 0 10430384.216415286 -4581833.1706471592 0 0 0 0 -2908874.1554038525 29562228.687719151 0 29562228.687719151 34498600.503010213 0 0 0 0 -3638305.584810257 21327640.291881032 0 21327640.291881032 -11250707.967954315 0 0 0 0 -11060482.230307102 2303357.8399195373 0 2303357.8399195373 3866560.099830389 0 0 0 0 -151524.68366348371 -67302.818660367746 0 -67302.818660367746 172233.31055323983 0 0 0 0 -10686043.443922997 3279793.2590919435 0 3279793.2590919435 -772036.08104193211 0 0 0 0 -13262947.675737381 986585.8138410151 0 986585.8138410151 2872874.1271952093 0 0 0 0 -15842812.475503922 2967195.7428370491 0 2967195.7428370491 2552019.3280974254 0 0 0 0 -17330749.747605324 7705390.895623181 0 7705390.895623181 -1773959.6014830936 0 0 0 0 -259707.9994571642 -109969.44340486638 0 -109969.44340486638 302801.24900364631 0 0 0 0 -19172247.781434536 7954941.9030164126 0 7954941.9030164126 17505482.641859502 0 0 0 0 -21892344.50316143 17010143.013732314 0 17010143.013732314 1222859.037645977 0 0 0 0 -13838686.854185104 -999261.80464717746 0 -999261.80464717746 4708964.0343800224 0 0 0 0 -14329126.328645706 -654609.81555985659 0 -654609.81555985659 14036086.193107009 0 0 0 0 -157657.84891341906 -69522.387217064388 0 -69522.387217064388 179777.28901418718 0 0 0 0 -16649405.577967644 -713033.79619906843 0 -713033.79619906843 16434404.809060276 0 0 0 0 -8908246.1549358368 8177876.7341618538 0 8177876.7341618538 14807428.521747485 0 0 0 0 -10683114.599914074 2428475.3260641396 0 2428475.3260641396 3223117.0019254684 0 0 0 0 -10770016.404648304 3117305.7365439236 0 3117305.7365439236 8760104.3399556875 0 0 0 0 -6934476.5794429779 4784716.0118057132 0 4784716.0118057132 2025303.7921768427 0 0 0 0 -6460492.2461419106 1011687.4313544892 0 1011687.4313544892 972302.29480513185 0 0 0 0 -10607360.486655712 1647122.2454262078 0 1647122.2454262078 6826664.8522963524 0 0 0 0 -1475031.2741178428 808477.82337684347 0 808477.82337684347 500292.00698039006 0 0 0 0 -12998190.635830879 6980951.5145951472 0 6980951.5145951472 -272504.54396265931 0 0 0 0 -4295820.0097761154 -8484852.021671623 0 -8484852.021671623 16905779.413913518 0 0 0 0 -7227216.337264061 -2030892.870300144 0 -2030892.870300144 9304267.3506043851 0 0 0 0 -15125022.253354073 11056901.045904236 0 11056901.045904236 -206605.99313630164 0 0 0 0 -685115.34031000268 410857.24481391883 0 410857.24481391883 342594.26972377009 0 0 0 0 -7405371.0578460693 1308805.9685881585 0 1308805.9685881585 14095965.771127842 0 0 0 0 -7640787.5312671661 -159804.13011410832 0 -159804.13011410832 6288878.5834593922 0 0 0 0 2429651.486553669 -17592850.670361631 0 -17592850.670361631 50022842.326131053 0 0 0 0 -46890549.399922371 -4560662.1945315301 0 -4560662.1945315301 52763824.249232411 0 0 0 0 -9535720.4551548958 30973009.163710259 0 30973009.163710259 33054832.456287399 0 0 0 0 7099987.6391887665 25530109.131263681 0 25530109.131263681 -2899091.5799072906 0 0 0 0 -230232.18232608261 115049.20903993468 0 115049.20903993468 156906.48605539656 0 0 0 0 -5232424.1809215546 6169673.6942669041 0 6169673.6942669041 -2107349.3503345298 0 0 0 0 -3948381.893232584 10824273.884287689 0 10824273.884287689 14764656.399466645 0 0 0 0 -2232188.3668928146 -3920848.4190293141 0 -3920848.4190293141 13832633.008414656 0 0 0 0 -5178414.214389801 4857785.1999818403 0 4857785.1999818403 9053305.1216640063 0 0 0 0 -18363183.296668947 5858348.9363697842 0 5858348.9363697842 -4945930.5987863541 0 0 0 0 -38564859.264030457 16705398.768929526 0 16705398.768929526 -1131573.612010261 0 0 0 0 -203377.38620612398 57216.140958165517 0 57216.140958165517 32685.638586945199 0 0 0 0 1431698.3451354504 -28039056.186048288 0 -28039056.186048288 18858734.032923959 0 0 0 0 -15390212.669007301 -12441727.058789119 0 -12441727.058789119 14442882.042896498 0 0 0 0 -24568672.923784256 18093313.583302304 0 18093313.583302304 58550062.640767694 0 0 0 0 -16873.009394090623 42718.431286626379 0 42718.431286626379 -15426.586860214971 0 0 0 0 -31182747.022822231 -28835916.443601917 0 -28835916.443601917 2673744.5477581322 0 0 0 0 -34284644.868712425 11219604.364876509 0 11219604.364876509 18193370.6347 0 0 0 0 -39266566.239875793 -7249509.8903066665 0 -7249509.8903066665 31159914.263467818 0 0 0 0 -26909872.579585314 -14515378.734083988 0 -14515378.734083988 17591353.185925364 0 0 0 0 -39942144.297722578 10069595.960651685 0 10069595.960651685 21328762.2679331 0 0 0 0 -47891545.77732563 38722117.283160925 0 38722117.283160925 -30771648.696234666 0 0 0 0 -18771027.254703045 -6727647.9789708257 0 -6727647.9789708257 -34379212.393016398 0 0 0 0 -24234383.635176659 -26419647.941935599 0 -26419647.941935599 21783563.720873505 0 0 0 0 7329508.135643959 45515918.076470315 0 45515918.076470315 -25265309.352427125 0 0 0 0 -280242.19264411973 -87527.878729122691 0 -87527.878729122691 -11313.26503632305 0 0 0 0 -12509020.2487216 -7336229.4730503559 0 -7336229.4730503559 -5875433.1183897257 0 0 0 0 -3608285.7226991653 1251711.5151984692 0 1251711.5151984692 -1761168.5046144128 0 0 0 0 -3180698.9151325226 138097.54292523861 0 138097.54292523861 -1057116.3895398378 0 0 0 0 -2450606.2625265121 690638.5955671072 0 690638.5955671072 -1489342.9403520823 0 0 0 0 -2362225.1733019352 303531.16540835798 0 303531.16540835798 -205386.60619401932 0 0 0 0 -2304970.0103187561 653846.32195019722 0 653846.32195019722 -129376.86906337738 0 0 0 0 -961217.90192585066 -265844.51900372282 0 -265844.51900372282 28285.510041654343 0 0 0 0 -33639123.815776348 51027628.974143863 0 51027628.974143863 -59196032.989569306 0 0 0 0 -25805713.634210587 19279668.336278617 0 19279668.336278617 -22221496.940795742 0 0 0 0 -89396515.418057442 21717813.130812228 0 21717813.130812228 -4937016.7880756855 0 0 0 0 -53842335.207757473 1163967.2462209463 0 1163967.2462209463 -57823054.885216475 0 0 0 0 -38720185.955156326 9581431.300486505 0 9581431.300486505 -2041490.8968412876 0 0 0 0 -44481618.787985802 33296275.66798991 0 33296275.66798991 -22666947.810282588 0 0 0 0 -859530.36591053009 -456601.2007676363 0 -456601.2007676363 97244.776520967484 0 0 0 0 85948.236426353455 -1422856.7493744791 0 -1422856.7493744791 814604.08183336258 0 0 0 0 1155418.1279625893 -1272005.2951940596 0 -1272005.2951940596 -490154.37523555756 0 0 0 0 -527877.03519773483 -1085433.7795857191 0 -1085433.7795857191 1470055.9032945633 0 0 0 0 399319.57327842712 -855083.16178369522 0 -855083.16178369522 -1207977.6695966721 0 0 0 0 -6821.2824743846431 -10123.148508728715 0 -10123.148508728715 4816.4205843892996 0 0 0 0 381262.69251251221 -758502.55787086487 0 -758502.55787086487 -1721099.1421995163 0 0 0 0 -685069.33244419098 -938247.33147263527 0 -938247.33147263527 1338900.6478304863 0 0 0 0 -10533.211383478018 -334892.4884520846 0 -334892.4884520846 -953778.70253600203 0 0 0 0 -60000233.198064804 10112566.034369588 0 10112566.034369588 -3451280.3930576146 0 0 0 0 -103468115.45686388 11048299.917184651 0 11048299.917184651 -168057.93504929543 0 0 0 0 -102946442.54552174 50171652.357093453 0 50171652.357093453 -26130617.881607056 0 0 0 0 -66499981.181899548 39231044.323949724 0 39231044.323949724 -23287527.772119761 0 0 0 0 -125644684.22248626 15526872.168620303 0 15526872.168620303 -794721.46079087257 0 0 0 0 -241317.67763700243 -88537.297512737568 0 -88537.297512737568 -145710.90051788214 0 0 0 0 -1451850.6904335022 1059850.7586843967 0 1059850.7586843967 48357.635844707489 0 0 0 0 320373.789478302 257184.00887441635 0 257184.00887441635 399906.4767036438 0 0 0 0 -2036101.8397334064 -741566.35001987522 0 -741566.35001987522 -702064.22586189071 0 0 0 0 -2991616.0039768219 1003862.9531382322 0 1003862.9531382322 996906.12311291695 0 0 0 0 -1949343.959318161 518445.12044024467 0 518445.12044024467 -183364.28201293945 0 0 0 0 -2736128.5850744247 932965.57330942154 0 932965.57330942154 137124.88438314199 0 0 0 0 -3645930.1430206299 861319.2853500843 0 861319.2853500843 202556.15942907333 0 0 0 0 -3189243.514330864 324780.10675609112 0 324780.10675609112 960431.73375034332 0 0 0 0 -861679.35606002808 -761003.17551505566 0 -761003.17551505566 885939.09267616272 0 0 0 0 -8524745.8100113869 -3631636.116597414 0 -3631636.116597414 3052986.6408188343 0 0 0 0 -3087578.083320566 22981.12061883579 0 22981.12061883579 -10569.277091136319 0 0 0 0 -182177.8106630696 -875523.3225025211 0 -875523.3225025211 -258828.96660091856 0 0 0 0 -696121.64392185211 -344108.97459185123 0 -344108.97459185123 699181.86055994034 0 0 0 0 325222.58299255371 315060.21968185902 0 315060.21968185902 152409.83742427826 0 0 0 0 259150.17087268829 -4749.6081604957581 0 -4749.6081604957581 499954.17208385468 0 0 0 0 -7909565.975402832 -11329148.021557331 0 -11329148.021557331 -3157874.5057616234 0 0 0 0 63120.428584021516 -748784.00117332791 0 -748784.00117332791 -263323.45537698199 0 0 0 0 1999016.1707804203 422989.08065354824 0 422989.08065354824 -4269583.3730933666 0 0 0 0 -10639738.617423058 -12742761.000433445 0 -12742761.000433445 -1266180.208707571 0 0 0 0 -9616120.6932601929 -9698760.1098842621 0 -9698760.1098842621 -8914039.2033348083 0 0 0 0 345650.3368062973 294047.14352601767 0 294047.14352601767 52872.48991894722 0 0 0 0 475800.12536239624 93903.838985413313 0 93903.838985413313 -644771.05391645432 0 0 0 0 710274.77290964127 -426341.12088066339 0 -426341.12088066339 484701.61409902573 0 0 0 0 19437.479410084561 20693.829585199303 0 20693.829585199303 -3803.1922410398256 0 0 0 0 -709942.18353366852 1230029.1449643373 0 1230029.1449643373 -734638.4169459343 0 0 0 0 -22536.931009292603 360525.67266821861 0 360525.67266821861 364467.38766181469 0 0 0 0 135208.3724861145 683436.49833607674 0 683436.49833607674 -362368.2758333683 0 0 0 0 438187.0749797821 138998.64156544209 0 138998.64156544209 -764980.52618575096 0 0 0 0 478971.12512016296 93839.588077425957 0 93839.588077425957 -715302.1613407135 0 0 0 0 472029.74265289307 210550.99240159988 0 210550.99240159988 -1372294.0018166304 0 0 0 0 -1231498.9007539749 922296.49252855778 0 922296.49252855778 1994050.3386482596 0 0 0 0 -2844178.1333036423 3632970.5855537057 0 3632970.5855537057 -1379069.3207980394 0 0 0 0 -880695.76508808136 -461047.97355175018 0 -461047.97355175018 1593557.4908245206 0 0 0 0 -1113184.2405843735 -714391.62717407942 0 -714391.62717407942 1457203.7129695415 0 0 0 0 -56633.611357291229 -200579.34413895919 0 -200579.34413895919 -579805.75055455905 0 0 0 0 3290528.5795140266 -4582465.782671839 0 -4582465.782671839 3418615.6687128544 0 0 0 0 -4330510.9255276918 -1166771.5548936576 0 -1166771.5548936576 6667178.4476891756 0 0 0 0 -9959735.0373048782 6744849.9754099846 0 6744849.9754099846 874109.91850495338 0 0 0 0 2032181.5508780479 2575104.5176272094 0 2575104.5176272094 -18871151.985927761 0 0 0 0 2591836.8560295105 -424651.66400521994 0 -424651.66400521994 -4152872.8743268251 0 0 0 0 1486079.2246460915 -1230744.7096176147 0 -1230744.7096176147 -3670227.6493324637 0 0 0 0 1004361.9819626808 1046076.6953728646 0 1046076.6953728646 -5047352.7007393837 0 0 0 0 -2476723.147690773 -6106868.5099352859 0 -6106868.5099352859 9121742.2304122746 0 0 0 0 -2473076.036250446 -5605423.761309579 0 -5605423.761309579 135632.83601588011 0 0 0 0 879455.42512893677 -12626058.264337927 0 -12626058.264337927 -7549393.0373470113 0 0 0 0 -7701954.4595878124 10134011.757884342 0 10134011.757884342 -3635294.2147561014 0 0 0 0 -5161998.4482462406 5052240.8923381791 0 5052240.8923381791 -9096735.0341655873 0 0 0 0 -375950.29456673563 -295104.67943785479 0 -295104.67943785479 -26590.517267890249 0 0 0 0 -1721748.2239351273 1261732.3701375276 0 1261732.3701375276 6306211.5357785076 0 0 0 0 -162156.80334002222 -48641.823598229093 0 -48641.823598229093 48967.887137558631 0 0 0 0 -2194713.374382019 -2021484.8741244674 0 -2021484.8741244674 3734490.8202939928 0 0 0 0 -1326582.8657832146 -819155.11336944997 0 -819155.11336944997 614314.77477639914 0 0 0 0 4765981.6669001579 -1012849.2113969326 0 -1012849.2113969326 -2228039.0625710487 0 0 0 0 -886878.93329251371 -827849.53906551865 0 -827849.53906551865 7558.4775970778719 0 0 0 0 2832073.2004261613 53368879.384956963 0 53368879.384956963 -166002482.45008278 0 0 0 0 12531811.538317204 -6423322.9977685511 0 -6423322.9977685511 980042.34197741747 0 0 0 0 -345010.10840180865 329909.14711389318 0 329909.14711389318 -572205.70587622188 0 0 0 0 -135895021.97887897 -128638769.21581927 0 -128638769.21581927 11915377.454523576 0 0 0 0 -242747968.50437737 26316480.655863404 0 26316480.655863404 -121561526.68468618 0 0 0 0 -27118768.890493393 -124943457.58246854 0 -124943457.58246854 -16477300.375264093 0 0 0 0 -2687146.0528416634 -1197789.6797130704 0 -1197789.6797130704 1203370.2912118435 0 0 0 0 -1148877.6558464495 -1169749.1591017582 0 -1169749.1591017582 151925.39511070756 0 0 0 0 -3733880.6277603954 -1120985.5907716881 0 -1120985.5907716881 3123791.7852221727 0 0 0 0 -3652584.5169429779 -3426421.5871565342 0 -3426421.5871565342 6374068.3478726149 0 0 0 0 -955960.34520626068 -1433014.8817258254 0 -1433014.8817258254 -389223.18575458415 0 0 0 0 -2024914.2092443705 -2222026.9023095015 0 -2222026.9023095015 -265083.31157770753 0 0 0 0 -512456.36821079254 -1676190.2482360154 0 -1676190.2482360154 -578516.04313570261 0 0 0 0 -44946.938570149228 -514583.152409993 0 -514583.152409993 -739596.48317044461 0 0 0 0 -315226.9924697876 -1754795.700810045 0 -1754795.700810045 -828247.91758418083 0 0 0 0 1428992.3241891861 -707383.35646998882 0 -707383.35646998882 -1560657.3187455237 0 0 0 0 239990.63728523254 -2804622.9345779419 0 -2804622.9345779419 -121178.27776163816 0 0 0 0 -163386.50410747528 -4422322.0430481434 0 -4422322.0430481434 -4534552.8296990991 0 0 0 0 776449.17587661743 -1162897.8659335971 0 -1162897.8659335971 -3026646.8531396389 0 0 0 0 789805.27833065391 -857714.96559740044 0 -857714.96559740044 -1343841.7015911341 0 0 0 0 1021818.9843988419 -479234.29887038469 0 -479234.29887038469 -1793509.9185459614 0 0 0 0 832411.29103899002 340317.80951525271 0 340317.80951525271 -1809603.1363620758 0 0 0 0 162501.14047575372 -486948.03643095249 0 -486948.03643095249 -758088.93942228076 0 0 0 0 1727000.5597143173 -1033488.6285431832 0 -1033488.6285431832 -1366109.5484106541 0 0 0 0 1212248.7445039749 -961892.24769771099 0 -961892.24769771099 -572370.67313786596 0 0 0 0 1175198.6680107117 -1014893.3666194677 0 -1014893.3666194677 -274393.03446722031 0 0 0 0 160908.75669208169 -1584328.2951511145 0 -1584328.2951511145 -786910.3161611557 0 0 0 0 -604216.31215397059 -243273.75980912265 0 -243273.75980912265 154161.51927042822 0 0 0 0 -25063593.027782679 -6063429.7166764736 0 -6063429.7166764736 -2488959.1783534288 0 0 0 0 -6176222.5219304562 -6956019.7261555195 0 -6956019.7261555195 -7851014.0529501438 0 0 0 0 -20132045.438844442 -7545896.2031309605 0 -7545896.2031309605 -6431695.2562031746 0 0 0 0 -13698859.856809139 -3714984.2688208818 0 -3714984.2688208818 -8983234.8333841562 0 0 0 0 -20018368.379683286 -8083303.7927704155 0 -8083303.7927704155 -5186396.5811142921 0 0 0 0 -17825151.016096294 -11744097.268538177 0 -11744097.268538177 -13957716.215818405 0 0 0 0 -2617410.4648752213 -634135.62016761303 0 -634135.62016761303 2932737.6424584389 0 0 0 0 -233636.3462768296 -67142.756927083014 0 -67142.756927083014 97632.151130533661 0 0 0 0 -13602867.47790575 -4255058.0877338648 0 -4255058.0877338648 2889301.211906475 0 0 0 0 -14241379.535181195 1679881.2781212181 0 1679881.2781212181 -1982805.2471365929 0 0 0 0 -2667897.8743600845 -2217944.321500659 0 -2217944.321500659 1003101.9893903732 0 0 0 0 -1158918.2226970196 -402779.10423457623 0 -402779.10423457623 1147848.5766575933 0 0 0 0 4015960.3577711135 -817804.37386167794 0 -817804.37386167794 -4874501.8960878849 0 0 0 0 -4173141.4928561449 4200784.4524072409 0 4200784.4524072409 -5823913.8032487407 0 0 0 0 -2030064.1430371553 -5348823.2795532569 0 -5348823.2795532569 -7430685.1648528576 0 0 0 0 -22494334.977344275 8832740.4612405598 0 8832740.4612405598 7009892.3889624551 0 0 0 0 -11297101.279598206 -23231799.348443873 0 -23231799.348443873 -3791624.1155955791 0 0 0 0 1068743.5386550426 -2761060.8808863908 0 -2761060.8808863908 1929914.883746244 0 0 0 0 -89496.945891854004 -545034.9612923332 0 -545034.9612923332 -13185.244155700653 0 0 0 0 -2132348.9590599537 -200972.50936040282 0 -200972.50936040282 2724801.5139864087 0 0 0 0 -18739638.372240067 4927671.6217151582 0 4927671.6217151582 988350.80606555939 0 0 0 0 -3920484.8425698131 3988082.1185763478 0 3988082.1185763478 -1508160.1048191786 0 0 0 0 59819.085397477967 97061.5233641261 0 97061.5233641261 -81432.674528758245 0 0 0 0 -79285481.49107331 -15122078.060002029 0 -15122078.060002029 18959401.480430126 0 0 0 0 -34359.737708685338 187842.91872262114 0 187842.91872262114 -44036.417173547088 0 0 0 0 12586773.609469235 -6623274.8258668184 0 -6623274.8258668184 -7358187.4203582406 0 0 0 0 -41100120.396827221 -12167657.472945452 0 -12167657.472945452 -1302176.3925942183 0 0 0 0 -37969301.37461561 3745849.3689767718 0 3745849.3689767718 -11819757.662408352 0 0 0 0 -1947530.3986278474 -475643.66426503658 0 -475643.66426503658 2482300.3563364148 0 0 0 0 602931.67564368248 -851780.67870569229 0 -851780.67870569229 124784.2362511158 0 0 0 0 -1871467.4703662395 2966593.0547629595 0 2966593.0547629595 -363545.1478664875 0 0 0 0 -452221.38225240109 175080.168665612 0 175080.168665612 158230.69141033944 0 0 0 0 5059877.5558290482 -3292424.5608069897 0 -3292424.5608069897 -16285290.880060911 0 0 0 0 -78776.15326061807 280759.05959694722 0 280759.05959694722 -169323.73592714011 0 0 0 0 -50142591.016884506 -6669481.7747958899 0 -6669481.7747958899 6734966.736831665 0 0 0 0 -24298.624683170696 -7993.7204343168996 0 -7993.7204343168996 5829.1367610878078 0 0 0 0 -46302576.917716265 756129.14609384537 0 756129.14609384537 6136005.3066593409 0 0 0 0 -54003829.17019701 -17210278.885106802 0 -17210278.885106802 -10710428.402443409 0 0 0 0 -31167498.034397721 2164561.5589638948 0 2164561.5589638948 -2313652.002655983 0 0 0 0 -39141419.931026518 -18484964.992249012 0 -18484964.992249012 20088499.771854401 0 0 0 0 -73155.00075913711 231245.3649488017 0 231245.3649488017 -226199.82799173146 0 0 0 0 -52731012.110311508 14690344.312085152 0 14690344.312085152 3703568.8531723022 0 0 0 0 -37554825.54758358 -14948063.633058071 0 -14948063.633058071 -7864613.1989052296 0 0 0 0 32557485.663296223 -68343623.368663311 0 -68343623.368663311 26328470.575363159 0 0 0 0 -31846355.473620415 -6066527.5281972885 0 -6066527.5281972885 -2392426.1869573593 0 0 0 0 -34143106.210924625 979902.77806305885 0 979902.77806305885 -1608469.2076525688 0 0 0 0 1472443.3586987257 9373089.0122303963 0 9373089.0122303963 10957331.196006298 0 0 0 0 1728119.508820951 8652642.6268705726 0 8652642.6268705726 4616383.6870093346 0 0 0 0 4505372.1124978065 5774607.1207547188 0 5774607.1207547188 -10680675.833778858 0 0 0 0 10243158.709522724 1123896.4372210503 0 1123896.4372210503 -7140603.5194935799 0 0 0 0 7383205.1434981823 16535040.366756201 0 16535040.366756201 17620949.017966747 0 0 0 0 28880909.590395212 15983880.352843285 0 15983880.352843285 2482106.3877291679 0 0 0 0 -2973181.8723335266 1673262.3817565441 0 1673262.3817565441 18859992.274841189 0 0 0 0 19981875.252369747 -2974000.8817672729 0 -2974000.8817672729 649791.85190105438 0 0 0 0 11765457.304681003 19085762.653518856 0 19085762.653518856 11565056.112225056 0 0 0 0 -1132961.9857069831 597107.49504876183 0 597107.49504876183 850446.10126496281 0 0 0 0 -8250040.2966098785 2308175.0331149101 0 2308175.0331149101 6040127.5628293753 0 0 0 0 -5141344.4179344289 579428.59457116877 0 579428.59457116877 536985.51253722981 0 0 0 0 -6943977.1930990219 1364076.3000190258 0 1364076.3000190258 5488252.834151268 0 0 0 0 -28823879.769890308 -26660302.143721223 0 -26660302.143721223 22904029.293311119 0 0 0 0 -4012073.0937366486 3661384.6441781521 0 3661384.6441781521 3461178.0941381454 0 0 0 0 -2223225.4003305435 2388544.4130089283 0 2388544.4130089283 2063242.2349066734 0 0 0 0 -24656807.417984128 9787077.9020885229 0 9787077.9020885229 1554280.1462044716 0 0 0 0 -22699322.205456138 12016047.974144578 0 12016047.974144578 -88279.418282032013 0 0 0 0 -41886247.46538794 4252888.5510386899 0 4252888.5510386899 3460633.7293901443 0 0 0 0 -26967.85138722201 91090.508384084445 0 91090.508384084445 -47515.510690027848 0 0 0 0 17169337.168920994 20193760.745307922 0 20193760.745307922 -33931461.94248867 0 0 0 0 31570830.360559225 45023492.329433918 0 45023492.329433918 -21595764.019906044 0 0 0 0 -27148928.675521612 528302.00505065918 0 528302.00505065918 -1598590.3732266873 0 0 0 0 -8774395.7809263468 -2462110.0324141383 0 -2462110.0324141383 2980779.5237925053 0 0 0 0 -6898094.4528324604 -6080375.0802559853 0 -6080375.0802559853 -5394851.5522619952 0 0 0 0 -19823634.076550007 -3505178.060353756 0 -3505178.060353756 -5424045.1086606979 0 0 0 0 -11974401.56482856 -12567680.611264944 0 -12567680.611264944 -9988646.1674227715 0 0 0 0 -6991043.3115799427 -10076757.244853735 0 -10076757.244853735 -10047523.084852219 0 0 0 0 -13048870.678112745 -5977124.2150523663 0 -5977124.2150523663 1687967.9030542374 0 0 0 0 -1718344.588265419 -6874771.1203711033 0 -6874771.1203711033 -11484266.498939633 0 0 0 0 -6852184.5257917643 -7756107.8004347086 0 -7756107.8004347086 10916039.105678797 0 0 0 0 -9047108.9227343798 2057594.5455834866 0 2057594.5455834866 16290713.030225039 0 0 0 0 -3155578.0183273554 -3927037.0179812312 0 -3927037.0179812312 597832.01420021057 0 0 0 0 -4389943.6499221642 647712.52729404205 0 647712.52729404205 159631.84536548192 0 0 0 0 11597015.195934772 3280433.4775838852 0 3280433.4775838852 3821093.5918471813 0 0 0 0 -22529785.389821529 9963554.3092286587 0 9963554.3092286587 37958170.114970446 0 0 0 0 -3589364.8425722122 1897354.7169872522 0 1897354.7169872522 2970174.7679224014 0 0 0 0 -2707330.1861906052 1245696.8382533789 0 1245696.8382533789 478754.09680509567 0 0 0 0 -3722488.8285569143 403424.97704684269 0 403424.97704684269 53773.634623137477 0 0 0 0 -3326749.2082901001 1318524.1342875957 0 1318524.1342875957 1915891.3721853495 0 0 0 0 -3104458.6531305313 889215.75970065594 0 889215.75970065594 13439.417397499084 0 0 0 0 -3150023.4953414798 -89660.704205423594 0 -89660.704205423594 -959724.10445594788 0 0 0 0 54577.403348922729 1291449.9254919887 0 1291449.9254919887 -2292699.2224328518 0 0 0 0 -1949196.4565620422 1352975.5548386574 0 1352975.5548386574 422692.95205396414 0 0 0 0 -2236486.6833715439 2345944.2195581198 0 2345944.2195581198 -2328909.1123557091 0 0 0 0 -4638482.540763855 3773212.7356855869 0 3773212.7356855869 -2203429.4529027343 0 0 0 0 -4869232.1346654892 1088021.3390606046 0 1088021.3390606046 -2886976.3121612072 0 0 0 0 -7506512.3505840302 2445282.463917017 0 2445282.463917017 494605.0988535881 0 0 0 0 -9832281.8335227966 3805371.4257473946 0 3805371.4257473946 4185440.440767765 0 0 0 0 -4892845.0270042419 2842535.5257816315 0 2842535.5257816315 253298.28933620453 0 0 0 0 -2925686.0178394318 2952692.1911885738 0 2952692.1911885738 84591.572749495506 0 0 0 0 -5487071.4547128677 2868277.6872242689 0 2868277.6872242689 1995961.4089307785 0 0 0 0 -3727851.2304430008 2289605.8029360771 0 2289605.8029360771 213671.8205332756 0 0 0 0 -5313158.8583574295 -6472760.5423527956 0 -6472760.5423527956 -1984815.6469752789 0 0 0 0 -15162643.096608162 -3395556.7810298204 0 -3395556.7810298204 5328507.4653679132 0 0 0 0 -610063.80325031281 -722011.56875324249 0 -722011.56875324249 3417176.0895495415 0 0 0 0 -3678121.0488624573 -5891041.4727838039 0 -5891041.4727838039 6103445.8725347519 0 0 0 0 -3422939.575220108 -1197016.3675415516 0 -1197016.3675415516 4089676.8673124313 0 0 0 0 -15019980.744864464 4434866.1222168207 0 4434866.1222168207 3135737.1210983992 0 0 0 0 -8178769.713432312 471330.91459679604 0 471330.91459679604 5204799.7117562294 0 0 0 0 -7540514.012909174 3340432.5392377377 0 3340432.5392377377 -7508140.4484767914 0 0 0 0 -16732191.81174469 -2654176.9765121937 0 -2654176.9765121937 -2000616.5756698847 0 0 0 0 -17732329.825942993 3963669.413490653 0 3963669.413490653 996454.0800589025 0 0 0 0 215317.53611150477 -278573.37135962734 0 -278573.37135962734 100540.71924813697 0 0 0 0 -10656409.929899216 6251801.5271742344 0 6251801.5271742344 -1183230.239150852 0 0 0 0 433196.67805290222 -3835036.2994062901 0 -3835036.2994062901 -2394315.2233603001 0 0 0 0 2391700.5529022217 -2323080.5122379065 0 -2323080.5122379065 -2230827.7039620876 0 0 0 0 703443.12682294846 -1070114.4364529774 0 -1070114.4364529774 1613877.3339631706 0 0 0 0 -2383635.6510021072 -834983.37748423661 0 -834983.37748423661 1266453.8096832037 0 0 0 0 -129782817.72649288 76541853.665044248 0 76541853.665044248 -32331446.731505603 0 0 0 0 -230630946.523211 157041640.12402734 0 157041640.12402734 -24779433.655295238 0 0 0 0 -159683435.85667372 39694762.580833361 0 39694762.580833361 8074671.2999556139 0 0 0 0 -51187.481152588036 -274266.39710330195 0 -274266.39710330195 24845.299563377659 0 0 0 0 -150736532.89990139 211981908.04248089 0 211981908.04248089 -141302640.42852235 0 0 0 0 -236987098.43749237 109301558.37723535 0 109301558.37723535 -119185919.25718418 0 0 0 0 -153824.59085493686 49806.657308164984 0 49806.657308164984 -15504.361971758808 0 0 0 0 -104429842.16955662 130974092.60679817 0 130974092.60679817 -129405629.00287461 0 0 0 0 -137862223.07437539 199325231.48029634 0 199325231.48029634 -174781926.83223581 0 0 0 0 -1068205.027947417 -259423.09197678723 0 -259423.09197678723 18659.006736511321 0 0 0 0 -166908371.57423115 284803165.20837688 0 284803165.20837688 -170301007.51893923 0 0 0 0 962050.90072137117 -15980074.854927108 0 -15980074.854927108 63523201.436924517 0 0 0 0 -32933822.332483292 1764097.0645490885 0 1764097.0645490885 -39100164.346229039 0 0 0 0 -38861725.159053802 275334849.77636456 0 275334849.77636456 199454385.23517257 0 0 0 0 -279534305.61907959 162612747.48573083 0 162612747.48573083 460014072.22116357 0 0 0 0 -289031034.61849976 78601953.026848763 0 78601953.026848763 58842515.363300972 0 0 0 0 240097387.86458015 -157164637.7246418 0 -157164637.7246418 41744783.882789016 0 0 0 0 65301346.499204636 -421780695.89046013 0 -421780695.89046013 151748298.77170485 0 0 0 0 -587004077.98220158 -131230406.90874285 0 -131230406.90874285 10541596.982481897 0 0 0 0 -285314468.73765564 -48855077.98365432 0 -48855077.98365432 19550585.233582012 0 0 0 0 -24205839.507665157 -341960356.66163629 0 -341960356.66163629 -91473460.506610096 0 0 0 0 37572273.851625025 55776800.409439899 0 55776800.409439899 -380050430.33260512 0 0 0 0 -293897527.89807892 -413921244.46437603 0 -413921244.46437603 -444659675.71317911 0 0 0 0 -232499746.94180059 -248944898.30989045 0 -248944898.30989045 -17861603.457521528 0 0 0 0 40029054.791506469 -36283815.886676207 0 -36283815.886676207 -772227348.62955403 0 0 0 0 -144182.68152223993 -131829.21244243922 0 -131829.21244243922 3997.5796590780519 0 0 0 0 -815816673.06708241 -208425186.96132168 0 -208425186.96132168 -281273417.71439457 0 0 0 0 -707104361.97885227 -347078743.61152065 0 -347078743.61152065 -168000376.42535284 0 0 0 0 -199867.00235519942 -20171.554794027557 0 -20171.554794027557 101318.37485390579 0 0 0 0 -316555906.88048649 68096910.925383583 0 68096910.925383583 -333083866.83799255 0 0 0 0 -398238748.64251804 198648254.58397508 0 198648254.58397508 -52044208.5944224 0 0 0 0 -481056142.11134529 82389243.961065769 0 82389243.961065769 -184526155.59162098 0 0 0 0 -309916137.48281908 33361403.618521854 0 33361403.618521854 -272369397.6724568 0 0 0 0 -13115274.511426449 -97483687.790145606 0 -97483687.790145606 218804689.56646776 0 0 0 0 24059874.835319996 -330806247.92622757 0 -330806247.92622757 223496065.31712174 0 0 0 0 -2283376.3281383514 298245.03465819359 0 298245.03465819359 1981443.0692691803 0 0 0 0 -1347820.0418181673 -1097563.2305955873 0 -1097563.2305955873 574152.78176810592 0 0 0 0 11404928.494279861 -391144172.43393326 0 -391144172.43393326 261461855.48558486 0 0 0 0 102688380.48655701 -280192845.35316849 0 -280192845.35316849 248975638.81553 0 0 0 0 -52544399.875273705 -272270459.18957037 0 -272270459.18957037 181448191.43473637 0 0 0 0 -3079871.0722374916 -1197820.4320399761 0 -1197820.4320399761 2477488.4160990715 0 0 0 0 -160116559.09038842 401246294.81251764 0 401246294.81251764 -84517273.521397829 0 0 0 0 -2403676.0500121284 -1117813.9724430237 0 -1117813.9724430237 754320.48428214015 0 0 0 0 -2968256.0805912018 -501082.0410797596 0 -501082.0410797596 3084326.6589410305 0 0 0 0 -105098.53946304321 -173782708.64747167 0 -173782708.64747167 -5552156.9661986828 0 0 0 0 -368971147.15321255 224181544.45095244 0 224181544.45095244 63677178.284818769 0 0 0 0 -3459812.6679794444 -140655.58283057797 0 -140655.58283057797 1358391.8025364308 0 0 0 0 -208000127.62660193 70260030.130237401 0 70260030.130237401 124443987.4025206 0 0 0 0 -5255683.3759555817 -1063615.1944653988 0 -1063615.1944653988 6061422.6319451332 0 0 0 0 -9956584.7549381256 426727.48926448822 0 426727.48926448822 5771151.9585356712 0 0 0 0 -4300509.8292253986 318481.93847330217 0 318481.93847330217 1720904.1577705196 0 0 0 0 -3870704.3467233181 -1082791.7439445257 0 -1082791.7439445257 3793485.0040886402 0 0 0 0 -3902186.7790335417 -1222402.4439631701 0 -1222402.4439631701 12014871.529799938 0 0 0 0 -3775380.9001793861 -518240.53178691864 0 -518240.53178691864 4902019.8826880455 0 0 0 0 -2580234.56503582 2992590.3772025108 0 2992590.3772025108 6098457.3915840387 0 0 0 0 -2590541.8709909916 1885671.7524870038 0 1885671.7524870038 267662.57425737381 0 0 0 0 -2203735.2705731392 62506.98820745945 0 62506.98820745945 2669951.3523654938 0 0 0 0 -2530568.4072391987 690370.25507235527 0 690370.25507235527 2872647.5309844017 0 0 0 0 -849160.61223231384 550622.53969903453 0 550622.53969903453 827944.03947651875 0 0 0 0 -1348842.588409951 2703587.3233317826 0 2703587.3233317826 454466.25299525261 0 0 0 0 -817950.68642628193 4096529.2552648783 0 4096529.2552648783 -486392.23651266098 0 0 0 0 -1318028.554913044 1303784.904889822 0 1303784.904889822 -2952402.8008528948 0 0 0 0 -943427.60093528521 425126.23533710866 0 425126.23533710866 390277.02199960395 0 0 0 0 -2460146.6886118948 1226873.7527806163 0 1226873.7527806163 835127.24801564217 0 0 0 0 -145245.31261415686 323179.53987749573 0 323179.53987749573 109153.65122877905 0 0 0 0 -761277.30592231127 29017.082582168645 0 29017.082582168645 430227.79709487932 0 0 0 0 -15945449.45417124 -2143671.9492405802 0 -2143671.9492405802 883069.66162155569 0 0 0 0 -35122812.345215917 -46666850.269810602 0 -46666850.269810602 45743976.559396952 0 0 0 0 -26069763.401919201 27443522.24551136 0 27443522.24551136 108323114.36709511 0 0 0 0 5042790.8994831704 -75069465.856597424 0 -75069465.856597424 53537870.626663744 0 0 0 0 56245414.541311875 -2810910.6384032965 0 -2810910.6384032965 36918373.036638074 0 0 0 0 -335226.4820340561 64608.691481349655 0 64608.691481349655 94894.152400805338 0 0 0 0 -337360061.11930859 -138008243.67931554 0 -138008243.67931554 -13754894.070502579 0 0 0 0 -31245747.71748215 140865845.52531475 0 140865845.52531475 33545597.592973232 0 0 0 0 -9781938.8684940338 -17859617.092195332 0 -17859617.092195332 -63982902.358781517 0 0 0 0 -469238516.14867115 19090388.207762107 0 19090388.207762107 43740017.498119593 0 0 0 0 -304889466.25634319 -38297918.806498766 0 -38297918.806498766 42941815.535775304 0 0 0 0 -396359814.55187488 206538.32456824183 0 206538.32456824183 50840440.989588559 0 0 0 0 -240434066.30051517 63752082.330835976 0 63752082.330835976 30104842.111826122 0 0 0 0 -254563156.42790961 2147324.7274542749 0 2147324.7274542749 53254844.262212493 0 0 0 0 -2526075.0828287601 775669.9827504158 0 775669.9827504158 2298245.016263485 0 0 0 0 -139062726.53555155 -48235893.60940633 0 -48235893.60940633 -18988769.43210274 0 0 0 0 -966250.65871057729 561849.64404453337 0 561849.64404453337 1019498.3420347658 0 0 0 0 -371875045.88691807 10339230.283281505 0 10339230.283281505 -31420631.42809163 0 0 0 0 -360090239.79688615 -15281481.395037003 0 -15281481.395037003 1937481.6654056311 0 0 0 0 -326004441.91879219 79777456.298779339 0 79777456.298779339 30058694.032117486 0 0 0 0 -439026623.53306651 -774773.42847943306 0 -774773.42847943306 -3485649.5113583207 0 0 0 0 -96708149.180440664 294908979.84349537 0 294908979.84349537 -71323489.628593445 0 0 0 0 -392700737.87459922 -54213325.58956565 0 -54213325.58956565 -201804523.70931673 0 0 0 0 -388378373.94129276 -15246843.675108425 0 -15246843.675108425 -49234292.699163809 0 0 0 0 -328147032.72992325 22130115.511731118 0 22130115.511731118 -176376017.67694056 0 0 0 0 -317381607.32438421 70545298.155520737 0 70545298.155520737 -21727038.181416728 0 0 0 0 -360570025.3474915 30844313.595091715 0 30844313.595091715 -51448130.362330943 0 0 0 0 -372098693.2928555 13045530.869241133 0 13045530.869241133 -4255029.1019010544 0 0 0 0 -375301971.6158092 101448039.63782677 0 101448039.63782677 -5993133.2981737107 0 0 0 0 -347453246.88440716 81819006.459488422 0 81819006.459488422 5987942.4232263863 0 0 0 0 -421887588.74722838 160916946.40170866 0 160916946.40170866 -1098582.6618108451 0 0 0 0 -466500410.66301084 81445852.861127943 0 81445852.861127943 5988349.8724029418 0 0 0 0 -418354736.53091466 48745841.609154522 0 48745841.609154522 14712511.402685627 0 0 0 0 -412018601.09709859 27593098.402687997 0 27593098.402687997 3291715.1186090559 0 0 0 0 -408279044.29780602 35557954.391633764 0 35557954.391633764 20069610.062026441 0 0 0 0 -425226986.96569061 32549624.684458613 0 32549624.684458613 44535175.636151195 0 0 0 0 -536213106.06449682 48466147.53265503 0 48466147.53265503 49698412.129896879 0 0 0 0 -446431272.41694045 45286197.561065845 0 45286197.561065845 18869818.098446906 0 0 0 0 -521738951.85341322 95717559.360571072 0 95717559.360571072 86438964.054557353 0 0 0 0 -496065702.64527261 4080105.3201642483 0 4080105.3201642483 36447884.412749529 0 0 0 0 -631370373.79794419 63362547.93331442 0 63362547.93331442 77114215.028899506 0 0 0 0 -494262263.17590165 4668541.6630727351 0 4668541.6630727351 -11920780.382967025 0 0 0 0 -726078613.55843186 14513508.166422859 0 14513508.166422859 117451109.80029517 0 0 0 0 -729334405.65586519 114119827.88989176 0 114119827.88989176 145652257.1747236 0 0 0 0 -944750298.38107133 -16229460.848786235 0 -16229460.848786235 207967032.35597557 0 0 0 0 -660641608.84749639 135266004.64634308 0 135266004.64634308 142841956.52133921 0 0 0 0 -945114442.31704783 296392558.39298522 0 296392558.39298522 145217646.44319358 0 0 0 0 -658732958.67435908 160319911.21153843 0 160319911.21153843 62071257.067625314 0 0 0 0 -530283218.77807271 297903582.02824825 0 297903582.02824825 -39390186.480402492 0 0 0 0 -352352053.68648791 159393684.40162289 0 159393684.40162289 -5172694.5340360291 0 0 0 0 -526373792.35027075 325161625.6897229 0 325161625.6897229 133268042.97476181 0 0 0 0 -943273538.00466788 549051248.7071631 0 549051248.7071631 89234572.589124382 0 0 0 0 -239666331.14484739 591704267.7825079 0 591704267.7825079 -285927115.03934288 0 0 0 0 -690865483.87860489 -372435768.48621875 0 -372435768.48621875 396419565.51807994 0 0 0 0 -864423.84731983207 753904.44325485383 0 753904.44325485383 -111965.23364799605 0 0 0 0 116480203.0712564 20999660.387829617 0 20999660.387829617 16041149.925030589 0 0 0 0 -131090191.22773933 191381507.26898086 0 191381507.26898086 -96693532.174617097 0 0 0 0 -333516226.96647072 65759616.624507189 0 65759616.624507189 50343740.969270527 0 0 0 0 -321844351.3149538 117860284.47121862 0 117860284.47121862 -2518524.0902393404 0 0 0 0 -384298248.32490587 133164785.45181926 0 133164785.45181926 201015718.16973424 0 0 0 0 -303865144.79724956 -114088.58816399984 0 -114088.58816399984 188661508.46816817 0 0 0 0 -407334429.59497356 89222569.663379997 0 89222569.663379997 192888391.37984815 0 0 0 0 -309647556.3019886 111923557.59005289 0 111923557.59005289 -52252990.299617462 0 0 0 0 -280446736.23732877 129255032.76902968 0 129255032.76902968 -94065183.65920195 0 0 0 0 -299140396.63589239 122120497.90809739 0 122120497.90809739 -64575667.188102834 0 0 0 0 -335656302.79244137 124201411.21875277 0 124201411.21875277 102547564.85562715 0 0 0 0 -391894536.45760679 164016975.30476502 0 164016975.30476502 82344917.591007084 0 0 0 0 -360595123.576262 216635235.1462349 0 216635235.1462349 170433146.0022513 0 0 0 0 -266674154.55395424 239502161.91005689 0 239502161.91005689 51590527.788952112 0 0 0 0 -328132806.19771099 153500861.23070031 0 153500861.23070031 176504002.27988258 0 0 0 0 -119254194.24063301 -250648.96186497062 0 -250648.96186497062 120734373.52484719 0 0 0 0 -2435190.0379769709 -307729.27156942274 0 -307729.27156942274 238914.67660611539 0 0 0 0 -234019259.52609634 -140216047.68666774 0 -140216047.68666774 425082505.33259737 0 0 0 0 -284057234.40206599 195607943.04176989 0 195607943.04176989 149415148.09879792 0 0 0 0 -238560498.65576029 132275740.64793809 0 132275740.64793809 157437502.63193804 0 0 0 0 -264792715.137784 142052786.51485407 0 142052786.51485407 197082515.79897046 0 0 0 0 -349829567.37173462 397068836.53579384 0 397068836.53579384 -116736027.61067376 0 0 0 0 105516584.88267803 -267599144.27295798 0 -267599144.27295798 -117062134.09070325 0 0 0 0 -413686303.53556156 537984979.41254234 0 537984979.41254234 -287564361.84107792 0 0 0 0 344020009.46834087 -55998066.706844211 0 -55998066.706844211 -954116461.91257894 0 0 0 0 -229622069.9118309 -95389190.494969264 0 -95389190.494969264 371129045.04916096 0 0 0 0 -921909.30279272795 597044.90683690808 0 597044.90683690808 -100810.5917723953 0 0 0 0 -458250880.29056358 749773724.76383758 0 749773724.76383758 -77435166.80779916 0 0 0 0 -469905099.37853384 114556860.13905855 0 114556860.13905855 465761171.93942583 0 0 0 0 -532388038.13073969 188450462.76338089 0 188450462.76338089 267390485.02014279 0 0 0 0 -404322687.8230176 104390298.71030915 0 104390298.71030915 248131352.08434868 0 0 0 0 -400233030.71042347 351500063.10185099 0 351500063.10185099 -347808932.25253105 0 0 0 0 -686567685.25786304 382234467.66084802 0 382234467.66084802 135670488.45745343 0 0 0 0 -332236084.156147 772351665.26534832 0 772351665.26534832 -392389258.36761618 0 0 0 0 -1398465.0427011261 -7479.070060088532 0 -7479.070060088532 207679.43655130698 0 0 0 0 -145973606.10323906 -144914541.68969297 0 -144914541.68969297 239490511.91640159 0 0 0 0 -59489560.052833557 43589823.998784363 0 43589823.998784363 -81734940.307755277 0 0 0 0 -70119575.281860352 122438878.40684628 0 122438878.40684628 78721218.610741273 0 0 0 0 110038787.04918098 3641675.9272759818 0 3641675.9272759818 -24295910.248555437 0 0 0 0 39184574.06299305 126358359.63272823 0 126358359.63272823 -15039093.511860281 0 0 0 0 -24289903.387958527 113062726.22159076 0 113062726.22159076 -114606974.87059519 0 0 0 0 -16450763.723779678 102536913.20836976 0 102536913.20836976 -106512676.26813784 0 0 0 0 -451815147.57665443 29763190.415278792 0 29763190.415278792 168408376.12008727 0 0 0 0 -88570290.734490395 56550392.994500153 0 56550392.994500153 -74328148.264098957 0 0 0 0 -103977487.95918083 72654210.559736252 0 72654210.559736252 -27665075.386571288 0 0 0 0 -264479863.73366737 50506776.4411266 0 50506776.4411266 -64636701.462903112 0 0 0 0 -492589642.40142536 96806827.796747535 0 96806827.796747535 -18234025.590034433 0 0 0 0 -638616821.37512779 283404385.89425743 0 283404385.89425743 -53224371.309421226 0 0 0 0 -945276738.27146935 161925906.77426898 0 161925906.77426898 3776779.231270609 0 0 0 0 -534178981.75241566 31379776.682729363 0 31379776.682729363 40988271.943279073 0 0 0 0 -943075825.33495808 -93826852.682423219 0 -93826852.682423219 114359583.04971732 0 0 0 0 -390329475.00048447 828285487.21659458 0 828285487.21659458 -211769833.31858695 0 0 0 0 -154290208.22928047 -273294235.98342466 0 -273294235.98342466 -207083069.16554075 0 0 0 0 -554845895.53002024 140266079.90711975 0 140266079.90711975 -478246153.85370588 0 0 0 0 -40058234.280470133 -13796230.926028937 0 -13796230.926028937 -8034435.520024538 0 0 0 0 -33179842.484447479 -10561851.651367784 0 -10561851.651367784 10870013.271085024 0 0 0 0 -272804.82499919366 226006.67292091157 0 226006.67292091157 191274.80073668307 0 0 0 0 -41462574.002342224 -19948224.509555221 0 -19948224.509555221 -31248597.269180775 0 0 0 0 -57328647.144491196 -12095087.833992004 0 -12095087.833992004 3945580.4298504591 0 0 0 0 -57351316.292766571 -13994021.154007733 0 -13994021.154007733 1035402.3375349045 0 0 0 0 -57390979.881200314 -13885071.22433576 0 -13885071.22433576 1032724.8830227852 0 0 0 0 -69221207.240570068 -16826405.258895516 0 -16826405.258895516 3205400.798591435 0 0 0 0 -47914459.583942413 -16741826.150280476 0 -16741826.150280476 1297487.8185480833 0 0 0 0 -29981826.798610687 -16809422.934809804 0 -16809422.934809804 7903863.0521957874 0 0 0 0 -27509823.747112274 -26959983.635920048 0 -26959983.635920048 28390787.634736061 0 0 0 0 -2060634.1777009964 -23029301.889343977 0 -23029301.889343977 9039426.2246258855 0 0 0 0 -15366019.754814148 1019995.7469983101 0 1019995.7469983101 2328419.8465566635 0 0 0 0 -952871.59894056618 4468481.8941546548 0 4468481.8941546548 3012545.0957250595 0 0 0 0 -29998003.378551483 -165778.03736245632 0 -165778.03736245632 -3355969.7036996782 0 0 0 0 -12057890.967853546 3546624.5116193295 0 3546624.5116193295 -2726776.4545156956 0 0 0 0 -20878160.449729919 -14586436.214376688 0 -14586436.214376688 8348928.9306908846 0 0 0 0 -31214873.61384201 -5456331.943330884 0 -5456331.943330884 285957.63730359077 0 0 0 0 -37177515.477622271 -15647745.889176667 0 -15647745.889176667 -6917030.0978271961 0 0 0 0 -32346169.692811966 357802.1304140687 0 357802.1304140687 -2966222.8632549047 0 0 0 0 -269522.97566059418 211838.64886313025 0 211838.64886313025 214984.74233702599 0 0 0 0 -28051956.468576908 8934530.6377215721 0 8934530.6377215721 -7070892.7943786383 0 0 0 0 -28924010.54964757 1377644.89158291 0 1377644.89158291 -5417376.8406922817 0 0 0 0 -48403503.857763529 21901257.579640932 0 21901257.579640932 4445672.8904585838 0 0 0 0 -54302591.702188849 -11385961.110827468 0 -11385961.110827468 -11372296.423507214 0 0 0 0 -34520225.437217712 -14993728.374620318 0 -14993728.374620318 -6266425.5493190289 0 0 0 0 -34480130.071186066 -14181240.721919149 0 -14181240.721919149 -11338339.221930742 0 0 0 0 -39333941.038933754 -17502055.594467878 0 -17502055.594467878 -6566418.5251398087 0 0 0 0 -38370854.564123154 -16019223.463604927 0 -16019223.463604927 -4598204.6581766605 0 0 0 0 -43410692.788804054 -12099430.249096394 0 -12099430.249096394 1031089.5612630844 0 0 0 0 -33600602.816570282 -4160503.9237684011 0 -4160503.9237684011 -1388560.9151334763 0 0 0 0 -36663124.431507111 -4260068.5872864723 0 -4260068.5872864723 5382531.2528861463 0 0 0 0 -30512944.95243454 -10605301.290942907 0 -10605301.290942907 -5785987.2742534876 0 0 0 0 -27098993.564453125 -1499841.0653184354 0 -1499841.0653184354 -1190553.943123579 0 0 0 0 -32561867.826242447 -10771645.22113806 0 -10771645.22113806 -5678984.3520613909 0 0 0 0 -18953912.654205322 -14998139.773123324 0 -14998139.773123324 -21071798.683683157 0 0 0 0 -10321272.140665054 -313872.53578209877 0 -313872.53578209877 -10223443.739989519 0 0 0 0 -5930511.9705968499 3354912.2819888219 0 3354912.2819888219 -10560147.203959942 0 0 0 0 -5794347.0379981995 -309817.7188295722 0 -309817.7188295722 -13873510.216351509 0 0 0 0 -14733445.575632095 -3132310.2965710163 0 -3132310.2965710163 -11686516.797200501 0 0 0 0 -3045027.5725021362 4283684.4104408026 0 4283684.4104408026 -13493831.894483373 0 0 0 0 -2556059.7762031555 3838966.1097730398 0 3838966.1097730398 -13562373.72674875 0 0 0 0 -4177787.1420412064 8990717.9085857272 0 8990717.9085857272 -17052525.019213796 0 0 0 0 21506.924884796143 2439418.924883008 0 2439418.924883008 -23545904.988665819 0 0 0 0 -447601.31180381775 2272696.4107818753 0 2272696.4107818753 -12489169.527553082 0 0 0 0 -3733244.4192008972 4610986.5307238102 0 4610986.5307238102 -6240228.2958078384 0 0 0 0 -2406127.1608171463 -4894812.5631127954 0 -4894812.5631127954 10860446.568336368 0 0 0 0 4878564.2574892044 -1073093.4515897036 0 -1073093.4515897036 -7814411.8047224879 0 0 0 0 -16134760.241469383 12888990.426566958 0 12888990.426566958 2249879.6326757669 0 0 0 0 2887379.8902835846 6783930.73802948 0 6783930.73802948 -8447425.5402618051 0 0 0 0 -12115720.801345825 6589926.5379578471 0 6589926.5379578471 -7173740.7506723404 0 0 0 0 3943271.0113105774 -6818236.6598520279 0 -6818236.6598520279 -35247458.797692239 0 0 0 0 1775919.6877708435 -649151.60382837057 0 -649151.60382837057 -30153339.375703812 0 0 0 0 -2639484.9773788452 -5691801.66150105 0 -5691801.66150105 -16582001.731547832 0 0 0 0 -4359259.1451961994 -672961.70974699035 0 -672961.70974699035 -22541256.170924187 0 0 0 0 4733535.8835906982 -7422648.915338397 0 -7422648.915338397 -27488840.21865201 0 0 0 0 -13553212.154188156 631646.07317280769 0 631646.07317280769 -8822975.3260866702 0 0 0 0 -2563710.3204116821 -4086084.1304522753 0 -4086084.1304522753 -13132144.102475047 0 0 0 0 -6862881.1582546234 -11303291.263415605 0 -11303291.263415605 -24557111.085324168 0 0 0 0 -53237.30104637146 4385553.0784393549 0 4385553.0784393549 -7852149.3450989723 0 0 0 0 4882559.8559951782 2984099.5364804268 0 2984099.5364804268 5849171.5640902519 0 0 0 0 4765701.9218444824 -9862794.6738157272 0 -9862794.6738157272 27577026.085399628 0 0 0 0 11300607.469772339 1299360.1333088875 0 1299360.1333088875 6097650.3555895686 0 0 0 0 11510621.853637695 -9524722.8291630745 0 -9524722.8291630745 10635594.437468529 0 0 0 0 4095095.2832794189 -1169701.887130022 0 -1169701.887130022 -12674318.506216377 0 0 0 0 -2304584.7878813744 -3855226.5091597438 0 -3855226.5091597438 339017.19755411148 0 0 0 0 -1828709.4580888748 4105800.9953436852 0 4105800.9953436852 5069310.784840107 0 0 0 0 -75654.245747885667 -279728.45337213064 0 -279728.45337213064 -126078.6513876268 0 0 0 0 -3461488.8532104492 -8113450.5405807495 0 -8113450.5405807495 18469792.490296662 0 0 0 0 -6814648.4526100159 -4204616.1536300182 0 -4204616.1536300182 17584136.619062722 0 0 0 0 -2348852.7655563354 -4571430.3589560986 0 -4571430.3589560986 1031.3856763839722 0 0 0 0 1957290.4284267426 -4783443.0660289526 0 -4783443.0660289526 -43118.300987482071 0 0 0 0 349575.13924217224 -7800943.0249410868 0 -7800943.0249410868 8225615.2938132286 0 0 0 0 7793262.9297485352 -3222650.2725782394 0 -3222650.2725782394 16354709.277255058 0 0 0 0 11309655.17621994 -8318132.3671717644 0 -8318132.3671717644 8214486.2321515083 0 0 0 0 3923523.6683502197 -3029335.3984639645 0 -3029335.3984639645 -16330513.910203904 0 0 0 0 33163718.08039093 19805330.572389364 0 19805330.572389364 -44381492.118780136 0 0 0 0 -38018973.622070312 6974737.1156076193 0 6974737.1156076193 37183454.707891941 0 0 0 0 4674521.3082647324 2405126.9995650053 0 2405126.9995650053 1745065.3294188976 0 0 0 0 518826.07124519348 2284606.4070547223 0 2284606.4070547223 5865410.419457674 0 0 0 0 -4457413.7452754974 -200094.5263568759 0 -200094.5263568759 17453848.201800346 0 0 0 0 -54008.798559635878 144024.499569159 0 144024.499569159 -51004.153238861822 0 0 0 0 3568304.9092407227 3946324.9634933472 0 3946324.9634933472 52081851.227478027 0 0 0 0 -2649.5358311850578 3597.2292940444313 0 3597.2292940444313 749.30913382628933 0 0 0 0 -35178024.187240601 -10742993.236988544 0 -10742993.236988544 22791566.94907856 0 0 0 0 2918112.572602272 5119817.469602704 0 5119817.469602704 -2384457.8666133881 0 0 0 0 -51923440.382919312 -33665313.410620928 0 -33665313.410620928 2973361.224864006 0 0 0 0 -54805130.48538208 -34596561.132217884 0 -34596561.132217884 3912956.3144111633 0 0 0 0 48243343.804157257 38617611.101740956 0 38617611.101740956 7580243.6836152077 0 0 0 0 -158572.3992396621 115544.08504852233 0 115544.08504852233 195570.69715554523 0 0 0 0 -29402504.70796299 14965016.940737426 0 14965016.940737426 -7100180.197627306 0 0 0 0 -68879414.230522156 -13840797.040177107 0 -13840797.040177107 23705716.843869209 0 0 0 0 -47425897.328781128 2263800.27947855 0 2263800.27947855 34875544.87095809 0 0 0 0 -24746981.597766876 -20925533.470224738 0 -20925533.470224738 -8694078.9112018943 0 0 0 0 -36168033.09935236 7272329.1678873897 0 7272329.1678873897 8005941.6342071295 0 0 0 0 8827.9582254681736 -183515.59813078339 0 -183515.59813078339 -50135.787240966776 0 0 0 0 12379.278432855383 -356914.84238992655 0 -356914.84238992655 -60647.41266483895 0 0 0 0 -1494769.221704483 4305135.9161235094 0 4305135.9161235094 4376989.3893620968 0 0 0 0 -12599402.592790604 -11668352.077838898 0 -11668352.077838898 -9374407.3329421207 0 0 0 0 3266140.9786958694 1297007.4736130238 0 1297007.4736130238 -9171316.3426332474 0 0 0 0 -1196844.6205062866 -3078766.4994530678 0 -3078766.4994530678 621143.78375989199 0 0 0 0 -29445943.427936554 -2536719.7189221382 0 -2536719.7189221382 -15596921.124473572 0 0 0 0 -30268617.170036316 -14667441.436490655 0 -14667441.436490655 -7895818.6621780396 0 0 0 0 -22999612.139610291 -14768189.524789095 0 -14768189.524789095 -8796140.6815341413 0 0 0 0 -26433604.647261143 -3864018.39675349 0 -3864018.39675349 -6955039.8764719963 0 0 0 0 -1205227.443901062 -2102913.5473126173 0 -2102913.5473126173 -8845727.2921447754 0 0 0 0 -12194858.783475876 -10979781.380986214 0 -10979781.380986214 -8021229.1420102417 0 0 0 0 -16775886.019939423 -6935840.0667903423 0 -6935840.0667903423 2576445.9105787277 0 0 0 0 -1364141.2776556015 280473.80837726593 0 280473.80837726593 -2094433.0415277481 0 0 0 0 -19585812.253709793 -15019761.0104568 0 -15019761.0104568 -5274138.8119685054 0 0 0 0 -18476888.122490406 -4826832.7665874362 0 -4826832.7665874362 -2383088.2498340607 0 0 0 0 -15864761.502585411 -7497711.338119626 0 -7497711.338119626 -2892124.9867143631 0 0 0 0 -21745811.21487236 -6129833.6857557297 0 -6129833.6857557297 3715403.9986855984 0 0 0 0 -43353247.441197634 -24271734.121581301 0 -24271734.121581301 -10022148.110951424 0 0 0 0 -191133.83866142482 -49825.813766899519 0 -49825.813766899519 136376.24962719681 0 0 0 0 8381.5220754176844 166166.86956574582 0 166166.86956574582 -184367.13781230245 0 0 0 0 -52226359.226739883 37953619.43838191 0 37953619.43838191 -17138963.952007949 0 0 0 0 -9450262.0481262207 -8449497.0514569283 0 -8449497.0514569283 -2938131.5952465534 0 0 0 0 5697215.9275045395 -4780219.0465289354 0 -4780219.0465289354 -8292812.6929204464 0 0 0 0 -36594863.116127014 -5219279.1153470278 0 -5219279.1153470278 14868986.063653946 0 0 0 0 -36973287.178312302 -2533207.8724253178 0 -2533207.8724253178 3971130.3197233677 0 0 0 0 -33973057.082122803 13199525.923732281 0 13199525.923732281 -3578197.3890662193 0 0 0 0 -18570.867130730301 -150720.45133019867 0 -150720.45133019867 -4260.3140770960017 0 0 0 0 -39738445.260499954 -482266.38544368744 0 -482266.38544368744 12291507.272847772 0 0 0 0 41466.309875791427 203586.05400423799 0 203586.05400423799 -185792.51405847096 0 0 0 0 6558126.1637954712 -17480483.627054691 0 -17480483.627054691 -21293130.630197048 0 0 0 0 -15258231.995812416 19727189.851096272 0 19727189.851096272 -2126143.4757843018 0 0 0 0 15615616.725419044 2113442.6865383387 0 2113442.6865383387 -2086063.8596463203 0 0 0 0 -44593857.897173882 -4956158.6109303236 0 -4956158.6109303236 9168954.9007277489 0 0 0 0 -20791028.874607086 -22062454.539059639 0 -22062454.539059639 -20693013.082522631 0 0 0 0 -23269651.904331207 -15836752.766409457 0 -15836752.766409457 704500.5703701973 0 0 0 0 -23340640.718835831 -12757123.702992916 0 -12757123.702992916 3130744.0193593502 0 0 0 0 -22811741.744479179 -11671585.333325505 0 -11671585.333325505 966744.16967916489 0 0 0 0 -25041304.859195709 -10491408.057394385 0 -10491408.057394385 1450785.2989320755 0 0 0 0 64632.205751085421 256623.65926301712 0 256623.65926301712 -118086.63040828146 0 0 0 0 -63617463.919040918 5780179.2782846689 0 5780179.2782846689 11130461.265478134 0 0 0 0 -19332839.568200111 -226742.74850893021 0 -226742.74850893021 9081942.9585666656 0 0 0 0 -13690203.791387558 -19526887.234916449 0 -19526887.234916449 6188128.4157648087 0 0 0 0 -11990644.982290268 -14561683.960213661 0 -14561683.960213661 36483554.378629684 0 0 0 0 -9301116.2348499298 -2180228.3782134652 0 -2180228.3782134652 8068467.5909705162 0 0 0 0 12616115.381827354 -1169105.3898996115 0 -1169105.3898996115 7101916.916036129 0 0 0 0 7747322.6207838058 30803835.194714248 0 30803835.194714248 38383944.341489792 0 0 0 0 20056517.001283646 -21038622.224294901 0 -21038622.224294901 40514988.103838086 0 0 0 0 -17404842.26905632 9869559.1285600662 0 9869559.1285600662 11141974.671488047 0 0 0 0 -38106562.466752529 -14831939.528847158 0 -14831939.528847158 33045813.530884743 0 0 0 0 -17290683.95381546 182596.94819402695 0 182596.94819402695 5172161.4097983837 0 0 0 0 -14555542.943861008 -8869492.3948931694 0 -8869492.3948931694 1322459.9651148319 0 0 0 0 -8099417.7953653336 12702762.520650625 0 12702762.520650625 -6621415.7320308685 0 0 0 0 -37508489.000080109 -11653358.447877645 0 -11653358.447877645 -4316055.159468174 0 0 0 0 -34451230.962020874 11813370.481428742 0 11813370.481428742 3602980.8169503212 0 0 0 0 -26399368.029818535 10905286.898153305 0 10905286.898153305 -923193.07595276833 0 0 0 0 -27377544.344377577 21947979.764607809 0 21947979.764607809 -2043494.2768154144 0 0 0 0 -43332236.539252758 11356299.408575833 0 11356299.408575833 4116542.8531928062 0 0 0 0 -39145938.298309326 19763719.470412761 0 19763719.470412761 6524635.9087979794 0 0 0 0 -143930.98084376473 123919.38313235855 0 123919.38313235855 94435.065244762227 0 0 0 0 -19376063.119294882 7142725.1153845787 0 7142725.1153845787 -45982839.251132488 0 0 0 0 -68072386.158136368 -8003364.3715586662 0 -8003364.3715586662 4713237.692294836 0 0 0 0 -49885148.18145752 3526506.9245539904 0 3526506.9245539904 -7910342.1576676369 0 0 0 0 -1355715.8928816319 -18744180.155107379 0 -18744180.155107379 16855620.401684284 0 0 0 0 -9137427.9651203156 825703.78672397137 0 825703.78672397137 15928714.58920151 0 0 0 0 79138.82146632392 -117012.57273230306 0 -117012.57273230306 -152082.8498929505 0 0 0 0 -31978285.980476379 23894800.307034254 0 23894800.307034254 3599289.8276389837 0 0 0 0 115957.62578462064 -208219.32009796461 0 -208219.32009796461 -257373.41375879652 0 0 0 0 -5293901.2739505768 -7340440.0163459778 0 -7340440.0163459778 17563768.954166144 0 0 0 0 -55079038.730567217 -563288.20232903957 0 -563288.20232903957 14960834.243876457 0 0 0 0 -19510605.534811497 -224675.40126430988 0 -224675.40126430988 -30974599.19323349 0 0 0 0 -18786170.268338203 29357137.320432663 0 29357137.320432663 -16005649.230385065 0 0 0 0 -42044949.014369011 -21696486.028987527 0 -21696486.028987527 1895633.5942764282 0 0 0 0 -53451722.689764738 8027926.6276623607 0 8027926.6276623607 11509038.652761459 0 0 0 0 -9366599.4918603897 21594981.672019362 0 21594981.672019362 -33251905.805986881 0 0 0 0 -127235.50609781593 -82587.277142173203 0 -82587.277142173203 89367.692733825941 0 0 0 0 -3188523.1876831055 -5026511.6011295319 0 -5026511.6011295319 1177770.8580365181 0 0 0 0 14208424.286005974 675888.0854626894 0 675888.0854626894 -23867904.188819826 0 0 0 0 6796104.6944103241 -20617695.642874718 0 -20617695.642874718 7090146.7139567137 0 0 0 0 94921.062635846436 -124826.01670483849 0 -124826.01670483849 -165124.17973021534 0 0 0 0 -4706016.2763843536 8753196.317050457 0 8753196.317050457 -6350033.7758901119 0 0 0 0 -11601009.859869003 -11949238.443680763 0 -11949238.443680763 3062896.863791585 0 0 0 0 -487411.8046169281 18125541.65079546 0 18125541.65079546 10084802.000695378 0 0 0 0 -698061.79498954769 340046.06568888988 0 340046.06568888988 655306.79440281866 0 0 0 0 -1691267.7280387878 7965.2483997344971 0 7965.2483997344971 1212099.4191172123 0 0 0 0 -1603268.7222862244 -619464.10994875431 0 -619464.10994875431 1952478.5476729274 0 0 0 0 -2388784.3586003697 -208681.31716604141 0 -208681.31716604141 1109406.4153064352 0 0 0 0 -1378815.3437724113 -248695.35873010755 0 -248695.35873010755 378610.59060311317 0 0 0 0 12391830.931529045 13390094.333675742 0 13390094.333675742 -21548805.709569931 0 0 0 0 -29678426.722970963 -10281309.462132692 0 -10281309.462132692 13620769.822711706 0 0 0 0 -1550980.1863103891 171501.19157914817 0 171501.19157914817 1104642.0065555237 0 0 0 0 -3748222.3615489006 -2255727.2719779611 0 -2255727.2719779611 3493921.4244909286 0 0 0 0 -14245145.28621006 2916191.9370769858 0 2916191.9370769858 1077507.0297394395 0 0 0 0 -1280391.9799625182 472561.89677772159 0 472561.89677772159 723252.84443724807 0 0 0 0 -2001889.291311264 201501.0713326931 0 201501.0713326931 203449.01541876793 0 0 0 0 -1241563.0200741999 -619928.07758345176 0 -619928.07758345176 974746.05627426947 0 0 0 0 3641655.3523244858 1135860.8491780758 0 1135860.8491780758 2373547.7056084275 0 0 0 0 -970842.61839257018 -398558.74402893707 0 -398558.74402893707 874394.97989059263 0 0 0 0 732995.50704479218 -900749.40955358744 0 -900749.40955358744 1194084.0045239329 0 0 0 0 4574556.1638708115 -2263612.4634824395 0 -2263612.4634824395 1321992.1778616905 0 0 0 0 -34574.54052154487 98986.985712683992 0 98986.985712683992 269912.67105394579 0 0 0 0 -14421547.903753281 4676910.5157209635 0 4676910.5157209635 6108767.0521509647 0 0 0 0 -10532467.334877014 7859056.443494916 0 7859056.443494916 6429001.991641283 0 0 0 0 -1191585.3502292633 -2598652.7531311512 0 -2598652.7531311512 8541729.298843652 0 0 0 0 -22598011.45012188 10342275.702045202 0 10342275.702045202 2145678.5013141632 0 0 0 0 -7377510.9665179253 6214888.5124723315 0 6214888.5124723315 3170505.0306742191 0 0 0 0 -11883518.103887558 1680769.3045640066 0 1680769.3045640066 24275140.667721629 0 0 0 0 -6015169.1085348129 2345253.074840799 0 2345253.074840799 -508504.88042549044 0 0 0 0 -33568020.10705936 -6169560.349622543 0 -6169560.349622543 11638415.900269888 0 0 0 0 -12671198.830299377 -6981965.7579713464 0 -6981965.7579713464 1015709.0402204692 0 0 0 0 -20123469.261809707 -8428864.0369080305 0 -8428864.0369080305 4920592.5096268058 0 0 0 0 -11605218.089014053 -7832155.6271465868 0 -7832155.6271465868 3544780.3824710697 0 0 0 0 -10985067.142179489 -2729325.6127193831 0 -2729325.6127193831 6688358.3202474713 0 0 0 0 -10947089.602793694 -3657233.6917642206 0 -3657233.6917642206 10385005.140361667 0 0 0 0 -4954334.0683488846 -5622129.1130012721 0 -5622129.1130012721 6769566.2224670053 0 0 0 0 -10455590.052335739 -3405398.554206375 0 -3405398.554206375 7405177.073764801 0 0 0 0 -1397097.3338775635 440759.92229251564 0 440759.92229251564 5394628.0022341758 0 0 0 0 -1145886.5396261215 -179612.91581937298 0 -179612.91581937298 6920632.9998889863 0 0 0 0 4572194.2424618304 9993266.4821074288 0 9993266.4821074288 18385664.526050843 0 0 0 0 4224274.492436409 -1908972.0652899966 0 -1908972.0652899966 5310353.6056147739 0 0 0 0 1113312.7931241989 -25674735.778762132 0 -25674735.778762132 -21075456.510200709 0 0 0 0 -5395070.1014661789 8840048.9856291637 0 8840048.9856291637 35655226.946516015 0 0 0 0 3528.4674919107929 44770.337930061272 0 44770.337930061272 -22490.792325989962 0 0 0 0 -4172869.8017539978 -5828982.6121430248 0 -5828982.6121430248 24590345.739428245 0 0 0 0 -2252790.9318609289 -347403.92149376939 0 -347403.92149376939 962881.92528423225 0 0 0 0 1109286.3640270233 -625445.38929145038 0 -625445.38929145038 6986990.6122893691 0 0 0 0 -3271817.0399372578 2081020.4060418715 0 2081020.4060418715 9153453.5561160166 0 0 0 0 1412295.9878044128 -690006.34757182747 0 -690006.34757182747 5002363.388400957 0 0 0 0 1876114.9441680908 2372544.3235915545 0 2372544.3235915545 8454701.4272611775 0 0 0 0 -467939.28744220734 5529003.5927128028 0 5529003.5927128028 19856348.073112257 0 0 0 0 -1301729.4525470734 -489660.44896960258 0 -489660.44896960258 2006476.0120670795 0 0 0 0 -945744.83032417297 -156500.20182806253 0 -156500.20182806253 711871.72647356987 0 0 0 0 -1585281.2591259209 -471191.63058213983 0 -471191.63058213983 869812.57507482974 0 0 0 0 -67225.412790298462 -11641382.822050974 0 -11641382.822050974 -9102676.3293165565 0 0 0 0 -1721193.646780014 183313.56668907404 0 183313.56668907404 810812.56095027924 0 0 0 0 -1307220.92628479 -8139799.4269914031 0 -8139799.4269914031 15806410.38957753 0 0 0 0 -9752537.4170722961 -1991737.1009617746 0 -1991737.1009617746 5797552.1018474996 0 0 0 0 -14241655.535431385 -10588549.061185576 0 -10588549.061185576 4166553.6464602947 0 0 0 0 3983477.1654891968 1127034.2036295831 0 1127034.2036295831 738583.6638636291 0 0 0 0 -1736863.0698981285 -8408425.8344151452 0 -8408425.8344151452 -2362858.9697178602 0 0 0 0 12780784.632611275 -1183584.8745542467 0 -1183584.8745542467 946171.76273703575 0 0 0 0 5571441.3323659897 -7277768.9134237096 0 -7277768.9134237096 13383326.078856468 0 0 0 0 23922964.321620941 3186860.9987989664 0 3186860.9987989664 16912662.094477832 0 0 0 0 4014561.0596561432 -22881953.817170829 0 -22881953.817170829 14159082.599338753 0 0 0 0 37012748.811843872 -30728170.874361098 0 -30728170.874361098 14210345.885883817 0 0 0 0 -10658659.957969129 -32293972.268243331 0 -32293972.268243331 51037368.370214701 0 0 0 0 -2301731.5570850372 -10349326.098967098 0 -10349326.098967098 -4354874.8011448383 0 0 0 0 -8331300.1810495853 -17433791.771457329 0 -17433791.771457329 25553779.033967793 0 0 0 0 -11878483.373490334 -21846920.043769598 0 -21846920.043769598 21769042.70548743 0 0 0 0 -19450055.537444115 -21135338.637089103 0 -21135338.637089103 24333095.620784625 0 0 0 0 -18361786.186906815 -3433449.1410373747 0 -3433449.1410373747 23179880.053378463 0 0 0 0 3860610.8411092758 -8270549.9779598862 0 -8270549.9779598862 22882795.574272558 0 0 0 0 -25765.941014210694 69094.51093620446 0 69094.51093620446 -26017.941177168424 0 0 0 0 -14840510.021975994 -12493183.314409204 0 -12493183.314409204 25251399.463315904 0 0 0 0 -35017940.884513378 -763213.36689096689 0 -763213.36689096689 2330774.4271090925 0 0 0 0 -50728467.378004074 2250933.9842535257 0 2250933.9842535257 3678561.5441622138 0 0 0 0 -17661.046671216784 -46342.833234862424 0 -46342.833234862424 -651.60257809201721 0 0 0 0 -11170076.612905025 -15099055.972284824 0 -15099055.972284824 25245972.308394685 0 0 0 0 -11124521.82404232 -1883594.439078182 0 -1883594.439078182 -1133442.3337403238 0 0 0 0 -10331749.737220764 -8846927.0761061013 0 -8846927.0761061013 3579098.7583879232 0 0 0 0 -11613013.989224434 -7277025.2058015168 0 -7277025.2058015168 4500306.9121871591 0 0 0 0 -16624933.491407394 -3503430.5719457716 0 -3503430.5719457716 11089038.232402742 0 0 0 0 -15342190.015069008 -11662613.62081112 0 -11662613.62081112 39658397.309570074 0 0 0 0 17211677.177323341 -58495816.997596204 0 -58495816.997596204 41792567.732575536 0 0 0 0 27394525.808319092 -49813919.957460582 0 -49813919.957460582 48963778.507724553 0 0 0 0 28903313.567273587 -24402781.700353399 0 -24402781.700353399 19810907.818723202 0 0 0 0 80358214.342883587 -32799315.095322847 0 -32799315.095322847 20743996.876804471 0 0 0 0 -16431.132655211724 -30940.244322664803 0 -30940.244322664803 141430.01570024138 0 0 0 0 32966814.959208488 -87312639.830803633 0 -87312639.830803633 39255989.878794909 0 0 0 0 85124228.439507484 -98756134.646190166 0 -98756134.646190166 14333276.257448792 0 0 0 0 -7427435.6165978909 54337199.596127152 0 54337199.596127152 35966351.345518351 0 0 0 0 13717775.710665941 -12588558.657670528 0 -12588558.657670528 -3020231.4228535891 0 0 0 0 9945.9334580940194 17852.59485944896 0 17852.59485944896 171274.43807900639 0 0 0 0 -14897363.880247116 -15097176.31397891 0 -15097176.31397891 10653037.626577318 0 0 0 0 -29719018.479447365 -4607057.472687453 0 -4607057.472687453 6377604.7033017278 0 0 0 0 -29901.060758457344 -61700.404053911567 0 -61700.404053911567 -18683.025523088931 0 0 0 0 -16829097.849129677 940495.43803113699 0 940495.43803113699 -4661753.465814352 0 0 0 0 -56217988.279118538 5735431.545362711 0 5735431.545362711 8327417.1640483737 0 0 0 0 -17696252.789620876 -3322140.5611065328 0 -3322140.5611065328 -10678377.587014735 0 0 0 0 754801.62566590309 -3879285.8222287893 0 -3879285.8222287893 -89015.797697663307 0 0 0 0 -14246391.945536613 11517934.664752483 0 11517934.664752483 -3032056.7593377605 0 0 0 0 211792.68829795346 147797.30259974836 0 147797.30259974836 -76343.737792816595 0 0 0 0 -11670098.714819908 8895277.3170175552 0 8895277.3170175552 -7083248.0428285599 0 0 0 0 -10341709.360995293 7732590.2715089321 0 7732590.2715089321 -6144831.4838953018 0 0 0 0 -8883923.7073059082 6036116.5524677634 0 6036116.5524677634 -2580953.5416907072 0 0 0 0 -983869.57909727097 -904914.5075275898 0 -904914.5075275898 1125575.3985345364 0 0 0 0 166043.77935050614 -115945.00901142415 0 -115945.00901142415 4019.4036416386953 0 0 0 0 146405746.65536404 -55890809.507030129 0 -55890809.507030129 -3137522.8505373001 0 0 0 0 -158535.53868110408 -31714.354872209486 0 -31714.354872209486 185011.73021189257 0 0 0 0 -1056061.39480865 -903936.19936336577 0 -903936.19936336577 46197780.886190176 0 0 0 0 -623087.85658836365 1323948.9643403292 0 1323948.9643403292 605016.39031586051 0 0 0 0 -384860.4278517738 -354496.71774860052 0 -354496.71774860052 114951.08046223712 0 0 0 0 18100190.916068077 -35904666.00989157 0 -35904666.00989157 38412083.921895146 0 0 0 0 15798370.955329895 -37392825.141323745 0 -37392825.141323745 45790203.270920075 0 0 0 0 40442937.671025276 -33557806.136411473 0 -33557806.136411473 17509774.587791443 0 0 0 0 24858572.271000862 -5501053.692722261 0 -5501053.692722261 -12932942.265612364 0 0 0 0 14791520.219038963 -21073347.029532552 0 -21073347.029532552 47744101.553792059 0 0 0 0 12846390.573974609 -9927265.7320163548 0 -9927265.7320163548 23407441.742656589 0 0 0 0 2423973.1868104935 -15508659.187617719 0 -15508659.187617719 73141451.863802746 0 0 0 0 -314555.43156943843 -365672.1303706367 0 -365672.1303706367 -130267.24721424951 0 0 0 0 1659314.241686821 4384733.5939788818 0 4384733.5939788818 1914533.8669023514 0 0 0 0 15481994.537268043 -47971272.435745709 0 -47971272.435745709 71338110.57699883 0 0 0 0 139477.6114143962 75775.670227486407 0 75775.670227486407 -99108.764811211033 0 0 0 0 -16618966.426071167 10758612.601691455 0 10758612.601691455 -8529060.7476283312 0 0 0 0 -201516.62351379823 -365404.13460661285 0 -365404.13460661285 -323184.20590668509 0 0 0 0 -2083098.6681251526 5200361.2796698809 0 5200361.2796698809 6552078.0258481503 0 0 0 0 1596977.4870786667 -6023266.5082281828 0 -6023266.5082281828 -4132243.164744556 0 0 0 0 35634263.915725231 -87934334.459493876 0 -87934334.459493876 56367736.046239018 0 0 0 0 8094339.5284175873 -104827000.15281466 0 -104827000.15281466 133152355.80092549 0 0 0 0 16055371.999407768 9163278.5492069945 0 9163278.5492069945 30894197.894334793 0 0 0 0 -9709386.376550436 -92573801.423554718 0 -92573801.423554718 -49691462.65538013 0 0 0 0 66946556.328251839 -58021996.444406509 0 -58021996.444406509 -234767244.22141796 0 0 0 0 -90133070.118672371 -90930847.434808075 0 -90930847.434808075 -58052521.05411464 0 0 0 0 2092232.2139149904 8001682.5383433178 0 8001682.5383433178 -127681878.16119486 0 0 0 0 -79145819.007685661 37944105.32998088 0 37944105.32998088 -12188659.093432099 0 0 0 0 18723611.716488004 -2595152.262269333 0 -2595152.262269333 33406902.830966949 0 0 0 0 3595900.6785573959 -18385790.394235164 0 -18385790.394235164 16977196.819431841 0 0 0 0 15874598.943670273 21201618.328326494 0 21201618.328326494 -16685622.490231574 0 0 0 0 -13104931.21687603 9226051.4664338827 0 9226051.4664338827 26034949.346428066 0 0 0 0 19577523.811554432 15166337.346334904 0 15166337.346334904 -6864749.9298885167 0 0 0 0 271386.56722736359 4422878.9617930055 0 4422878.9617930055 -4145799.8454019129 0 0 0 0 1493774.5835933685 -32194615.809016764 0 -32194615.809016764 -35391845.470917761 0 0 0 0 20209151.526150703 -39505329.866215527 0 -39505329.866215527 -43315589.30202426 0 0 0 0 31157.279133488424 30923.427232319955 0 30923.427232319955 -59175.862488942919 0 0 0 0 230562.8348941803 -22275223.964690745 0 -22275223.964690745 -39592704.621427208 0 0 0 0 -10566458.160702705 -12297876.08259359 0 -12297876.08259359 2623360.2982006073 0 0 0 0 -14771213.007734299 -21762282.488088608 0 -21762282.488088608 -12039587.151709318 0 0 0 0 -48504420.185930252 -42307276.052477956 0 -42307276.052477956 -11806784.093233654 0 0 0 0 -10184661.392820358 -19530095.228974462 0 -19530095.228974462 -1914380.2467632294 0 0 0 0 -25940133.510159969 -11277356.451607674 0 -11277356.451607674 20863864.845140338 0 0 0 0 -13358835.645998001 3029401.0157808065 0 3029401.0157808065 18590963.154435523 0 0 0 0 -895221.40260359203 -375080.508921901 0 -375080.508921901 -115758.82079258037 0 0 0 0 -42290377.083459854 -15188529.523582518 0 -15188529.523582518 3013598.6774442196 0 0 0 0 3151539.8195066452 -14074669.578796595 0 -14074669.578796595 -20489861.485158145 0 0 0 0 -268331.54617881775 4475138.9111020565 0 4475138.9111020565 -3694958.0292323232 0 0 0 0 13230028.270214081 40676620.54854133 0 40676620.54854133 -13076222.511977375 0 0 0 0 -373661.93229897227 61001.167665101733 0 61001.167665101733 81000.558294655086 0 0 0 0 -69380456.056275368 35665470.710223556 0 35665470.710223556 20085028.755666822 0 0 0 0 -35103255.8034935 -82167014.419158578 0 -82167014.419158578 -89976122.597920388 0 0 0 0 -2928010.1344480515 -43100780.674618512 0 -43100780.674618512 -56348734.966621995 0 0 0 0 -24881521.883224487 -11143945.303700089 0 -11143945.303700089 -4018067.0287544727 0 0 0 0 -109269435.76320934 -51667557.850216761 0 -51667557.850216761 -13305358.501614451 0 0 0 0 -67485024.901575089 24983823.887656093 0 24983823.887656093 -9595550.0492843166 0 0 0 0 -69714393.827302933 24626426.021986201 0 24626426.021986201 -7418754.7412869334 0 0 0 0 -26125531.512368202 23294436.971796572 0 23294436.971796572 -32045938.766726732 0 0 0 0 -53682011.54758811 22656108.318832755 0 22656108.318832755 -9905828.8292526007 0 0 0 0 -16263.53988835169 -21714.985834453953 0 -21714.985834453953 -17027.115238373692 0 0 0 0 -44679564.094840527 -1771062.0600052327 0 -1771062.0600052327 4454088.8245738745 0 0 0 0 -56592696.991744995 9300891.5816819668 0 9300891.5816819668 -5976042.1416960955 0 0 0 0 -17210473.111958504 -4977433.7321611643 0 -4977433.7321611643 -19266531.669473827 0 0 0 0 -12848212.261761665 6194735.1028823256 0 6194735.1028823256 3249849.1468521357 0 0 0 0 45231.218240685528 51244.213057177374 0 51244.213057177374 -15253.84365096438 0 0 0 0 27680988.819288135 -19490237.944317624 0 -19490237.944317624 -6722724.5674251914 0 0 0 0 26948789.824329734 3748118.4531631842 0 3748118.4531631842 -41008414.598872125 0 0 0 0 -469816.01694393158 -9581879.1980758309 0 -9581879.1980758309 -45944984.212115511 0 0 0 0 -30581555.712713242 1587469.8415211737 0 1587469.8415211737 1471308.0797261074 0 0 0 0 -33617716.53044486 -30045951.889610417 0 -30045951.889610417 -47737730.665425062 0 0 0 0 -31901527.420394629 15791421.107682282 0 15791421.107682282 -16699263.946045876 0 0 0 0 -70447642.289914131 5236647.3744212389 0 5236647.3744212389 -17193082.994695485 0 0 0 0 -64044868.676350594 15816211.725863993 0 15816211.725863993 -22907961.407192484 0 0 0 0 -98356451.105498314 31379476.887264863 0 31379476.887264863 -6750881.3756510019 0 0 0 0 -134711962.78209019 -58114856.169438951 0 -58114856.169438951 24379714.806848615 0 0 0 0 -97206013.571388721 -60863170.33290574 0 -60863170.33290574 -33909705.899571598 0 0 0 0 9583877.0129635334 -13179270.766160309 0 -13179270.766160309 -25401738.789779782 0 0 0 0 135.63200855418108 -42882.918397945352 0 -42882.918397945352 -231718.61891566042 0 0 0 0 -194961524.39812803 -9436486.5845904052 0 -9436486.5845904052 -19244753.667095542 0 0 0 0 -94663663.533517838 16827139.941698015 0 16827139.941698015 -16596492.216768049 0 0 0 0 -31280618.285526276 -20492101.225487262 0 -20492101.225487262 -66145208.858909458 0 0 0 0 -26826179.133910418 -1313680.3506590277 0 -1313680.3506590277 -27404046.415524483 0 0 0 0 3480744.8123054504 -8652127.6394467354 0 -8652127.6394467354 -28876392.489449233 0 0 0 0 4544470.1558046341 -3318253.0923486054 0 -3318253.0923486054 -49448736.677499294 0 0 0 0 979820.19181585312 -9691533.8729099631 0 -9691533.8729099631 -25142006.305484593 0 0 0 0 6991346.5183763504 2210474.4816699773 0 2210474.4816699773 21241667.029056326 0 0 0 0 17895676.915664673 19515320.702417582 0 19515320.702417582 -10477090.953811243 0 0 0 0 -1313965.100753054 1148765.6029999093 0 1148765.6029999093 802498.77976896404 0 0 0 0 1531078.1305136681 40868959.231819861 0 40868959.231819861 48368390.348941624 0 0 0 0 70411699.142275333 -41840142.182895482 0 -41840142.182895482 48919790.65706706 0 0 0 0 103070418.58096457 -11627577.222272202 0 -11627577.222272202 35516598.092711329 0 0 0 0 144417692.51847601 -118072697.36020499 0 -118072697.36020499 58135048.080673456 0 0 0 0 -196481739.33229733 -137726686.39910305 0 -137726686.39910305 158346696.99916255 0 0 0 0 -33305700.958835602 -51583235.747656167 0 -51583235.747656167 49235306.255509496 0 0 0 0 -93429320.708248615 103904842.19662824 0 103904842.19662824 86936773.190718174 0 0 0 0 3504430.6615104675 21890516.756066084 0 21890516.756066084 96804110.940439016 0 0 0 0 -281612384.68664646 125882431.47372866 0 125882431.47372866 67982642.782502115 0 0 0 0 -11428508.756482124 -25526497.068187751 0 -25526497.068187751 -1062920.3783927262 0 0 0 0 30650874.6195755 32479490.941070467 0 32479490.941070467 -7674848.4527741168 0 0 0 0 -22056836.49477005 55330775.435151637 0 55330775.435151637 68659655.607553482 0 0 0 0 -1305706.1830346691 607189.90616548131 0 607189.90616548131 408698.74044840963 0 0 0 0 -13030442.804163933 25102586.987444162 0 25102586.987444162 62655918.548592597 0 0 0 0 129393825.40623093 -21734891.403808355 0 -21734891.403808355 53879371.425549746 0 0 0 0 -593846.68492215313 177552.20207834378 0 177552.20207834378 145131.90487446537 0 0 0 0 -196642919.50755119 -107686503.42091563 0 -107686503.42091563 26552528.86425491 0 0 0 0 -149053913.80927372 -98343277.308816075 0 -98343277.308816075 27819395.551090181 0 0 0 0 26691296.711819887 -39396448.016430698 0 -39396448.016430698 -118594227.43095441 0 0 0 0 -156309035.99548435 -11014556.195821542 0 -11014556.195821542 30902063.740881823 0 0 0 0 -169567361.32634068 -82645768.575452149 0 -82645768.575452149 8374200.1123057455 0 0 0 0 -6887485.7633034438 -10880960.031419128 0 -10880960.031419128 -12670815.140033722 0 0 0 0 -6810577.9770196676 -12967206.846341521 0 -12967206.846341521 -13976730.538181305 0 0 0 0 -24754242.001590729 -6953027.8227891922 0 -6953027.8227891922 -13673495.284103394 0 0 0 0 -3521145.8282967582 -2436871.0387867689 0 -2436871.0387867689 -1053300.1185353994 0 0 0 0 -2936577.9862164292 -2089070.187719217 0 -2089070.187719217 -1518747.9648132403 0 0 0 0 -5371080.6067924006 -1941128.5910107766 0 -1941128.5910107766 -3491966.4442788828 0 0 0 0 -5748862.6211191528 826255.37897885777 0 826255.37897885777 4186068.857427517 0 0 0 0 3757699.2742366791 7853549.672069639 0 7853549.672069639 4735514.4036998302 0 0 0 0 -28414802.183830261 -11135113.187782288 0 -11135113.187782288 424784.36237335205 0 0 0 0 -20437375.778709412 -14494656.91196537 0 -14494656.91196537 -32391033.233192444 0 0 0 0 359425.19920193218 488116.01581242424 0 488116.01581242424 124789.4906310481 0 0 0 0 -3477873.7806510478 -2291764.4671006203 0 -2291764.4671006203 -2438557.3130069971 0 0 0 0 -4424601.7348212004 -2351966.8116483688 0 -2351966.8116483688 -2991760.9986972809 0 0 0 0 -5126146.3607841581 -1942673.9417533875 0 -1942673.9417533875 -2267199.4938516617 0 0 0 0 -4713320.8751769662 -616756.61977005005 0 -616756.61977005005 -664324.9148683548 0 0 0 0 -4465927.722612679 -1126810.1578307152 0 -1126810.1578307152 41728.935491800308 0 0 0 0 -25539826.366203308 -5958021.7928553522 0 -5958021.7928553522 3868705.6382273436 0 0 0 0 -5151058.6824683519 -174750.68781466701 0 -174750.68781466701 105180.18683286989 0 0 0 0 -4035820.348207593 407474.30235791206 0 407474.30235791206 -627080.58952486515 0 0 0 0 -3540859.6481777728 -395896.71259021759 0 -395896.71259021759 -2099013.4402980804 0 0 0 0 -7242144.1452283859 4868830.2545156479 0 4868830.2545156479 10982167.648321867 0 0 0 0 -3391402.982290192 -1217637.2951258167 0 -1217637.2951258167 -249875.36069562403 0 0 0 0 -1441149.6235626463 -545032.09291544068 0 -545032.09291544068 758971.72519067128 0 0 0 0 3035560.278213501 6670154.5195441991 0 6670154.5195441991 4191064.3115268946 0 0 0 0 -6254287.6547055244 -9382240.3923066854 0 -9382240.3923066854 -2721474.0579427481 0 0 0 0 1806890.9659576416 -3624252.9870179892 0 -3624252.9870179892 -14096916.830204427 0 0 0 0 -333136.40723800659 7503678.3201652169 0 7503678.3201652169 7086993.5562520921 0 0 0 0 -4141959.8220176697 2879734.7567884177 0 2879734.7567884177 5200589.8565196991 0 0 0 0 4392882.3048048019 -15734877.679224715 0 -15734877.679224715 -38758475.278854102 0 0 0 0 4883071.1387519836 -4472719.1492643356 0 -4472719.1492643356 -13998124.904345781 0 0 0 0 11121483.577745438 8336225.7214052826 0 8336225.7214052826 -18929478.6465801 0 0 0 0 3423086.1921987534 3994832.805603981 0 3994832.805603981 -2385800.8002848029 0 0 0 0 8705008.2189602852 11863655.730327353 0 11863655.730327353 -2221739.2650722265 0 0 0 0 18955998.777747154 12420237.533037186 0 12420237.533037186 -1887015.9010401554 0 0 0 0 3566561.8648023605 19232216.842685014 0 19232216.842685014 17298119.155242093 0 0 0 0 -302946.48960483493 2728885.5593459676 0 2728885.5593459676 1135370.3309270311 0 0 0 0 -3249831.8767719269 6205998.4568503499 0 6205998.4568503499 12493627.039230198 0 0 0 0 3263986.9075336456 4993676.9018917382 0 4993676.9018917382 4338894.6436530501 0 0 0 0 -17141642.945913315 -9922585.5982031822 0 -9922585.5982031822 -27444955.989220142 0 0 0 0 -1296114.8604628528 -307631.95211387356 0 -307631.95211387356 -68659.94043585239 0 0 0 0 -7958048.5490832562 -524837.15144511126 0 -524837.15144511126 4142428.5303096394 0 0 0 0 -25045565.252279282 -25737184.347651482 0 -25737184.347651482 -13040803.692560196 0 0 0 0 -20553327.668341637 18753380.208770275 0 18753380.208770275 28248334.728424847 0 0 0 0 -1048931.3646621704 22594457.992208362 0 22594457.992208362 2817262.8916516304 0 0 0 0 -25766743.992634773 -16634519.254952669 0 -16634519.254952669 -32422558.06957674 0 0 0 0 -22752204.323953629 -41579569.686280966 0 -41579569.686280966 -34428970.758109093 0 0 0 0 -8854299.8111416623 1194291.394977829 0 1194291.394977829 3493039.8826003252 0 0 0 0 -37866206.360589981 -31228005.106311798 0 -31228005.106311798 -1453926.6628675461 0 0 0 0 1912376.1369857788 17045491.560021877 0 17045491.560021877 -3620161.6159263551 0 0 0 0 -5309491.2481422424 -4481737.2989571095 0 -4481737.2989571095 380833.73403787613 0 0 0 0 18805483.952272415 1907055.3383977413 0 1907055.3383977413 -49773440.019750357 0 0 0 0 -4865004.3585436102 -344527.23350496287 0 -344527.23350496287 442436.74502094043 0 0 0 0 -16652761.673799276 -6349865.2928409576 0 -6349865.2928409576 -2826557.9884395599 0 0 0 0 -40896614.962396622 -35529073.164870262 0 -35529073.164870262 -18335837.989075661 0 0 0 0 -15066501.902650237 -12181910.682353497 0 -12181910.682353497 5067746.7330436707 0 0 0 0 12834967.575292587 -11625002.589988708 0 -11625002.589988708 -2211370.4956531525 0 0 0 0 1055679.9823968573 -13668.2710640328 0 -13668.2710640328 -1373209.0835622717 0 0 0 0 -6920510.8719223738 -20524944.781946421 0 -20524944.781946421 2180325.1410675049 0 0 0 0 -8318622.9751222134 -12485326.005455613 0 -12485326.005455613 -14129365.751541138 0 0 0 0 -5165439.6034992337 -2464425.9317165613 0 -2464425.9317165613 -2831184.3097734451 0 0 0 0 -4022400.1236627437 -1611651.0198074579 0 -1611651.0198074579 -2563509.7268955708 0 0 0 0 -56396.441051483154 -6623.5564870834351 0 -6623.5564870834351 -282256.82739257812 0 0 0 0 -2076412.415875057 533453.85581493401 0 533453.85581493401 -2401678.6480506747 0 0 0 0 -1719976.3573263821 -740360.69051761227 0 -740360.69051761227 -2150467.3705045539 0 0 0 0 -3034058.6766120759 -1996174.5804908657 0 -1996174.5804908657 -1486644.4454660453 0 0 0 0 -5526743.711162746 -2658270.7739834785 0 -2658270.7739834785 -31901.596197605133 0 0 0 0 1222956.258964777 -66356.928067564964 0 -66356.928067564964 -1671466.6755110025 0 0 0 0 933999.32760906219 -157021.33814001083 0 -157021.33814001083 -1667032.4658646584 0 0 0 0 -446319.61705048021 -242891.70390131028 0 -242891.70390131028 -3247560.6340006916 0 0 0 0 -1028031.9958162766 -761796.17987577408 0 -761796.17987577408 -1880501.2202041447 0 0 0 0 20752999.452030659 4216852.6263295412 0 4216852.6263295412 -1633592.6933292449 0 0 0 0 -4029621.2838491201 -3610808.8092316389 0 -3610808.8092316389 -3421680.3010003567 0 0 0 0 -32902020.047141552 964397.76614844799 0 964397.76614844799 6420740.0464189053 0 0 0 0 -9779715.0235147476 -23003561.628847599 0 -23003561.628847599 -6059370.5535143018 0 0 0 0 14374209.181014299 -17992313.536143005 0 -17992313.536143005 -38769923.046753168 0 0 0 0 -20567872.540702045 -15988834.252925903 0 -15988834.252925903 4164288.2735543251 0 0 0 0 -3748440.9420331717 -1339515.638518095 0 -1339515.638518095 -2777637.0771632195 0 0 0 0 -6504814.1658421755 -4746736.2370715141 0 -4746736.2370715141 -3060469.2442886233 0 0 0 0 -9150360.7171216011 -1048321.6724560261 0 -1048321.6724560261 70451.272470474243 0 0 0 0 -2134614.7850472392 -984169.87792804278 0 -984169.87792804278 -2291793.489993351 0 0 0 0 -994872.04441393935 -550613.42805015377 0 -550613.42805015377 69027.661434952868 0 0 0 0 -30110923.412590504 -20324754.762070894 0 -20324754.762070894 18364738.969106197 0 0 0 0 4908574.1682767868 -14614153.455791473 0 -14614153.455791473 14047734.63914752 0 0 0 0 -3691695.1070432663 -3503170.9946162701 0 -3503170.9946162701 7715273.1084583998 0 0 0 0 -732807.74085225165 42115.091302803252 0 42115.091302803252 278120.5330091354 0 0 0 0 -423140.68726953887 -94277.353971420322 0 -94277.353971420322 55185.823843682418 0 0 0 0 -8737829.2639141083 -38888014.32990694 0 -38888014.32990694 -7492977.7711787224 0 0 0 0 -12081505.604579568 -43281048.039991111 0 -43281048.039991111 -13227494.271737099 0 0 0 0 -34750202.200402856 26382562.351039588 0 26382562.351039588 -24309105.77272439 0 0 0 0 -61022512.210989594 -35786373.989467412 0 -35786373.989467412 -9765341.9077272415 0 0 0 0 -3839900.1575264931 -6660224.2958809137 0 -6660224.2958809137 -2720105.7191171646 0 0 0 0 818377.47963857651 -15909289.149816513 0 -15909289.149816513 -97272438.683624029 0 0 0 0 -112618024.15800136 32527520.962255657 0 32527520.962255657 -17939939.755346298 0 0 0 0 -97936141.504821062 -24754406.9145827 0 -24754406.9145827 -7825680.8537375927 0 0 0 0 27669463.888602972 -12112118.963214636 0 -12112118.963214636 -36516998.208916008 0 0 0 0 438.37167184054852 -2628575.4761173427 0 -2628575.4761173427 15336836.789527416 0 0 0 0 36051902.758699417 43801674.156246722 0 43801674.156246722 -22026105.58456026 0 0 0 0 -66263908.866053104 39485131.806251705 0 39485131.806251705 3052730.4823669791 0 0 0 0 -10630482.953086078 -4717608.8934684992 0 -4717608.8934684992 -2165554.3429243565 0 0 0 0 -7170626.0365470052 -1365495.4066913128 0 -1365495.4066913128 -1733585.8091105223 0 0 0 0 -5756995.8152768612 -1254502.3557584286 0 -1254502.3557584286 -3463092.213013649 0 0 0 0 -7904586.2809727788 -83067.141701936722 0 -83067.141701936722 -2533719.9753371477 0 0 0 0 39318110.281855583 25115640.164830565 0 25115640.164830565 3028980.7485194933 0 0 0 0 -1173937.7699641958 -527201.07343305042 0 -527201.07343305042 -2017628.7562388587 0 0 0 0 -8177136.4953639507 -4620034.1442421675 0 -4620034.1442421675 -5351911.7623449564 0 0 0 0 -952228.45403293648 -435410.84710153926 0 -435410.84710153926 -1780070.8737040178 0 0 0 0 -10303948.715699852 -3762898.1189959049 0 -3762898.1189959049 -1468952.8811070919 0 0 0 0 -6872534.0868256688 -2840274.0661857128 0 -2840274.0661857128 -873052.09402083419 0 0 0 0 -6630555.1167517006 -2350130.6043800116 0 -2350130.6043800116 -2977775.0006814003 0 0 0 0 -5718100.6696894169 -207762.06707572937 0 -207762.06707572937 -900735.16688517854 0 0 0 0 -4138846.7774641416 -2760.9052700432949 0 -2760.9052700432949 230958.64006849664 0 0 0 0 -15021643.932714462 10412333.360171914 0 10412333.360171914 3902407.2874517441 0 0 0 0 -34759580.790884972 9585190.3544756323 0 9585190.3544756323 6574627.1475815773 0 0 0 0 -1785777.665353775 -5648959.1261674464 0 -5648959.1261674464 -2694793.9634723067 0 0 0 0 -21230655.739418983 -2409978.4194783568 0 -2409978.4194783568 8780751.6080384254 0 0 0 0 -8258782.1513328552 10282109.571657479 0 10282109.571657479 -7726236.1404423714 0 0 0 0 -6578892.5588717461 -907776.52286887169 0 -907776.52286887169 -1202775.5615508556 0 0 0 0 4307019.9167852402 2426350.5906980634 0 2426350.5906980634 1584436.6880961359 0 0 0 0 -4082462.0180786108 -328038.81213160511 0 -328038.81213160511 459701.73303382122 0 0 0 0 -6060295.1504283473 -3587941.6622674093 0 -3587941.6622674093 -2723341.2294566631 0 0 0 0 -661476.80248856544 8358598.1821035147 0 8358598.1821035147 17560695.507953763 0 0 0 0 -19012670.274373531 10368838.714460999 0 10368838.714460999 22525209.890768819 0 0 0 0 -33483760.26022315 -19906020.942716166 0 -19906020.942716166 23328502.487663627 0 0 0 0 -4849583.9604678154 -359915.75781854987 0 -359915.75781854987 4799545.0473995209 0 0 0 0 3249732.4484853745 10661315.419561595 0 10661315.419561595 19295817.104499012 0 0 0 0 -7099560.7389336228 -2690487.5825275183 0 -2690487.5825275183 -1440713.3197588921 0 0 0 0 -1302992.9182390186 -686991.42371895246 0 -686991.42371895246 -1618974.0625127808 0 0 0 0 -1234055.1912345886 -397806.19473147392 0 -397806.19473147392 2215239.2814605236 0 0 0 0 -563186.40440273285 856801.72498959303 0 856801.72498959303 145685.31692705676 0 0 0 0 -2630611.7107789237 552915.10950589355 0 552915.10950589355 29790.60345550592 0 0 0 0 28213077.508211136 11567942.016257972 0 11567942.016257972 -15787175.28235352 0 0 0 0 -2720768.2983968123 324591.4667169489 0 324591.4667169489 19337.016549711188 0 0 0 0 -1016128.4674255536 -1617868.4420093147 0 -1617868.4420093147 -1546810.440220356 0 0 0 0 -468744.68633079529 -1201185.7875388861 0 -1201185.7875388861 -1133199.506465923 0 0 0 0 -2256420.6369066238 -3174554.6085856259 0 -3174554.6085856259 -871561.12181794643 0 0 0 0 -1531535.2585525513 -115399.76548343897 0 -115399.76548343897 2257153.6050819159 0 0 0 0 -1609066.1125509022 -752003.25573837454 0 -752003.25573837454 -600548.37428484927 0 0 0 0 -193902.77136124927 -22492.779434324941 0 -22492.779434324941 18833.636291033996 0 0 0 0 2088135.2105865479 -2051739.9005134106 0 -2051739.9005134106 383346.15831398964 0 0 0 0 -4537867.5885162354 -2836013.2225414515 0 -2836013.2225414515 294529.18449348211 0 0 0 0 -6505506.1252250671 -1656843.563236475 0 -1656843.563236475 3282890.7070258856 0 0 0 0 -217808.47554181982 -63996.419437059201 0 -63996.419437059201 129191.95593597626 0 0 0 0 -682941.43863524962 -82911.216558738146 0 -82911.216558738146 174391.98919225321 0 0 0 0 -16569738.727496147 -25934438.617394716 0 -25934438.617394716 -8928556.9075264931 0 0 0 0 -7664827.0261878967 1075264.961630702 0 1075264.961630702 -1362321.0447211266 0 0 0 0 -2379032.6640377045 -600947.65037798882 0 -600947.65037798882 -16520380.145905852 0 0 0 0 -7380727.7394332886 3589520.2625120878 0 3589520.2625120878 -1218556.5742139816 0 0 0 0 -40637592.885744095 -16118462.260946572 0 -16118462.260946572 -5571774.4271550179 0 0 0 0 -29900908.316265106 -24656928.929792523 0 -24656928.929792523 -3896282.7938078344 0 0 0 0 -38042428.182211876 -21480017.66019389 0 -21480017.66019389 -2967673.8108017445 0 0 0 0 -27388250.151485443 -18103127.231619835 0 -18103127.231619835 -11336103.245090339 0 0 0 0 -116657524.96960831 -11308407.754519612 0 -11308407.754519612 5716722.2150776982 0 0 0 0 -39203896.745322704 -12956511.528334066 0 -12956511.528334066 671984.19330126047 0 0 0 0 -143495.3353138729 110265.91180388583 0 110265.91180388583 119064.92137613392 0 0 0 0 -166583843.88005447 -25002163.846883893 0 -25002163.846883893 840156.96316639706 0 0 0 0 -73965557.766612053 44418669.15004456 0 44418669.15004456 -36441593.410212636 0 0 0 0 -5874703.3064346313 -5089854.5432286859 0 -5089854.5432286859 -14941139.860276818 0 0 0 0 102644952.00364685 25191316.089165926 0 25191316.089165926 71958615.327667415 0 0 0 0 23847472.342195511 -102750712.93962096 0 -102750712.93962096 21431985.440261334 0 0 0 0 -140736277.62594414 56903328.408020973 0 56903328.408020973 -10649632.697319642 0 0 0 0 83762431.698160172 -136221826.2376602 0 -136221826.2376602 -18183425.440055519 0 0 0 0 -4229.5830024546012 -171581.58217539592 0 -171581.58217539592 -262624.13645421783 0 0 0 0 129583871.78653908 -91514893.419203937 0 -91514893.419203937 -73917286.051723957 0 0 0 0 67338299.687227249 18713012.360997543 0 18713012.360997543 -112824234.42655556 0 0 0 0 3296518.0552864075 -50823262.085555524 0 -50823262.085555524 -28765058.702660203 0 0 0 0 38890253.408914566 -42712851.763347283 0 -42712851.763347283 -76823429.553736806 0 0 0 0 -1195035.2277131137 936924.47406465141 0 936924.47406465141 316492.44038643426 0 0 0 0 -178352731.20960236 -52140331.636514962 0 -52140331.636514962 8993717.4897687547 0 0 0 0 -136764870.69742393 -207824141.27205443 0 -207824141.27205443 -111574599.1717262 0 0 0 0 -228988920.18076706 -15270407.057314932 0 -15270407.057314932 36042773.25533247 0 0 0 0 124237979.00714779 78713536.209744662 0 78713536.209744662 -12334085.70585838 0 0 0 0 78266681.925520897 108970472.78555816 0 108970472.78555816 62216103.232531548 0 0 0 0 -3737559.1101894379 6090807.1991564631 0 6090807.1991564631 2862416.0375862867 0 0 0 0 -3240388.2996047102 665975.90686571505 0 665975.90686571505 -44524.984794612174 0 0 0 0 46302576.871204376 27792259.223770022 0 27792259.223770022 45792420.698278248 0 0 0 0 90903942.691892624 -673536.04953122139 0 -673536.04953122139 -93425179.956693888 0 0 0 0 -176480631.5730381 -107693017.16327786 0 -107693017.16327786 -18431877.541008949 0 0 0 0 94432931.685105324 -57288069.636340141 0 -57288069.636340141 -223314799.75153017 0 0 0 0 -49897.347976336256 296708.75931091385 0 296708.75931091385 -50038.665476748894 0 0 0 0 2179137.0502128601 3921717.9939789772 0 3921717.9939789772 -2899062.720236063 0 0 0 0 -3330343.9903724818 298533.8868927015 0 298533.8868927015 363771.62055870832 0 0 0 0 -141188953.98597419 184589015.78786477 0 184589015.78786477 168926987.83077359 0 0 0 0 -17698559.90098381 -4513138.9663429856 0 -4513138.9663429856 1669603.4313774109 0 0 0 0 -1909876.7879600525 -6879335.0410614014 0 -6879335.0410614014 -18833339.813173652 0 0 0 0 -2646879.7603988647 866983.51693797112 0 866983.51693797112 -13270212.393152595 0 0 0 0 -3462105.3996505737 -2993382.2766196728 0 -2993382.2766196728 -6766565.3968371302 0 0 0 0 -4238402.6358413696 -2619720.5307766199 0 -2619720.5307766199 -6690151.104801178 0 0 0 0 -6032254.337395668 5226837.7883536816 0 5226837.7883536816 -6182686.7556664944 0 0 0 0 -3235147.4397945404 243988.31044286489 0 243988.31044286489 -7668070.5728183985 0 0 0 0 -4831013.6469955444 -2349541.2918798923 0 -2349541.2918798923 -3840995.9603631198 0 0 0 0 -4656505.4691848755 1072771.3185937405 0 1072771.3185937405 -6548873.9598689079 0 0 0 0 -6328621.0935573578 -220523.54473990202 0 -220523.54473990202 -2014990.2075217962 0 0 0 0 -3181809.5758361816 -2326241.6081377268 0 -2326241.6081377268 -2384360.5066405237 0 0 0 0 -5658263.0381603241 213849.75906354189 0 213849.75906354189 -4273644.8677535057 0 0 0 0 -5446557.1063537598 -1625669.9486502036 0 -1625669.9486502036 2254549.5135063231 0 0 0 0 -3043484.057793377 -784762.41102752404 0 -784762.41102752404 -361549.08922077942 0 0 0 0 -5853235.8604736328 -2141006.781508863 0 -2141006.781508863 -435064.84419363737 0 0 0 0 -3268854.128537178 -1080863.3221260607 0 -1080863.3221260607 -37394.655148148537 0 0 0 0 -6706176.4061031342 -4024812.8072715551 0 -4024812.8072715551 501069.28818231821 0 0 0 0 -4369291.6422481537 -2182077.5632365644 0 -2182077.5632365644 -308638.26884251647 0 0 0 0 -5316349.9417119026 -1657116.3215332702 0 -1657116.3215332702 -428255.07468593121 0 0 0 0 30573467.889362335 33786370.892680526 0 33786370.892680526 25395686.220560551 0 0 0 0 -4624682.2719151974 1555311.6509317933 0 1555311.6509317933 6696867.9788101912 0 0 0 0 -3249300.0414401554 687522.11364140734 0 687522.11364140734 -167060.8037773481 0 0 0 0 50193245.085175991 7651756.1844411492 0 7651756.1844411492 -19983029.870089769 0 0 0 0 10832165.659864426 -8446977.2878422141 0 -8446977.2878422141 -10264487.723772049 0 0 0 0 8863764.7907352448 8393487.8370047808 0 8393487.8370047808 -1237553.1692097187 0 0 0 0 18504422.753753662 16285738.949127913 0 16285738.949127913 20566.792739152908 0 0 0 0 -508776.97426454863 -207136.30669069814 0 -207136.30669069814 449758.1063648751 0 0 0 0 23224461.120045662 1484076.8928582668 0 1484076.8928582668 -8861589.6139039993 0 0 0 0 3392021.2133111954 1096172.2592185736 0 1096172.2592185736 -692776.91753816605 0 0 0 0 -5097003.3011569977 308729.94111895561 0 308729.94111895561 168542.44775548205 0 0 0 0 -650479.37454742426 157305.23665628047 0 157305.23665628047 -1205489.9437510958 0 0 0 0 6266860.0466294289 -15596904.889481053 0 -15596904.889481053 20113466.264730334 0 0 0 0 2618382.2717556953 3195505.7570970058 0 3195505.7570970058 -2276367.7940497398 0 0 0 0 7602115.5064220428 371873.02647840977 0 371873.02647840977 -825466.93162965775 0 0 0 0 -958059.28078746796 -8349080.8078328371 0 -8349080.8078328371 -6512461.255158186 0 0 0 0 5839535.1145620346 -3069125.462464571 0 -3069125.462464571 -7446284.5455367863 0 0 0 0 10854399.073061466 -9601953.7726609111 0 -9601953.7726609111 -13486697.002898216 0 0 0 0 -29304829.570478439 -29660045.964666247 0 -29660045.964666247 -5079574.3098051548 0 0 0 0 -18429106.982114792 -15579776.475937009 0 -15579776.475937009 -5443818.5177736282 0 0 0 0 -5046988.5297422409 -26497220.017029464 0 -26497220.017029464 -17085866.39479351 0 0 0 0 21634377.123894691 -16495284.876027524 0 -16495284.876027524 -13499149.455472469 0 0 0 0 -26150637.611249924 -57946790.962158322 0 -57946790.962158322 -36338195.415404618 0 0 0 0 -27792204.877840996 -43403579.672608495 0 -43403579.672608495 -4621353.4170367718 0 0 0 0 -31467414.946646214 -26062701.66086781 0 -26062701.66086781 -2733877.7958244085 0 0 0 0 -64151467.301729202 -34877353.193865538 0 -34877353.193865538 1780876.1170785427 0 0 0 0 -30045767.413980544 -23710417.659333222 0 -23710417.659333222 -5454627.4982526302 0 0 0 0 -49710340.389394283 -12542197.472194672 0 -12542197.472194672 5238302.0436742306 0 0 0 0 -21699889.909497261 -30997686.75345552 0 -30997686.75345552 -24439433.388803005 0 0 0 0 -48188454.212921143 -49483327.954514503 0 -49483327.954514503 -37278813.749403477 0 0 0 0 -18167500.047758102 -21232665.382923841 0 -21232665.382923841 -5871121.5461118221 0 0 0 0 -14828400.697755098 -18060686.717535794 0 -18060686.717535794 -12673085.328587532 0 0 0 0 50013949.124061584 -30728017.033557892 0 -30728017.033557892 -6912423.2318359613 0 0 0 0 -46422111.726519823 -66036046.676929452 0 -66036046.676929452 -15778466.491499662 0 0 0 0 -129597.27277412103 156775.44484470063 0 156775.44484470063 -949223.47591705027 0 0 0 0 -2918328.4466953278 -7079277.3198624849 0 -7079277.3198624849 -889540.498960495 0 0 0 0 46981.665949980263 110877.12543719984 0 110877.12543719984 -421595.75914378278 0 0 0 0 -70490156.124158859 -26664640.206811905 0 -26664640.206811905 -4043267.2382268906 0 0 0 0 46717952.973698616 17271793.0414204 0 17271793.0414204 -22403991.301398516 0 0 0 0 121108.58989757416 -79953.714382792823 0 -79953.714382792823 -364045.85660070064 0 0 0 0 52244631.969020844 15137153.295667648 0 15137153.295667648 -39846856.581007302 0 0 0 0 -34940520.991140366 28866976.037539482 0 28866976.037539482 4204275.6396718025 0 0 0 0 -35667735.458577633 8180313.2220187187 0 8180313.2220187187 1771542.1902177334 0 0 0 0 81590.077328835148 -289109.27966300561 0 -289109.27966300561 -730017.06421284284 0 0 0 0 -39859717.823901415 47433621.917793572 0 47433621.917793572 -4359704.8379058838 0 0 0 0 52196358.787880898 -109782018.41525626 0 -109782018.41525626 -41809797.360252559 0 0 0 0 -40392.316450104816 -424367.97380529041 0 -424367.97380529041 -790060.85443929303 0 0 0 0 -16537888.002145767 24795639.708066225 0 24795639.708066225 -1377952.8032932281 0 0 0 0 -20256319.798287392 24236929.108622074 0 24236929.108622074 4526031.3039827347 0 0 0 0 -15515701.662248492 16826316.618754447 0 16826316.618754447 4665403.8717355728 0 0 0 0 -21380934.260382652 21530416.947139263 0 21530416.947139263 996726.15701675415 0 0 0 0 -24083549.289792061 12390257.335050344 0 12390257.335050344 17105841.007399082 0 0 0 0 -7303853.3162117004 6689258.2783048153 0 6689258.2783048153 -1028686.3673479557 0 0 0 0 7482255.10090065 -6007836.4760489464 0 -6007836.4760489464 -71260280.20295763 0 0 0 0 -12059378.756943226 -3574293.5034199953 0 -3574293.5034199953 -18346139.155923843 0 0 0 0 -24187720.026716232 -7455000.9783835411 0 -7455000.9783835411 59777101.093379974 0 0 0 0 -25589147.052990913 24703450.573129177 0 24703450.573129177 8181197.4717321396 0 0 0 0 7662567.7068309784 -37128655.816514969 0 -37128655.816514969 49516938.18736279 0 0 0 0 -12028214.38428688 12654249.788422585 0 12654249.788422585 15829422.945045471 0 0 0 0 1088641.3391036987 6937077.0095210075 0 6937077.0095210075 16661680.533624649 0 0 0 0 -12845487.056856155 896664.90142273903 0 896664.90142273903 33401338.308273554 0 0 0 0 -985996.77328634262 -802522.91112542152 0 -802522.91112542152 13965890.690888405 0 0 0 0 -980032.50616810843 41647.618882443756 0 41647.618882443756 11671231.618298531 0 0 0 0 1806320.5525579453 -5613521.7542459965 0 -5613521.7542459965 17757794.04278326 0 0 0 0 7029696.5419048071 19406787.680513203 0 19406787.680513203 -500678.70880699158 0 0 0 0 1815162.8450737 3897731.5294885635 0 3897731.5294885635 -904217.50464510918 0 0 0 0 12942038.2507658 -2779258.2293327451 0 -2779258.2293327451 -1776805.2337179184 0 0 0 0 -63679.868079866981 -446756.72656512959 0 -446756.72656512959 -704045.99357949989 0 0 0 0 -704135.35848239344 -95149.394349280512 0 -95149.394349280512 394130.02503425116 0 0 0 0 -636287.98701215908 -603764.55856365582 0 -603764.55856365582 67616.854327818612 0 0 0 0 2791105.7318841219 -8148094.1121067405 0 -8148094.1121067405 6245330.5692253113 0 0 0 0 -7159299.98670578 5323478.8684107065 0 5323478.8684107065 -11935574.888977051 0 0 0 0 -29649322.384845734 -22137509.927733421 0 -22137509.927733421 -13369143.322811127 0 0 0 0 -38204515.733510017 -41205702.055441141 0 -41205702.055441141 -18174754.937734604 0 0 0 0 -16761375.122337341 23204246.716345072 0 23204246.716345072 -4183248.2817025185 0 0 0 0 -57422949.420372605 -13340636.98385483 0 -13340636.98385483 9409948.4736871719 0 0 0 0 -46343567.909388542 28894037.475794315 0 28894037.475794315 16866407.203920841 0 0 0 0 -28741672.95580864 3671011.558950901 0 3671011.558950901 5788884.4273195267 0 0 0 0 -18886225.907990456 6212789.6268253326 0 6212789.6268253326 5212600.1538513899 0 0 0 0 -25675250.293848038 -51836.43129825592 0 -51836.43129825592 7665186.0465726852 0 0 0 0 -34491788.464051247 -9151143.738150835 0 -9151143.738150835 429567.7233171463 0 0 0 0 -4871350.9490451813 -8275586.6501069069 0 -8275586.6501069069 -10354749.404675484 0 0 0 0 3174262.1032218933 -5618156.8287723064 0 -5618156.8287723064 -12929137.514246464 0 0 0 0 -1071782.4325585477 -422477.47220767697 0 -422477.47220767697 -761020.0033612228 0 0 0 0 -12791506.443883896 3942994.2313802242 0 3942994.2313802242 646295.33033180237 0 0 0 0 -23052158.003507614 -2609396.2705111504 0 -2609396.2705111504 3177392.5842473507 0 0 0 0 -26876576.81385231 3453705.122695446 0 3453705.122695446 911124.57028865814 0 0 0 0 -1501122.8235442075 273939.72698260256 0 273939.72698260256 821303.24220616615 0 0 0 0 508625.94241830707 -614447.63360595703 0 -614447.63360595703 -365963.82332324982 0 0 0 0 -4867638.8523687124 -10384816.289993167 0 -10384816.289993167 4504703.1193521023 0 0 0 0 -304690.27885843255 -1475245.0820640365 0 -1475245.0820640365 -2396901.7928111525 0 0 0 0 -14243663.195439339 141591.83685660362 0 141591.83685660362 -12948937.17000103 0 0 0 0 -27850481.237026215 -3089227.9614605904 0 -3089227.9614605904 2033518.3921477795 0 0 0 0 -24106313.19521904 -1742443.8417272568 0 -1742443.8417272568 2472765.7771406174 0 0 0 0 -22740083.872069597 -44020561.155899167 0 -44020561.155899167 -19564282.798020363 0 0 0 0 199221.86463768175 -780214.66879247851 0 -780214.66879247851 -1904500.1096077822 0 0 0 0 -57596910.880869865 45582877.569401264 0 45582877.569401264 11370797.641067743 0 0 0 0 -1325391.0071051717 2382227.358101368 0 2382227.358101368 6629966.0533771515 0 0 0 0 -226094.04591318779 1123339.1891065869 0 1123339.1891065869 -637244.71047612908 0 0 0 0 990865.64877811179 -157971.25158604537 0 -157971.25158604537 -1138330.8997134715 0 0 0 0 13727821.459213119 13740511.082216501 0 13740511.082216501 1246695.2231826782 0 0 0 0 21452855.493208528 -18585038.739612222 0 -18585038.739612222 21763037.387652874 0 0 0 0 -32266230.822341919 -61343275.684991837 0 -61343275.684991837 -43864307.519010782 0 0 0 0 -90398387.389463425 -131221856.66576862 0 -131221856.66576862 -93102520.068969727 0 0 0 0 -15749.197728428058 -126003.26893029874 0 -126003.26893029874 -222818.74984260555 0 0 0 0 -3729135.5268449783 -17184679.860090733 0 -17184679.860090733 -103962063.91086864 0 0 0 0 -1044012.459394753 13621634.4670991 0 13621634.4670991 -11408446.079398155 0 0 0 0 -493212.57477839198 -152365.91520735133 0 -152365.91520735133 446960.11954261758 0 0 0 0 -5245025.0443100929 -2987024.5738856792 0 -2987024.5738856792 629487.74641609192 0 0 0 0 -232992.80893181637 -27054.245893232292 0 -27054.245893232292 211095.50498865475 0 0 0 0 -11511614.4522295 6294666.082212925 0 6294666.082212925 783718.13316633552 0 0 0 0 -16744424.049574256 -12417603.247123301 0 -12417603.247123301 18886851.970873833 0 0 0 0 -40834408.133079529 -3872001.836555481 0 -3872001.836555481 -20074847.799208641 0 0 0 0 -70198011.521945953 -60012216.023849726 0 -60012216.023849726 -1866109.1570739746 0 0 0 0 -99148322.458415031 -38193506.400594234 0 -38193506.400594234 15600717.105505228 0 0 0 0 46992953.780466914 -20538461.974948853 0 -20538461.974948853 -5010284.5158786774 0 0 0 0 -78991753.885406494 -80870386.54964447 0 -80870386.54964447 5405965.7430348396 0 0 0 0 -32324566.977425575 -78606430.872571468 0 -78606430.872571468 1614909.9582519531 0 0 0 0 -114668161.27304649 -39606978.946183681 0 -39606978.946183681 35721645.22257328 0 0 0 0 -32419468.658620834 -82911494.613729954 0 -82911494.613729954 -52979797.301151276 0 0 0 0 -215381527.0087409 -175855278.03686666 0 -175855278.03686666 128535121.8777113 0 0 0 0 23127483.826614022 -125420489.94251537 0 -125420489.94251537 -27043671.622467995 0 0 0 0 -1750655.0133635788 -212055.92558039271 0 -212055.92558039271 1316395.3917759252 0 0 0 0 -33472252.165034294 -11834146.877170324 0 -11834146.877170324 2814900.4810357094 0 0 0 0 20759928.39281559 208335666.20134211 0 208335666.20134211 -199822937.72466898 0 0 0 0 -45870805.506295204 -134064245.7582984 0 -134064245.7582984 -51867029.135155678 0 0 0 0 2761904.3206090927 -55469411.866891861 0 -55469411.866891861 -206904596.15143585 0 0 0 0 9328899.4185020924 -82118460.4950068 0 -82118460.4950068 -101471846.50037193 0 0 0 0 -37391124.860933304 -34369680.682418346 0 -34369680.682418346 -160484736.19029999 0 0 0 0 -289209021.9150362 1812743.7524747849 0 1812743.7524747849 59664452.352479458 0 0 0 0 264781.39992449339 -209658.03304615594 0 -209658.03304615594 -865389.58993699774 0 0 0 0 -226156373.70068383 112833854.80087781 0 112833854.80087781 -59896694.916451454 0 0 0 0 729208.7293106094 -105497.26678129565 0 -105497.26678129565 -774629.20316337259 0 0 0 0 -7823717.8142766953 -23301203.856121063 0 -23301203.856121063 -101076494.73488808 0 0 0 0 14488078.436065674 62941346.700300217 0 62941346.700300217 18671663.930662155 0 0 0 0 2598353.9085760191 15258349.325475097 0 15258349.325475097 -14812001.089809418 0 0 0 0 -97115519.458877921 -84592562.157664776 0 -84592562.157664776 -55476834.171216965 0 0 0 0 71433.961725472909 801460.13210321567 0 801460.13210321567 -380265.91151589435 0 0 0 0 124321991.96123308 -73589092.664625883 0 -73589092.664625883 -143622396.13956642 0 0 0 0 -37060948.005576134 -45761670.663589954 0 -45761670.663589954 -43250852.158670664 0 0 0 0 -25541204.613605499 -79662260.877763748 0 -79662260.877763748 -88627976.625887871 0 0 0 0 -3417849.1796159744 -76151983.157599449 0 -76151983.157599449 -103815991.43181032 0 0 0 0 -12965668.27712059 -88735023.66368103 0 -88735023.66368103 -85377002.532929659 0 0 0 0 -11779764.641062737 -86961990.972769737 0 -86961990.972769737 -85330214.985431671 0 0 0 0 -14374833.478696823 -22448263.319407463 0 -22448263.319407463 -27009488.454256058 0 0 0 0 -18526762.715753317 -69176018.45174408 0 -69176018.45174408 -23487166.996389389 0 0 0 0 -12000829.322220355 -85067837.57025075 0 -85067837.57025075 -113081542.83165932 0 0 0 0 -11095654.36165154 1148221.38463974 0 1148221.38463974 -79168715.026939392 0 0 0 0 -13066754.551343441 -3347047.1251149178 0 -3347047.1251149178 22149071.551048279 0 0 0 0 -25757026.361335754 -30540167.501060486 0 -30540167.501060486 5110544.8028526306 0 0 0 0 -47117083.709823608 -28060987.948580742 0 -28060987.948580742 42285711.161441803 0 0 0 0 -22142537.123439312 7059694.0667848587 0 7059694.0667848587 54010438.81835556 0 0 0 0 66839937.755484819 -18891946.375651121 0 -18891946.375651121 -74340071.672834396 0 0 0 0 49940843.129126549 -39738985.887327194 0 -39738985.887327194 -99797518.115427017 0 0 0 0 -43579231.159047961 -51881223.009698868 0 -51881223.009698868 -21142615.817876816 0 0 0 0 -57118169.729102194 -8102804.9357509613 0 -8102804.9357509613 4979188.4310760498 0 0 0 0 -22433896.596046448 -30708432.360427856 0 -30708432.360427856 7448451.082118988 0 0 0 0 -29672379.181861877 -39592383.432817936 0 -39592383.432817936 63505639.311180115 0 0 0 0 -44862183.769405752 -19025026.965466499 0 -19025026.965466499 87728752.899597168 0 0 0 0 -17841569.459441006 -16155215.116840363 0 -16155215.116840363 10436896.535655975 0 0 0 0 2402172.2361944914 28234102.794542313 0 28234102.794542313 50367149.321563721 0 0 0 0 -1739857.6769967566 -454567.13116097054 0 -454567.13116097054 -339531.27148311585 0 0 0 0 -19365729.206001401 -39442413.974991798 0 -39442413.974991798 39841591.61294806 0 0 0 0 -51459802.309871972 17254697.865762949 0 17254697.865762949 4077306.7619838715 0 0 0 0 -4279686.8080657125 5279210.4404592514 0 5279210.4404592514 2373349.9985380173 0 0 0 0 -849497.94306673948 375881.25545499288 0 375881.25545499288 732221.29399673035 0 0 0 0 -24137755.316736221 -58907730.057706833 0 -58907730.057706833 91878660.500365973 0 0 0 0 -5002355.1785820816 146175.54302838724 0 146175.54302838724 2389736.058051575 0 0 0 0 -6703903.7804336548 -5167779.682410717 0 -5167779.682410717 353431.44415283203 0 0 0 0 -1529410.3331274986 653670.95204925537 0 653670.95204925537 21760265.184642792 0 0 0 0 2067743.9702701569 8455557.6531391144 0 8455557.6531391144 37179480.626086235 0 0 0 0 -3173227.3962614648 -4621943.7018639129 0 -4621943.7018639129 -194195.57421009289 0 0 0 0 8815284.219335556 -26225429.951934814 0 -26225429.951934814 37347296.313850403 0 0 0 0 -10555540.681012154 -58982713.30789566 0 -58982713.30789566 48113976.041708946 0 0 0 0 -28992866.463438153 -4438244.9661402702 0 -4438244.9661402702 56831880.272975922 0 0 0 0 10189754.069870472 -40263728.074337006 0 -40263728.074337006 60824530.000608444 0 0 0 0 19729676.807278156 3581183.6130447388 0 3581183.6130447388 109572655.60742188 0 0 0 0 -163217.20787134406 -44865.115583275678 0 -44865.115583275678 20733.317014791071 0 0 0 0 -5725675.0791883469 -3384124.4826683998 0 -3384124.4826683998 1099266.2025299072 0 0 0 0 -17865862.835232496 -555605.71452128887 0 -555605.71452128887 4584440.0646743774 0 0 0 0 -3549330.5849262327 -1227815.5390772757 0 -1227815.5390772757 2632883.8772803191 0 0 0 0 4807774.6789703369 29973850.475728989 0 29973850.475728989 58636291.622200012 0 0 0 0 -23445349.107365608 -6609344.9981020689 0 -6609344.9981020689 1191206.0558633804 0 0 0 0 -51142916.842693806 -86174092.290734053 0 -86174092.290734053 66581736.556333542 0 0 0 0 -32339201.753497124 4139339.067615509 0 4139339.067615509 97182998.611698627 0 0 0 0 -5795043.4560732841 -22776413.257016659 0 -22776413.257016659 -8029875.9036550522 0 0 0 0 11548111.908425331 20033343.018830299 0 20033343.018830299 15676632.737632751 0 0 0 0 33941646.994908333 -19626855.007498264 0 -19626855.007498264 -51002586.717069626 0 0 0 0 28079343.756557465 7535389.1705229282 0 7535389.1705229282 24193123.065607071 0 0 0 0 -577463.40475480026 551504.06069828151 0 551504.06069828151 512727.79418189917 0 0 0 0 -13614523.140553951 -33533722.251518488 0 -33533722.251518488 -22810105.591520309 0 0 0 0 -24481174.083937407 -45005045.951512337 0 -45005045.951512337 -4008016.8385782242 0 0 0 0 -9315343.2086396217 -24834255.65178299 0 -24834255.65178299 -15711223.513131142 0 0 0 0 -46693146.239215612 16363738.754834652 0 16363738.754834652 17523778.887784958 0 0 0 0 -45255528.716597557 9538571.6470952034 0 9538571.6470952034 -6753774.8512611389 0 0 0 0 -173223.54655309819 205434.88615770475 0 205434.88615770475 -519053.96258564573 0 0 0 0 -15752318.730013371 -34850042.940389156 0 -34850042.940389156 -67444369.838203907 0 0 0 0 -175480326.44696045 -1484013.0289521217 0 -1484013.0289521217 -8237298.4358587265 0 0 0 0 -82134120.097814083 24205286.771702766 0 24205286.771702766 -12448454.795929909 0 0 0 0 -95565839.842421234 -51708899.523966432 0 -51708899.523966432 -23045702.893968582 0 0 0 0 -3970104.4877130389 -31136093.40385741 0 -31136093.40385741 -38565512.717079163 0 0 0 0 -15628097.055669308 -29200459.354342937 0 -29200459.354342937 -26609518.033123016 0 0 0 0 23685862.36038208 -12763219.672062635 0 -12763219.672062635 -63789737.187469959 0 0 0 0 -2029815.9718878269 52563045.542467475 0 52563045.542467475 15633368.130894184 0 0 0 0 22738688.248475075 38718092.395505905 0 38718092.395505905 -119378976.13931124 0 0 0 0 -112077882.22147655 -105550842.57892609 0 -105550842.57892609 -111521917.60610199 0 0 0 0 -76102960.710252523 -23394638.347695589 0 -23394638.347695589 64089208.304844856 0 0 0 0 -15590490.324050903 -14716472.609342575 0 -14716472.609342575 64453439.783835322 0 0 0 0 -7984861.0922813416 3891102.9812550545 0 3891102.9812550545 54328497.582656503 0 0 0 0 -31711084.854018688 -20358767.214081764 0 -20358767.214081764 6785362.8662333488 0 0 0 0 -1058398.3857810576 1006569.6021510498 0 1006569.6021510498 940644.20119267865 0 0 0 0 -14168572.578295708 -26835527.963626862 0 -26835527.963626862 -11088899.033073425 0 0 0 0 3494967.0879917145 -15057233.333621383 0 -15057233.333621383 -12060807.532151937 0 0 0 0 -11925223.97624588 -37978999.418822527 0 -37978999.418822527 -36992814.248393059 0 0 0 0 27298232.942172527 13592512.59822762 0 13592512.59822762 -15395915.636412621 0 0 0 0 -1069295.9137288649 1031506.4129807558 0 1031506.4129807558 924245.96236967295 0 0 0 0 36368742.296201706 12415953.321171761 0 12415953.321171761 -34573773.089291096 0 0 0 0 14062383.905659676 -5249232.3751792908 0 -5249232.3751792908 -16174129.009074211 0 0 0 0 25951136.364226341 -12355257.402618527 0 -12355257.402618527 -76878092.673039436 0 0 0 0 -47682458.987205505 -77089818.750915289 0 -77089818.750915289 -51957326.272877693 0 0 0 0 -8297000.7433052063 -33597106.660451412 0 -33597106.660451412 -4329191.9665088654 0 0 0 0 -8395405.5811729431 -30456999.453458548 0 -30456999.453458548 -12054665.80175972 0 0 0 0 -3051502.4972934723 -21639812.638433695 0 -21639812.638433695 -36055601.187188625 0 0 0 0 -13133535.242359161 -31575050.27989769 0 -31575050.27989769 -12286889.339645147 0 0 0 0 -2996189.5887031555 -20563803.622337818 0 -20563803.622337818 -15567744.108228445 0 0 0 0 20401416.264814377 11804911.846869826 0 11804911.846869826 1518025.7513587475 0 0 0 0 -10185355.309410572 2238764.6958904266 0 2238764.6958904266 10212622.52087754 0 0 0 0 17196713.807722569 8758033.5122156739 0 8758033.5122156739 18262065.975743294 0 0 0 0 -625129.93904057099 -560434.96080197592 0 -560434.96080197592 479952.74835986207 0 0 0 0 2905187.7733078003 17400058.516073227 0 17400058.516073227 460207.90918540955 0 0 0 0 -22890293.881205559 -70012425.472157001 0 -70012425.472157001 -51560419.334446929 0 0 0 0 -168823.01964664459 -30296077.263647318 0 -30296077.263647318 -52927899.291410446 0 0 0 0 -54301720.435630798 13180196.878435135 0 13180196.878435135 13319400.291535378 0 0 0 0 -692507.71631338866 -466134.34780612914 0 -466134.34780612914 632868.61627658084 0 0 0 0 -74077693.510296822 -65323394.471462011 0 -65323394.471462011 5383062.3776687235 0 0 0 0 15895542.538579702 29068039.760477543 0 29068039.760477543 8210035.9283611774 0 0 0 0 6573308.5272293091 3584789.6755470857 0 3584789.6755470857 15691604.425283074 0 0 0 0 -51921364.21105957 35358012.019669533 0 35358012.019669533 1008565.2029649317 0 0 0 0 -77936166.528495789 -7767878.4280290604 0 -7767878.4280290604 31017032.761617661 0 0 0 0 -115742822.24167663 -35916996.463097528 0 -35916996.463097528 7988472.8838143349 0 0 0 0 -114178712.41749209 14767550.729865044 0 14767550.729865044 13901993.139793396 0 0 0 0 -24551006.383577347 34110787.606857538 0 34110787.606857538 -4380330.2475054264 0 0 0 0 -35933321.577518463 2518111.060295105 0 2518111.060295105 14000369.42182523 0 0 0 0 -33541525.644723892 9516530.3399410918 0 9516530.3399410918 32667325.830944479 0 0 0 0 -41094291.879169464 -984407.76702775434 0 -984407.76702775434 55850565.268864691 0 0 0 0 11457356.490685463 26963298.152342558 0 26963298.152342558 27191187.070472956 0 0 0 0 -10620571.120146751 -6943614.12920928 0 -6943614.12920928 -5129811.8212677836 0 0 0 0 -1468708.4100476764 -1329480.0084458361 0 -1329480.0084458361 285815.90632216289 0 0 0 0 11965941.30264473 12066823.098773301 0 12066823.098773301 16632444.607742965 0 0 0 0 -32959207.116035253 7110169.6363714635 0 7110169.6363714635 37177042.074970245 0 0 0 0 -333604.68028567184 550942.11985195742 0 550942.11985195742 72889.853366396157 0 0 0 0 7311037.2151041031 1333095.5174944401 0 1333095.5174944401 -6261785.1550973058 0 0 0 0 -28724989.55755043 -7840538.8114347532 0 -7840538.8114347532 -70668518.889669776 0 0 0 0 33844137.259679794 -28338056.847806931 0 -28338056.847806931 32832513.924053907 0 0 0 0 -549166.1325807058 512447.98207303393 0 512447.98207303393 513388.82523066795 0 0 0 0 81769065.019622505 -2358049.1173236519 0 -2358049.1173236519 -31611759.590635777 0 0 0 0 43678409.961499691 -16368813.688772976 0 -16368813.688772976 -62893352.24290514 0 0 0 0 -30145050.437141642 -45098452.711418405 0 -45098452.711418405 -10947037.843347073 0 0 0 0 -38753859.062403202 -42399823.206439301 0 -42399823.206439301 -11625801.339619994 0 0 0 0 -32455103.969163895 -43632742.067106485 0 -43632742.067106485 -51041772.698714256 0 0 0 0 -31152466.667545319 -11996396.180523157 0 -11996396.180523157 8749193.6026505306 0 0 0 0 -46323686.389613628 -17204316.58603444 0 -17204316.58603444 25598314.731993645 0 0 0 0 2686827.3062667847 7797881.2933900356 0 7797881.2933900356 32677914.713450581 0 0 0 0 17078528.03016758 -25063898.136819482 0 -25063898.136819482 -18353345.98674202 0 0 0 0 36176623.090669632 7093748.5893236399 0 7093748.5893236399 10035527.691383123 0 0 0 0 5313421.8198451996 -10711324.434289098 0 -10711324.434289098 57516822.697772264 0 0 0 0 287151.66118586063 -894191.03618359566 0 -894191.03618359566 -670527.02531290054 0 0 0 0 -6466534.5902047157 -7711566.6075387001 0 -7711566.6075387001 -3586721.9739527106 0 0 0 0 -1361999.5081887057 345569.83871579531 0 345569.83871579531 428847.72727029695 0 0 0 0 -452912.75639901677 -1286611.5619498666 0 -1286611.5619498666 -1549394.6635347412 0 0 0 0 -95608.983769178391 -185284.68547967076 0 -185284.68547967076 -158575.9298157692 0 0 0 0 -2034860.2284018171 -1197457.4311941997 0 -1197457.4311941997 -465947.36742690089 0 0 0 0 -107407.90834854799 -171978.30240637064 0 -171978.30240637064 -555230.65942148876 0 0 0 0 -81644.680544376373 -1123843.235199213 0 -1123843.235199213 -617847.01591300964 0 0 0 0 -418710.5263531208 -1361141.3199136257 0 -1361141.3199136257 -477312.95307254791 0 0 0 0 -68524.872260272503 -1037537.3188097179 0 -1037537.3188097179 -214175.06923818588 0 0 0 0 -1253771.3417485184 -2154324.2473369632 0 -2154324.2473369632 -1619040.2643314211 0 0 0 0 -2993416.8850018252 -2451764.7912770524 0 -2451764.7912770524 -2889548.5140527906 0 0 0 0 -3935498.3230409622 316544.55736899376 0 316544.55736899376 -676338.12392282486 0 0 0 0 -3394129.4296021815 -2251286.1747352965 0 -2251286.1747352965 -1204893.2309265407 0 0 0 0 -256248.34903118014 -922440.52101141214 0 -922440.52101141214 153133.23189973831 0 0 0 0 -2432813.4350670879 -737922.00261380826 0 -737922.00261380826 -189887.30249439168 0 0 0 0 14300136.413732529 -23395207.008965015 0 -23395207.008965015 61548165.147840559 0 0 0 0 -1298944.0824392077 -1485672.17934058 0 -1485672.17934058 -1089389.3800679683 0 0 0 0 12673303.529062271 -7121015.7883384228 0 -7121015.7883384228 45072232.519125938 0 0 0 0 -4590753.9554650187 -6627153.2722118497 0 -6627153.2722118497 3192908.5044870377 0 0 0 0 -7867391.4765045643 -5124800.5360304117 0 -5124800.5360304117 4256687.1672334671 0 0 0 0 -2536545.5325905494 39835.706167203083 0 39835.706167203083 917722.16546407226 0 0 0 0 -11467641.356317878 -2176993.1492804289 0 -2176993.1492804289 4245375.4088363647 0 0 0 0 -413591.12382928061 -234385.42715525092 0 -234385.42715525092 94596.014413740952 0 0 0 0 -7023314.9768269062 476177.04357862473 0 476177.04357862473 4027547.5581150055 0 0 0 0 -965872.79482448101 -1242039.1976066828 0 -1242039.1976066828 419286.06634664536 0 0 0 0 -5672992.7601613998 -1063344.3771929741 0 -1063344.3771929741 5304858.7326216698 0 0 0 0 -2757696.2081251144 -3271450.8757693768 0 -3271450.8757693768 3943395.6814069748 0 0 0 0 -1352218.5564850043 -1344986.6128269383 0 -1344986.6128269383 -39771.255351565778 0 0 0 0 -3204991.4355964661 -602595.82524585724 0 -602595.82524585724 -762709.15117239952 0 0 0 0 -15374242.204433441 50118.404150485992 0 50118.404150485992 -5923855.0397123098 0 0 0 0 -17490155.144827962 -10570057.480104998 0 -10570057.480104998 -2727875.2082905769 0 0 0 0 -3994594.4706578255 -5605113.1359514892 0 -5605113.1359514892 -5014525.6516185999 0 0 0 0 -27351680.661176682 15831083.505612612 0 15831083.505612612 60359337.067813277 0 0 0 0 2250609.9152851105 -5391007.5585758686 0 -5391007.5585758686 -2801110.8915892839 0 0 0 0 -2391680.4167741705 -2296571.315388809 0 -2296571.315388809 44524.527189628541 0 0 0 0 641440.75138473511 -2190582.1506052017 0 -2190582.1506052017 -1659210.009362936 0 0 0 0 -407823.25959968567 -227897.91959822178 0 -227897.91959822178 -5330299.4964900017 0 0 0 0 2470116.7791213989 -4510068.6398682594 0 -4510068.6398682594 -6788749.127871871 0 0 0 0 875179.42450666428 837678.87684059143 0 837678.87684059143 1628596.526889801 0 0 0 0 -5132016.7345371246 -2990343.0402247906 0 -2990343.0402247906 81630.387734413147 0 0 0 0 -3285832.3432137296 -3134578.2883681161 0 -3134578.2883681161 -3610219.0263581872 0 0 0 0 -7358447.4507722855 -8627214.6445116997 0 -8627214.6445116997 534128.57493495941 0 0 0 0 -8878826.951587677 -9556285.7884144783 0 -9556285.7884144783 -10419749.933497071 0 0 0 0 -571930.00722650299 -107468.70113116037 0 -107468.70113116037 192220.63296422362 0 0 0 0 -22761630.860441208 -3853033.9804778099 0 -3853033.9804778099 399606.14761638641 0 0 0 0 -3927005.2104744911 -1685657.5210027695 0 -1685657.5210027695 587491.17399787903 0 0 0 0 -3771172.5656726519 -625300.44759522239 0 -625300.44759522239 78098.820406417362 0 0 0 0 -5642734.2958598137 -3616714.7433798909 0 -3616714.7433798909 -837798.35513734818 0 0 0 0 -14951258.906231403 -8210613.6138555706 0 -8210613.6138555706 -8577560.3731576204 0 0 0 0 -1335372.565164607 204398.2037727721 0 204398.2037727721 455877.82351787598 0 0 0 0 2833341.1976089478 -3747557.1726124287 0 -3747557.1726124287 -1195657.8706455231 0 0 0 0 -22612510.724308014 -6686495.3825434744 0 -6686495.3825434744 2816393.7034913469 0 0 0 0 -4621809.0801963806 -10356300.185195446 0 -10356300.185195446 2215912.7663865387 0 0 0 0 -12508969.084863663 -5357100.6028614938 0 -5357100.6028614938 2655315.0259523392 0 0 0 0 -8406732.305141449 12168665.462553859 0 12168665.462553859 3120560.7874091789 0 0 0 0 -3864697.3599104732 -147778.00145483389 0 -147778.00145483389 1309420.1082835386 0 0 0 0 -13365482.299110293 -29803966.20464462 0 -29803966.20464462 -9647017.1799781322 0 0 0 0 -3172757.648209204 -359364.49874370871 0 -359364.49874370871 1961066.952091333 0 0 0 0 -10697717.908240438 1950910.724111788 0 1950910.724111788 1745931.461179018 0 0 0 0 -4667972.4863243103 -2864564.5209404528 0 -2864564.5209404528 -1825095.4102199674 0 0 0 0 -22855856.575494766 7090944.637670815 0 7090944.637670815 -7191603.5001140833 0 0 0 0 -3153811.3706464767 -4777.341809919104 0 -4777.341809919104 -2115892.7527904361 0 0 0 0 -2000328.9710254669 -6758797.8598788977 0 -6758797.8598788977 -2888770.2325787842 0 0 0 0 -436396.86883354187 -5000448.2647111416 0 -5000448.2647111416 4147519.4448113441 0 0 0 0 -2375766.534277916 -8461030.2754626274 0 -8461030.2754626274 3151041.5038616657 0 0 0 0 2780215.9383997917 -4384749.1226447225 0 -4384749.1226447225 -22810967.090967536 0 0 0 0 -10081776.679092407 45275546.651549339 0 45275546.651549339 22153418.247440338 0 0 0 0 -13015458.082466125 -31806708.744666576 0 -31806708.744666576 6156446.7161476612 0 0 0 0 -469331.87487983704 30414855.083565712 0 30414855.083565712 2126844.7556858063 0 0 0 0 16898633.568439484 -4962824.6552143097 0 -4962824.6552143097 -2527157.2176597118 0 0 0 0 -15093118.846557617 34337440.550471306 0 34337440.550471306 46700165.716345966 0 0 0 0 -1234636.8542157859 -955490.40585169662 0 -955490.40585169662 849865.85199889669 0 0 0 0 15261856.467634678 399741.95944827795 0 399741.95944827795 25930421.686450481 0 0 0 0 -891668.2315788269 4107905.2457551956 0 4107905.2457551956 41724975.904031038 0 0 0 0 -621717.31936359964 -586900.30629108823 0 -586900.30629108823 266299.40769116598 0 0 0 0 -12963049.553525925 -21066295.569882169 0 -21066295.569882169 -26770485.928370707 0 0 0 0 5942338.7785968781 1648388.4907383323 0 1648388.4907383323 -2153115.4864001423 0 0 0 0 1812276.408618927 6558593.0538057089 0 6558593.0538057089 23528373.737400174 0 0 0 0 -4338083.2286777496 -12581443.666061342 0 -12581443.666061342 -2552736.2927152291 0 0 0 0 2512458.0136289597 -8461792.8176862672 0 -8461792.8176862672 -20019925.994998261 0 0 0 0 -30023321.831854343 -15348801.45768627 0 -15348801.45768627 -6107550.6336641163 0 0 0 0 40163466.121772468 -105212169.79235852 0 -105212169.79235852 13116917.509854794 0 0 0 0 -34307103.985533714 8491872.504565537 0 8491872.504565537 16340845.713802814 0 0 0 0 6190216.0540485382 21308796.312638372 0 21308796.312638372 4865272.4860758036 0 0 0 0 -2109933.1889392543 630410.50928620109 0 630410.50928620109 -414712.63862015383 0 0 0 0 2899673.8618130684 -1930543.0977842212 0 -1930543.0977842212 13787695.7792629 0 0 0 0 -18201281.960469961 15801974.677107245 0 15801974.677107245 2881670.6610481739 0 0 0 0 -48309849.690205097 19480469.246381938 0 19480469.246381938 5798794.1346318722 0 0 0 0 19280140.226038933 45192886.020037055 0 45192886.020037055 13216613.18732512 0 0 0 0 13733689.336291313 -1148618.5827945471 0 -1148618.5827945471 -14512633.357127994 0 0 0 0 11378965.34704423 14218575.560047194 0 14218575.560047194 -88045649.819844365 0 0 0 0 33503674.321933985 15737859.516211316 0 15737859.516211316 -29201595.094708681 0 0 0 0 -39886451.853170991 -43079443.77998431 0 -43079443.77998431 -29770166.34294188 0 0 0 0 -135560096.47716331 122697022.91120863 0 122697022.91120863 -103375801.59573126 0 0 0 0 -11228518.638113737 3407416.466231375 0 3407416.466231375 2619686.7339771446 0 0 0 0 -13878885.24835813 -31771214.826879896 0 -31771214.826879896 -11613856.918211222 0 0 0 0 -42104684.066757202 -10739590.529075682 0 -10739590.529075682 -26695539.273011029 0 0 0 0 -675121.5128527293 180695.70779548888 0 180695.70779548888 -95202.042453107773 0 0 0 0 -86864042.053364754 138802710.44694406 0 138802710.44694406 -87946733.27197504 0 0 0 0 -10127640.092345256 2480140.4012580053 0 2480140.4012580053 2999371.0916784625 0 0 0 0 -338861481.14514351 219653502.66788816 0 219653502.66788816 -159060968.21728992 0 0 0 0 153536953.71844864 -195091055.84118891 0 -195091055.84118891 51014398.330572546 0 0 0 0 -33815603.782226562 -49548039.43166399 0 -49548039.43166399 -32501746.412566662 0 0 0 0 -35939504.593128204 -9530075.9973982573 0 -9530075.9973982573 -27849926.091371104 0 0 0 0 -17500662.893733978 10534816.336230278 0 10534816.336230278 -3543240.798027128 0 0 0 0 -6130584.0121049881 -6176631.4186090231 0 -6176631.4186090231 3294299.8296818733 0 0 0 0 -6319279.42760849 -3740773.1314129829 0 -3740773.1314129829 10092531.299336195 0 0 0 0 -2565648.8967568949 -788920.99633373227 0 -788920.99633373227 2446004.201137213 0 0 0 0 -29953367.070325851 -639589.52688091993 0 -639589.52688091993 -6358116.1569796801 0 0 0 0 -26175270.806944847 -18338526.038979806 0 -18338526.038979806 -26542989.188318372 0 0 0 0 -44912764.766582489 -22419223.421424329 0 -22419223.421424329 -9303877.5924391821 0 0 0 0 -51457089.145412445 -42681106.659033298 0 -42681106.659033298 -8026384.4761320353 0 0 0 0 -41795599.103634834 -29792282.552906811 0 -29792282.552906811 -9053154.4463467598 0 0 0 0 -16419840.196292877 -18812408.027285576 0 -18812408.027285576 -5403179.9635586739 0 0 0 0 -40136945.832561433 52586249.674818993 0 52586249.674818993 -30573720.562054038 0 0 0 0 -12059514.280300345 4140510.1356816306 0 4140510.1356816306 2206797.3609364829 0 0 0 0 9182502.7343206406 30741766.033661723 0 30741766.033661723 -6240692.7664384842 0 0 0 0 -1341296.0540714636 -2118138.8311579768 0 -2118138.8311579768 2704212.0765582873 0 0 0 0 -50879484.822337866 -34133352.882516593 0 -34133352.882516593 34319034.999457359 0 0 0 0 28266132.783203125 -72709793.515849113 0 -72709793.515849113 -61974006.410376549 0 0 0 0 -1956377.1355140097 -1373147.6868410381 0 -1373147.6868410381 2740177.9511783053 0 0 0 0 -11465940.987184525 14949731.944997072 0 14949731.944997072 29901536.663729191 0 0 0 0 -36291947.836141586 -16983006.456114769 0 -16983006.456114769 14982992.383597136 0 0 0 0 -3993925.371887207 14117009.608541965 0 14117009.608541965 -10100876.744379044 0 0 0 0 -597011.53022968955 -562283.05639504828 0 -562283.05639504828 464209.40406997083 0 0 0 0 -11575404.184898376 -29284905.964040518 0 -29284905.964040518 -23702248.374090433 0 0 0 0 -8393100.7684059143 -3518142.2405059338 0 -3518142.2405059338 -2214891.4127755165 0 0 0 0 -6434097.6396491528 -9808217.3450622112 0 -9808217.3450622112 5044628.4111702442 0 0 0 0 -6326300.7190461159 -9421482.260968864 0 -9421482.260968864 5015766.8534393311 0 0 0 0 -1188067.6056818804 -973737.60377672641 0 -973737.60377672641 838492.72387666313 0 0 0 0 -505054.01621246338 -14122009.143210888 0 -14122009.143210888 -15503374.252780914 0 0 0 0 10198940.948541641 -5436007.8214225769 0 -5436007.8214225769 -16729506.582166672 0 0 0 0 -8022610.3907012939 -7068918.4644885063 0 -7068918.4644885063 -16431109.024684906 0 0 0 0 -7442146.4465093613 -8649297.7887356281 0 -8649297.7887356281 -13393867.161251068 0 0 0 0 -8010414.6008672714 -9804094.0202981234 0 -9804094.0202981234 -12042096.234968185 0 0 0 0 -1041310.0733263334 54803.588063314557 0 54803.588063314557 361744.55550170317 0 0 0 0 9404494.1716709137 -4372553.1322498322 0 -4372553.1322498322 -4092573.61095047 0 0 0 0 -20412724.969455719 -9356670.9099836349 0 -9356670.9099836349 -6954308.2611546516 0 0 0 0 -27682322.545526505 -11618620.094709396 0 -11618620.094709396 -7543713.2620048523 0 0 0 0 -10687100.902141571 -10019565.02943325 0 -10019565.02943325 -13894372.078865051 0 0 0 0 -15607306.517382622 -3056164.5808420181 0 -3056164.5808420181 -9027134.936668396 0 0 0 0 -13633373.827411652 -2055653.9130592346 0 -2055653.9130592346 -8547126.6385087967 0 0 0 0 -14199875.607852936 47891.954702377319 0 47891.954702377319 -563143.85518836975 0 0 0 0 -11232143.076643944 5907636.9496645927 0 5907636.9496645927 -2997834.1593532562 0 0 0 0 8640993.4856858253 7228684.612228334 0 7228684.612228334 -13592230.714893341 0 0 0 0 -3061077.0684127808 -1348921.5109529495 0 -1348921.5109529495 -12147448.406363487 0 0 0 0 -9884376.1311950684 5522497.8205728531 0 5522497.8205728531 -13730634.153471947 0 0 0 0 -24590510.106193542 13147931.313918114 0 13147931.313918114 -5561611.174264431 0 0 0 0 -12341526.041992188 1161961.5726795197 0 1161961.5726795197 -4523597.036683321 0 0 0 0 -16945212.202207088 -9622846.2900142074 0 -9622846.2900142074 8297433.3488798141 0 0 0 0 21408828.510902405 -15352556.092233181 0 -15352556.092233181 -19264093.33123374 0 0 0 0 -27878816.530076027 -3143741.3104291558 0 -3143741.3104291558 6317225.6225070953 0 0 0 0 -5574297.3559713364 42981061.660928488 0 42981061.660928488 18267902.508500099 0 0 0 0 -2449124.4333972931 -19493680.636870384 0 -19493680.636870384 -11252476.096684933 0 0 0 0 -36720549.892534256 -59437113.993618011 0 -59437113.993618011 -67173603.937068105 0 0 0 0 33997893.445707321 20189747.563553095 0 20189747.563553095 -86753296.352084279 0 0 0 0 -56140966.112342834 1667088.8350586891 0 1667088.8350586891 47450853.916633606 0 0 0 0 -1287942.932036953 -789206.29686649702 0 -789206.29686649702 1114895.8712925464 0 0 0 0 -20686681.531242371 3157056.5090239048 0 3157056.5090239048 13238962.941049099 0 0 0 0 -105669970.39343643 -35750106.858459115 0 -35750106.858459115 42428038.175543785 0 0 0 0 -1218980.3835022328 -725044.52147196583 0 -725044.52147196583 1038069.481044383 0 0 0 0 21072727.879481316 -12814746.644158125 0 -12814746.644158125 -10321511.318431854 0 0 0 0 -12726812.30916214 -2296834.8494772911 0 -2296834.8494772911 38975286.438487291 0 0 0 0 -22397315.455049515 7184825.7557229996 0 7184825.7557229996 18967959.328908682 0 0 0 0 -1362118.5660642097 -1011298.5481595742 0 -1011298.5481595742 902514.08389148 0 0 0 0 -2511566.1809711456 -8561794.8706688881 0 -8561794.8706688881 4812686.2555117607 0 0 0 0 14943569.24325037 -21634970.585890651 0 -21634970.585890651 -15121332.276876926 0 0 0 0 -20778493.891490936 16696306.433728218 0 16696306.433728218 16677087.787751436 0 0 0 0 5344306.9472751617 6730816.4106359482 0 6730816.4106359482 -16887026.946491241 0 0 0 0 -610998.16770315077 -392080.76789968973 0 -392080.76789968973 545522.28648279817 0 0 0 0 16184557.550749779 -5703488.8514928818 0 -5703488.8514928818 -29302028.034007072 0 0 0 0 -7972806.0567760468 -13781276.849559784 0 -13781276.849559784 -23963042.173509598 0 0 0 0 -15651902.562437057 -9603981.5578746796 0 -9603981.5578746796 -11255833.343741417 0 0 0 0 -10212306.304588318 940124.44435119629 0 940124.44435119629 -18559595.878953934 0 0 0 0 -2691809.0029907227 -3994063.1035900116 0 -3994063.1035900116 -16299352.179708958 0 0 0 0 -822389.71599578857 -12314797.831737518 0 -12314797.831737518 -10190951.632840931 0 0 0 0 -5842741.5408592224 -11846944.814762115 0 -11846944.814762115 -10169226.47089386 0 0 0 0 -8181448.7693872452 -6285269.1986577511 0 -6285269.1986577511 -9542523.864320755 0 0 0 0 -1837770.6048851013 -6308687.0448131561 0 -6308687.0448131561 -9678779.669980526 0 0 0 0 -3077758.3734354973 -8988661.9615288973 0 -8988661.9615288973 -5378214.8742427826 0 0 0 0 971285.19327545166 -10316696.653207779 0 -10316696.653207779 -6966536.5754384995 0 0 0 0 -241386.69750595093 -11899757.657182693 0 -11899757.657182693 -2106014.7556068897 0 0 0 0 -1615645.105597496 -5921089.9611067772 0 -5921089.9611067772 -12849542.38524437 0 0 0 0 -3465974.5272197723 -10890328.351135254 0 -10890328.351135254 -22124197.467310905 0 0 0 0 -12753997.030406952 -9910004.506070137 0 -9910004.506070137 -9787376.1259212494 0 0 0 0 -2490877.2588729858 -7116729.1540478468 0 -7116729.1540478468 -13604836.053964615 0 0 0 0 -7309792.2280235291 -12890258.596131325 0 -12890258.596131325 -6969838.7462520599 0 0 0 0 -7942419.6213722229 -10776529.120584488 0 -10776529.120584488 -10809577.23183918 0 0 0 0 -33893978.141309738 -12553725.061528206 0 -12553725.061528206 -6337349.1964707375 0 0 0 0 -15070776.227417469 -17065189.278199077 0 -17065189.278199077 -20865136.069080353 0 0 0 0 -9256870.5861740112 -12883613.645187378 0 -12883613.645187378 -20007420.545849681 0 0 0 0 -29555286.580760002 -34972330.498771429 0 -34972330.498771429 -33013382.258536339 0 0 0 0 -8151353.4663047791 -7975816.2390477657 0 -7975816.2390477657 -33210185.632791519 0 0 0 0 -438364.49740153685 706784.52579759574 0 706784.52579759574 -416967.78736547846 0 0 0 0 25601118.415823936 10911257.533071041 0 10911257.533071041 -21629989.17078495 0 0 0 0 -119941514.85336971 -35907954.656057596 0 -35907954.656057596 -8034135.841006279 0 0 0 0 -55069171.369029045 -5230480.3256499767 0 -5230480.3256499767 -9785709.7720241547 0 0 0 0 -31463759.82594347 -7233755.2212440968 0 -7233755.2212440968 -10083075.947577477 0 0 0 0 -33176972.115739822 -10013682.836209297 0 -10013682.836209297 -5107132.6885194778 0 0 0 0 -42998251.667129993 -806119.99935007095 0 -806119.99935007095 1381540.1113529205 0 0 0 0 -1861033.3018595194 869842.98112868844 0 869842.98112868844 -1007883.6027728552 0 0 0 0 -24513778.303185463 2041655.1285045147 0 2041655.1285045147 103896.72868156433 0 0 0 0 -18331886.369567871 -4281127.9005961418 0 -4281127.9005961418 5100115.9137730598 0 0 0 0 -9410579.8769779205 -11120783.112742424 0 -11120783.112742424 3506735.895162344 0 0 0 0 -15875212.435211182 -7487823.7812862396 0 -7487823.7812862396 2851883.7151470184 0 0 0 0 -29379767.868930817 -5634185.4274153709 0 -5634185.4274153709 -1266131.3959131241 0 0 0 0 -18869100.37340498 -10441227.728702784 0 -10441227.728702784 -20336.465236663818 0 0 0 0 -16787752.057603836 -11410383.954345703 0 -11410383.954345703 -6566361.2365570068 0 0 0 0 -17309603.69735384 -13700363.4519068 0 -13700363.4519068 -2526072.6118850708 0 0 0 0 -8816505.2538394928 -10326678.495684624 0 -10326678.495684624 -1560962.6516742706 0 0 0 0 -5535311.873749733 -17030687.713071108 0 -17030687.713071108 2171541.1547966003 0 0 0 0 -7235466.8674125671 -10393308.380425453 0 -10393308.380425453 3336058.343542099 0 0 0 0 -4090937.2130393982 -8082959.2479057312 0 -8082959.2479057312 -1699834.6095914841 0 0 0 0 10291564.757575989 -12257308.938957214 0 -12257308.938957214 -967882.6642665863 0 0 0 0 -984389.59502264508 -302166.10985951219 0 -302166.10985951219 -66563.42205553595 0 0 0 0 -732318.03356933594 -1585806.1075825691 0 -1585806.1075825691 301850.20707511902 0 0 0 0 -4432596.6722989548 -3436868.5952057117 0 -3436868.5952057117 -1625767.1556315962 0 0 0 0 -4749651.2525806427 -12730357.459630966 0 -12730357.459630966 -633914.43845152855 0 0 0 0 441151.62309837341 304728.13901436329 0 304728.13901436329 -134903.31017684937 0 0 0 0 -4174508.8538721083 -1860765.136607972 0 -1860765.136607972 -19489.680952712893 0 0 0 0 -4992009.0283889771 -11021080.737556458 0 -11021080.737556458 2990317.4977779388 0 0 0 0 -12807200.005106449 -15108259.253259182 0 -15108259.253259182 1057047.6754627228 0 0 0 0 -12515596.807697296 -11974865.845709801 0 -11974865.845709801 7669105.4049520493 0 0 0 0 -20302969.736497879 2293667.4740183353 0 2293667.4740183353 11260196.871007442 0 0 0 0 -9604298.3171355389 -4892992.8963938858 0 -4892992.8963938858 -1524178.5407139836 0 0 0 0 -4111326.2338112965 -727810.45809945278 0 -727810.45809945278 1608995.1934988056 0 0 0 0 -7758645.9373397827 -2376640.3664131165 0 -2376640.3664131165 1287981.6998188496 0 0 0 0 -2552516.7469434598 -1726319.901063405 0 -1726319.901063405 -170495.84968309244 0 0 0 0 -9924191.0077629089 -4574016.8305095434 0 -4574016.8305095434 148438.16787195206 0 0 0 0 -3198995.7607929315 -2198784.6372590023 0 -2198784.6372590023 -1336346.9792497184 0 0 0 0 -8428539.7439498901 -2494983.5237319469 0 -2494983.5237319469 -1344036.1028847694 0 0 0 0 -6156207.7265281677 -5468776.5680865347 0 -5468776.5680865347 -402651.87251186371 0 0 0 0 -8619580.7583694458 -4232045.4368767738 0 -4232045.4368767738 1471777.4613564014 0 0 0 0 -11239241.545253754 -7274663.4901063442 0 -7274663.4901063442 5673158.5554234385 0 0 0 0 7679765.3284263611 -21206140.982830048 0 -21206140.982830048 -2174212.8094465733 0 0 0 0 -11575955.595008107 -5247883.846832823 0 -5247883.846832823 -953522.93614027649 0 0 0 0 -17685072.190559387 -2058633.2982094288 0 -2058633.2982094288 9219441.702796936 0 0 0 0 -21005040.042758942 -12995874.918650985 0 -12995874.918650985 14619751.514298439 0 0 0 0 -1618785.1679480737 -3429681.3757435903 0 -3429681.3757435903 -3594046.9713787762 0 0 0 0 -1156500.8256569579 -2135261.7532838946 0 -2135261.7532838946 -2097277.0901184338 0 0 0 0 10249563.583566666 -12497305.176559687 0 -12497305.176559687 -408292.93835163116 0 0 0 0 -12201919.012302399 -4433632.1934232712 0 -4433632.1934232712 -186580.53511142731 0 0 0 0 -12230363.641794205 -4554138.1477235556 0 -4554138.1477235556 -470396.08745002747 0 0 0 0 -3815846.5993061066 -9565333.0221366882 0 -9565333.0221366882 -26687.132892981172 0 0 0 0 -8908615.806303978 -3615143.1926012039 0 -3615143.1926012039 -2003599.7673130035 0 0 0 0 -4212635.1651982246 475222.42805419024 0 475222.42805419024 1268004.490908877 0 0 0 0 -18382025.36707449 -7467520.4381093383 0 -7467520.4381093383 -784836.63381385803 0 0 0 0 -16755256.635246277 -6559904.4155769348 0 -6559904.4155769348 -5404925.595500946 0 0 0 0 -188188.96949223243 604516.97321425937 0 604516.97321425937 329238.17246508051 0 0 0 0 -18212353.09720993 -5882654.749165535 0 -5882654.749165535 -260550.19765853882 0 0 0 0 -17085094.256591797 -7067548.8318595886 0 -7067548.8318595886 296789.96534729004 0 0 0 0 -18065864.729675293 -6398416.0773258209 0 -6398416.0773258209 1032348.729598999 0 0 0 0 -15955515.432880402 -5236777.13920784 0 -5236777.13920784 778114.98750305176 0 0 0 0 -18807172.156007767 -3684351.3660125732 0 -3684351.3660125732 -2444255.4019699097 0 0 0 0 -15955675.618157066 -5108838.4670524225 0 -5108838.4670524225 -4420458.6924819946 0 0 0 0 -1104640.0464458466 684699.74586772919 0 684699.74586772919 363086.10431671143 0 0 0 0 -2156535.6898345947 -2718255.9169993401 0 -2718255.9169993401 -1385527.7331390381 0 0 0 0 -3267675.4178397302 -2486057.8254605872 0 -2486057.8254605872 -1160027.0209387112 0 0 0 0 -3043770.3413992673 1203564.1099509317 0 1203564.1099509317 617551.17463828065 0 0 0 0 -1753912.1807327271 -1109748.1076421738 0 -1109748.1076421738 -263375.65832519531 0 0 0 0 -2583257.314781189 343910.99831867218 0 343910.99831867218 770209.04958677292 0 0 0 0 -2838644.0624542236 -1764874.7976961136 0 -1764874.7976961136 86099.336970329285 0 0 0 0 -3331569.4185917377 -1000498.5602982579 0 -1000498.5602982579 173611.37265167612 0 0 0 0 -854716.43241119385 -489814.20673465729 0 -489814.20673465729 -1242460.2701129913 0 0 0 0 -193551.27074427903 -136827.41905770823 0 -136827.41905770823 -18237.134942839853 0 0 0 0 -8528446.9988074303 -1711034.5869921148 0 -1711034.5869921148 -893666.66399383545 0 0 0 0 -5819653.9205169678 -2151932.0229589939 0 -2151932.0229589939 -1512997.5581605434 0 0 0 0 -4915576.8372612 -1718566.135191679 0 -1718566.135191679 -1521082.3207428455 0 0 0 0 -4589586.6755943298 -4180534.5088365078 0 -4180534.5088365078 2584544.7403056622 0 0 0 0 -5415395.0845069885 -1562036.3207352161 0 -1562036.3207352161 -1557353.2129645348 0 0 0 0 -1852646.2016924322 -1512971.9412924536 0 -1512971.9412924536 -767050.98914043372 0 0 0 0 -6018871.7269821167 -2482251.8846406937 0 -2482251.8846406937 -1681976.5741486549 0 0 0 0 -4584511.3545603957 217666.52233212441 0 217666.52233212441 2364968.6272669947 0 0 0 0 -10890172.613550186 -1247689.3561763763 0 -1247689.3561763763 -2498150.2198433876 0 0 0 0 -11469647.343528748 -3589723.4231567383 0 -3589723.4231567383 -200565.41038274765 0 0 0 0 -3614130.9924316406 -4674074.1098480225 0 -4674074.1098480225 -2883023.2514286041 0 0 0 0 -7906141.4070777893 -4013857.2612617016 0 -4013857.2612617016 4051236.6504044533 0 0 0 0 -22463628.262020111 -15191989.504709721 0 -15191989.504709721 3761650.81391716 0 0 0 0 -703992.38875736296 -892888.47087489069 0 -892888.47087489069 -512417.88748508459 0 0 0 0 -877596.58058404177 -725569.69302278943 0 -725569.69302278943 -354425.54807755724 0 0 0 0 -6302128.2871608734 912719.26103830338 0 912719.26103830338 3295224.7710957527 0 0 0 0 -2521260.5938110352 -3167657.0131530762 0 -3167657.0131530762 3579034.4919376373 0 0 0 0 -12038263.922708511 4396120.4359618425 0 4396120.4359618425 -856289.05551338196 0 0 0 0 -25050631.736118317 -11743596.90250051 0 -11743596.90250051 -5865472.5316958427 0 0 0 0 -368028.1659603389 -249159.29786470532 0 -249159.29786470532 194763.30724731553 0 0 0 0 12564629.653194427 7922564.8375521898 0 7922564.8375521898 5616002.1387622356 0 0 0 0 -14278250.774559021 -9943310.7220628262 0 -9943310.7220628262 57547722.205119208 0 0 0 0 -16683070.641288757 -12741085.694754601 0 -12741085.694754601 57431287.133501917 0 0 0 0 -4002996.2216415405 -2980700.8114778996 0 -2980700.8114778996 -9511712.3259351254 0 0 0 0 -122843.45080148801 -330743.31004745234 0 -330743.31004745234 -221172.36192462849 0 0 0 0 432971.02970314026 -11824690.600356579 0 -11824690.600356579 8094830.1912236214 0 0 0 0 -14888940.179044724 -30103428.301044226 0 -30103428.301044226 16906679.271807671 0 0 0 0 1632588.5367927551 22767241.777096391 0 22767241.777096391 48379755.344950676 0 0 0 0 -5317180.1853485107 -4593808.6497178078 0 -4593808.6497178078 4071071.3443281651 0 0 0 0 -3551473.1667947769 7550115.1413369179 0 7550115.1413369179 16036833.639987469 0 0 0 0 -19198005.962375641 -7595061.2594544888 0 -7595061.2594544888 43600070.722626209 0 0 0 0 -16882638.655532837 -15986117.714769125 0 -15986117.714769125 45199945.071018815 0 0 0 0 -22366181.154812813 -9937166.0585990846 0 -9937166.0585990846 41876951.284435749 0 0 0 0 -24117317.479812622 971978.41502761841 0 971978.41502761841 65354228.150337934 0 0 0 0 -36207415.326927185 -16062661.548510313 0 -16062661.548510313 46318866.651434898 0 0 0 0 -40127866.957107544 -25788149.851662993 0 -25788149.851662993 42149095.012236893 0 0 0 0 -32558986.207420349 -15319261.287372887 0 -15319261.287372887 25724206.170814991 0 0 0 0 -2065325.717628479 -31650261.539479256 0 -31650261.539479256 37960215.595416903 0 0 0 0 -18695125.656928301 -13216470.267432168 0 -13216470.267432168 19921652.466831207 0 0 0 0 -5633778.6496086121 -1277142.1124844551 0 -1277142.1124844551 5931685.5874729156 0 0 0 0 -4869668.4206428528 -11127189.375573158 0 -11127189.375573158 18509797.497303963 0 0 0 0 -4491058.7691354752 -3937938.6990799606 0 -3937938.6990799606 3041601.5808606148 0 0 0 0 -1200212.2393307667 -871027.04803368635 0 -871027.04803368635 -24943.726859816816 0 0 0 0 -11580025.741065979 -6140890.3313649893 0 -6140890.3313649893 4270287.8572735786 0 0 0 0 37196733.246818542 -38760730.887076616 0 -38760730.887076616 15472014.50713563 0 0 0 0 -328072.70356582385 -330788.36435800046 0 -330788.36435800046 -13250.34313664306 0 0 0 0 685632.49943304062 -16197015.308592007 0 -16197015.308592007 3927510.9530787468 0 0 0 0 12746280.011697769 -11145153.607057661 0 -11145153.607057661 -25846761.597531319 0 0 0 0 8248530.0781164169 -29791373.659357846 0 -29791373.659357846 28846173.337315798 0 0 0 0 -135370.93687271327 192463.47362028743 0 192463.47362028743 22189.838858714185 0 0 0 0 -93165758.304405212 50743385.561241657 0 50743385.561241657 91123862.67178452 0 0 0 0 -7374386.0871887207 -38077773.865182877 0 -38077773.865182877 -56030845.159345172 0 0 0 0 -46226782.662922859 7179067.931217134 0 7179067.931217134 -5939549.6771761179 0 0 0 0 -102755393.69417572 -2360724.4153922796 0 -2360724.4153922796 27654250.909801483 0 0 0 0 -14611532.412158966 -46543738.846017957 0 -46543738.846017957 46376352.871846914 0 0 0 0 -32564273.896835327 -13718936.722291231 0 -13718936.722291231 35221237.258444071 0 0 0 0 -63516186.426040649 -53305612.322933793 0 -53305612.322933793 -12076151.008478165 0 0 0 0 -57624788.063301086 -16892770.70151782 0 -16892770.70151782 26454777.960913897 0 0 0 0 -28293410.39641571 14772594.257967472 0 14772594.257967472 -2593910.888030529 0 0 0 0 -19999882.081890106 -5556827.5495405197 0 -5556827.5495405197 11999376.34880352 0 0 0 0 -41420276.41368866 37876549.397996426 0 37876549.397996426 9042618.7336628437 0 0 0 0 20043473.09160614 18993635.622520208 0 18993635.622520208 -4974509.2963023186 0 0 0 0 -33687790.649188995 8439343.7891744375 0 8439343.7891744375 2354314.5114994049 0 0 0 0 -71628281.716575623 16405494.739908695 0 16405494.739908695 14743266.366866484 0 0 0 0 -45388965.790138245 22240133.728631377 0 22240133.728631377 15032348.880105495 0 0 0 0 -79200034.20483017 33061316.162625432 0 33061316.162625432 1874658.7997202873 0 0 0 0 -50219525.802650452 -9152503.9640267491 0 -9152503.9640267491 -65405461.309568763 0 0 0 0 61425899.586093903 -61540477.026841842 0 -61540477.026841842 4733280.5281446725 0 0 0 0 -53621371.590255737 -2233652.054056406 0 -2233652.054056406 -21032997.634197921 0 0 0 0 -879610.82809191942 -399538.33430648874 0 -399538.33430648874 167336.79486147617 0 0 0 0 53021013.810310364 -28058147.356424928 0 -28058147.356424928 -6543730.5184346437 0 0 0 0 90574131.838008881 7580206.12234658 0 7580206.12234658 -3502205.7089645863 0 0 0 0 -15665757.845825195 66951145.339999199 0 66951145.339999199 81187820.329109669 0 0 0 0 -10044330.048980713 74391.101505279541 0 74391.101505279541 46894116.828230977 0 0 0 0 5830110.5941162109 -4538471.4705056548 0 -4538471.4705056548 29741986.174987853 0 0 0 0 30918437.124633789 13689905.952031255 0 13689905.952031255 41579532.460081398 0 0 0 0 34882030.396087646 66374139.872177243 0 66374139.872177243 55251908.64276886 0 0 0 0 8403713.6797180176 7037543.8358663544 0 7037543.8358663544 -3438908.1023467556 0 0 0 0 50863122.405891418 -1694960.4293556213 0 -1694960.4293556213 -12446965.708887517 0 0 0 0 -20881598.41463089 -16463174.818733053 0 -16463174.818733053 -6044815.2339700852 0 0 0 0 4243274.4910650253 3397248.4659509733 0 3397248.4659509733 8995637.4460681677 0 0 0 0 -18892654.511245728 -42039247.544312835 0 -42039247.544312835 45149686.588366151 0 0 0 0 6965707.0061264038 -1404508.5256958008 0 -1404508.5256958008 2718963.3677203655 0 0 0 0 -64080512.760082245 -29972428.269394875 0 -29972428.269394875 46878379.168004364 0 0 0 0 -1180014.2058951482 -469286.88701664284 0 -469286.88701664284 304061.45017671492 0 0 0 0 -56801.318962084129 13300.190737913363 0 13300.190737913363 18098.352218873333 0 0 0 0 6995182.6788749695 -1690578.4172986746 0 -1690578.4172986746 26795.59850358963 0 0 0 0 13114602.382362366 -82477022.129385591 0 -82477022.129385591 49893710.283260942 0 0 0 0 -17245548.464302063 -15330001.559059083 0 -15330001.559059083 64623941.531903982 0 0 0 0 -401354.77922479622 87948.283136030659 0 87948.283136030659 334694.06403128232 0 0 0 0 6181738.5354919434 420921.33234810829 0 420921.33234810829 3813288.5509704947 0 0 0 0 -7623842.2387924194 -32929423.288490653 0 -32929423.288490653 -37908605.337685496 0 0 0 0 -32905002.35874939 26325123.095303416 0 26325123.095303416 9669342.4093270302 0 0 0 0 36788822.497291565 -9931592.2933841944 0 -9931592.2933841944 -59373317.455238104 0 0 0 0 -49833059.754514694 -32022254.822649777 0 -32022254.822649777 17706312.340912819 0 0 0 0 -986059.73011721671 -149067.37361631542 0 -149067.37361631542 263663.94854666805 0 0 0 0 -65046015.658599854 18863844.948976755 0 18863844.948976755 1553054.4857020676 0 0 0 0 -3341715.7206764221 3208417.9116313457 0 3208417.9116313457 -22528335.229706049 0 0 0 0 -3327788.977016449 2041877.987369895 0 2041877.987369895 -5466206.5621842146 0 0 0 0 -1156992.5735940933 -6294334.5023146123 0 -6294334.5023146123 -19946207.70499897 0 0 0 0 -2141120.1662483215 -11172179.739927173 0 -11172179.739927173 -3553480.4138588905 0 0 0 0 -17811400.177581787 -7959021.3113133013 0 -7959021.3113133013 -3382869.0082345009 0 0 0 0 -29392361.14263916 -7678641.5618566275 0 -7678641.5618566275 13852468.233547926 0 0 0 0 -6346177.3173389435 -24984038.106064439 0 -24984038.106064439 9116377.332015872 0 0 0 0 18844528.898902893 -17444880.41925776 0 -17444880.41925776 30388946.002643585 0 0 0 0 -15126699.675805092 -15454150.747620851 0 -15454150.747620851 30275087.201536059 0 0 0 0 2532590.4884376526 -33039899.902889729 0 -33039899.902889729 27000037.958577156 0 0 0 0 -234086.92516543344 260321.75796691809 0 260321.75796691809 40069.577558588353 0 0 0 0 -34534405.856891632 -53522099.146781087 0 -53522099.146781087 60871233.178540729 0 0 0 0 -2915035.4962348938 -26920247.68240118 0 -26920247.68240118 32602316.443157077 0 0 0 0 -102531.80005228147 153292.6672918417 0 153292.6672918417 20468.946916627378 0 0 0 0 25085146.365409851 -49830502.708265305 0 -49830502.708265305 -71031771.787689313 0 0 0 0 -17264213.895973206 -40502858.27658689 0 -40502858.27658689 24929444.769736171 0 0 0 0 -39972415.185180664 -20226954.156180888 0 -20226954.156180888 102909514.96954143 0 0 0 0 -62736363.582536697 -13921528.241355658 0 -13921528.241355658 40230978.29172194 0 0 0 0 16118247.505862236 13622212.552218854 0 13622212.552218854 8713235.0811014175 0 0 0 0 -13436018.255683899 -23916509.48489368 0 -23916509.48489368 40088458.438555434 0 0 0 0 -3880008.7732524872 -36250555.737035692 0 -36250555.737035692 1405904.97499156 0 0 0 0 1265054.8357467651 -38988730.706335783 0 -38988730.706335783 -16241631.283263206 0 0 0 0 -4321900.484336853 -1574432.0028592348 0 -1574432.0028592348 -310814.13912916183 0 0 0 0 -6376968.9160270691 -6918740.5141204745 0 -6918740.5141204745 -4394334.7106021941 0 0 0 0 -1925716.1923067127 -2523786.9329560725 0 -2523786.9329560725 -1201660.1435000789 0 0 0 0 -6807866.8276290894 -2322917.9921207428 0 -2322917.9921207428 -333549.24862909317 0 0 0 0 -5158365.4323959351 -2279327.1584091187 0 -2279327.1584091187 -555622.24804210663 0 0 0 0 -4122192.9141807556 -925277.01305735111 0 -925277.01305735111 537488.88835740089 0 0 0 0 -4011889.3574532513 -1963067.9797106432 0 -1963067.9797106432 -207850.53297515027 0 0 0 0 -3825441.9605331421 -707207.75429272652 0 -707207.75429272652 670003.53479647636 0 0 0 0 -2652104.2144158613 -765575.27098208014 0 -765575.27098208014 763915.07237335446 0 0 0 0 -4439836.8701667786 -529571.22196221352 0 -529571.22196221352 11565.114953756332 0 0 0 0 -3551993.9650291791 -907336.62585535552 0 -907336.62585535552 -140810.60258463072 0 0 0 0 -6158416.3815898895 -193460.89258503914 0 -193460.89258503914 261051.45536804199 0 0 0 0 -2063023.1651763916 -1977400.7201209068 0 -1977400.7201209068 -1861598.8534016609 0 0 0 0 -9077474.8590202332 -269639.96786165237 0 -269639.96786165237 339186.32252979279 0 0 0 0 -132158.97983526625 -39671.134945661761 0 -39671.134945661761 84074.574235926382 0 0 0 0 -4836322.8551577646 -1950944.9782631882 0 -1950944.9782631882 -481107.83132388815 0 0 0 0 -6169088.2546005249 -1655045.1199491024 0 -1655045.1199491024 265594.18763780594 0 0 0 0 -2636355.0003089281 -3163362.3859051261 0 -3163362.3859051261 -1343415.3323616562 0 0 0 0 -5201038.3324599266 -1691234.9493231475 0 -1691234.9493231475 -328716.54611492157 0 0 0 0 -18044339.787220001 -7265307.87210989 0 -7265307.87210989 -844176.15395992994 0 0 0 0 -3075761.0489884578 -1511488.6674833 0 -1511488.6674833 -170553.17668128805 0 0 0 0 -5744609.5003852844 -995313.21997642517 0 -995313.21997642517 -1014002.1740845442 0 0 0 0 -7029137.0587234497 -1011080.7419307232 0 -1011080.7419307232 131882.34097099304 0 0 0 0 -6056596.8906791583 -2054056.2130640093 0 -2054056.2130640093 -928782.46535455226 0 0 0 0 -2848729.3102806918 -3720622.5203277078 0 -3720622.5203277078 -1208174.5600962695 0 0 0 0 -5747546.4979496002 -1922746.4016153812 0 -1922746.4016153812 -424185.20843195915 0 0 0 0 -5740807.2005844116 -2035123.5435976982 0 -2035123.5435976982 -22282.434679150581 0 0 0 0 -8948860.7206821442 -3964083.5591080189 0 -3964083.5591080189 -853683.34570264816 0 0 0 0 -3393034.8367864536 -2580171.2841103305 0 -2580171.2841103305 -252096.75140081905 0 0 0 0 -4299970.1905727386 -3549639.8639008999 0 -3549639.8639008999 -11671.488948822021 0 0 0 0 -6407454.3195114136 -1663189.2542309761 0 -1663189.2542309761 -591576.97256588936 0 0 0 0 -5848792.6006945688 -3038360.99879371 0 -3038360.99879371 -147860.81116553443 0 0 0 0 -4763094.4272727966 -2911423.4888663292 0 -2911423.4888663292 -2896117.0281367302 0 0 0 0 -2699935.2349641053 -1911632.2606010525 0 -1911632.2606010525 -294111.91660417151 0 0 0 0 -7414497.5792331696 -2099895.5561244488 0 -2099895.5561244488 393664.57407140732 0 0 0 0 -7123707.0660111904 -3576095.6774487495 0 -3576095.6774487495 -1400533.6513705254 0 0 0 0 -7383935.1963005066 -2457264.5318539143 0 -2457264.5318539143 762229.95116484165 0 0 0 0 -4443127.7152752969 -1400519.5557964486 0 -1400519.5557964486 640307.01747535402 0 0 0 0 -10175119.24630928 -2662997.1598081589 0 -2662997.1598081589 1345362.5349826813 0 0 0 0 -7348255.2968730927 -2517127.4785869122 0 -2517127.4785869122 -1135941.0559406281 0 0 0 0 -4566629.4657494863 -918452.6818934232 0 -918452.6818934232 524482.05115167843 0 0 0 0 -3634058.6641154774 -405678.80899555329 0 -405678.80899555329 893013.39239906066 0 0 0 0 -8151591.1393547058 -3649183.9250693321 0 -3649183.9250693321 -893167.69308942556 0 0 0 0 -4064200.1146739926 -528367.54040591884 0 -528367.54040591884 814857.10763463145 0 0 0 0 -5167734.6849117279 -1415447.0212320089 0 -1415447.0212320089 -396543.65932965279 0 0 0 0 -5175012.1473822594 -1517526.0755573176 0 -1517526.0755573176 -577199.45880484581 0 0 0 0 -3636266.121575187 1141683.9392155558 0 1141683.9392155558 1413347.4085628148 0 0 0 0 9285293.2083282471 6065633.310614109 0 6065633.310614109 1953556.7710941434 0 0 0 0 100150.96623946354 120243.42658051662 0 120243.42658051662 329616.57658871642 0 0 0 0 6023644.1747088432 -7512572.4206236005 0 -7512572.4206236005 22240469.092548847 0 0 0 0 20743662.832931519 -14980528.290470839 0 -14980528.290470839 17034354.616931319 0 0 0 0 -9224586.7358760834 -3679102.0848760009 0 -3679102.0848760009 -646745.60005545616 0 0 0 0 -46090587.777385712 -1332668.1937601268 0 -1332668.1937601268 9337375.0609887838 0 0 0 0 -41622226.267644882 4696921.6150273681 0 4696921.6150273681 10068954.709728003 0 0 0 0 -18415680.343307495 3912774.3868794441 0 3912774.3868794441 1789691.10756661 0 0 0 0 -37883316.447540283 1486528.1306664944 0 1486528.1306664944 5363985.4039365053 0 0 0 0 -17919566.237804413 -1396615.8540794849 0 -1396615.8540794849 1762814.238931179 0 0 0 0 -3218412.7233028412 -50266108.255571425 0 -50266108.255571425 -27818771.349910021 0 0 0 0 -15713.216984279454 47028.044985726476 0 47028.044985726476 124234.2380194969 0 0 0 0 -83169721.998878479 -22331126.42855978 0 -22331126.42855978 6713826.1148119569 0 0 0 0 -51693359.047492504 6720571.1118529439 0 6720571.1118529439 6766680.7770860195 0 0 0 0 -46019558.616760254 -12209889.613606453 0 -12209889.613606453 -2287076.1304904222 0 0 0 0 -21227861.217773438 -888273.39338707924 0 -888273.39338707924 31834080.153591521 0 0 0 0 -21738097.616462708 -54319647.398302317 0 -54319647.398302317 -72074304.367774487 0 0 0 0 -677175.62258409336 -562788.83129346347 0 -562788.83129346347 -74855.571705096838 0 0 0 0 -70327348.843305588 14079262.663098514 0 14079262.663098514 11937605.924738884 0 0 0 0 -67022899.493247986 96276231.467847228 0 96276231.467847228 31382662.040733814 0 0 0 0 -126077522.23050022 -44543728.823665082 0 -44543728.823665082 20971408.05795455 0 0 0 0 70998006.891216278 -17591949.793139577 0 -17591949.793139577 -97213265.67859602 0 0 0 0 -88889924.324531555 69170198.671635479 0 69170198.671635479 36589445.315895557 0 0 0 0 30765128.539253235 75903770.068213224 0 75903770.068213224 13970536.393263459 0 0 0 0 -6463455.7887535095 -13379797.653470278 0 -13379797.653470278 20545505.947070375 0 0 0 0 11899129.323925018 7033442.3154244423 0 7033442.3154244423 -31860115.46219933 0 0 0 0 -48389109.343994141 -14397943.894778013 0 -14397943.894778013 57837908.731703758 0 0 0 0 -7191843.0847473145 -1038147.7549320459 0 -1038147.7549320459 -671587.40485231113 0 0 0 0 -4419990.1833670558 995834.09353517834 0 995834.09353517834 1128668.3507413436 0 0 0 0 86724136.157112122 17604564.301036835 0 17604564.301036835 -44608171.863862872 0 0 0 0 -11662684.777107239 -5447187.2700383514 0 -5447187.2700383514 -44778.609824061394 0 0 0 0 -9570970.1193523407 -2757132.9303555195 0 -2757132.9303555195 136967.34976345301 0 0 0 0 -9214902.9219532013 -86493.900168530643 0 -86493.900168530643 400258.08237526985 0 0 0 0 -4658877.2414744003 -945991.67049647262 0 -945991.67049647262 864873.73805364151 0 0 0 0 -6143878.2075387929 185235.57432342041 0 185235.57432342041 640293.68098256714 0 0 0 0 -5311163.8278470039 -2646648.9220566005 0 -2646648.9220566005 1105730.8837063313 0 0 0 0 -5121131.2453022003 -1499940.3873419762 0 -1499940.3873419762 628437.1798017025 0 0 0 0 -6496689.7280974053 -1166234.7204360329 0 -1166234.7204360329 1779457.7115635292 0 0 0 0 -12766256.863423347 -10975406.265380383 0 -10975406.265380383 11627319.679811716 0 0 0 0 -7673458.5142705832 2971297.5633363277 0 2971297.5633363277 3015625.3169652154 0 0 0 0 -13851842.067505702 16823386.8023552 0 16823386.8023552 -829329.19281101227 0 0 0 0 -3725742.4040412903 -4730972.9484415054 0 -4730972.9484415054 -2475653.0638208389 0 0 0 0 -3689211.282623291 -5269221.6822125912 0 -5269221.6822125912 1970349.093460083 0 0 0 0 -7984243.1281747818 -1986026.9038677216 0 -1986026.9038677216 -331670.35794353485 0 0 0 0 2440832.3684520721 -9919731.292206049 0 -9919731.292206049 5744075.8554970026 0 0 0 0 -10960369.871173073 -2962049.0273439684 0 -2962049.0273439684 714250.7437700358 0 0 0 0 -7907634.6767225266 -12200570.130056262 0 -12200570.130056262 15968506.404328823 0 0 0 0 -13377691.840860367 -12580700.97329545 0 -12580700.97329545 12283564.549221992 0 0 0 0 -7327068.2846499216 -2359427.1342354799 0 -2359427.1342354799 1996666.2320759294 0 0 0 0 -4206543.4003162384 -12322468.073864818 0 -12322468.073864818 13901298.646358013 0 0 0 0 -1241922.3371413965 42022.995648636017 0 42022.995648636017 255631.632605955 0 0 0 0 -10100506.064987183 150911.887799263 0 150911.887799263 -4490593.7771854401 0 0 0 0 -21805594.540503502 -15336897.015621662 0 -15336897.015621662 5919614.2274569273 0 0 0 0 -16832866.278801441 -1007819.7725610137 0 -1007819.7725610137 11239582.651336193 0 0 0 0 -5966707.7058925629 -5183375.2355911732 0 -5183375.2355911732 -9083937.8158648014 0 0 0 0 -6338611.5975456238 -3707237.1581895351 0 -3707237.1581895351 -2331282.0655550957 0 0 0 0 -6156802.3963432312 -7464064.3307008743 0 -7464064.3307008743 -5833275.3085193634 0 0 0 0 -3698767.6399497986 -9754394.1871492863 0 -9754394.1871492863 6193583.4287028313 0 0 0 0 -6769985.6506332783 -2308029.2383272192 0 -2308029.2383272192 2664272.0536673721 0 0 0 0 -10780215.876547813 -6086300.211577177 0 -6086300.211577177 -5871748.6087565422 0 0 0 0 -9786333.1747570038 -2532311.0253024697 0 -2532311.0253024697 -6564886.0297036171 0 0 0 0 -8963193.5548496246 -8706767.0098536313 0 -8706767.0098536313 -6601389.7590564936 0 0 0 0 1012232.3148012161 -762435.68821668625 0 -762435.68821668625 4818383.2491617203 0 0 0 0 81679.936541795731 -7536190.1560217142 0 -7536190.1560217142 -5379068.2998180389 0 0 0 0 -11212905.133028984 -10555586.341002941 0 -10555586.341002941 6958275.1301450729 0 0 0 0 -7247467.5350284576 -2515896.3874213696 0 -2515896.3874213696 15590412.778718948 0 0 0 0 -6703811.7692985535 -3503574.0765028 0 -3503574.0765028 5182599.8656851649 0 0 0 0 -32597546.708110809 -12985800.31357193 0 -12985800.31357193 -2693590.2594833374 0 0 0 0 -7492288.7868482331 -1991938.7629324258 0 -1991938.7629324258 2729827.0022232644 0 0 0 0 -40527431.457170486 -1869898.1039934158 0 -1869898.1039934158 8494331.4099831581 0 0 0 0 -865794.30036353553 -59302.970862245187 0 -59302.970862245187 148657.24850930832 0 0 0 0 -19550865.562561989 -12821299.477961063 0 -12821299.477961063 -11551006.665032387 0 0 0 0 -1624157.2831786233 1934844.2590861267 0 1934844.2590861267 1569816.2308622547 0 0 0 0 8623846.636220932 8803305.0461730957 0 8803305.0461730957 258590.83439254761 0 0 0 0 -9848886.7516538668 521689.47609395999 0 521689.47609395999 2796562.8413620656 0 0 0 0 -3576172.4471030235 -1456078.4226584435 0 -1456078.4226584435 -1507786.8238945007 0 0 0 0 -7163770.38525033 -4408189.7784770727 0 -4408189.7784770727 27210.03866147995 0 0 0 0 -43829546.968349934 10836630.823059797 0 10836630.823059797 4938675.7361488342 0 0 0 0 -945431.10425853729 -3469347.0381207466 0 -3469347.0381207466 -2022122.68877244 0 0 0 0 -406776.9574447195 3501.5913333531935 0 3501.5913333531935 16530.913539712317 0 0 0 0 -7532572.556681633 4371653.6475200653 0 4371653.6475200653 -5321765.1384501457 0 0 0 0 -21331057.312936783 3037105.0937137604 0 3037105.0937137604 6038940.3726968765 0 0 0 0 -17024523.475288391 -6338554.2085633278 0 -6338554.2085633278 15668590.91973114 0 0 0 0 787492.24096870422 -7401623.2271149158 0 -7401623.2271149158 1019009.5967464447 0 0 0 0 -30233064.962441921 -24838237.723125458 0 -24838237.723125458 9366844.1442914009 0 0 0 0 -1943360.0620522031 -587107.27282459638 0 -587107.27282459638 651376.66075642686 0 0 0 0 -5102934.1421364183 -120123.76555948099 0 -120123.76555948099 2866348.3056317247 0 0 0 0 -43311855.118102074 4141452.9807872772 0 4141452.9807872772 -9769743.1244211197 0 0 0 0 -27915197.262649775 -34021240.700710297 0 -34021240.700710297 21114366.440047264 0 0 0 0 -41703935.261780232 -11125906.507902861 0 -11125906.507902861 43523276.436199188 0 0 0 0 -5881939.5675592422 -5698078.1284894943 0 -5698078.1284894943 -7926290.4550457001 0 0 0 0 -22742152.923014641 -16280553.400354385 0 -16280553.400354385 18916062.843379974 0 0 0 0 -21039690.614557266 -3952709.228328228 0 -3952709.228328228 732219.8298034668 0 0 0 0 -1533169.9885586083 -255212.85622330941 0 -255212.85622330941 222145.88873129059 0 0 0 0 -24412976.897890568 -8241896.7438769341 0 -8241896.7438769341 12200909.827386856 0 0 0 0 -9948529.0388612747 -14612698.317409515 0 -14612698.317409515 -31173717.522597075 0 0 0 0 -18449279.032171726 -12690367.639005899 0 -12690367.639005899 7017299.2413539886 0 0 0 0 -1685409.625497818 6956997.9855709076 0 6956997.9855709076 7736971.930478096 0 0 0 0 870627.00718021393 -15449483.271197319 0 -15449483.271197319 -279768.65951442719 0 0 0 0 -5050339.4016400231 -1500478.8045948353 0 -1500478.8045948353 -1104191.4010210298 0 0 0 0 -9110634.5650920868 -14897088.297403336 0 -14897088.297403336 9475171.6681046486 0 0 0 0 -16183035.180374146 -6629664.5914974213 0 -6629664.5914974213 -3930664.3697967529 0 0 0 0 -16864237.502207756 -7871770.3676309586 0 -7871770.3676309586 4271439.0255813599 0 0 0 0 -12632665.824994564 -8300081.5407941341 0 -8300081.5407941341 -2570357.1017799377 0 0 0 0 -5225181.4955133144 -5189223.9158336446 0 -5189223.9158336446 -1725164.2629428317 0 0 0 0 -15219059.711782455 -11840898.782529831 0 -11840898.782529831 225928.43632221222 0 0 0 0 -3025407.1779947281 -11474566.612587929 0 -11474566.612587929 -1932214.7603158951 0 0 0 0 -2785024.8368613236 -1628349.623468983 0 -1628349.623468983 -122350.29500648659 0 0 0 0 -1563928.1950836182 -3123459.1623616219 0 -3123459.1623616219 -499011.62892341614 0 0 0 0 -5800746.2755285893 -4733262.74848413 0 -4733262.74848413 -1343128.2792406669 0 0 0 0 -8293919.29591465 -505910.90152800083 0 -505910.90152800083 1235870.7734889984 0 0 0 0 -4595772.1923675537 -2727995.3800020218 0 -2727995.3800020218 224363.83946990967 0 0 0 0 -6901596.4436206818 -3051463.7987370491 0 -3051463.7987370491 1141418.3980560303 0 0 0 0 -6082039.4408390308 -3320409.5236971779 0 -3320409.5236971779 91126.939303761814 0 0 0 0 -9941048.12880373 -4568594.308490932 0 -4568594.308490932 1247362.1065311432 0 0 0 0 -6995604.5127070285 -4583979.0388235422 0 -4583979.0388235422 1468529.3054716922 0 0 0 0 -6751134.8106765747 -3756623.7595682144 0 -3756623.7595682144 -63458.038847923279 0 0 0 0 -6338880.2496795654 -383862.65000724792 0 -383862.65000724792 -3637567.1204490662 0 0 0 0 -6062190.458125541 2586697.4803395658 0 2586697.4803395658 4042045.6554627889 0 0 0 0 -421513.53662188351 -115572.3002317166 0 -115572.3002317166 27278.882228353061 0 0 0 0 -5953263.0231753942 -2086980.043544322 0 -2086980.043544322 1379400.2785794425 0 0 0 0 -7109695.3628330231 -1608561.3509144783 0 -1608561.3509144783 3245999.2441735268 0 0 0 0 -6579152.4802455902 -5942904.435590744 0 -5942904.435590744 5678809.1882808208 0 0 0 0 -7538136.9687347412 -1414118.2934656143 0 -1414118.2934656143 -4731537.3836941719 0 0 0 0 -8748624.1813144684 -5571729.9644966125 0 -5571729.9644966125 3080021.2948417664 0 0 0 0 -3439584.3376169205 -5181523.539276123 0 -5181523.539276123 2579496.2393760681 0 0 0 0 -8116946.3205451965 -6184153.460319519 0 -6184153.460319519 1910495.6968536377 0 0 0 0 -427982.88597900723 -74019.886073327623 0 -74019.886073327623 10299.201638275757 0 0 0 0 -5951593.3246328328 -1501418.9745304873 0 -1501418.9745304873 2751583.4567939872 0 0 0 0 -3973394.3765015318 -2106070.2402580534 0 -2106070.2402580534 -710854.06174565107 0 0 0 0 -12874681.087491751 -7431609.9939460754 0 -7431609.9939460754 -6497185.678232193 0 0 0 0 -14964130.553583145 -16163261.842037201 0 -16163261.842037201 -9235472.6792787313 0 0 0 0 -410403368.20829678 -315603826.65794563 0 -315603826.65794563 -125741761.0628718 0 0 0 0 -942805469.75665665 -800851302.56691778 0 -800851302.56691778 -559637957.40966558 0 0 0 0 -2258559.5881606936 -194090.99366536434 0 -194090.99366536434 -897858.91494144546 0 0 0 0 -413202889.55568647 -298506485.59856707 0 -298506485.59856707 -139510307.89750987 0 0 0 0 -820937.00182625838 35730.274255399709 0 35730.274255399709 -1119449.5021971024 0 0 0 0 -1460599.7851009369 465711.6764421463 0 465711.6764421463 -1084457.9556524754 0 0 0 0 -2724835.3568142299 840630.03125713964 0 840630.03125713964 -1269435.8991612976 0 0 0 0 -1030735.214058876 1289204.4129619598 0 1289204.4129619598 -66122.271407842636 0 0 0 0 -235517529.81499511 -5889083.3209201992 0 -5889083.3209201992 29175018.084466219 0 0 0 0 -160115503.1033802 -143609211.3961373 0 -143609211.3961373 -103398287.28210415 0 0 0 0 -575418297.67191696 -251549222.23346448 0 -251549222.23346448 -104211860.60134608 0 0 0 0 -377176663.89047456 -313179798.01215667 0 -313179798.01215667 -129795609.14858142 0 0 0 0 -327950291.13995004 14585360.133639434 0 14585360.133639434 13090660.529722542 0 0 0 0 -408421.23319304315 8862.7547853013675 0 8862.7547853013675 -438963.8158769405 0 0 0 0 -368110830.11457372 -190033238.64255261 0 -190033238.64255261 -49087136.978583068 0 0 0 0 -483527198.85596824 -163082590.62424344 0 -163082590.62424344 -37918634.694442078 0 0 0 0 -573795185.07552218 -267501859.4944399 0 -267501859.4944399 20916445.078703098 0 0 0 0 -945325623.27522993 -488606955.65550584 0 -488606955.65550584 -66411791.817737266 0 0 0 0 -944763973.74216962 -180949368.91404432 0 -180949368.91404432 142467707.00988352 0 0 0 0 -685622914.19819689 -249534420.36100829 0 -249534420.36100829 19415197.42139969 0 0 0 0 -944930818.23042965 -16261790.536776472 0 -16261790.536776472 207964576.74456295 0 0 0 0 -730490639.82749128 -137365243.72239369 0 -137365243.72239369 151326413.07135722 0 0 0 0 -721992339.00673485 -88876066.008189768 0 -88876066.008189768 105274558.39714941 0 0 0 0 -397276834.7792502 -48851622.660597622 0 -48851622.660597622 17388770.667544723 0 0 0 0 -424877724.09195149 -9177389.6558047533 0 -9177389.6558047533 37878343.644651055 0 0 0 0 -616305304.14432609 -32681318.787802652 0 -32681318.787802652 67721451.051693827 0 0 0 0 -554283099.82620883 -36780355.426983729 0 -36780355.426983729 67830069.531115532 0 0 0 0 -394524286.26382208 -72507160.033793926 0 -72507160.033793926 29050196.588502452 0 0 0 0 -534594431.22597075 -88773888.423680365 0 -88773888.423680365 51015171.394283652 0 0 0 0 -530524326.89482951 -99529815.088171795 0 -99529815.088171795 52345942.444178149 0 0 0 0 -531158945.62821853 -123845349.65955308 0 -123845349.65955308 54097262.258639187 0 0 0 0 -638600511.25089526 -133404405.8364934 0 -133404405.8364934 63490347.795360893 0 0 0 0 -366176549.1139245 -133798946.94370203 0 -133798946.94370203 -2164101.8994906843 0 0 0 0 -465863313.46668118 -112888313.39554571 0 -112888313.39554571 14487706.02212438 0 0 0 0 -142897303.77152276 -124609885.1789927 0 -124609885.1789927 -61082499.432573177 0 0 0 0 -69971147.770686865 -38085356.493573427 0 -38085356.493573427 -58698772.738869391 0 0 0 0 -81309281.863065958 -11528641.074576795 0 -11528641.074576795 -43516715.007116884 0 0 0 0 -140340773.68490291 -22428203.802341595 0 -22428203.802341595 -21266599.615234338 0 0 0 0 -19999707.462005496 9936018.7753670588 0 9936018.7753670588 -43822382.447566077 0 0 0 0 -68205706.62360245 -26505022.101375043 0 -26505022.101375043 -31337873.459295869 0 0 0 0 -128921828.82564503 -55775590.016019166 0 -55775590.016019166 -34463797.974856257 0 0 0 0 -215820717.85799766 -16573916.369065821 0 -16573916.369065821 -19662001.661320567 0 0 0 0 -357896311.60344708 -80274028.012026519 0 -80274028.012026519 3202821.2692680359 0 0 0 0 -236071151.97350001 -86946412.870911896 0 -86946412.870911896 -12703034.68449229 0 0 0 0 -396580164.45684838 -53098411.562583372 0 -53098411.562583372 24804478.462762177 0 0 0 0 -329145231.1528331 -70515465.307421446 0 -70515465.307421446 2690576.8298048973 0 0 0 0 -290918105.64351887 13017949.371327758 0 13017949.371327758 9218470.415422976 0 0 0 0 -140325857.49635696 -45150381.372810245 0 -45150381.372810245 -30774697.250059441 0 0 0 0 -119618319.16784537 -18747135.387154311 0 -18747135.387154311 -37211211.728418708 0 0 0 0 -64877767.905562341 -42387833.123249307 0 -42387833.123249307 -48070543.034520566 0 0 0 0 -127746059.95282593 44602865.17430146 0 44602865.17430146 -10827972.992985725 0 0 0 0 -366852111.52437592 48372706.227454484 0 48372706.227454484 16365645.0351336 0 0 0 0 -41865764.682157338 -104226088.31021309 0 -104226088.31021309 -58251007.03634879 0 0 0 0 25726420.545430899 38390820.610430337 0 38390820.610430337 -104258070.87916811 0 0 0 0 39694112.62213856 -21925309.425759152 0 -21925309.425759152 -25838359.508000985 0 0 0 0 -44577102.619755566 41510292.455083251 0 41510292.455083251 -62956480.227950871 0 0 0 0 -40210421.015096307 -28852589.007188171 0 -28852589.007188171 -88717060.128783911 0 0 0 0 -1659616.2433077693 -69252653.110564113 0 -69252653.110564113 -56676514.564575613 0 0 0 0 -59181498.64797008 -50955723.337660313 0 -50955723.337660313 -34023144.710800111 0 0 0 0 -40990922.52064395 -23809888.095204443 0 -23809888.095204443 -2439615.2920672894 0 0 0 0 1024476.5271150619 -51349872.403814256 0 -51349872.403814256 -8888441.0929429531 0 0 0 0 -25387043.420646153 16994241.054288089 0 16994241.054288089 -35551841.628406465 0 0 0 0 -51918930.757079095 65217389.919716209 0 65217389.919716209 -46606294.482687861 0 0 0 0 60841.115123749871 127536.58337748343 0 127536.58337748343 -455838.86502084794 0 0 0 0 135360123.80054045 15966307.342974424 0 15966307.342974424 21749639.184494019 0 0 0 0 -16968825.43478322 -25745452.665006161 0 -25745452.665006161 55760908.376730204 0 0 0 0 66888492.475750238 -11379233.57847948 0 -11379233.57847948 -18829369.073923409 0 0 0 0 -259707.43230718892 280333.06994268287 0 280333.06994268287 -954443.11080591637 0 0 0 0 18128.945458483358 4146.5881686642824 0 4146.5881686642824 -32542.309175404735 0 0 0 0 42281944.568126917 42152660.566056699 0 42152660.566056699 56130267.824445963 0 0 0 0 117259767.95890737 -64328731.730816662 0 -64328731.730816662 31588155.487367287 0 0 0 0 -71778796.268008709 -1173424.4372706413 0 -1173424.4372706413 -11782853.904719278 0 0 0 0 20802402.216100454 2146268.296654582 0 2146268.296654582 -7575616.9055880308 0 0 0 0 -24975169.545717835 -47623903.36692816 0 -47623903.36692816 32859541.392987013 0 0 0 0 -18904297.084082127 -2013849.5192866325 0 -2013849.5192866325 2829507.2357347012 0 0 0 0 35860782.008556247 15806218.841364622 0 15806218.841364622 -25155873.405699775 0 0 0 0 -41159769.694897652 12840465.323501155 0 12840465.323501155 -17729652.177363895 0 0 0 0 -20077556.434622161 -13830501.714384118 0 -13830501.714384118 -29358386.048160911 0 0 0 0 -18959620.660273075 4634962.4650348797 0 4634962.4650348797 -19182483.950441882 0 0 0 0 -9823045.6432211399 -7847393.6366881654 0 -7847393.6366881654 -25119588.768882006 0 0 0 0 18103913.037056923 17121628.408495747 0 17121628.408495747 -29895421.018792994 0 0 0 0 15681551.022135489 6237153.3717524447 0 6237153.3717524447 -111827.77518722415 0 0 0 0 45953386.445168361 -18985711.415651493 0 -18985711.415651493 -12979669.612569496 0 0 0 0 21544655.619954392 10180575.317880742 0 10180575.317880742 -9141374.173022598 0 0 0 0 10043677.621396005 16960983.364481747 0 16960983.364481747 -1192764.8366155922 0 0 0 0 7891760.2350402474 15126665.437554628 0 15126665.437554628 12998574.364951611 0 0 0 0 -1902248.887597084 5430807.4131250381 0 5430807.4131250381 -6583728.5754384995 0 0 0 0 -11514910.747617245 -2191733.1453874111 0 -2191733.1453874111 911540.06319999695 0 0 0 0 -3789623.0833747671 541267.30261362239 0 541267.30261362239 -506752.5831902182 0 0 0 0 -435592.71092474461 31516817.964812517 0 31516817.964812517 30272229.931308299 0 0 0 0 11626930.622489214 13419129.494636521 0 13419129.494636521 16711344.754604459 0 0 0 0 3667940.5640126467 29553915.015031576 0 29553915.015031576 -18741706.064894304 0 0 0 0 -31299313.586763978 16358555.18842259 0 16358555.18842259 16846447.584735632 0 0 0 0 -17898642.060991287 15248835.017843068 0 15248835.017843068 -57913563.118507475 0 0 0 0 -68055464.985699058 40428078.554639757 0 40428078.554639757 31360406.910972059 0 0 0 0 -30864960.793813586 -145730585.63076162 0 -145730585.63076162 -158468815.0031895 0 0 0 0 -1434589.0825892994 865187.41203581903 0 865187.41203581903 -1010810.0876312794 0 0 0 0 -43419688.923364282 -14068533.60413149 0 -14068533.60413149 78257936.756400526 0 0 0 0 1720704.2656974792 5549245.3295477629 0 5549245.3295477629 -6884742.7949959636 0 0 0 0 -2675428.3908099481 1830347.5164716854 0 1830347.5164716854 -2166466.7880021576 0 0 0 0 -3332572.5042719841 1552475.658424139 0 1552475.658424139 1918899.9444689751 0 0 0 0 -2330853.2316884995 2121913.7738986015 0 2121913.7738986015 457182.01372313499 0 0 0 0 -5110410.8122510463 -178311.18625697494 0 -178311.18625697494 -538608.68538435991 0 0 0 0 3839932.3813881874 13915287.090471923 0 13915287.090471923 4229062.2471635938 0 0 0 0 20727453.132908344 -8234127.3050695956 0 -8234127.3050695956 -52884915.664833426 0 0 0 0 -237300.93176107481 611880.87951758574 0 611880.87951758574 -1827383.2443643687 0 0 0 0 -994486.13416004181 1730382.1034579277 0 1730382.1034579277 -952665.87377691269 0 0 0 0 -4618270.8630077727 3173656.4611169798 0 3173656.4611169798 -1637177.7615371556 0 0 0 0 -5134038.1899833679 11170243.869757652 0 11170243.869757652 39933586.390028477 0 0 0 0 -1740715.6707878113 24392627.650013924 0 24392627.650013924 26281112.026453257 0 0 0 0 -5504699.9681230597 1704404.3400631957 0 1704404.3400631957 -839470.2836260451 0 0 0 0 -14794708.972412109 26404738.884440422 0 26404738.884440422 61352676.339617968 0 0 0 0 2232977.9639472961 -376476.76375007629 0 -376476.76375007629 -4641668.5863437653 0 0 0 0 -3903502.2161178589 188187.23012399673 0 188187.23012399673 5302261.4428782463 0 0 0 0 118155.90558166755 -67023.138500416419 0 -67023.138500416419 -924476.08318046923 0 0 0 0 -2412099.2470369339 919358.81160259247 0 919358.81160259247 -2491100.4946932793 0 0 0 0 -3036393.6835759617 3648.9378749396419 0 3648.9378749396419 -1495746.0833631619 0 0 0 0 -2835928.6715230942 1910637.3042821884 0 1910637.3042821884 2015538.987429142 0 0 0 0 -5818056.1631419333 -1886908.7870576992 0 -1886908.7870576992 577830.21868963307 0 0 0 0 -6704866.4741840959 -980628.1767515433 0 -980628.1767515433 732740.61884074053 0 0 0 0 -9307561.8025093079 -1079389.3122041225 0 -1079389.3122041225 -4508776.7102155685 0 0 0 0 -1564427.522819519 480404.0486536026 0 480404.0486536026 9280734.771900177 0 0 0 0 -12443558.510587692 -756797.81029319763 0 -756797.81029319763 1824321.8855724335 0 0 0 0 -6899828.2908473304 2142042.4805719205 0 2142042.4805719205 -466357.23349655443 0 0 0 0 -988715.6334316656 -719662.58603340946 0 -719662.58603340946 816620.11258244282 0 0 0 0 -14344187.344741821 -25286447.749921799 0 -25286447.749921799 36185472.606226921 0 0 0 0 -10827685.679391384 -5530966.0853877068 0 -5530966.0853877068 -6776695.0909843445 0 0 0 0 -6546671.910720855 -420891.08913930599 0 -420891.08913930599 -36073.000710205059 0 0 0 0 -3321018.3099431992 1121573.3140918016 0 1121573.3140918016 6748538.2365350723 0 0 0 0 -8408485.3035955429 -5367065.1099295616 0 -5367065.1099295616 -8997281.2196369171 0 0 0 0 -5537448.3956722412 953597.99608296785 0 953597.99608296785 -698531.10521060554 0 0 0 0 -18060407.84942627 2123745.0114326477 0 2123745.0114326477 -4562887.9463481903 0 0 0 0 -6923885.3196640015 -6710067.3580303192 0 -6710067.3580303192 -8077694.2304601669 0 0 0 0 -25709929.632083893 30151572.401199341 0 30151572.401199341 45162154.146798134 0 0 0 0 -25241821.714389801 14277904.839409828 0 14277904.839409828 78397347.549838543 0 0 0 0 -1240398.9875402451 4021354.3225209713 0 4021354.3225209713 58903363.414899826 0 0 0 0 -19489082.349700928 9583372.6889038086 0 9583372.6889038086 59913949.511678219 0 0 0 0 -9409435.1848258972 606082.57393836975 0 606082.57393836975 83070196.378137589 0 0 0 0 -19805890.144165039 16412719.556192875 0 16412719.556192875 67265243.573261261 0 0 0 0 -4844689.7969741821 14806525.844120026 0 14806525.844120026 111330156.5350523 0 0 0 0 -17556242.066144943 -2016959.5413837433 0 -2016959.5413837433 90429687.642173767 0 0 0 0 -12444308.154998779 10698308.459280491 0 10698308.459280491 63324640.098146439 0 0 0 0 -25764011.091480255 -4685220.8337130547 0 -4685220.8337130547 117029351.5432024 0 0 0 0 -7548932.6273219706 1879010.1777404477 0 1879010.1777404477 544168.31472819881 0 0 0 0 -29273395.251266479 6856900.865852356 0 6856900.865852356 99607528.885177135 0 0 0 0 -20243582.619075775 -6316665.8416795731 0 -6316665.8416795731 86883844.777942657 0 0 0 0 -6377113.7438240051 6949346.4220132828 0 6949346.4220132828 98074739.733839989 0 0 0 0 -13534222.633300781 -9106094.3658905029 0 -9106094.3658905029 97702842.084905624 0 0 0 0 -7528212.232397927 -483505.85358694114 0 -483505.85358694114 494336.25533091335 0 0 0 0 -52142765.015422821 -2326080.7037258148 0 -2326080.7037258148 14090577.758198261 0 0 0 0 -22131017.754009247 -13809540.240317822 0 -13809540.240317822 151719492.27942181 0 0 0 0 -19215607.401557922 8918151.8684673309 0 8918151.8684673309 105070505.75786066 0 0 0 0 -7833737.4989852905 -30025577.308929443 0 -30025577.308929443 119079181.92132235 0 0 0 0 -8302711.3488454167 145139.04317694949 0 145139.04317694949 781152.26457941812 0 0 0 0 -1285350.5515136719 8831115.9632234573 0 8831115.9632234573 12361469.353800297 0 0 0 0 -16388245.318651199 19966049.550621033 0 19966049.550621033 4159483.178085804 0 0 0 0 -41936038.783849716 4269723.2085752487 0 4269723.2085752487 10983104.277164459 0 0 0 0 -21666638.454099655 -16797158.361839533 0 -16797158.361839533 -6834161.8504619598 0 0 0 0 -24299033.973766327 31931790.124308586 0 31931790.124308586 -4556150.689218998 0 0 0 0 14853086.552736282 2681626.6393289566 0 2681626.6393289566 3304614.6224193573 0 0 0 0 -871133.95084762573 9035881.7007141113 0 9035881.7007141113 -2879962.6327414513 0 0 0 0 -13392895.590629339 -4097710.9285161495 0 -4097710.9285161495 -3034049.6364994049 0 0 0 0 -2012529.3280754089 -1797989.3055372238 0 -1797989.3055372238 11186736.787120342 0 0 0 0 -4022660.9813062474 -3216859.0666783769 0 -3216859.0666783769 1598121.2773535186 0 0 0 0 11813216.871463776 -3569411.5433197021 0 -3569411.5433197021 3454617.582649231 0 0 0 0 90670.39194090385 281891.27747708745 0 281891.27747708745 -145688.9359874709 0 0 0 0 -13003419.707050845 -1254060.6177974194 0 -1254060.6177974194 7707828.1525683403 0 0 0 0 -17422231.746535897 -13615411.604115009 0 -13615411.604115009 4062614.2386156321 0 0 0 0 -14062724.89694196 -9684781.0048493147 0 -9684781.0048493147 -14840350.417723179 0 0 0 0 -13660616.400032401 -16646679.984285712 0 -16646679.984285712 -8806622.2982404232 0 0 0 0 -873723.70929197455 -184652.16272760858 0 -184652.16272760858 59724.897106722812 0 0 0 0 -7575752.8790435791 -8451786.9005155563 0 -8451786.9005155563 -11249735.257460833 0 0 0 0 -12081748.690419078 -16776781.520124197 0 -16776781.520124197 -16255123.969720721 0 0 0 0 -10332675.891838074 -5048649.4998098612 0 -5048649.4998098612 -5575844.4668560028 0 0 0 0 -1460421.775912798 227439.0061695964 0 227439.0061695964 -358145.56017341767 0 0 0 0 -696402.86952269077 -134421.94185972214 0 -134421.94185972214 -736099.94051146507 0 0 0 0 -7344214.1139837503 -7459626.3164135218 0 -7459626.3164135218 -7118903.7005281448 0 0 0 0 -14766606.907440901 -5180993.9922282696 0 -5180993.9922282696 -5005290.2121639252 0 0 0 0 -10436956.73855257 -6146191.9209679365 0 -6146191.9209679365 -10036225.951587677 0 0 0 0 -10306275.060729504 -5323824.9113287926 0 -5323824.9113287926 -5026374.057477951 0 0 0 0 -6511718.5362911224 3756889.138702631 0 3756889.138702631 4777764.5457019806 0 0 0 0 -2862634.8749645995 508997.95311610098 0 508997.95311610098 -479283.1006581671 0 0 0 0 -9394259.7689113617 -7177815.4616303444 0 -7177815.4616303444 -4899274.0115308762 0 0 0 0 873388.95320367813 -2723638.7099366188 0 -2723638.7099366188 -4351915.2348225117 0 0 0 0 64183.93056571763 495484.39781145816 0 495484.39781145816 -446012.70692279702 0 0 0 0 -1023808.6084293425 219023.26080054045 0 219023.26080054045 -374127.92329788208 0 0 0 0 13489010.241390828 11332954.124385431 0 11332954.124385431 5377153.8854873776 0 0 0 0 23633130.303719327 5013476.4479674324 0 5013476.4479674324 -2765526.7189835422 0 0 0 0 -372773.26961686206 621808.93747564952 0 621808.93747564952 -1263493.1764311281 0 0 0 0 -295725.11855123937 141857.46532148123 0 141857.46532148123 -450438.93151640892 0 0 0 0 -797993.61475081742 45426.131364822388 0 45426.131364822388 -436880.12421822548 0 0 0 0 -243464.06416662037 -587390.22258156538 0 -587390.22258156538 139708.1695587039 0 0 0 0 -20151843.195920885 12544364.199277937 0 12544364.199277937 -29981782.152094632 0 0 0 0 -1004951.2548383474 -736057.44891738892 0 -736057.44891738892 760674.12122035027 0 0 0 0 6344890.4661371708 18356907.888179541 0 18356907.888179541 -47224275.844057053 0 0 0 0 -458543.80620724708 -41324.607889905572 0 -41324.607889905572 39611.373656392097 0 0 0 0 -143881.35587506834 -364151.68979794288 0 -364151.68979794288 -280011.64593762462 0 0 0 0 -513560.15602859855 13730962.717371345 0 13730962.717371345 -46248581.295411862 0 0 0 0 12898330.090377331 26782066.409638353 0 26782066.409638353 -49383352.521316797 0 0 0 0 19023499.891937464 -6313418.5171159357 0 -6313418.5171159357 -19770428.854319505 0 0 0 0 3291432.0861408189 -1661391.0340244686 0 -1661391.0340244686 -8305544.3392349184 0 0 0 0 955243.95889598131 17108907.825130969 0 17108907.825130969 -40554267.259661317 0 0 0 0 -114295.5617216269 -275989.23546773335 0 -275989.23546773335 119169.4404332753 0 0 0 0 -7077251.7771009207 -2725472.7398714572 0 -2725472.7398714572 3558857.6266685426 0 0 0 0 -8441241.5422477722 -14068547.161065504 0 -14068547.161065504 -9036286.2813442349 0 0 0 0 -34465712.095781043 -38627640.038967341 0 -38627640.038967341 11765410.113456488 0 0 0 0 -35843906.481212765 -26292383.725167185 0 -26292383.725167185 -24318974.330687463 0 0 0 0 -30144647.276498556 2708603.5012760162 0 2708603.5012760162 -4145310.3653234541 0 0 0 0 -6582697.2269527912 -9631805.8934561908 0 -9631805.8934561908 1280621.7993824482 0 0 0 0 -29365856.741606057 -24566002.819117546 0 -24566002.819117546 -5505572.8065990806 0 0 0 0 52877854.275602184 -113848524.40882687 0 -113848524.40882687 508793.20172291994 0 0 0 0 13974918.66632852 -18730978.615555458 0 -18730978.615555458 34675376.545616359 0 0 0 0 27949592.728728592 -811636.0404028832 0 -811636.0404028832 -16384550.914618894 0 0 0 0 28611512.462924838 -34597100.837305874 0 -34597100.837305874 -4322216.3546413779 0 0 0 0 212993.58170223236 -1116084.4817626402 0 -1116084.4817626402 -780731.72998306155 0 0 0 0 1438249.247063756 -6077618.86371997 0 -6077618.86371997 -7591512.2548014224 0 0 0 0 1788301.1048591137 3720991.2870233357 0 3720991.2870233357 -6430628.134051241 0 0 0 0 -10429625.325231075 -6802767.202956453 0 -6802767.202956453 1036975.840967536 0 0 0 0 -159853.36275345378 -612252.13968094357 0 -612252.13968094357 272744.47461346525 0 0 0 0 -16735666.152016163 12064415.395365231 0 12064415.395365231 15945863.362405106 0 0 0 0 1074231.2430771589 1347462.1420385242 0 1347462.1420385242 1868618.8099735677 0 0 0 0 10987395.160548449 25818075.569922745 0 25818075.569922745 -80181168.639841437 0 0 0 0 -13552718.20849824 -16644366.188850105 0 -16644366.188850105 -11975243.073190212 0 0 0 0 9629054.6282515526 26622725.007332921 0 26622725.007332921 -58661280.974437416 0 0 0 0 -355425.61531274626 -428421.65059871419 0 -428421.65059871419 -278284.26240788179 0 0 0 0 -959818.38245942444 -938904.48610153794 0 -938904.48610153794 -434688.1887999773 0 0 0 0 -27455.379113078117 -123250.59755456448 0 -123250.59755456448 35693.775740742683 0 0 0 0 -658580.30041966145 -492063.89493906091 0 -492063.89493906091 -296611.61080190365 0 0 0 0 -961865.33265969157 -1122869.2768835127 0 -1122869.2768835127 447026.53615558147 0 0 0 0 -185091.45162775367 -500532.2938609047 0 -500532.2938609047 279906.62911946687 0 0 0 0 -3170286.3282854557 -30447247.389611721 0 -30447247.389611721 -37142704.693756104 0 0 0 0 -8065507.3675529957 -24109336.613791466 0 -24109336.613791466 -27578327.047497749 0 0 0 0 -58640301.802411079 28687753.303753853 0 28687753.303753853 -16724081.992051601 0 0 0 0 6823406.3741483688 -19175102.277715206 0 -19175102.277715206 -124314794.46694517 0 0 0 0 69805.924132861895 -253875.2016362818 0 -253875.2016362818 -130146.55955648291 0 0 0 0 -178978.02612213069 -111085.85990723912 0 -111085.85990723912 67662.425885047065 0 0 0 0 66661431.405274391 55548540.234652519 0 55548540.234652519 -134244084.50377846 0 0 0 0 -177162678.00693643 -86667309.54311341 0 -86667309.54311341 71707449.142098904 0 0 0 0 -262869.25491192844 265712.14840784355 0 265712.14840784355 94034.205466324463 0 0 0 0 -103206758.41450608 -121589179.68808365 0 -121589179.68808365 56543367.402560949 0 0 0 0 14905743.207063675 -67269807.724131346 0 -67269807.724131346 -32113663.156181335 0 0 0 0 -51351854.212845922 -8640.4683649241924 0 -8640.4683649241924 54742285.359736323 0 0 0 0 11110367.856273651 73052037.759317726 0 73052037.759317726 -85176412.632493258 0 0 0 0 -31322176.912116051 -34560076.715968907 0 -34560076.715968907 50434266.137067214 0 0 0 0 -10038744.618624687 27152096.584000707 0 27152096.584000707 -37324021.79121232 0 0 0 0 -9882990.3175110817 13806956.680154681 0 13806956.680154681 -179074744.25012779 0 0 0 0 -63978925.217760921 47556716.112613142 0 47556716.112613142 -18519726.007298946 0 0 0 0 -11683157.626872063 -16586578.128186226 0 -16586578.128186226 27139648.008519083 0 0 0 0 3400973.8418703079 40514004.982596517 0 40514004.982596517 -28441777.319451928 0 0 0 0 10313837.769889832 -16000950.359623387 0 -16000950.359623387 37641657.400493026 0 0 0 0 -8921.7183192570083 59648.718620244297 0 59648.718620244297 24713.216655821307 0 0 0 0 -6859560.4108467102 -13874306.544463694 0 -13874306.544463694 -926439.90251588821 0 0 0 0 -367901.22938106046 -393096.19552699022 0 -393096.19552699022 198284.20669071769 0 0 0 0 -29037022.208613396 -11220747.194814503 0 -11220747.194814503 45801295.524645209 0 0 0 0 -11597892.710576534 10530917.259041812 0 10530917.259041812 40966370.192331791 0 0 0 0 32970958.690520287 -8739596.0063890144 0 -8739596.0063890144 -14627951.968173087 0 0 0 0 4771570.9549770355 -34221741.557558462 0 -34221741.557558462 33618398.126856402 0 0 0 0 -9584428.9972114563 18593515.938369393 0 18593515.938369393 -20819605.991680801 0 0 0 0 -142231.04115876369 -191327.07835688948 0 -191327.07835688948 89567.592793345131 0 0 0 0 -4185160.8385148048 1418588.5820667446 0 1418588.5820667446 3777150.8605802059 0 0 0 0 -3509282.1611759663 667608.57195544243 0 667608.57195544243 2653385.4503782988 0 0 0 0 -2130799.2165164948 1484181.8990965486 0 1484181.8990965486 -850509.77654439211 0 0 0 0 -421327.04583254654 -4677.1427837259835 0 -4677.1427837259835 154989.98368100135 0 0 0 0 -751372.88305330276 -210562.94735520706 0 -210562.94735520706 888544.19556307793 0 0 0 0 -54078725.897634387 -11164909.530170124 0 -11164909.530170124 11360384.840848744 0 0 0 0 14596950.107096672 132038372.8455379 0 132038372.8455379 -21011457.354335427 0 0 0 0 -559375.2159062773 -192183.00104076834 0 -192183.00104076834 228817.03492214927 0 0 0 0 -85253245.907366753 -46497451.674461603 0 -46497451.674461603 24711214.888923645 0 0 0 0 -338367963.66039848 237470607.94464791 0 237470607.94464791 15572086.495671272 0 0 0 0 -99562890.174757957 -89175558.610370815 0 -89175558.610370815 -93142004.165852547 0 0 0 0 -18229507.698935509 32707350.595562816 0 32707350.595562816 -286949302.15464258 0 0 0 0 -28578103.569254875 18516631.305710495 0 18516631.305710495 -57859899.346945524 0 0 0 0 -616792.73758840561 -20390269.537485376 0 -20390269.537485376 25761955.172281146 0 0 0 0 -9136843.4796867371 -131254.2602417469 0 -131254.2602417469 4545719.3989902735 0 0 0 0 -49094312.997466087 10000273.015441358 0 10000273.015441358 71946405.632891417 0 0 0 0 -58425541.335330009 -62513682.520123601 0 -62513682.520123601 24507077.845835924 0 0 0 0 -72618979.038957596 -60609706.082178116 0 -60609706.082178116 28412012.08491993 0 0 0 0 -84632603.831408024 -100874774.47215682 0 -100874774.47215682 45311787.693689585 0 0 0 0 -62497633.058768272 -54336508.191920757 0 -54336508.191920757 26693061.833958328 0 0 0 0 11518672.249649048 28871858.343165696 0 28871858.343165696 -30578417.352054119 0 0 0 0 -374782.24752850994 387472.34507471416 0 387472.34507471416 -205575.9779821118 0 0 0 0 -53494821.86419487 -73836270.429587364 0 -73836270.429587364 -49184885.205900192 0 0 0 0 -61910906.952490807 -77357228.532397747 0 -77357228.532397747 106442275.73509276 0 0 0 0 -40847341.292987823 -14431724.115542449 0 -14431724.115542449 4824832.8886951804 0 0 0 0 17633326.005390167 -7016600.8782891035 0 -7016600.8782891035 -19037134.654071331 0 0 0 0 -6949037.8533906937 -102558058.25780296 0 -102558058.25780296 60223959.208051682 0 0 0 0 8332307.3561639786 -2363569.7633072436 0 -2363569.7633072436 -19430751.216644745 0 0 0 0 -22170453.013603449 -780146.27478729934 0 -780146.27478729934 14237960.549650483 0 0 0 0 -4005536.5059333164 1025131.8979014733 0 1025131.8979014733 -766971.73125081346 0 0 0 0 6302321.426407814 33583538.475599051 0 33583538.475599051 -53961792.631042957 0 0 0 0 -2650609.1404467439 -372680.86847884115 0 -372680.86847884115 1403442.8130756111 0 0 0 0 -18083862.966789246 10950491.331920147 0 10950491.331920147 -126329260.80451393 0 0 0 0 -26643245.318441391 6667176.8333659172 0 6667176.8333659172 24004976.827772856 0 0 0 0 9995545.9589691162 -44076564.037639141 0 -44076564.037639141 -6007572.7429594994 0 0 0 0 -80247936.574166298 53879961.216351032 0 53879961.216351032 -96988514.853978872 0 0 0 0 -13829036.199083328 13476513.5276227 0 13476513.5276227 -958736.17448925972 0 0 0 0 33418140.936163902 26024856.442728519 0 26024856.442728519 11403705.623888016 0 0 0 0 9979052.9559764862 31279028.853561878 0 31279028.853561878 123175117.83808517 0 0 0 0 309573.55483827647 134510.20079163986 0 134510.20079163986 -174729.64534288668 0 0 0 0 -12374468.801334867 4816400.8587158527 0 4816400.8587158527 1411391.0563771199 0 0 0 0 -7790406.6712916493 -34911393.780029774 0 -34911393.780029774 4011461.546731472 0 0 0 0 -42210034.1705513 27215263.776713371 0 27215263.776713371 7391837.2731571198 0 0 0 0 -29428790.121936798 -19037326.598227978 0 -19037326.598227978 126230727.6440115 0 0 0 0 -40917972.15805769 145651017.00874263 0 145651017.00874263 -150682260.39454651 0 0 0 0 17618605.338592529 -36968543.055384636 0 -36968543.055384636 -106983211.77762604 0 0 0 0 190745974.99684143 -221163611.37692547 0 -221163611.37692547 87276034.260690928 0 0 0 0 370817136.2652359 61418481.778276682 0 61418481.778276682 -340724566.72114563 0 0 0 0 -24503118.285884857 -20002691.474241734 0 -20002691.474241734 -74627815.103189468 0 0 0 0 -9006477.0501861572 -37814388.222322464 0 -37814388.222322464 -72041382.02767086 0 0 0 0 207024.26106056012 -464525.09581877384 0 -464525.09581877384 -837090.42485300219 0 0 0 0 -373230008.0016861 17480566.645218849 0 17480566.645218849 76160130.80686307 0 0 0 0 -20431268.197028488 171897849.24123824 0 171897849.24123824 40712816.742368698 0 0 0 0 -196737561.64991379 110197710.42713499 0 110197710.42713499 -34869732.822272301 0 0 0 0 -282826823.0409317 -160210254.43778133 0 -160210254.43778133 -54822287.676358223 0 0 0 0 -19441480.458805084 -449041836.29229641 0 -449041836.29229641 244793958.76865196 0 0 0 0 -14122200.610856846 -1887684.1668990329 0 -1887684.1668990329 4045513.7976608276 0 0 0 0 -10096676.495321022 1178258.7063550705 0 1178258.7063550705 -119171.86959733488 0 0 0 0 -63732.900043221191 4732266.5739500262 0 4732266.5739500262 -2558386.2419912489 0 0 0 0 2997425.5415415708 1927634.2361672726 0 1927634.2361672726 -1728434.1041048986 0 0 0 0 -933739400.4677887 567659455.9201889 0 567659455.9201889 -369020145.80451965 0 0 0 0 -5259946.574078463 3903698.2637478868 0 3903698.2637478868 -742528.42446665722 0 0 0 0 7054873.4871253967 10445903.45612812 0 10445903.45612812 8163254.1069917679 0 0 0 0 -61390567.139354706 -41832680.703160763 0 -41832680.703160763 10752961.035769463 0 0 0 0 53882317.925679207 40408174.403864622 0 40408174.403864622 -153161353.80547214 0 0 0 0 -23314889.789438009 9453060.1292973757 0 9453060.1292973757 47728815.766283989 0 0 0 0 -25883116.970314026 -34444109.9158144 0 -34444109.9158144 6012913.299031496 0 0 0 0 -2106337.7039871216 5702006.8712720871 0 5702006.8712720871 6399027.6016540527 0 0 0 0 -6678978.4751532283 2777306.3371424219 0 2777306.3371424219 -593594.28698190674 0 0 0 0 -8785841.086933136 -1974598.5501308441 0 -1974598.5501308441 10344164.923352718 0 0 0 0 231041.05427782331 111186.85523315566 0 111186.85523315566 -501711.04912786465 0 0 0 0 -19761076.840202332 -23753289.220056534 0 -23753289.220056534 48394248.263912171 0 0 0 0 -9665416.1747863702 -466233.16199504258 0 -466233.16199504258 2469868.3288946347 0 0 0 0 167186111.98666954 91017459.420191526 0 91017459.420191526 -53756653.14064312 0 0 0 0 -8075315.6936872974 2876207.504646379 0 2876207.504646379 -677102.76175019424 0 0 0 0 16339617.137687445 2824101.9250417054 0 2824101.9250417054 9307882.8760728836 0 0 0 0 87328693.643424988 2651935.4868774414 0 2651935.4868774414 -13580917.544224739 0 0 0 0 5186153.6901531219 -8722608.6664477587 0 -8722608.6664477587 -13243938.476579666 0 0 0 0 8694956.2552185059 442237.74488449097 0 442237.74488449097 -4855320.7740306854 0 0 0 0 -10570786.240699768 9389282.3311834335 0 9389282.3311834335 9495795.7753677368 0 0 0 0 94998803.908336639 22915074.523547173 0 22915074.523547173 720085.90660095215 0 0 0 0 -5428928.9905223073 2373752.4400496767 0 2373752.4400496767 -1610395.4676915784 0 0 0 0 3837903.8261413574 -11187380.723787308 0 -11187380.723787308 -4180773.6530570984 0 0 0 0 17679603.637031555 8952523.1454296112 0 8952523.1454296112 -2348249.9994077682 0 0 0 0 8112.1785432305187 24502.95172998542 0 24502.95172998542 -88231.563637378626 0 0 0 0 17186910.654121399 -6907635.2870073318 0 -6907635.2870073318 -9071706.8529486656 0 0 0 0 -2429303.6188659668 -18612267.866989136 0 -18612267.866989136 277811389.74869061 0 0 0 0 96937684.255722046 24949045.469600677 0 24949045.469600677 -2251993.6458873749 0 0 0 0 67664460.771316528 26004091.499863148 0 26004091.499863148 80868401.894226074 0 0 0 0 -412426.67911839485 1246549.2043602909 0 1246549.2043602909 220364.01734714815 0 0 0 0 33122582.482242584 -51408421.722742558 0 -51408421.722742558 78957912.943225861 0 0 0 0 65059808.207839966 -30643298.977815628 0 -30643298.977815628 78895738.633725166 0 0 0 0 99566551.753555298 22174326.797694206 0 22174326.797694206 109463394.84186172 0 0 0 0 43968459.444618225 44253888.267623901 0 44253888.267623901 224741253.98858261 0 0 0 0 34068961.822402954 -3485118.8292350769 0 -3485118.8292350769 137222495.13063812 0 0 0 0 5615646.5351715088 -29981785.356405258 0 -29981785.356405258 192728943.57860947 0 0 0 0 14783930.034637451 12417540.490333557 0 12417540.490333557 156111770.30754089 0 0 0 0 27716379.375579834 -6080662.5717563629 0 -6080662.5717563629 94005807.189182281 0 0 0 0 35068056.831737518 15073247.576218605 0 15073247.576218605 130172919.68335724 0 0 0 0 -1609249.1574554443 2155138.056268692 0 2155138.056268692 112943868.22099876 0 0 0 0 8233863.1497497559 12792660.844184875 0 12792660.844184875 121727604.42462379 0 0 0 0 5597895.5678710938 -19569621.960350037 0 -19569621.960350037 139917852.2750206 0 0 0 0 14872049.341247559 1060532.9004974365 0 1060532.9004974365 121964655.5484215 0 0 0 0 -54015255.2108078 -29699630.593225002 0 -29699630.593225002 59973005.271083832 0 0 0 0 9616855.7574539185 -43369950.110967636 0 -43369950.110967636 -972242.24486303329 0 0 0 0 -13570377.776878357 -32175852.536230087 0 -32175852.536230087 84317803.234389305 0 0 0 0 -22378360.732086182 -54632199.984768867 0 -54632199.984768867 35875604.857873917 0 0 0 0 -57980309.13432312 -42987792.332099915 0 -42987792.332099915 17539594.676695824 0 0 0 0 -149049874.62717438 -40524202.745691299 0 -40524202.745691299 51851226.478135109 0 0 0 0 -180042908.02687073 39817087.6382761 0 39817087.6382761 20212798.215702951 0 0 0 0 -100123078.74123001 21689727.057821751 0 21689727.057821751 17475446.722993195 0 0 0 0 -1033028.9426013445 -1334345.6013738578 0 -1334345.6013738578 -190647.78610460553 0 0 0 0 -41834845.123674393 46539321.647063971 0 46539321.647063971 -57538687.40186882 0 0 0 0 -927533.00217771716 -42475.45930764731 0 -42475.45930764731 404658.92519233236 0 0 0 0 22202815.048913479 -31754449.675199628 0 -31754449.675199628 -142073427.19151878 0 0 0 0 -198133298.08751297 -87464130.675202847 0 -87464130.675202847 6055262.0629496574 0 0 0 0 -53458954.134979248 -45110611.179942131 0 -45110611.179942131 15404109.351808071 0 0 0 0 -38289199.224998474 -50594699.54561615 0 -50594699.54561615 10738542.899209261 0 0 0 0 -33153676.582756042 -43379163.419320107 0 -43379163.419320107 -1067746.4349050522 0 0 0 0 -26445719.550445557 -14319195.8715415 0 -14319195.8715415 5509170.9757523537 0 0 0 0 -61459495.797816277 6104876.437076211 0 6104876.437076211 17209177.626803398 0 0 0 0 -68224864.909194946 -6349891.1170787811 0 -6349891.1170787811 4048803.0901616812 0 0 0 0 -61044412.163457394 -41081069.113063574 0 -41081069.113063574 36157209.485224724 0 0 0 0 -68400834.774814606 -38821350.898794651 0 -38821350.898794651 35550436.586238861 0 0 0 0 -33936568.919555664 -60140553.906954765 0 -60140553.906954765 38600130.498878479 0 0 0 0 -74754555.652759552 -60305826.430786729 0 -60305826.430786729 56714063.02853775 0 0 0 0 4130053.5665893555 -66401214.665122032 0 -66401214.665122032 52696225.794277191 0 0 0 0 -34058546.973419189 -58953143.754345894 0 -58953143.754345894 55107158.744093895 0 0 0 0 -28644614.185325623 -61841552.254258156 0 -61841552.254258156 35590117.357872963 0 0 0 0 -4835380.6179962158 -57403730.056721687 0 -57403730.056721687 34512460.612524033 0 0 0 0 -49678587.274342537 -58361483.648498774 0 -58361483.648498774 38401202.678012848 0 0 0 0 5013335.365447998 -17929320.49936676 0 -17929320.49936676 94331039.335518122 0 0 0 0 39605803.358230591 -15756862.993645668 0 -15756862.993645668 58494469.930364609 0 0 0 0 -2553158.7848510742 -25386569.457957268 0 -25386569.457957268 58333986.37163505 0 0 0 0 11208248.134178162 -31518531.704014778 0 -31518531.704014778 85417435.483480453 0 0 0 0 25056398.055423737 -36429040.582835674 0 -36429040.582835674 52262535.216842651 0 0 0 0 -9794391.7137298584 -53845653.56747818 0 -53845653.56747818 51266466.937524199 0 0 0 0 -10352497.631416321 -46846277.207211018 0 -46846277.207211018 19931538.852186203 0 0 0 0 -17574053.335617065 -48206362.512217522 0 -48206362.512217522 34053618.304463387 0 0 0 0 14282942.357582092 -36335839.279973984 0 -36335839.279973984 37802201.511255264 0 0 0 0 -11798289.004442215 -31723502.773983717 0 -31723502.773983717 23677560.285190582 0 0 0 0 2531009.6835403442 -30699107.025608063 0 -30699107.025608063 42676666.286037445 0 0 0 0 -10717970.99067688 -22988382.601251602 0 -22988382.601251602 38762214.276823997 0 0 0 0 -24854389.436157227 -13236606.688400984 0 -13236606.688400984 47680026.551267624 0 0 0 0 1473200.4594612122 -5147978.8201633096 0 -5147978.8201633096 49253221.994846344 0 0 0 0 -34914918.769318581 -34964156.621462524 0 -34964156.621462524 23406789.497184753 0 0 0 0 -34048356.147796631 -28071478.716878891 0 -28071478.716878891 10487693.262640953 0 0 0 0 -30507840.761932373 -53991764.173324108 0 -53991764.173324108 5595765.5906162262 0 0 0 0 -33421731.019523621 -49365210.363979816 0 -49365210.363979816 19971481.079597473 0 0 0 0 -45164569.149349213 -47808997.246364117 0 -47808997.246364117 -13149203.270475388 0 0 0 0 -50300579.645568848 -45459936.697752953 0 -45459936.697752953 2300527.9824581146 0 0 0 0 -63132599.60811615 -40595918.041867733 0 -40595918.041867733 5097448.6376237869 0 0 0 0 -51905671.948602676 -13568968.108301282 0 -13568968.108301282 -2864498.6502418518 0 0 0 0 -39097614.083485126 -55504341.984351516 0 -55504341.984351516 8324555.0828151703 0 0 0 0 -32690944.835472107 -64629267.532214642 0 -64629267.532214642 16668294.055450439 0 0 0 0 -26927557.187416077 -63797294.538336754 0 -63797294.538336754 4715356.3898558617 0 0 0 0 -30677628.30093956 -55233492.657571912 0 -55233492.657571912 21727436.270507812 0 0 0 0 -34426036.510204315 -60944030.253007889 0 -60944030.253007889 -11560192.182057381 0 0 0 0 -35843192.78968811 -57215648.779626846 0 -57215648.779626846 2101778.8754940033 0 0 0 0 -32368630.267906189 -63709085.55654192 0 -63709085.55654192 -6757495.7950053215 0 0 0 0 -23732908.899810791 -51367102.220551968 0 -51367102.220551968 -15880102.844519615 0 0 0 0 -24905001.298603058 -55190120.123382151 0 -55190120.123382151 -20821998.726819038 0 0 0 0 -27956330.313696861 -67486196.573122263 0 -67486196.573122263 -43990560.758619308 0 0 0 0 -17854950.778755188 -48127567.709670067 0 -48127567.709670067 -36600192.196351051 0 0 0 0 -10532373.332630157 -44554830.10623455 0 -44554830.10623455 -32100879.186267853 0 0 0 0 -63997492.82056427 -62935320.163673401 0 -62935320.163673401 -11655408.590224504 0 0 0 0 -61418285.872406006 -38033067.608477592 0 -38033067.608477592 -16363296.44195056 0 0 0 0 -90426574.254774094 -33576402.52817446 0 -33576402.52817446 -33153692.609251976 0 0 0 0 -87232459.272266388 -52863139.138903141 0 -52863139.138903141 -22020238.509130955 0 0 0 0 -244075897.05337143 -56822746.08120203 0 -56822746.08120203 -14250698.375675678 0 0 0 0 -64556336.346345901 -97197572.369666219 0 -97197572.369666219 -77667038.073082924 0 0 0 0 -27956069.261707306 -123572906.3416369 0 -123572906.3416369 -134414841.08462095 0 0 0 0 -407145.49131230824 16241.673617743421 0 16241.673617743421 213452.90294067119 0 0 0 0 12399314.439136505 -13055858.356818438 0 -13055858.356818438 -45863661.494964719 0 0 0 0 -3899910.3861465454 -38534260.455573082 0 -38534260.455573082 -37524972.614281178 0 0 0 0 -19220285.164466858 -46553143.851966381 0 -46553143.851966381 -28404594.314116955 0 0 0 0 -12338500.871419907 -12697821.499143481 0 -12697821.499143481 18203903.074500084 0 0 0 0 -5168802.1697502136 -13255146.581656933 0 -13255146.581656933 -8298467.0546894073 0 0 0 0 -748798.00926971436 -29489652.388367414 0 -29489652.388367414 -4030043.7444467545 0 0 0 0 1852356.4872894287 -9583805.2466027737 0 -9583805.2466027737 449011.6323595047 0 0 0 0 1675225.8980426788 -22898620.637870967 0 -22898620.637870967 -19757832.09902668 0 0 0 0 -13721152.206115723 -38943560.804914951 0 -38943560.804914951 -19512838.133635521 0 0 0 0 -13745196.961402893 -39461379.639435768 0 -39461379.639435768 -20605981.323422194 0 0 0 0 -15071020.61681819 -22908086.692175165 0 -22908086.692175165 -5257090.9413795471 0 0 0 0 -24808086.83619976 -46022289.999461293 0 -46022289.999461293 -11064114.52797699 0 0 0 0 -38918949.743817329 -27394015.800097764 0 -27394015.800097764 -6065852.7529907227 0 0 0 0 -14198311.408058167 -12819082.488757133 0 -12819082.488757133 -7229118.7949151993 0 0 0 0 -12559327.83058548 -21454623.196217537 0 -21454623.196217537 -9327524.8793766499 0 0 0 0 -3983467.0607757568 -4237289.2304964066 0 -4237289.2304964066 26772193.746225119 0 0 0 0 -3482113.6555213928 -24329216.308308363 0 -24329216.308308363 14918779.064996123 0 0 0 0 -16132270.523118019 -15228506.924861401 0 -15228506.924861401 54259706.536261559 0 0 0 0 21339600.65848732 -26367824.943291664 0 -26367824.943291664 6352068.7557783127 0 0 0 0 -3395705.412322998 -21579285.656587601 0 -21579285.656587601 5790794.5556225777 0 0 0 0 2121365.0672283173 -7819386.9571998715 0 -7819386.9571998715 46394602.093920708 0 0 0 0 -47058033.048828125 25203797.233487606 0 25203797.233487606 69057477.925062686 0 0 0 0 19924.063079833984 -851939.39632153511 0 -851939.39632153511 2237679.8164148331 0 0 0 0 -717386.57465573959 223700.12729739398 0 223700.12729739398 653844.79665703943 0 0 0 0 -43438536.065368652 -31221103.215248823 0 -31221103.215248823 59321320.342928052 0 0 0 0 -579589.75045013428 -8033123.1318876743 0 -8033123.1318876743 46396376.364003301 0 0 0 0 -2659918.8028488159 -1570535.7883547544 0 -1570535.7883547544 3473108.5273108482 0 0 0 0 -1054243.1846060269 -106763.71477694204 0 -106763.71477694204 268328.40066747169 0 0 0 0 -13723360.241500854 -12412429.698094845 0 -12412429.698094845 54471489.154571891 0 0 0 0 -241673.01198109984 -15184.457526552491 0 -15184.457526552491 236629.48800754873 0 0 0 0 -67653952.758750916 -11807510.181105822 0 -11807510.181105822 4646177.4027816504 0 0 0 0 40540928.676574707 -21510706.969316006 0 -21510706.969316006 -1875521.187492609 0 0 0 0 42490592.167484283 30368730.265580654 0 30368730.265580654 30480275.797441959 0 0 0 0 74971846.834205627 -11713638.547093034 0 -11713638.547093034 -9375096.320274353 0 0 0 0 -46836470.231193542 32231330.068167806 0 32231330.068167806 10546705.487327695 0 0 0 0 -56444959.67931366 5626392.2219854593 0 5626392.2219854593 26583583.396646142 0 0 0 0 -88325161.52776289 47299916.319521919 0 47299916.319521919 6473936.6359028816 0 0 0 0 -77906963.319961548 -4642275.0444794893 0 -4642275.0444794893 40505433.704049587 0 0 0 0 -110263251.94564602 63700135.713595249 0 63700135.713595249 -16952661.973312855 0 0 0 0 -110722258.94812012 19519750.360504389 0 19519750.360504389 10244051.021471202 0 0 0 0 -143113023.9475069 14449661.277174614 0 14449661.277174614 -24941156.067795038 0 0 0 0 -34629727.345272064 23781925.437251359 0 23781925.437251359 -30237179.443771124 0 0 0 0 -84461834.616416931 42765294.416829094 0 42765294.416829094 -78431225.787859917 0 0 0 0 -29774303.223625183 22202657.92208305 0 22202657.92208305 -33926232.879193246 0 0 0 0 2081243.8980979919 -34031484.780926943 0 -34031484.780926943 -25560979.226386011 0 0 0 0 -140708221.48112106 136081943.77418196 0 136081943.77418196 -72959289.512870237 0 0 0 0 -170048152.5095787 148136975.59266347 0 148136975.59266347 -57720438.839261472 0 0 0 0 -227152086.44420815 109769455.87698662 0 109769455.87698662 -5731589.2186857462 0 0 0 0 -123765695.33569813 65206144.20536834 0 65206144.20536834 -73737848.83895418 0 0 0 0 -176129304.57415009 39655713.780435085 0 39655713.780435085 -24367999.159195662 0 0 0 0 -147245957.35730362 42786882.951625347 0 42786882.951625347 15446414.995034456 0 0 0 0 -130183165.93869877 96238681.824788064 0 96238681.824788064 -13927040.340838552 0 0 0 0 -145194016.84273911 114536226.52365369 0 114536226.52365369 -38782548.285210609 0 0 0 0 -154418776.98869324 94952962.31280303 0 94952962.31280303 -1209396.0759949684 0 0 0 0 -150741341.01858521 128762486.39103526 0 128762486.39103526 -38278938.524242282 0 0 0 0 -155233109.68479538 115960470.57106972 0 115960470.57106972 -25956057.823049068 0 0 0 0 -152864217.80888367 89565891.736785412 0 89565891.736785412 -16793368.07007426 0 0 0 0 -151993800.22372818 92871715.602662265 0 92871715.602662265 -5672665.0741415024 0 0 0 0 -104130124.68151093 85720948.136865139 0 85720948.136865139 -20462157.660948753 0 0 0 0 -73812126.737724304 22427194.160742998 0 22427194.160742998 21221481.585451126 0 0 0 0 -108132421.0111084 82359084.322924256 0 82359084.322924256 -998413.97407531738 0 0 0 0 -106137817.21624756 81451366.228435278 0 81451366.228435278 -11205281.122406363 0 0 0 0 -97629234.521446228 55961442.521216661 0 55961442.521216661 5783134.3755831718 0 0 0 0 -26871337.662784576 74343679.478988171 0 74343679.478988171 -22201054.09096241 0 0 0 0 10528170.673545837 5944631.7732050419 0 5944631.7732050419 -17267814.502526999 0 0 0 0 192873.04576873779 -871191.11517190933 0 -871191.11517190933 2224126.6453193426 0 0 0 0 -15944469.750267029 -28233026.084802866 0 -28233026.084802866 27024129.563297749 0 0 0 0 -90483549.416984558 37392672.517324448 0 37392672.517324448 -31455466.158281922 0 0 0 0 -83958672.018531799 80068999.891304255 0 80068999.891304255 -17190200.651188612 0 0 0 0 -815214.89447091147 -162259.51119671762 0 -162259.51119671762 112615.25374408369 0 0 0 0 -4086352.5882434845 -39680073.996261358 0 -39680073.996261358 24481288.214119434 0 0 0 0 -546545.26964840665 341674.62161559612 0 341674.62161559612 679816.55613642803 0 0 0 0 -1753451.6014633179 -36702942.771567345 0 -36702942.771567345 4564662.3795006275 0 0 0 0 -196205951.16502953 27755320.06817162 0 27755320.06817162 -69042293.971474648 0 0 0 0 -163442781.48508835 107520040.76616168 0 107520040.76616168 -36066668.996325493 0 0 0 0 -116084817.18061829 65993161.706774235 0 65993161.706774235 -13727055.035831332 0 0 0 0 -117410308.44312286 165461943.50718832 0 165461943.50718832 -131112884.55811977 0 0 0 0 -255357947.48008919 13452148.305271208 0 13452148.305271208 -59939037.449542522 0 0 0 0 -261370827.16292191 63209289.71417284 0 63209289.71417284 -55902131.008202553 0 0 0 0 -114820448.50450516 36313141.186987162 0 36313141.186987162 -111017266.39765942 0 0 0 0 -105769239.28315735 36075161.722183466 0 36075161.722183466 -111512113.42496014 0 0 0 0 -62814748.455415726 50877654.546423674 0 50877654.546423674 -132856473.80158758 0 0 0 0 -88883459.755470276 61895599.377286673 0 61895599.377286673 -116451625.24307323 0 0 0 0 -89224977.308389664 100968776.0145517 0 100968776.0145517 -104485564.7657783 0 0 0 0 -146035098.80057144 63762195.806548238 0 63762195.806548238 -43386857.049907088 0 0 0 0 -141669785.73414993 88189590.768133819 0 88189590.768133819 -57303933.815400362 0 0 0 0 -122783646.79794598 104817793.73807399 0 104817793.73807399 -65690749.60445714 0 0 0 0 -123790947.41686249 105253214.23049229 0 105253214.23049229 -43932302.322022021 0 0 0 0 -79141776.000938416 103395008.05687582 0 103395008.05687582 -65859815.804658137 0 0 0 0 -86636783.182356834 96792127.210650831 0 96792127.210650831 -59264083.222846068 0 0 0 0 -110498708.81194496 133774025.20504561 0 133774025.20504561 -70144519.355716765 0 0 0 0 -141277193.7852211 146842546.34638089 0 146842546.34638089 -75661041.246067286 0 0 0 0 -89491414.907348633 40822018.417116523 0 40822018.417116523 -11792985.364994228 0 0 0 0 -57788055.263317108 78065842.804771632 0 78065842.804771632 -64578850.866848588 0 0 0 0 -95872953.585861206 99784479.906038642 0 99784479.906038642 -61609606.571982428 0 0 0 0 -170729800.11051178 64529378.879845455 0 64529378.879845455 -14989802.834312379 0 0 0 0 -31829349.049631119 -13630601.05536887 0 -13630601.05536887 1066822.8831651211 0 0 0 0 145891.30026483908 -68300.094091384672 0 -68300.094091384672 -573765.86134513968 0 0 0 0 -105936798.22262764 137016246.12739438 0 137016246.12739438 -149150774.7420547 0 0 0 0 -45424010.815377235 64095986.159744292 0 64095986.159744292 -201211556.50205207 0 0 0 0 -68922521.856927872 41647442.500371933 0 41647442.500371933 -124160029.87119317 0 0 0 0 -43080774.215816498 69637996.441075087 0 69637996.441075087 -102887251.51257014 0 0 0 0 -29546993.583908081 57252441.84855032 0 57252441.84855032 -57344347.220026016 0 0 0 0 -13998894.240857124 40442399.704602838 0 40442399.704602838 -85371883.726157665 0 0 0 0 -55908737.718738556 56172735.351079941 0 56172735.351079941 -73887854.110034227 0 0 0 0 -44774773.546283722 35873115.786165118 0 35873115.786165118 -23450209.885074615 0 0 0 0 -36212423.496440887 31971089.725393295 0 31971089.725393295 -54903256.200192451 0 0 0 0 -57931980.195105076 27170209.245129228 0 27170209.245129228 -100704058.39519835 0 0 0 0 -73308033.257417679 22950732.020810723 0 22950732.020810723 -121605031.43533468 0 0 0 0 -56348537.79126358 48319235.375137091 0 48319235.375137091 -134979782.72105896 0 0 0 0 -79366248.337097168 53447712.685628414 0 53447712.685628414 -101918560.7305665 0 0 0 0 -98812406.622524261 9519796.3679196835 0 9519796.3679196835 -60349709.993820667 0 0 0 0 -131938460.3771286 -16359010.174812317 0 -16359010.174812317 -158874291.67002106 0 0 0 0 -137217985.15223312 66245291.535778046 0 66245291.535778046 -138243217.89399278 0 0 0 0 -82187400.353149414 23871181.385084152 0 23871181.385084152 -51953100.014334679 0 0 0 0 -66289251.401117325 2761608.6864323616 0 2761608.6864323616 -32885943.228034973 0 0 0 0 -76175740.599971771 15255718.733234882 0 15255718.733234882 -13175731.205841064 0 0 0 0 -117676555.46075249 -1786552.7449550629 0 -1786552.7449550629 -13741396.749983788 0 0 0 0 -69044141.420791626 -21901473.066445351 0 -21901473.066445351 -6330943.927980423 0 0 0 0 -75064893.918243408 12144810.853162289 0 12144810.853162289 -11562227.703613281 0 0 0 0 -66302611.481136322 22048878.409027338 0 22048878.409027338 -55198311.151892185 0 0 0 0 -51352500.752529144 38029462.940145493 0 38029462.940145493 -47827031.891695261 0 0 0 0 -44804789.969705582 44069879.190432519 0 44069879.190432519 -25425754.283527374 0 0 0 0 -46395960.613376617 17231012.399003983 0 17231012.399003983 -14158505.195056438 0 0 0 0 -47193232.143225431 6242346.2426383495 0 6242346.2426383495 9221466.3170547485 0 0 0 0 -46076746.090518832 31829354.982481241 0 31829354.982481241 9551629.7635831833 0 0 0 0 -31246279.631912231 13223162.438817978 0 13223162.438817978 18577367.72172451 0 0 0 0 -49661401.123802185 -22413508.009241104 0 -22413508.009241104 10212535.960546494 0 0 0 0 -50183361.66721344 4555858.4116754532 0 4555858.4116754532 9993930.3188695908 0 0 0 0 -52854869.584083557 22906018.365442276 0 22906018.365442276 -10685431.971526623 0 0 0 0 -57334514.600540161 -4523462.4026689529 0 -4523462.4026689529 814486.88813495636 0 0 0 0 -43922889.514266968 19004009.450129509 0 19004009.450129509 26281489.013816833 0 0 0 0 -36916730.018547058 -8732097.9978866577 0 -8732097.9978866577 20167774.204916 0 0 0 0 -32424938.084506512 -9764823.4689434767 0 -9764823.4689434767 19199464.963903427 0 0 0 0 -24680208.043792725 -19642013.623671532 0 -19642013.623671532 28838242.0906353 0 0 0 0 -30758959.69157505 3264127.1039273739 0 3264127.1039273739 35249586.089538574 0 0 0 0 -29922530.91053772 -9315966.8760356903 0 -9315966.8760356903 52316645.603639603 0 0 0 0 -31348618.921217442 14370455.831301242 0 14370455.831301242 58370963.991931915 0 0 0 0 -13167824.902988434 -1660463.6587915421 0 -1660463.6587915421 58441617.275342941 0 0 0 0 -26277515.152248383 -7018487.946144104 0 -7018487.946144104 91867046.967844009 0 0 0 0 -11282792.72265625 2961757.5613546371 0 2961757.5613546371 58264495.439642906 0 0 0 0 396210.44737243652 -6903093.0637369156 0 -6903093.0637369156 78683447.829492569 0 0 0 0 -18564879.665542603 -8221456.0275354385 0 -8221456.0275354385 78618315.759048462 0 0 0 0 -40215463.986361504 30197168.882022858 0 30197168.882022858 33731710.878898621 0 0 0 0 -22449327.515629768 21711580.997339845 0 21711580.997339845 34212157.105047226 0 0 0 0 -33942439.216590881 24686041.643406391 0 24686041.643406391 39439195.116890907 0 0 0 0 -30709563.643737793 1671942.6197776794 0 1671942.6197776794 35237215.156826973 0 0 0 0 -29610898.048719406 14921605.945870638 0 14921605.945870638 79561526.386618614 0 0 0 0 -26592371.310943604 1661296.3019351959 0 1661296.3019351959 57547769.738789558 0 0 0 0 -20870282.446020126 31142677.180827141 0 31142677.180827141 28824789.820591927 0 0 0 0 -30156244.243335724 12238578.356773853 0 12238578.356773853 64947500.441146374 0 0 0 0 -29100303.765323639 24112848.474585056 0 24112848.474585056 25681678.487921953 0 0 0 0 -24704731.055692673 39752871.704731703 0 39752871.704731703 9436520.9104671478 0 0 0 0 -17279832.548629761 40798365.40547657 0 40798365.40547657 -17292464.350418091 0 0 0 0 -23312753.020291328 36298446.333477497 0 36298446.333477497 -18885447.214978218 0 0 0 0 -32981523.505924225 21653686.231099129 0 21653686.231099129 9625148.9103264809 0 0 0 0 -31343420.994262695 44440448.053710938 0 44440448.053710938 -18994814.713637352 0 0 0 0 9829240.5342559814 14819232.21668458 0 14819232.21668458 -45895733.128461361 0 0 0 0 -3144248.6136474609 25179798.548457623 0 25179798.548457623 -4293017.7293400764 0 0 0 0 -775453.23360824585 40620918.750650406 0 40620918.750650406 -45727054.983870506 0 0 0 0 -2859142.7357559204 25924102.006990433 0 25924102.006990433 -23654298.896199703 0 0 0 0 -11642442.499603271 49498913.92815125 0 49498913.92815125 -56878964.705482483 0 0 0 0 -5692621.3286075592 16915404.062200069 0 16915404.062200069 20889275.533268929 0 0 0 0 -16162712.780150414 32672029.88267827 0 32672029.88267827 29394840.57294178 0 0 0 0 3655526.2489891052 26953945.713433504 0 26953945.713433504 -4656530.9917984009 0 0 0 0 -323687.23488235474 19228625.943441868 0 19228625.943441868 21001506.356694221 0 0 0 0 16009648.233161926 29362109.363765121 0 29362109.363765121 -1569761.9064850807 0 0 0 0 -3328357.8210141696 2236616.8685268508 0 2236616.8685268508 -3681300.3303786246 0 0 0 0 -3293586.5646076202 792028.86267056316 0 792028.86267056316 6116091.4308185019 0 0 0 0 38379079.361955643 -8533304.2979230173 0 -8533304.2979230173 -47961472.013062403 0 0 0 0 9438547.7635658979 26399860.648333415 0 26399860.648333415 -47629475.074940681 0 0 0 0 10470556.119951248 1824396.7066099644 0 1824396.7066099644 6527491.0138094425 0 0 0 0 36914201.180122375 6635332.7243785858 0 6635332.7243785858 -147795771.10383868 0 0 0 0 17306205.343248367 -37454651.098630428 0 -37454651.098630428 -72319855.886644781 0 0 0 0 8133701.1450972557 -17444441.223746032 0 -17444441.223746032 14492911.325427055 0 0 0 0 -2372280.605959475 1784213.7595843766 0 1784213.7595843766 -2826486.3422943726 0 0 0 0 34039506.686940193 10981803.597267628 0 10981803.597267628 -32279613.253147364 0 0 0 0 -52402305.540615082 -66356083.35109973 0 -66356083.35109973 -208205483.74900484 0 0 0 0 -432588.14711967856 1167090.9206601386 0 1167090.9206601386 -621.47729168273509 0 0 0 0 46149837.30932045 -29228131.996957541 0 -29228131.996957541 -235494843.50326943 0 0 0 0 4891344.551815033 60192625.921894312 0 60192625.921894312 -380464243.45861244 0 0 0 0 44096448.67980957 5090809.4264509678 0 5090809.4264509678 -148178400.22169864 0 0 0 0 57841928.908966064 33106624.899882197 0 33106624.899882197 -154665502.86401725 0 0 0 0 56279374.642871857 7730796.47113204 0 7730796.47113204 -200430416.88114095 0 0 0 0 20078533.930194855 29231607.521312714 0 29231607.521312714 -55855729.365129232 0 0 0 0 20343629.206272125 28012505.519744635 0 28012505.519744635 -77956741.744365692 0 0 0 0 36741646.542469621 2195233.8714043349 0 2195233.8714043349 -116297499.47317982 0 0 0 0 -20057653.026387215 45695670.436707258 0 45695670.436707258 -58261225.003983021 0 0 0 0 4971859.2713394165 60446704.128258705 0 60446704.128258705 -115454476.39135838 0 0 0 0 56063284.945047379 52861440.434110999 0 52861440.434110999 -127785899.08284581 0 0 0 0 111954250.63590813 109356364.55071795 0 109356364.55071795 -186721099.25532478 0 0 0 0 -14818556.771066666 103728133.94693452 0 103728133.94693452 -163693206.41851497 0 0 0 0 81555414.515130043 28802873.798184976 0 28802873.798184976 -160714245.79064369 0 0 0 0 67661889.946041107 54920760.300226927 0 54920760.300226927 -205918022.39960527 0 0 0 0 71300943.38766861 99263895.307122946 0 99263895.307122946 -114599597.01311195 0 0 0 0 177962834.09844971 54575339.714928642 0 54575339.714928642 -157817763.50915861 0 0 0 0 79619417.643045425 31669687.85253356 0 31669687.85253356 17248944.714801159 0 0 0 0 39668176.70533371 118799539.53255823 0 118799539.53255823 191428634.85209227 0 0 0 0 73762603.62928772 126264830.49690276 0 126264830.49690276 40370602.415352389 0 0 0 0 -354773.07307927217 197886.10587976966 0 197886.10587976966 -668483.98984488437 0 0 0 0 12472033.449043274 6340859.3120089173 0 6340859.3120089173 -15128177.317535818 0 0 0 0 -112736166.95193481 -23773986.084275559 0 -23773986.084275559 129039205.26589984 0 0 0 0 91271373.585266113 110088849.21665333 0 110088849.21665333 -60719291.878786713 0 0 0 0 -79561880.182039261 101023128.14045718 0 101023128.14045718 -45779427.708102569 0 0 0 0 -87332854.428245783 57775871.212440863 0 57775871.212440863 -85331021.07206288 0 0 0 0 -316924689.70944023 125856892.07236162 0 125856892.07236162 40965673.104815036 0 0 0 0 66416700.752622604 68413373.917505562 0 68413373.917505562 -186788402.06309021 0 0 0 0 35266680.671037674 25637889.591653705 0 25637889.591653705 -173759480.69107103 0 0 0 0 -34145325.585726738 114662929.92174216 0 114662929.92174216 -318019751.67075181 0 0 0 0 -39843991.389825821 104183236.74051642 0 104183236.74051642 -248020009.14400625 0 0 0 0 -74569195.007577896 63222590.072237909 0 63222590.072237909 -283186525.59575641 0 0 0 0 -291104290.82387924 145502756.04564726 0 145502756.04564726 -289635219.49515915 0 0 0 0 -299318865.02836609 215937211.8104865 0 215937211.8104865 -287562558.83653086 0 0 0 0 -361781953.26814651 172888149.62982088 0 172888149.62982088 -206226357.59543803 0 0 0 0 -429703558.54551888 246549294.19642812 0 246549294.19642812 -271986263.97495031 0 0 0 0 -294340237.61684799 190126713.74015272 0 190126713.74015272 -402682782.38280129 0 0 0 0 -474712169.93768263 270947255.40958047 0 270947255.40958047 -166710789.9807106 0 0 0 0 -234484017.91420555 117650959.25485748 0 117650959.25485748 -174776409.81538981 0 0 0 0 -231355877.35837555 181474139.65401042 0 181474139.65401042 -175875720.22296518 0 0 0 0 -315487286.76000786 144740024.28840575 0 144740024.28840575 -24064838.865923166 0 0 0 0 -382951194.85603428 125398676.89601451 0 125398676.89601451 -6137936.9802863002 0 0 0 0 -555665422.55844212 124253967.60449788 0 124253967.60449788 128196038.74921316 0 0 0 0 -549032703.12173796 147269133.95553535 0 147269133.95553535 159208756.75102347 0 0 0 0 -755068514.38734055 217413417.80435926 0 217413417.80435926 183655246.4200007 0 0 0 0 -708712852.29655266 271357760.2511133 0 271357760.2511133 47747125.67710752 0 0 0 0 -616868734.76579666 210862679.83702025 0 210862679.83702025 37718268.447126709 0 0 0 0 -944734470.14317703 355307013.67784065 0 355307013.67784065 92495721.681445718 0 0 0 0 -476290760.13622856 377619916.42711687 0 377619916.42711687 -398626815.22456175 0 0 0 0 -945550008.20467567 487848930.31941319 0 487848930.31941319 -140638591.7789019 0 0 0 0 -661168320.9592638 292097452.57852787 0 292097452.57852787 -16575199.714250095 0 0 0 0 -343432978.95179749 325392068.78301024 0 325392068.78301024 -390298195.2979241 0 0 0 0 -942448713.99980259 850786997.40977466 0 850786997.40977466 -848564832.09629071 0 0 0 0 -1617652.6684633112 1012049.5607293413 0 1012049.5607293413 -591619.4461473244 0 0 0 0 -130979437.51912689 -126504355.43387449 0 -126504355.43387449 -42700950.991473779 0 0 0 0 -360394538.79512978 260043991.35610038 0 260043991.35610038 -424392711.18977976 0 0 0 0 -222626075.21306992 306497235.37720275 0 306497235.37720275 -428051455.85800433 0 0 0 0 -189629133.11120033 237084635.00561774 0 237084635.00561774 -512509401.05314589 0 0 0 0 -603027.14690509299 245268.99024222326 0 245268.99024222326 66638.201569773257 0 0 0 0 2566994.2651557922 -82167160.893445015 0 -82167160.893445015 -489180672.04459417 0 0 0 0 -3545653.0669803964 1011615.6262538038 0 1011615.6262538038 -478087.9357887212 0 0 0 0 1678503.2234859467 16761781.656034321 0 16761781.656034321 35638063.887163542 0 0 0 0 18681717.688105106 53210030.725719213 0 53210030.725719213 -27795859.25371097 0 0 0 0 37591218.571184158 -5435514.6396447998 0 -5435514.6396447998 -35625346.570474289 0 0 0 0 -52915659.831590652 -19441124.890353557 0 -19441124.890353557 28327136.312919687 0 0 0 0 6170902.6155428886 14606482.557017729 0 14606482.557017729 -1596128.2546373308 0 0 0 0 26343132.238920212 -9824831.5240949523 0 -9824831.5240949523 -27225691.549765296 0 0 0 0 -145817.50833494309 64255.364271038678 0 64255.364271038678 17555.589459995223 0 0 0 0 2907613.6032862663 2872216.2197697423 0 2872216.2197697423 -3373377.4564028606 0 0 0 0 -2890635.2411594391 1599142.8109578714 0 1599142.8109578714 3949082.5282837227 0 0 0 0 -409920.35246310942 321119.57478861714 0 321119.57478861714 87894.88967650714 0 0 0 0 565030.10016155243 1117613.3435954377 0 1117613.3435954377 445803.29020155966 0 0 0 0 -63023183.419845581 -52562922.55883339 0 -52562922.55883339 48985289.039529771 0 0 0 0 -830972.07715111319 -786118.98048991244 0 -786118.98048991244 -928047.52421234059 0 0 0 0 -1069997.4626098014 -473314.21601771767 0 -473314.21601771767 -784905.33861487743 0 0 0 0 -2833353.6096611023 1412136.9504499349 0 1412136.9504499349 -7805184.4731137725 0 0 0 0 -81405.410933358595 255582.57009356955 0 255582.57009356955 -500815.38796326751 0 0 0 0 -935204633.49472809 285225.95513746957 0 285225.95513746957 344022.12358396139 0 0 0 0 -910616739.11444092 -47984738.073437817 0 -47984738.073437817 43273960.813477986 0 0 0 0 -177505758.23092651 454817659.27877432 0 454817659.27877432 -101322834.30970807 0 0 0 0 -500881.26566945203 -282347.40617423295 0 -282347.40617423295 -446098.19408192672 0 0 0 0 -940603518.65406632 232968195.52113968 0 232968195.52113968 127874021.84344217 0 0 0 0 -604162034.72749901 -33256182.290628687 0 -33256182.290628687 12088059.309426114 0 0 0 0 -110295858.61531007 -128842235.89336427 0 -128842235.89336427 -70068028.917658508 0 0 0 0 17235274.052113533 62870792.544482097 0 62870792.544482097 -71871867.817031443 0 0 0 0 36095211.7780056 4620048.7178360093 0 4620048.7178360093 -95814945.628331974 0 0 0 0 -812699352.26495743 72799831.752832294 0 72799831.752832294 -121144169.4540879 0 0 0 0 -724554806.40917969 4961991.3671228811 0 4961991.3671228811 -160589505.94511932 0 0 0 0 -836935463.77959061 -69342815.629134357 0 -69342815.629134357 -63939183.695159942 0 0 0 0 -945339127.23749352 -4926589.4229076998 0 -4926589.4229076998 -81993368.733536392 0 0 0 0 -638013314.48732376 -108889727.7552976 0 -108889727.7552976 -72635902.899522424 0 0 0 0 -718740487.50072098 -5354356.0983902253 0 -5354356.0983902253 -53425947.266305268 0 0 0 0 -639579074.62817001 28528509.730564348 0 28528509.730564348 -114182280.58306538 0 0 0 0 -803519884.19942474 168941638.761695 0 168941638.761695 -13036645.850796103 0 0 0 0 -825265098.65264702 114406333.81446296 0 114406333.81446296 -109814108.03567851 0 0 0 0 -867466668.91816139 234597388.27724192 0 234597388.27724192 84138686.333828688 0 0 0 0 -209640.49540820904 295803.34845301509 0 295803.34845301509 -301436.75736465445 0 0 0 0 -1078209947.2502918 250658733.89707297 0 250658733.89707297 -60181775.272014081 0 0 0 0 -892229918.26083374 227183727.02174085 0 227183727.02174085 -191637735.39389476 0 0 0 0 -1069918450.9016571 261306842.53065348 0 261306842.53065348 -119904982.97591656 0 0 0 0 -786479951.58667374 79866675.603386968 0 79866675.603386968 -152902185.77376181 0 0 0 0 -991784575.43317795 114020191.77858505 0 114020191.77858505 -149900501.18137878 0 0 0 0 -998166739.80390549 -19146915.555915438 0 -19146915.555915438 -221026549.23920414 0 0 0 0 -826406832.33224297 61859218.751552992 0 61859218.751552992 -204746112.92196441 0 0 0 0 -1137041874.6857414 305466093.32897359 0 305466093.32897359 -76404856.720694065 0 0 0 0 -1164985.4972565323 49581.866283702198 0 49581.866283702198 238307.64776170469 0 0 0 0 -5748300.7554626465 -4800849.6299679279 0 -4800849.6299679279 -7766526.1390036345 0 0 0 0 -963980568.78085518 173068429.49514785 0 173068429.49514785 -53986726.26291889 0 0 0 0 -1243869270.1920738 104242402.47745842 0 104242402.47745842 -67343775.39018935 0 0 0 0 -469361621.50240993 -279841449.85199493 0 -279841449.85199493 -168797088.68419921 0 0 0 0 -970310481.44278049 48858511.383353516 0 48858511.383353516 103394781.71448657 0 0 0 0 -837217963.70360565 210982117.64546362 0 210982117.64546362 -246505220.95113948 0 0 0 0 -862924278.30892873 163043102.2366662 0 163043102.2366662 2933608.788418971 0 0 0 0 -829499546.80957985 50959813.308803514 0 50959813.308803514 -159422958.70041305 0 0 0 0 -845409402.92664146 43065376.339858122 0 43065376.339858122 -101518412.85561629 0 0 0 0 -864809087.37880135 109770710.56470665 0 109770710.56470665 -132307870.98640421 0 0 0 0 -944777731.86809647 105692942.61842167 0 105692942.61842167 10863610.931451952 0 0 0 0 -885892167.34951019 170958228.28695285 0 170958228.28695285 56333543.125579335 0 0 0 0 -898081148.0632534 124680261.78273936 0 124680261.78273936 90747321.562450409 0 0 0 0 -804177275.35130882 165566780.77995026 0 165566780.77995026 105915549.95689951 0 0 0 0 -944979057.91842461 145830262.16219023 0 145830262.16219023 153894732.69448322 0 0 0 0 -860062575.87084198 177644428.44383284 0 177644428.44383284 211708856.93420988 0 0 0 0 -908424335.48551941 192417324.93777698 0 192417324.93777698 212209418.76308283 0 0 0 0 -761240991.71974707 214810802.75506419 0 214810802.75506419 174468666.39524463 0 0 0 0 -861591963.30847931 239858551.03410721 0 239858551.03410721 192737122.93402225 0 0 0 0 -944995914.1469059 209444331.5723781 0 209444331.5723781 234548683.29104301 0 0 0 0 -511962350.30863571 185816323.08513683 0 185816323.08513683 143921764.86757559 0 0 0 0 -361929112.02907848 44102992.830774158 0 44102992.830774158 117400446.97421122 0 0 0 0 -520954062.47146416 162653716.53030008 0 162653716.53030008 115043671.73427059 0 0 0 0 -743928224.9022913 122261866.51684274 0 122261866.51684274 188969993.86345875 0 0 0 0 -584345480.09983063 156120982.35430297 0 156120982.35430297 147973325.28765422 0 0 0 0 -562216440.34749722 -9009230.373439651 0 -9009230.373439651 106609115.35996932 0 0 0 0 -382612976.49179268 46302729.257454097 0 46302729.257454097 79727633.972503483 0 0 0 0 -827419023.5786171 99337137.787074983 0 99337137.787074983 170446106.20654523 0 0 0 0 -853511183.41473389 93815482.564989641 0 93815482.564989641 2688599.4997206405 0 0 0 0 -768048177.91186905 173020108.70065558 0 173020108.70065558 63545722.126436576 0 0 0 0 -687241752.93547487 -106273018.15436772 0 -106273018.15436772 150151850.3025794 0 0 0 0 -263098910.99163055 -139561096.20934993 0 -139561096.20934993 -11532720.479024291 0 0 0 0 -20213417.820785522 704714.98951733112 0 704714.98951733112 19542463.56955564 0 0 0 0 -12979665.97164917 -5775499.7127831578 0 -5775499.7127831578 -13405209.499193311 0 0 0 0 -20030132.204898834 -19121785.137407482 0 -19121785.137407482 23402358.765985489 0 0 0 0 -11645662.847854614 13038633.953889608 0 13038633.953889608 6725048.7866262197 0 0 0 0 -2098942.3187084207 1715046.4257452395 0 1715046.4257452395 72707.384216464241 0 0 0 0 -2290606.1022872925 10423489.650123298 0 10423489.650123298 3213737.0843203068 0 0 0 0 -49981599.119848251 44113406.327818006 0 44113406.327818006 -11842404.033297896 0 0 0 0 67366163.159750938 63980319.559591502 0 63980319.559591502 3575533.2161356807 0 0 0 0 -266393589.25505829 137201920.83239043 0 137201920.83239043 101873162.83992553 0 0 0 0 -202416247.8463366 -23622313.168231793 0 -23622313.168231793 12907608.823543847 0 0 0 0 -244611055.53705597 179929385.04434687 0 179929385.04434687 198046422.55829334 0 0 0 0 29668527.765346527 -3898586.0969083011 0 -3898586.0969083011 353016.86162494123 0 0 0 0 -2484233.7848159801 895010.53457525116 0 895010.53457525116 518483.55425601208 0 0 0 0 -2283071.7060003281 1329204.1300970912 0 1329204.1300970912 -3919771.1494274735 0 0 0 0 -3134384.4855003357 -15227931.702747464 0 -15227931.702747464 9049882.3692578077 0 0 0 0 -49859.197598956525 1067958.3610052119 0 1067958.3610052119 153879.21903175558 0 0 0 0 -1964089.7394065857 -1020212.6351168156 0 -1020212.6351168156 1018673.4229224324 0 0 0 0 -1892706.4003408607 1686263.2695158655 0 1686263.2695158655 -344672.79402519 0 0 0 0 -5119670.9698877335 -1036440.7315135449 0 -1036440.7315135449 1467771.5830283165 0 0 0 0 -634654.80741500854 853535.93427050114 0 853535.93427050114 677032.30136656761 0 0 0 0 -3932270.0568199158 202525.08155438304 0 202525.08155438304 3451123.3087260127 0 0 0 0 -2328362.4365386963 274984.88592424989 0 274984.88592424989 2862185.8362546563 0 0 0 0 1555043.5959415436 1132938.4401887208 0 1132938.4401887208 2753440.1779854894 0 0 0 0 -2159454.5239181519 324687.35281848907 0 324687.35281848907 2138719.9564403296 0 0 0 0 -1837322.4995193481 -20223.670638918877 0 -20223.670638918877 2441997.1670825481 0 0 0 0 -1986422.9888648987 653423.73067766428 0 653423.73067766428 2746054.9281635284 0 0 0 0 -4110161.4050674438 638970.18581795692 0 638970.18581795692 3397672.2883495092 0 0 0 0 -17327124.194904327 -6792648.1586455405 0 -6792648.1586455405 434474.91346216202 0 0 0 0 -3727209.4506139755 -5085679.4757380784 0 -5085679.4757380784 698387.06871128082 0 0 0 0 -976.57181821390986 13198.590536604868 0 13198.590536604868 1739.2510908090007 0 0 0 0 19829.289438035339 39581.273890912998 0 39581.273890912998 -16063.870246607519 0 0 0 0 -6757310.5090637207 8476317.6788341999 0 8476317.6788341999 -1530518.9180754423 0 0 0 0 -2002864.3956298828 -2869019.7221698761 0 -2869019.7221698761 -6420010.0507278442 0 0 0 0 205461.76768563315 204606.15021713125 0 204606.15021713125 -31425.883362783643 0 0 0 0 930485.75079727173 -2456750.5157758743 0 -2456750.5157758743 709981.65886580944 0 0 0 0 599820.38186645508 642923.13695198298 0 642923.13695198298 573130.92142547294 0 0 0 0 107426.46600921266 166450.63171476079 0 166450.63171476079 -124379.73558295571 0 0 0 0 166456.3619318977 95085.855249331333 0 95085.855249331333 -109127.01728898552 0 0 0 0 -6343396.5158939362 1361085.5588116348 0 1361085.5588116348 -849781.21113574505 0 0 0 0 630746.83416748047 666847.45889866352 0 666847.45889866352 470210.28725922108 0 0 0 0 -19969298.39201355 5908114.5906742215 0 5908114.5906742215 -1145257.1751375198 0 0 0 0 -8798859.7552337646 5705686.0393959284 0 5705686.0393959284 -3296721.6349787712 0 0 0 0 -184148.16889135353 90101.050387051189 0 90101.050387051189 9425.351628306249 0 0 0 0 13737.320297241211 177828.66795158386 0 177828.66795158386 306927.75513160229 0 0 0 0 189642.7806892395 1161417.6634748476 0 1161417.6634748476 26424.698560300356 0 0 0 0 1165710.9162697792 2530199.3569299118 0 2530199.3569299118 1350507.702470839 0 0 0 0 -75143.332855224609 955788.1956807971 0 955788.1956807971 1172988.6934614182 0 0 0 0 -484714.5917364005 -16646.879300596192 0 -16646.879300596192 49827.995607007237 0 0 0 0 135659.46212768555 347183.16296935081 0 347183.16296935081 518072.12762546539 0 0 0 0 -85959.811865633354 -7368.4899940537289 0 -7368.4899940537289 19952.88153668298 0 0 0 0 92031.319551482797 576550.22763010627 0 576550.22763010627 -27120.880015873041 0 0 0 0 1216560.1910449266 316739.3490303182 0 316739.3490303182 3511518.5059187412 0 0 0 0 -810642.7179327067 486858.47569696559 0 486858.47569696559 107917.81101224088 0 0 0 0 -266004.99558258057 1335878.3991282582 0 1335878.3991282582 740750.82995074987 0 0 0 0 -213903.30616214406 649310.29963454418 0 649310.29963454418 284934.84876692889 0 0 0 0 1387127.3297729492 1240369.0939038992 0 1240369.0939038992 323650.00911545753 0 0 0 0 227343.94083499908 2441597.2021016628 0 2441597.2021016628 -1208178.4911755323 0 0 0 0 -1762011.0226478577 2658517.9370815754 0 2658517.9370815754 -1132023.0075936615 0 0 0 0 868324.9705619812 3556819.4161102772 0 3556819.4161102772 2067988.9100827575 0 0 0 0 -10816665.32100296 9607170.9963480234 0 9607170.9963480234 964366.40414059162 0 0 0 0 5110216.9828691483 7734179.788765952 0 7734179.788765952 -14509011.292769313 0 0 0 0 2034233.0728492737 800215.62282460928 0 800215.62282460928 -2476069.4788333178 0 0 0 0 263744.16875806823 163698.17918386636 0 163698.17918386636 -154958.67656442648 0 0 0 0 -2717814.7959976196 7204152.6680169106 0 7204152.6680169106 1177630.7399278283 0 0 0 0 78615.596993358806 30661.826050387695 0 30661.826050387695 -60665.738685184799 0 0 0 0 374130.59128952026 781531.9473760128 0 781531.9473760128 698055.09818792343 0 0 0 0 8318644.7915687561 -6348478.3872304559 0 -6348478.3872304559 -501314.99238848686 0 0 0 0 -6293510.8975067139 10196437.677941084 0 10196437.677941084 -11818319.33071363 0 0 0 0 -12546245.841217041 -30433734.791394472 0 -30433734.791394472 -6425039.571865499 0 0 0 0 6520418.4822311401 2816525.0758694112 0 2816525.0758694112 -43183402.684776783 0 0 0 0 41190.2487401627 55106.845052124932 0 55106.845052124932 -48639.461218879645 0 0 0 0 -17724600.498275757 -32433714.752585292 0 -32433714.752585292 13843662.958715439 0 0 0 0 -8904844.0128860474 12294464.841447294 0 12294464.841447294 -6525359.7709475756 0 0 0 0 -5646541.2648925781 801466.64490056038 0 801466.64490056038 65634.853726387024 0 0 0 0 -2517975.2737163957 1585618.5854357695 0 1585618.5854357695 807808.77847480064 0 0 0 0 -8442271.0480251312 -2755503.7526411712 0 -2755503.7526411712 20809871.65558622 0 0 0 0 5018653.6438140869 13441874.785731435 0 13441874.785731435 -6191700.0926816463 0 0 0 0 -1052264.5404843292 27778.613156097941 0 27778.613156097941 126257.90266051215 0 0 0 0 -1414202.717010498 316476.26542305946 0 316476.26542305946 461875.91935873032 0 0 0 0 -3573989.8344993535 -39482.137256796472 0 -39482.137256796472 1199733.1989882337 0 0 0 0 -8201075.0494251251 -908144.37635087967 0 -908144.37635087967 -4696530.0939993858 0 0 0 0 -1105121.2062964737 1777851.0610299613 0 1777851.0610299613 -522400.30857898283 0 0 0 0 -1785780.2798946523 425838.5188251799 0 425838.5188251799 315138.02193315094 0 0 0 0 -4730320.1811141968 -6530859.6036167145 0 -6530859.6036167145 11267280.274760373 0 0 0 0 -11540731.603805542 358551.38826501369 0 358551.38826501369 12044612.202543437 0 0 0 0 -2510595.066602299 1499387.1225801762 0 1499387.1225801762 1268749.1498268812 0 0 0 0 -8510559.8584938049 -1409903.2550833821 0 -1409903.2550833821 6746278.5610132217 0 0 0 0 -287210.04866027832 7998734.3674361706 0 7998734.3674361706 2749442.5394484997 0 0 0 0 -11734397.647609711 -4229928.7496493161 0 -4229928.7496493161 35957307.56329596 0 0 0 0 -7102594.2788085938 2072844.6058038473 0 2072844.6058038473 2847529.8776840344 0 0 0 0 -215031756.45937157 259972615.89182472 0 259972615.89182472 -312558835.62029207 0 0 0 0 869928.47344970703 8745891.0270076394 0 8745891.0270076394 5052422.2071654797 0 0 0 0 -1255418.4251122875 618092.49003390409 0 618092.49003390409 -323919.48427236988 0 0 0 0 -2130986.7946376801 10797385.454815328 0 10797385.454815328 17445918.670169592 0 0 0 0 -13214085.458824158 21715808.840375543 0 21715808.840375543 12225549.083290771 0 0 0 0 -13653084.561222076 23052929.759016007 0 23052929.759016007 43392721.286317632 0 0 0 0 -16068231.662624359 14339748.229536213 0 14339748.229536213 60143807.556865692 0 0 0 0 1865161.9514312744 -6152174.6990047693 0 -6152174.6990047693 8166974.5784624815 0 0 0 0 -7172492.40117836 -38112142.800475262 0 -38112142.800475262 43891026.090410411 0 0 0 0 6752563.8146972656 -25613897.982550442 0 -25613897.982550442 48855471.527256012 0 0 0 0 -42017988.040988922 -10337753.040802464 0 -10337753.040802464 101990600.17291978 0 0 0 0 -2070413.1649595723 1104717.8187549459 0 1104717.8187549459 1001247.2730379917 0 0 0 0 30626.338702149689 -297182.05901637708 0 -297182.05901637708 184506.21328240202 0 0 0 0 -3179095.65974617 2079172.7788169384 0 2079172.7788169384 1334859.1802805066 0 0 0 0 -2297521.8519964218 1315262.0577645898 0 1315262.0577645898 -318798.90262567997 0 0 0 0 -1390759.0680503845 4585384.8339270949 0 4585384.8339270949 3546925.8915075064 0 0 0 0 -2242229.4856124111 743186.64523951616 0 743186.64523951616 938779.87869562511 0 0 0 0 -2662643.193939209 1122005.8557654619 0 1122005.8557654619 3924886.3407446146 0 0 0 0 -650515.16939163208 -1340033.9585116506 0 -1340033.9585116506 5135281.637013793 0 0 0 0 -691784.68010520935 -3466967.581715107 0 -3466967.581715107 -2253863.6433756351 0 0 0 0 2244334.8563804626 -1514905.5261708498 0 -1514905.5261708498 -1667974.0265107155 0 0 0 0 -389198.79472274892 763820.59580963384 0 763820.59580963384 147826.1753201657 0 0 0 0 -961008.55536536686 436548.04157667549 0 436548.04157667549 324651.86444800836 0 0 0 0 -6224346.4487991333 -1135617.9220464826 0 -1135617.9220464826 68189.647480934858 0 0 0 0 -618518.0313099511 84837.240670488565 0 84837.240670488565 143937.68786730125 0 0 0 0 -4940851.9754753113 3789057.2068471909 0 3789057.2068471909 6552587.6470735893 0 0 0 0 -5459407.9585838318 -12248833.067268968 0 -12248833.067268968 -11285589.932757929 0 0 0 0 -33509049.67697525 -47728653.133476019 0 -47728653.133476019 -66083494.421702377 0 0 0 0 -222671.91929028556 9554.8875112528913 0 9554.8875112528913 36348.506795815942 0 0 0 0 -10668512.178891182 18376476.146860458 0 18376476.146860458 -12689023.775571346 0 0 0 0 -12768907.237434387 -3576753.7898398042 0 -3576753.7898398042 -326231.52114343643 0 0 0 0 -3147555.5594525337 3354814.172382988 0 3354814.172382988 -6546723.9435316324 0 0 0 0 -29857170.951320648 -1779000.9406024218 0 -1779000.9406024218 -1632292.1687987447 0 0 0 0 -67616653.776199341 13763925.51176548 0 13763925.51176548 6395487.1842680573 0 0 0 0 -31860194.875238895 4608107.5427442044 0 4608107.5427442044 8195096.280069828 0 0 0 0 -2503013.8844261169 6196402.7408796549 0 6196402.7408796549 -49408.836495220661 0 0 0 0 -2591271.9397392273 -2387712.8160728216 0 -2387712.8160728216 -6866166.8937479854 0 0 0 0 -5113444.2994890213 2341064.0363461822 0 2341064.0363461822 2151315.9020757675 0 0 0 0 -1038513.6652126312 4842691.7182119489 0 4842691.7182119489 -1954747.3171038628 0 0 0 0 370735.36473846436 2558099.3860766888 0 2558099.3860766888 966662.70242476463 0 0 0 0 -3654627.3999786377 824301.05892163515 0 824301.05892163515 -1562847.7338640839 0 0 0 0 668336.21393013 -212759.25000882149 0 -212759.25000882149 -5715566.3976429701 0 0 0 0 759479.14417266846 685438.82163947821 0 685438.82163947821 616746.72143012285 0 0 0 0 1227676.9066810608 1789409.0863099098 0 1789409.0863099098 -1537113.4219754934 0 0 0 0 455360.05053710938 3220682.7098049521 0 3220682.7098049521 778530.14777457714 0 0 0 0 18067.023744763806 772055.3039228546 0 772055.3039228546 181803.42645496185 0 0 0 0 -249062.66498565674 1964322.3733814359 0 1964322.3733814359 2445421.9705860615 0 0 0 0 -785353.27479171753 2973325.3209941983 0 2973325.3209941983 4929742.4738355875 0 0 0 0 1158746.0549621582 4407502.30023247 0 4407502.30023247 86723.392686471343 0 0 0 0 937314.83823013306 649209.43463528156 0 649209.43463528156 2481682.1594732255 0 0 0 0 616529.49649810791 4118639.8469459414 0 4118639.8469459414 2227272.4747702479 0 0 0 0 53798.982034683228 1331954.1280576885 0 1331954.1280576885 2530246.5446825325 0 0 0 0 -393577.43347269669 458401.57280912902 0 458401.57280912902 -10536.658196337594 0 0 0 0 -5294243.5585479736 1751854.0111350417 0 1751854.0111350417 4616291.6228070259 0 0 0 0 -1256103.6605178602 11691.025007121731 0 11691.025007121731 182172.50902612894 0 0 0 0 -1773865.3680305481 -883103.23730257154 0 -883103.23730257154 3180542.9307675362 0 0 0 0 3061078.8634376526 -3367676.3432603478 0 -3367676.3432603478 -1498070.5201750398 0 0 0 0 -2210103.2565612793 611518.68150043488 0 611518.68150043488 1691477.4598492384 0 0 0 0 -445650.09874154069 312179.33532912307 0 312179.33532912307 21496.795709814396 0 0 0 0 -898823.84481447004 286151.42594895046 0 286151.42594895046 -11558.567285023979 0 0 0 0 -180864.01835823059 1083742.3192847073 0 1083742.3192847073 1568432.5128142834 0 0 0 0 38406.813743591309 961124.27587008476 0 961124.27587008476 1597912.7562509775 0 0 0 0 -138580.33799046278 -97579.663099867292 0 -97579.663099867292 40882.754460403405 0 0 0 0 393542.37696838379 770043.55055820942 0 770043.55055820942 6601665.2225533724 0 0 0 0 -162434.4444133006 -72904.125824444927 0 -72904.125824444927 30236.845463113423 0 0 0 0 -398610.60005378723 4013949.4484492391 0 4013949.4484492391 5035829.8698542118 0 0 0 0 -2996504.3873138428 -1802363.7912029028 0 -1802363.7912029028 1291096.0173399448 0 0 0 0 -1219338.6678009033 1765811.2347487807 0 1765811.2347487807 6261832.4665229321 0 0 0 0 4221140.2881088257 2260849.7956557274 0 2260849.7956557274 2250218.0948156118 0 0 0 0 -1438829.6449203491 -2258055.1762104928 0 -2258055.1762104928 846887.86908900551 0 0 0 0 3907774.7354431152 271556.44249653816 0 271556.44249653816 5318364.1220014095 0 0 0 0 529945.93412017822 2683473.993606925 0 2683473.993606925 3769545.4895942211 0 0 0 0 -6788817.0751419067 2594537.5120836496 0 2594537.5120836496 2678786.1000081599 0 0 0 0 -1051882.4004898071 8013224.5311204791 0 8013224.5311204791 2386096.228594467 0 0 0 0 1934952.8464641571 8594351.5054263324 0 8594351.5054263324 1982513.3698740005 0 0 0 0 5912614.4394073486 1262735.287828207 0 1262735.287828207 2600808.3714983463 0 0 0 0 1191140.9731693268 1443728.4688152671 0 1443728.4688152671 -2580475.5637208223 0 0 0 0 -33517.035114418715 -20837.906505964696 0 -20837.906505964696 -7367.9044218255731 0 0 0 0 -27174.702635480091 -22073.739828393329 0 -22073.739828393329 -3017.0773408049718 0 0 0 0 1153212.510925293 2460825.3396790028 0 2460825.3396790028 -3265279.6078407764 0 0 0 0 -5882765.9431152344 -2556854.0310488939 0 -2556854.0310488939 1710290.5708517432 0 0 0 0 -4828728.1819801331 2802084.9302569628 0 2802084.9302569628 2790140.7494624853 0 0 0 0 -3858824.6558990479 -668437.57096153498 0 -668437.57096153498 1898538.0114197731 0 0 0 0 -2830830.4645614624 1418823.0696712136 0 1418823.0696712136 -3141867.3006175756 0 0 0 0 -1521402.1693636607 735571.93430392165 0 735571.93430392165 270844.32910908293 0 0 0 0 -33147253.334295273 6095482.7466102839 0 6095482.7466102839 15765234.513089895 0 0 0 0 -5483673.7137908936 11452947.402148962 0 11452947.402148962 -21146983.523340538 0 0 0 0 -25385737.725755692 100809735.39306606 0 100809735.39306606 -120981403.15577537 0 0 0 0 -99218139.783866882 142041513.78044081 0 142041513.78044081 -141029843.29631329 0 0 0 0 -44625649.018229485 83722491.819484562 0 83722491.819484562 -73590157.330140352 0 0 0 0 -2496010.3842277527 41261859.082013309 0 41261859.082013309 -57621058.397442088 0 0 0 0 -23840722.94020462 -16436393.023382068 0 -16436393.023382068 7229564.5190427303 0 0 0 0 -788976.3131625019 1190636.8291495135 0 1190636.8291495135 232965.76036375773 0 0 0 0 87743.4873046875 2000730.2759053707 0 2000730.2759053707 322746.15907478333 0 0 0 0 -3346567.6785874367 1929186.689564757 0 1929186.689564757 2325314.417267561 0 0 0 0 5541664.2363891602 2808423.54883039 0 2808423.54883039 2404840.4360556602 0 0 0 0 -100568.71450669318 -66316.294847334269 0 -66316.294847334269 63678.939280959486 0 0 0 0 -2055135.7295379639 361708.78843390942 0 361708.78843390942 1158412.9555823803 0 0 0 0 -1738612.6285115667 154152.57943470543 0 154152.57943470543 294429.73142777325 0 0 0 0 34188253.748086929 15369416.97491166 0 15369416.97491166 -208060613.04448056 0 0 0 0 67806871.220024109 66371566.466947794 0 66371566.466947794 72981206.569432855 0 0 0 0 -48734.578105555847 127678.17108196905 0 127678.17108196905 54802.085848497707 0 0 0 0 7374000.932220459 25430628.028131962 0 25430628.028131962 28051351.977460146 0 0 0 0 34482539.618261337 8024361.2647036016 0 8024361.2647036016 -29161282.380672216 0 0 0 0 -31287751.337005615 -4993351.078042388 0 -4993351.078042388 -5204397.3018308282 0 0 0 0 10149789.770439148 -1000954.9541923404 0 -1000954.9541923404 -16797740.50965184 0 0 0 0 6311553.2048187256 8070736.4186865687 0 8070736.4186865687 6344332.9197981358 0 0 0 0 9588264.19008255 4998343.0493428707 0 4998343.0493428707 -6110219.5927633047 0 0 0 0 7754159.3018493652 814662.20182967186 0 814662.20182967186 -3161089.2388485074 0 0 0 0 7774741.3019828796 -54764.731710314751 0 -54764.731710314751 -4860015.7174582481 0 0 0 0 -5821566.842716217 2071921.6228508949 0 2071921.6228508949 12798878.043263316 0 0 0 0 -182.36410389281809 263379.47148667381 0 263379.47148667381 78509.228669312113 0 0 0 0 -36738873.604934692 1805941.4472171664 0 1805941.4472171664 2523684.4640516043 0 0 0 0 -27000920.198767662 -24817630.250925869 0 -24817630.250925869 -4486803.9344912767 0 0 0 0 -11632.082219421864 73770.464487658581 0 73770.464487658581 23014.11708972112 0 0 0 0 -117591407.84387589 -13983945.907411456 0 -13983945.907411456 11665523.883289635 0 0 0 0 -116724492.00661087 7537772.243270278 0 7537772.243270278 -7367191.7348630428 0 0 0 0 -114416449.21836472 43731198.719323933 0 43731198.719323933 255737.2437884286 0 0 0 0 -254405391.96857834 88484158.328389153 0 88484158.328389153 -3953709.5290725231 0 0 0 0 -192221868.80931664 -9998081.0064926744 0 -9998081.0064926744 19600055.386907935 0 0 0 0 -93305884.830986023 -36350247.650784492 0 -36350247.650784492 111558.62945747375 0 0 0 0 -22335620.54775238 -22693464.885402724 0 -22693464.885402724 -15950301.747685194 0 0 0 0 -170928009.36676788 -1427315.416190207 0 -1427315.416190207 1018170.7855088711 0 0 0 0 -162159612.72686005 -66336098.189936042 0 -66336098.189936042 -6175398.1999702454 0 0 0 0 3697216.3682441711 -67308246.539418355 0 -67308246.539418355 -34385367.30307579 0 0 0 0 -207564259.29726791 -68015386.472361445 0 -68015386.472361445 -12571153.054214954 0 0 0 0 -567630.32520206645 645265.11326284055 0 645265.11326284055 -157525.25343228364 0 0 0 0 -28989994.19959259 105260543.08069885 0 105260543.08069885 -329283561.87636888 0 0 0 0 -13068664.43390274 -27637699.264138162 0 -27637699.264138162 -72967397.993165016 0 0 0 0 -268154694.57734871 271212849.45938063 0 271212849.45938063 -390851206.97179705 0 0 0 0 -413112624.17545319 43366272.379583538 0 43366272.379583538 12496281.736709192 0 0 0 0 -334949509.75943619 -35903609.358954661 0 -35903609.358954661 -150655740.61976212 0 0 0 0 -209618351.17190552 72724277.205713987 0 72724277.205713987 -69152760.963587672 0 0 0 0 -98713328.963657379 206210336.33219635 0 206210336.33219635 -289498689.47709394 0 0 0 0 -327881071.90473813 221611286.45628783 0 221611286.45628783 -107676794.75524563 0 0 0 0 -70719988.519329071 74043853.352837712 0 74043853.352837712 -102136574.14758424 0 0 0 0 -55291643.926361084 -14888196.842911653 0 -14888196.842911653 -86502325.939811707 0 0 0 0 -69676149.672985077 68702191.071004719 0 68702191.071004719 -238574258.58442715 0 0 0 0 -159664670.09337234 -15861212.573180169 0 -15861212.573180169 -124080020.16859919 0 0 0 0 -194455624.58664131 128200484.34285574 0 128200484.34285574 -113364975.63180238 0 0 0 0 -24117408.714027405 47256310.159262881 0 47256310.159262881 -118051026.08657485 0 0 0 0 -99542352.987811089 117963357.9282124 0 117963357.9282124 -99665226.351404816 0 0 0 0 -122258672.31495094 92085012.417350873 0 92085012.417350873 -58040443.17057544 0 0 0 0 -147570961.59312439 134397214.14953643 0 134397214.14953643 -126761729.88944912 0 0 0 0 -118490969.9487648 95260972.245146871 0 95260972.245146871 -58358410.170365214 0 0 0 0 -115422533.00294495 89086073.985756308 0 89086073.985756308 -45998228.933414638 0 0 0 0 -152209117.76028633 39182843.201820433 0 39182843.201820433 -33875491.927414775 0 0 0 0 -273263173.98135185 109925964.08131732 0 109925964.08131732 -41430155.625095129 0 0 0 0 84641629.880002975 -19774308.547536194 0 -19774308.547536194 -11086675.875257254 0 0 0 0 -55140.545458470006 55292.700658762828 0 55292.700658762828 -22725.834884757758 0 0 0 0 -148352791.03046703 66396933.147231445 0 66396933.147231445 2042885.5026277304 0 0 0 0 -80221990.893606186 2889436.4151874781 0 2889436.4151874781 4254460.4265329242 0 0 0 0 -53111890.846263885 -9294844.1457201242 0 -9294844.1457201242 5466809.63849172 0 0 0 0 -64634182.920721054 -9701033.5952025056 0 -9701033.5952025056 20243535.336270452 0 0 0 0 -47733451.597854614 49343237.04769206 0 49343237.04769206 -2722928.1863095015 0 0 0 0 -111592592.49429703 14902042.237002134 0 14902042.237002134 24190450.470916331 0 0 0 0 -65079980.361034393 -665597.57855582237 0 -665597.57855582237 29334679.345359087 0 0 0 0 -54700137.877666473 48437283.169270754 0 48437283.169270754 -27163757.874375582 0 0 0 0 -83729992.002826691 51983976.978415847 0 51983976.978415847 -7673862.4483031034 0 0 0 0 -28089224.853879929 -27615379.049990177 0 -27615379.049990177 -71387448.627007484 0 0 0 0 74963871.651481628 -17578472.749087036 0 -17578472.749087036 -22502096.618212059 0 0 0 0 -101476.11983447988 263834.89666055515 0 263834.89666055515 -48581.133220869116 0 0 0 0 -228489091.8664465 55784541.963799238 0 55784541.963799238 -30421856.96521163 0 0 0 0 -3277060.7864551544 28687566.873801291 0 28687566.873801291 1031180.3062534332 0 0 0 0 4644776.0743293762 6702683.2639083862 0 6702683.2639083862 12832616.981338829 0 0 0 0 -1187264.9922981262 27260964.640125126 0 27260964.640125126 5676392.9943504333 0 0 0 0 -126110.0959814433 533380.14206047729 0 533380.14206047729 -36720.079280068981 0 0 0 0 56664025.558666229 13859708.948668435 0 13859708.948668435 -10037781.912397146 0 0 0 0 -266429511.78028774 3160588.547462225 0 3160588.547462225 28877535.200903296 0 0 0 0 10211999.950057983 38798033.41691184 0 38798033.41691184 -11636403.120965704 0 0 0 0 -14536940.240556717 21672031.368605196 0 21672031.368605196 10799989.89327836 0 0 0 0 -15850672.249912262 25823577.280193686 0 25823577.280193686 -2182404.4716975689 0 0 0 0 -31461877.272186279 -8955367.7058489919 0 -8955367.7058489919 12210598.423424721 0 0 0 0 -112340075.06512451 -20573639.586155772 0 -20573639.586155772 11296669.203185558 0 0 0 0 -57841789.293296814 20384153.543566108 0 20384153.543566108 22566892.349726677 0 0 0 0 -19702429.619728088 8773286.2947840691 0 8773286.2947840691 24346653.256332636 0 0 0 0 -25241062.210090637 23653738.511609256 0 23653738.511609256 17143262.991606832 0 0 0 0 -11044492.783752441 16153921.209576309 0 16153921.209576309 19847347.443626642 0 0 0 0 -78568.518574088812 -80166.737429511035 0 -80166.737429511035 13326.067283162876 0 0 0 0 -5501850.9704399109 -9624085.77415663 0 -9624085.77415663 21355920.45887357 0 0 0 0 -21058745.137882233 -7763311.1795036793 0 -7763311.1795036793 24100089.484191418 0 0 0 0 3935580.7338027954 4233558.0700432062 0 4233558.0700432062 18257382.636977255 0 0 0 0 -10855986.869842529 4718511.5414050817 0 4718511.5414050817 19476412.276567698 0 0 0 0 -5604079.6399593353 -8121200.9089144468 0 -8121200.9089144468 23020104.965126276 0 0 0 0 -220329.21612242982 -157142.98287423712 0 -157142.98287423712 13446.42136155114 0 0 0 0 4764647.7687883377 -16742515.078805417 0 -16742515.078805417 8274846.5355532169 0 0 0 0 -393437.91674354672 30017.490905427374 0 30017.490905427374 256432.5243639758 0 0 0 0 -812807.82439041138 2228187.3819509149 0 2228187.3819509149 3192935.3745076656 0 0 0 0 -2917372.7645530701 -5195618.4168707728 0 -5195618.4168707728 -18727401.809878647 0 0 0 0 -8183944.580242157 -9738302.0068129003 0 -9738302.0068129003 5677179.3467682973 0 0 0 0 -5805616.4167337418 13409417.188639596 0 13409417.188639596 598974.56240475178 0 0 0 0 -12549433.680959702 10354159.372975543 0 10354159.372975543 3165521.6157656908 0 0 0 0 -2295406.1146087646 2581748.1199521422 0 2581748.1199521422 3956915.7119647264 0 0 0 0 -21329994.32352066 -7616141.7378995419 0 -7616141.7378995419 -1297635.8224460483 0 0 0 0 -11962430.766990662 16589979.859028578 0 16589979.859028578 20630399.910523772 0 0 0 0 -14449704.994216919 9388643.4038468003 0 9388643.4038468003 12532060.452820182 0 0 0 0 -183472.33228939865 769326.49686159194 0 769326.49686159194 -115348.44535511138 0 0 0 0 20047707.352243423 1470616.23119542 0 1470616.23119542 -13758548.21753341 0 0 0 0 -313486913.87699032 47548673.458581969 0 47548673.458581969 70723688.801590204 0 0 0 0 -359444.880397812 813527.72842840105 0 813527.72842840105 -194091.64428328892 0 0 0 0 -146972407.07473755 97162138.267561793 0 97162138.267561793 -195995309.94259048 0 0 0 0 5038406.2609786987 6300818.34473297 0 6300818.34473297 2328912.9636284411 0 0 0 0 -1797901.24096274 66472.12254962232 0 66472.12254962232 221159.23671664335 0 0 0 0 -6464590.6531562805 3078178.253261283 0 3078178.253261283 8372942.6242289245 0 0 0 0 -3842291.501991272 -53860.331993497908 0 -53860.331993497908 7172754.4701776654 0 0 0 0 -95447.298816680908 -1008628.2726600245 0 -1008628.2726600245 1331058.3117882153 0 0 0 0 4155840.7101154327 -6366588.0850787498 0 -6366588.0850787498 6915670.6920728981 0 0 0 0 -310267.68401298951 177624.31325137429 0 177624.31325137429 40956.938861797695 0 0 0 0 -5195539.7507705688 -7027545.9518291112 0 -7027545.9518291112 16518008.035252433 0 0 0 0 -7193028.1499795914 1327951.768363842 0 1327951.768363842 6607184.6601165943 0 0 0 0 -5585242.4251022339 4295756.8140026787 0 4295756.8140026787 9423128.1202493887 0 0 0 0 -5461057.0982131958 9280557.4643842354 0 9280557.4643842354 1776.5763882618576 0 0 0 0 -18643432.317579269 2390232.6944768759 0 2390232.6944768759 15732003.226791073 0 0 0 0 -13321917.913532257 10681494.789278049 0 10681494.789278049 5050278.8583620191 0 0 0 0 6423594.9300842285 4368385.5286098691 0 4368385.5286098691 6467.3659477749407 0 0 0 0 5119191.6725749969 5035542.2617989331 0 5035542.2617989331 -132259.10952106677 0 0 0 0 3023473.2193336487 1123956.5121657995 0 1123956.5121657995 -1625168.8348501697 0 0 0 0 -1409215.3800773621 5997390.557792197 0 5997390.557792197 2609826.7686119732 0 0 0 0 -364312.4342956543 6966222.8379830942 0 6966222.8379830942 1127922.94430312 0 0 0 0 -5568627.8533441424 6468088.2291345783 0 6468088.2291345783 2880373.8123211674 0 0 0 0 -1847670.6071281433 3828149.9860692229 0 3828149.9860692229 4686669.8876502328 0 0 0 0 -1507709.1375617981 3102951.3506160025 0 3102951.3506160025 1131439.2191183604 0 0 0 0 225324.24407958984 3496594.6527981348 0 3496594.6527981348 -265525.63209325145 0 0 0 0 1474069.3992404938 1330834.7683602767 0 1330834.7683602767 -337835.78842902929 0 0 0 0 -686929.42437458038 1051118.8121259981 0 1051118.8121259981 183210.94601186365 0 0 0 0 -1569959.8682308197 335072.81062579714 0 335072.81062579714 413693.64654939622 0 0 0 0 -1142748.9534072876 1657978.7800847935 0 1657978.7800847935 1909437.9736873358 0 0 0 0 -1914419.3977088928 835898.88975538872 0 835898.88975538872 1061581.7997889575 0 0 0 0 -3011396.0296430588 1551313.8253663694 0 1551313.8253663694 2834131.8370341957 0 0 0 0 -1538816.2957767919 -51408.036780764349 0 -51408.036780764349 85492.440629970544 0 0 0 0 1721931.3949775696 -5027560.4681581557 0 -5027560.4681581557 6016776.7879146934 0 0 0 0 -1288751.8704299927 754351.27232881635 0 754351.27232881635 977289.29866710305 0 0 0 0 -874545.14946280234 216881.91604326386 0 216881.91604326386 26205.631323598122 0 0 0 0 -477561.89286804199 -23631.611919879913 0 -23631.611919879913 300488.58088288456 0 0 0 0 -833210.22606448084 73378.340805421118 0 73378.340805421118 73818.021611393517 0 0 0 0 -1933442.8273391724 36759.015511512756 0 36759.015511512756 1909943.8969088793 0 0 0 0 -506580.15582084656 42144.516104519367 0 42144.516104519367 207705.37791132927 0 0 0 0 -429184.88758850098 19525.177799388766 0 19525.177799388766 -443.01055511832237 0 0 0 0 -509950.54835987091 129775.3907346651 0 129775.3907346651 -47974.457828700542 0 0 0 0 -479625.95182800293 24677.435163650662 0 24677.435163650662 36998.385482549667 0 0 0 0 -640589.07307434082 959927.72907835152 0 959927.72907835152 -361293.30989570729 0 0 0 0 -813140.22438812256 518751.07121735811 0 518751.07121735811 -115561.07335537486 0 0 0 0 -563521.59832763672 997529.75775985606 0 997529.75775985606 75934.715027635917 0 0 0 0 -436525.88192367554 319335.78994468134 0 319335.78994468134 -669586.51410912536 0 0 0 0 -563205.2719143033 162369.08283917326 0 162369.08283917326 -149589.98074927498 0 0 0 0 -516265.376496315 103894.76860792562 0 103894.76860792562 -89383.576812922955 0 0 0 0 -513491.85558319092 120373.48941911757 0 120373.48941911757 -1749.9163569137454 0 0 0 0 -471804.2897262536 212614.65774455573 0 212614.65774455573 -198385.8172398677 0 0 0 0 -146634.55126839876 165413.10605495609 0 165413.10605495609 -20687.789977704571 0 0 0 0 -566050.9301969409 114425.30850616284 0 114425.30850616284 57705.356622123829 0 0 0 0 -495936.73172473907 58044.649148451201 0 58044.649148451201 -47.843766359573237 0 0 0 0 -565343.64837646484 71530.404207912405 0 71530.404207912405 1482.4398805367825 0 0 0 0 -586868.73861694336 178931.89420937994 0 178931.89420937994 -74203.789075137844 0 0 0 0 -35601.121016673744 45456.405903184786 0 45456.405903184786 -14886.872214817535 0 0 0 0 -53380.560180664062 1159822.954294299 0 1159822.954294299 2077163.4558951464 0 0 0 0 -1913892.6585731506 713440.09960410255 0 713440.09960410255 187.50432042123987 0 0 0 0 -1691363.8691902161 604839.67224415287 0 604839.67224415287 -27354.625526478281 0 0 0 0 -568923.39014053345 190876.63950094581 0 190876.63950094581 102951.77126908302 0 0 0 0 -2131646.299041748 586235.1799655928 0 586235.1799655928 121971.64726746152 0 0 0 0 -2926080.3869018555 325522.58464089583 0 325522.58464089583 366251.33068424993 0 0 0 0 -763660.39637213398 94388.721082279459 0 94388.721082279459 137786.68145681248 0 0 0 0 -1147966.9207459935 216250.02549679391 0 216250.02549679391 -6959.7532610124226 0 0 0 0 -1800859.5431976318 450804.51699918567 0 450804.51699918567 34932.14782492863 0 0 0 0 -1134210.2257524356 153738.36042656051 0 153738.36042656051 -161680.21372485798 0 0 0 0 -1635302.1851882935 772240.43865155289 0 772240.43865155289 -301482.9851903884 0 0 0 0 -1714607.7523899078 668716.7335123159 0 668716.7335123159 9992.692173513351 0 0 0 0 -1105418.4857536629 335172.22205370618 0 335172.22205370618 -210427.01073833631 0 0 0 0 -656375.5139093399 21239.288462810218 0 21239.288462810218 35677.770413637161 0 0 0 0 -624984.5174331665 103996.81310413778 0 103996.81310413778 6980.4202883541584 0 0 0 0 -409903.11194351054 315995.94617045484 0 315995.94617045484 -7339.0708910780959 0 0 0 0 -2201816.8630409241 -194385.20342579484 0 -194385.20342579484 174643.79960784316 0 0 0 0 -545913.9528336525 -378413.80638798326 0 -378413.80638798326 -493755.1631090641 0 0 0 0 -502571.73679351807 -25170.138316601515 0 -25170.138316601515 28528.296138733625 0 0 0 0 -4364167.7007598877 339001.47096151114 0 339001.47096151114 1658094.7674088478 0 0 0 0 -241777.04048811021 288257.9667362757 0 288257.9667362757 -156293.79822606087 0 0 0 0 -2834336.8030700684 894909.09677267075 0 894909.09677267075 -410777.02638602257 0 0 0 0 -3733240.3540496826 -26002.397406101227 0 -26002.397406101227 1727184.6972452998 0 0 0 0 -4552156.322845459 1736872.5854589939 0 1736872.5854589939 -2028910.5134372711 0 0 0 0 634392.7067117691 501793.94038937241 0 501793.94038937241 -241868.11438256502 0 0 0 0 -974787.35214570537 458538.12516490091 0 458538.12516490091 -254742.34800236428 0 0 0 0 -354998.0206413269 -1412900.4123851657 0 -1412900.4123851657 1155150.9090281725 0 0 0 0 -10394023.093364716 1585065.560893178 0 1585065.560893178 -48291185.798720837 0 0 0 0 23847177.752833605 -10627821.808647387 0 -10627821.808647387 -44106252.140318632 0 0 0 0 22122161.962109804 2067951.3404612839 0 2067951.3404612839 -461810.45343232155 0 0 0 0 23987710.838388443 7183210.9351328015 0 7183210.9351328015 -53619555.462477684 0 0 0 0 4637735.0902061462 -16760284.532474518 0 -16760284.532474518 -33720776.08275795 0 0 0 0 37865087.19152832 861465.23411816359 0 861465.23411816359 -24378852.720691383 0 0 0 0 76309064.675489426 -119041268.62946939 0 -119041268.62946939 -86585802.922802925 0 0 0 0 21324492.185085297 -8502540.3616621494 0 -8502540.3616621494 133786777.29990757 0 0 0 0 119913858.63861847 8994836.3032295704 0 8994836.3032295704 -61872763.417965174 0 0 0 0 -36472935.087394714 -18723421.394464731 0 -18723421.394464731 -57308154.415907517 0 0 0 0 -72700.71241582185 -61244.912135507911 0 -61244.912135507911 2481.2434900204535 0 0 0 0 -22338964.7203722 -139204041.41871697 0 -139204041.41871697 -73824522.961497545 0 0 0 0 43101301.288375854 -6260572.8788001835 0 -6260572.8788001835 -136249463.69943571 0 0 0 0 5593.9652128741145 53500.080729662208 0 53500.080729662208 -52475.202032729416 0 0 0 0 1034233.6320953369 4257997.1910561323 0 4257997.1910561323 -4695014.3977708817 0 0 0 0 -568770.03370143473 203953.20450631157 0 203953.20450631157 -250990.48815492704 0 0 0 0 -31086.56282219023 41723.11968251504 0 41723.11968251504 -4223.2356483007898 0 0 0 0 2058642.4599075317 -6062202.0388827324 0 -6062202.0388827324 -20837328.098965168 0 0 0 0 -7173985.1963324547 -3205610.0886997357 0 -3205610.0886997357 -2479144.4761323929 0 0 0 0 -11290.336366537958 29237.588904166827 0 29237.588904166827 -2601.6895414329629 0 0 0 0 -354331.67487971857 -121003.79317233409 0 -121003.79317233409 -33945.423374815844 0 0 0 0 -583878.63757815212 -97655.378806838067 0 -97655.378806838067 81305.169329518729 0 0 0 0 -762020.18098449707 -201895.42878556252 0 -201895.42878556252 770812.36857104301 0 0 0 0 -3107431.5541114807 -6054220.8983741254 0 -6054220.8983741254 2217647.0349848866 0 0 0 0 -905123.72436141968 -1760277.5157594085 0 -1760277.5157594085 -458218.70970577002 0 0 0 0 -2765598.0662994385 1302941.0909200907 0 1302941.0909200907 907631.21315926313 0 0 0 0 3622097.2801208496 -5086655.6995868087 0 -5086655.6995868087 -8770327.2440538406 0 0 0 0 -12118428.662260056 -16872684.865825266 0 -16872684.865825266 17817359.73732686 0 0 0 0 9153572.6877975464 -13176895.674079537 0 -13176895.674079537 18323659.126192212 0 0 0 0 -879418.03095245361 324759.49491369724 0 324759.49491369724 -817476.99381256104 0 0 0 0 5397839.9474945068 3357698.121421881 0 3357698.121421881 -197031.16784977913 0 0 0 0 18584013.535346985 -7427686.8952572346 0 -7427686.8952572346 2541143.1919595301 0 0 0 0 -21645.344755969942 -45937.885029314086 0 -45937.885029314086 45844.243650110962 0 0 0 0 -58979347.668800354 17079511.370254755 0 17079511.370254755 85189462.059582114 0 0 0 0 -78795349.004958153 -49563960.191175699 0 -49563960.191175699 21214905.108627081 0 0 0 0 12609804.043422699 -30258964.096705556 0 -30258964.096705556 25045478.182806849 0 0 0 0 -39445642.595615387 -16529647.937481344 0 -16529647.937481344 29467481.740704462 0 0 0 0 -7732795.3682785034 -8851977.5827114582 0 -8851977.5827114582 -8755424.6248323917 0 0 0 0 -8526532.086555481 -26895441.932231903 0 -26895441.932231903 -11620393.366828918 0 0 0 0 -10400266.735805511 -28769408.971929312 0 -28769408.971929312 24544594.908896804 0 0 0 0 -9269458.7416853905 -10182075.893902153 0 -10182075.893902153 -3778088.1926631927 0 0 0 0 -6811067.4061107635 -1045610.5159124583 0 -1045610.5159124583 1050001.4619863033 0 0 0 0 -813215.39425355382 392481.90235906374 0 392481.90235906374 955500.22637574503 0 0 0 0 3111218.7626647949 -44252487.492341995 0 -44252487.492341995 39910221.950546399 0 0 0 0 34383996.565439224 -40529163.236456282 0 -40529163.236456282 35775407.754416853 0 0 0 0 -12884098.639343739 -45100645.374103911 0 -45100645.374103911 69114764.621471405 0 0 0 0 77374746.631332397 -35080154.722036421 0 -35080154.722036421 17318743.728951097 0 0 0 0 -10954654.976110458 6994729.5488080382 0 6994729.5488080382 6433716.1046179533 0 0 0 0 -246280.34418090992 93843.135379957035 0 93843.135379957035 328759.4848875085 0 0 0 0 117977108.53585434 -110636355.18930584 0 -110636355.18930584 47582005.647284389 0 0 0 0 -190858380.77522278 -30373651.258720875 0 -30373651.258720875 13743302.779855371 0 0 0 0 -7993519.0864548683 -10865795.040414073 0 -10865795.040414073 -9540584.5194909573 0 0 0 0 -56454447.836856842 -52949560.696565643 0 -52949560.696565643 38989621.900984816 0 0 0 0 4621748.1330509186 -28899631.861344609 0 -28899631.861344609 39975026.287243098 0 0 0 0 -51446051.744289398 6753524.3523207009 0 6753524.3523207009 17884876.644900054 0 0 0 0 -125719182.27180099 11028661.182461411 0 11028661.182461411 61117292.6539011 0 0 0 0 -5035052.8621768951 118907453.85678327 0 118907453.85678327 6630418.6244258583 0 0 0 0 -941180601.95958138 285004434.16951674 0 285004434.16951674 50081825.749748766 0 0 0 0 105497752.37876511 51951679.905219227 0 51951679.905219227 -5338433.1813823581 0 0 0 0 -474681.79422524385 36762.753876757808 0 36762.753876757808 -127850.69058510123 0 0 0 0 -520298372.42470622 182080443.98454377 0 182080443.98454377 62354891.793241739 0 0 0 0 -721905874.22621155 319684549.3254748 0 319684549.3254748 -21532534.679679532 0 0 0 0 -511644746.29636002 58920839.545829713 0 58920839.545829713 47491515.67041719 0 0 0 0 -247826150.72666931 163816414.17691863 0 163816414.17691863 1484696.342428267 0 0 0 0 -529822382.50676346 100271769.83360803 0 100271769.83360803 47409866.467873462 0 0 0 0 -554655744.15692139 58077102.661090553 0 58077102.661090553 48785507.979480505 0 0 0 0 -733745335.39910316 139528352.16857812 0 139528352.16857812 90717800.75361228 0 0 0 0 -597442928.25598526 90133671.86860013 0 90133671.86860013 -116038818.62565708 0 0 0 0 -802012885.30029488 28204064.979703352 0 28204064.979703352 55564524.255287886 0 0 0 0 -772293232.5398798 132150281.51316032 0 132150281.51316032 -5853514.4889788628 0 0 0 0 -263868409.13536072 -21006814.79835403 0 -21006814.79835403 -59999431.622949839 0 0 0 0 -563676219.63142014 -14481147.439844966 0 -14481147.439844966 26259776.008895636 0 0 0 0 -78981492.378787994 -39668573.082264662 0 -39668573.082264662 -81540999.586007833 0 0 0 0 -258324699.96039391 3718040.6584537402 0 3718040.6584537402 -20437030.483121276 0 0 0 0 -79325662.934734344 1094802.7347855568 0 1094802.7347855568 -65696841.548580647 0 0 0 0 -84338878.131851196 -23349403.952091515 0 -23349403.952091515 3080847.1882055998 0 0 0 0 2208395.1868667603 -5345806.682943821 0 -5345806.682943821 -73404397.464892387 0 0 0 0 -25735943.047618866 24042935.219496489 0 24042935.219496489 -62126569.204315662 0 0 0 0 -14441841.98633194 37237422.99293077 0 37237422.99293077 3648659.2609132528 0 0 0 0 -22715777.696754456 -21680227.630823851 0 -21680227.630823851 17814007.520305037 0 0 0 0 -106469386.52202988 66019517.274808526 0 66019517.274808526 -69888132.683260232 0 0 0 0 -360974716.86272621 -114013608.35694939 0 -114013608.35694939 93406278.613121033 0 0 0 0 -151227096.2466166 52254673.756505176 0 52254673.756505176 -113800042.80337453 0 0 0 0 -144768285.51457214 -5811448.8264920712 0 -5811448.8264920712 -1225555.3119058311 0 0 0 0 -1570994.8348093685 787612.06027409993 0 787612.06027409993 -415340.83641431766 0 0 0 0 -148600.36312052608 401689.72719992045 0 401689.72719992045 26779.007468548371 0 0 0 0 -1642705.3926203251 706628.85342749394 0 706628.85342749394 14993.926159841707 0 0 0 0 -1139317.3444075584 750778.38194598875 0 750778.38194598875 1470.2105671988134 0 0 0 0 -1215985.506477356 534292.36518656765 0 534292.36518656765 -36422.780125070822 0 0 0 0 -1606563.1157464981 731780.37970627879 0 731780.37970627879 -355.19632358906961 0 0 0 0 -900110666.47916412 225598966.42969278 0 225598966.42969278 74556086.478081107 0 0 0 0 -723781400.94154739 238725910.7918427 0 238725910.7918427 -443321.14442478627 0 0 0 0 -1028296388.4570271 108609792.88511685 0 108609792.88511685 89067092.921900153 0 0 0 0 -1030733398.4845924 -170155570.82852626 0 -170155570.82852626 39800756.114425302 0 0 0 0 -1333090.0062046591 226534.82919368241 0 226534.82919368241 202599.46170968146 0 0 0 0 -605158546.63014603 -166222410.46746874 0 -166222410.46746874 32220463.935376704 0 0 0 0 -879458794.56710815 126814236.6615169 0 126814236.6615169 67243700.395452619 0 0 0 0 -736255030.76412582 -3545675.451267451 0 -3545675.451267451 9367662.5191550255 0 0 0 0 -886506202.22988868 21858232.427980889 0 21858232.427980889 13836977.308976531 0 0 0 0 -907330086.51634216 195717634.95554066 0 195717634.95554066 40036912.973851681 0 0 0 0 -1130693535.8072929 59594993.350185096 0 59594993.350185096 120253291.58130741 0 0 0 0 -675437318.82881546 125913458.03530216 0 125913458.03530216 -9664487.0603175163 0 0 0 0 -545994366.10745049 132920947.76958436 0 132920947.76958436 -103343492.10675573 0 0 0 0 -695688807.81735229 31152201.256979942 0 31152201.256979942 24714820.827250168 0 0 0 0 -985569167.6548233 258325564.12699533 0 258325564.12699533 -131019074.77497101 0 0 0 0 -826487464.23918152 32389922.011345863 0 32389922.011345863 -63424592.800345898 0 0 0 0 -2086333902.6922073 85446739.083753109 0 85446739.083753109 -48047642.393864632 0 0 0 0 -887075697.25864792 180477224.93632567 0 180477224.93632567 -401898076.20491362 0 0 0 0 -546388939.3377533 316455540.78132135 0 316455540.78132135 -185524592.98696136 0 0 0 0 -124682092.09375 791370698.65891743 0 791370698.65891743 -336794924.38895214 0 0 0 0 -540133464.76850891 267818122.75579596 0 267818122.75579596 106585765.24615955 0 0 0 0 -539987.48226822354 95926.682511156425 0 95926.682511156425 95830.06120597315 0 0 0 0 306000904.78512955 -436457276.31407416 0 -436457276.31407416 464136118.81094933 0 0 0 0 -20607464.874069214 789290358.81375313 0 789290358.81375313 -336834167.90357023 0 0 0 0 -973646549.28637874 -1516319.1457131356 0 -1516319.1457131356 -64708982.490158081 0 0 0 0 15925682.933689117 -87054006.865642309 0 -87054006.865642309 228398754.90059924 0 0 0 0 -1882761.7927372959 1651675.8038534163 0 1651675.8038534163 -693619.88935821678 0 0 0 0 160177489.42863846 -237027254.25790209 0 -237027254.25790209 178456788.02607858 0 0 0 0 -137308420.19747925 78013345.5410285 0 78013345.5410285 63103049.400179863 0 0 0 0 -5020654.9160346985 1973323.0824899357 0 1973323.0824899357 2314118.2379058022 0 0 0 0 -867532.41601404361 -203934.3603221029 0 -203934.3603221029 899565.18394419854 0 0 0 0 -375858.18531004176 272841.78531117737 0 272841.78531117737 49950.295156662934 0 0 0 0 -936927715.08109856 93413636.679475844 0 93413636.679475844 108968126.44734502 0 0 0 0 -646914543.35861778 -6119465.3356634974 0 -6119465.3356634974 -61974079.786744416 0 0 0 0 -659591093.02176666 -3379043.524943471 0 -3379043.524943471 -53358919.178279877 0 0 0 0 -11738758.896625519 1065048.6983176493 0 1065048.6983176493 2120293.2124169036 0 0 0 0 -1531411.7835578918 1726543.7105752518 0 1726543.7105752518 -961862.11377053615 0 0 0 0 -3743348.9859001637 5101414.9376923777 0 5101414.9376923777 -10062.480513658613 0 0 0 0 -740340.73068441357 498441.31607434899 0 498441.31607434899 104220.02889509909 0 0 0 0 -960660209.72413635 260445625.48607665 0 260445625.48607665 1304968.5953107169 0 0 0 0 -807803.28764125891 -46506.498562667519 0 -46506.498562667519 323824.07210825599 0 0 0 0 -482555254.51702118 147142614.11526212 0 147142614.11526212 -71091260.237717748 0 0 0 0 -227882676.86932564 212464251.22499323 0 212464251.22499323 -274960811.57989603 0 0 0 0 -942002623.80529022 266919601.16347337 0 266919601.16347337 -16220222.515891824 0 0 0 0 -1797865.4856940447 260438.83027685806 0 260438.83027685806 138529.30273097663 0 0 0 0 -590727333.38868713 -5701106.111031305 0 -5701106.111031305 377936.31853971398 0 0 0 0 3722231.7171154022 3319470.800592748 0 3319470.800592748 -2240049.8030924127 0 0 0 0 -3443839.6056771278 2435360.5079468284 0 2435360.5079468284 354146.92476026528 0 0 0 0 -1817.1164093017578 4990007.4177489178 0 4990007.4177489178 8119.3956083419362 0 0 0 0 -1702531.5197222233 3302755.6890902901 0 3302755.6890902901 2344258.4638608694 0 0 0 0 1696472.9444961548 1321875.8105271952 0 1321875.8105271952 -1195629.0758929159 0 0 0 0 -943828957.5634346 -339467351.04837692 0 -339467351.04837692 -106927783.3991586 0 0 0 0 -390825762.44060516 362859818.87107688 0 362859818.87107688 -181646205.61800835 0 0 0 0 -1114322.1608024724 40052.368858464062 0 40052.368858464062 527325.87589825946 0 0 0 0 -632049903.27762032 -179014003.16055003 0 -179014003.16055003 -34563311.202549249 0 0 0 0 -2718338.0385128669 1648970.8768631443 0 1648970.8768631443 -289391.75340027246 0 0 0 0 -1497268.0215184663 -402656.42236269452 0 -402656.42236269452 1506997.8665747484 0 0 0 0 -13827026.978525162 6152920.4606788754 0 6152920.4606788754 1219221.3661563396 0 0 0 0 169956112.71632767 -108076407.89026761 0 -108076407.89026761 24947495.82620772 0 0 0 0 31641059.168532372 47557532.334656417 0 47557532.334656417 38910068.612570047 0 0 0 0 -944884434.10298538 -76776969.105363831 0 -76776969.105363831 69027191.92626068 0 0 0 0 -684917055.35076332 54642252.367526233 0 54642252.367526233 96970533.071598858 0 0 0 0 -793885083.54692078 9711823.1288354397 0 9711823.1288354397 131297265.00246382 0 0 0 0 -726813022.89566803 4807480.3030701131 0 4807480.3030701131 99370259.383087426 0 0 0 0 -945184604.65922022 137776639.30307591 0 137776639.30307591 223081706.22719455 0 0 0 0 -618427549.61822891 82502028.246554941 0 82502028.246554941 65373271.720199063 0 0 0 0 -753639174.58555412 101986972.47941069 0 101986972.47941069 160630019.3322891 0 0 0 0 -209284499.49949646 -327782959.52419651 0 -327782959.52419651 433917506.789482 0 0 0 0 -246112378.10264206 -17206969.375287533 0 -17206969.375287533 199744746.03006893 0 0 0 0 -1356486.6482875291 -468528.76795310527 0 -468528.76795310527 589504.53271724842 0 0 0 0 16803793.840724945 -59396141.228335381 0 -59396141.228335381 391203038.22933006 0 0 0 0 -171475445.08975983 181876834.2882247 0 181876834.2882247 190603140.75754833 0 0 0 0 -453418.90260054183 -352823.72688498907 0 -352823.72688498907 547467.26639488258 0 0 0 0 171794005.04721212 -146398987.32522938 0 -146398987.32522938 99487237.905247688 0 0 0 0 -719493.47559675761 -206014.80821781792 0 -206014.80821781792 397338.70102328435 0 0 0 0 -554366207.20101643 298791793.03326118 0 298791793.03326118 -117301886.45541573 0 0 0 0 -438773721.63193893 311100205.83100939 0 311100205.83100939 -118611554.29860425 0 0 0 0 -1300367845.1176023 590428221.35052621 0 590428221.35052621 -69367578.064134598 0 0 0 0 -1166480611.728714 -22362705.902487278 0 -22362705.902487278 -64426818.638033867 0 0 0 0 -691128704.7149353 280540209.37491608 0 280540209.37491608 -24057590.498120215 0 0 0 0 -677531938.59245682 290891541.39762735 0 290891541.39762735 -24030957.382885728 0 0 0 0 -850558324.13667107 140706755.17605978 0 140706755.17605978 113481920.84843671 0 0 0 0 -680510163.35795975 161970288.83244449 0 161970288.83244449 134220579.62191737 0 0 0 0 -710513608.79853439 190600771.20248571 0 190600771.20248571 131250080.13749704 0 0 0 0 -202892198.223382 103532472.59151395 0 103532472.59151395 -21177038.149053335 0 0 0 0 -617804062.69672585 176749766.85055858 0 176749766.85055858 88676723.195858479 0 0 0 0 -566922703.89818192 233011523.70149493 0 233011523.70149493 84099301.600145951 0 0 0 0 -527684460.47940445 99235983.141526401 0 99235983.141526401 198526048.83173108 0 0 0 0 -388656900.82355118 163264737.64696616 0 163264737.64696616 103650149.14743865 0 0 0 0 -605046057.68832636 112168055.86823379 0 112168055.86823379 116926609.20948233 0 0 0 0 -644811447.37362671 244015982.21544635 0 244015982.21544635 114796574.25106212 0 0 0 0 -783431872.09295559 185029926.72945917 0 185029926.72945917 104137322.19336319 0 0 0 0 -621097217.85831642 152739249.9489924 0 152739249.9489924 -12562139.761613932 0 0 0 0 -606300230.11295891 199768763.37963131 0 199768763.37963131 64925271.725675508 0 0 0 0 -435411165.65480423 -29998956.378253385 0 -29998956.378253385 -52949706.896721318 0 0 0 0 -380905224.81183624 36825715.259152189 0 36825715.259152189 28757077.337186486 0 0 0 0 -942913579.91910744 -239778815.12375978 0 -239778815.12375978 69236810.333149865 0 0 0 0 -419468028.41388702 -427067757.9994275 0 -427067757.9994275 101130286.99190447 0 0 0 0 -1041561.4458097555 -267026.08084669709 0 -267026.08084669709 516019.54072545783 0 0 0 0 118151635.36338806 -444049541.97909576 0 -444049541.97909576 43274106.518769532 0 0 0 0 -943753777.58031273 272882649.82693809 0 272882649.82693809 -16757673.656303409 0 0 0 0 122683305.75762939 88414985.438005298 0 88414985.438005298 33262907.819648415 0 0 0 0 -414433240.28154373 103085982.28821149 0 103085982.28821149 229823540.45103961 0 0 0 0 -150814445.30554199 -65058792.812014513 0 -65058792.812014513 48656173.719518244 0 0 0 0 -703678.07687271666 146473.14882240444 0 146473.14882240444 -123688.36631074874 0 0 0 0 -3186709.9568967819 15623.280048206449 0 15623.280048206449 -7161577.3361749649 0 0 0 0 -4175547.2915725708 -363498.23516583443 0 -363498.23516583443 -1294963.6809477806 0 0 0 0 -400444.11651611328 2483664.7635470629 0 2483664.7635470629 -329008.24806854129 0 0 0 0 235371.46710211039 -1483415.4092761418 0 -1483415.4092761418 -4277892.1386572719 0 0 0 0 -3738864.7610931396 -856913.12047529221 0 -856913.12047529221 3718224.933045961 0 0 0 0 8404845.5431518555 1891059.2032402158 0 1891059.2032402158 -4627415.3789943457 0 0 0 0 1838574.6715602875 5294060.5133316815 0 5294060.5133316815 3145139.0662803054 0 0 0 0 -3581733.2395324707 -662036.18554520607 0 -662036.18554520607 -1328459.1882690191 0 0 0 0 -2126861.5997924805 -1770052.2270694971 0 -1770052.2270694971 -601055.31915342808 0 0 0 0 -2538329.2177200317 -570130.22524452209 0 -570130.22524452209 -2117276.1515188217 0 0 0 0 -212892.12890824117 -285259.9175027078 0 -285259.9175027078 51808.013478824927 0 0 0 0 -8621271.8088617325 -7966956.5898532644 0 -7966956.5898532644 -1765483.9702801108 0 0 0 0 -7248275.3877081871 -2742457.4328037426 0 -2742457.4328037426 4265523.5971648693 0 0 0 0 25959012.483001709 -8759428.471386373 0 -8759428.471386373 -8822651.9699198902 0 0 0 0 -40912.477406460792 -90635.770744237117 0 -90635.770744237117 20462.587143315759 0 0 0 0 -724726.70672607422 -102879.44934791327 0 -102879.44934791327 -1488610.2038413286 0 0 0 0 -3506760.9592781067 1066329.0741580129 0 1066329.0741580129 -2309707.120057106 0 0 0 0 -2341091.8345718384 122129.01205611229 0 122129.01205611229 -2150040.5009059906 0 0 0 0 -2655571.6188659668 294361.06695437431 0 294361.06695437431 -2241256.4933555126 0 0 0 0 -1929117.3922271729 -260926.2615404129 0 -260926.2615404129 -2517050.3037282228 0 0 0 0 -725036.68099212646 -606127.09632432461 0 -606127.09632432461 -2612223.1428790092 0 0 0 0 -1216841.2196846008 550263.27371615171 0 550263.27371615171 -2960264.1818146706 0 0 0 0 -1920242.7411346436 863195.85995316505 0 863195.85995316505 -2720115.2088439465 0 0 0 0 -2037685.3814048767 -3233631.421331048 0 -3233631.421331048 5339656.9726201892 0 0 0 0 -1929275.9310760498 -2455112.1618921161 0 -2455112.1618921161 -13688.817017048597 0 0 0 0 -3572292.0882091522 -2210392.5236131027 0 -2210392.5236131027 4326614.9263716936 0 0 0 0 -118461.45468665566 80240.776211524382 0 80240.776211524382 64355.965487121954 0 0 0 0 -466417.13521928154 207892.33315902296 0 207892.33315902296 -152897.93785095908 0 0 0 0 -665358.1585624814 -4920303.3262266722 0 -4920303.3262266722 6234856.3270658255 0 0 0 0 11008854.839633942 -14924077.077645704 0 -14924077.077645704 8018873.8595741987 0 0 0 0 4034655.6760253906 -3367923.1800959408 0 -3367923.1800959408 -3238948.2419837713 0 0 0 0 14738600.5272789 1117736.130828619 0 1117736.130828619 -17562040.992663056 0 0 0 0 12388709.392456055 -3582823.2605211735 0 -3582823.2605211735 -3336048.5955803841 0 0 0 0 -613860.67825251352 398971.11054184008 0 398971.11054184008 -56278.039124714938 0 0 0 0 1508305.1603088379 811356.67653730512 0 811356.67653730512 -450433.79302805662 0 0 0 0 341225.290102005 -375421.04520004988 0 -375421.04520004988 -1017394.8442539573 0 0 0 0 -139506.85548019409 612433.735465765 0 612433.735465765 755652.79592603445 0 0 0 0 -176613.45964469016 181514.24071689602 0 181514.24071689602 -135239.088095682 0 0 0 0 1298659.5707769394 686627.96310415864 0 686627.96310415864 -1189657.7275406122 0 0 0 0 1681585.175868988 1517401.8983481824 0 1517401.8983481824 -592973.3912178278 0 0 0 0 160287.81927490234 1337179.9065819681 0 1337179.9065819681 325790.38712839782 0 0 0 0 67758.509479522705 1461541.6828147406 0 1461541.6828147406 1057467.8964314582 0 0 0 0 151371.31045150757 -86805.573304000311 0 -86805.573304000311 -846845.40014515491 0 0 0 0 2519209.3378410339 479290.87021573028 0 479290.87021573028 -1277821.7642142773 0 0 0 0 -68256870.824668884 -33912327.103761137 0 -33912327.103761137 26676237.913943022 0 0 0 0 -172960362.13444328 64216989.41288811 0 64216989.41288811 22220469.00878346 0 0 0 0 -14165995.752990723 -40407926.012298763 0 -40407926.012298763 -12187783.579739809 0 0 0 0 52712034.634567261 -1848496.7938175201 0 -1848496.7938175201 -50420337.92031002 0 0 0 0 -72551.665057599545 -88105.278165039606 0 -88105.278165039606 -181575.62460697454 0 0 0 0 -124386283.2752037 -554665.49656361341 0 -554665.49656361341 7543151.7175062895 0 0 0 0 -145210817.20810699 36843563.857906938 0 36843563.857906938 -6865040.067139864 0 0 0 0 -202366061.87233734 -16588360.500250548 0 -16588360.500250548 55762519.122099042 0 0 0 0 -47133531.721065521 -49884673.677455626 0 -49884673.677455626 -14738754.714842234 0 0 0 0 -92646545.841278076 -29417214.908264775 0 -29417214.908264775 23739881.11867376 0 0 0 0 -145575.29922485352 1715521.0720221698 0 1715521.0720221698 -1638927.6524365842 0 0 0 0 1672955.5784320831 495573.35494957166 0 495573.35494957166 -1554161.4542255104 0 0 0 0 19548.376700217486 5818.6092434860766 0 5818.6092434860766 -1458.4322948002355 0 0 0 0 -294362.06664073095 229630.60813103616 0 229630.60813103616 -183142.71485376163 0 0 0 0 -2634645.8230247498 507842.17885220237 0 507842.17885220237 1730569.5499642082 0 0 0 0 -122089.36126832571 84316.042539410293 0 84316.042539410293 -51910.610972679089 0 0 0 0 -11954862.676437378 -3464837.2203312796 0 -3464837.2203312796 -39517932.208511539 0 0 0 0 -43534066.415245056 41615612.535940856 0 41615612.535940856 -96090697.896658376 0 0 0 0 1597261.2217636108 -108126.21373923309 0 -108126.21373923309 1828997.0767886899 0 0 0 0 10563531.258654594 9604998.8528311402 0 9604998.8528311402 10436290.421240211 0 0 0 0 -248004.20545473881 45788.150014315732 0 45788.150014315732 24491.038383899722 0 0 0 0 -15947355.694458008 -26864993.447673142 0 -26864993.447673142 -13894539.152642667 0 0 0 0 8032371.3931283951 18178998.127750784 0 18178998.127750784 14671828.773189068 0 0 0 0 -31765487.336528778 -21936218.763934605 0 -21936218.763934605 -15417231.570705717 0 0 0 0 -34162888.530921936 -23939391.657645721 0 -23939391.657645721 389799.03554832563 0 0 0 0 -26380927.225343704 -10937388.157543536 0 -10937388.157543536 3654480.6194506139 0 0 0 0 -627690.97177409753 77130.310716243461 0 77130.310716243461 -96619.361510063609 0 0 0 0 -38368990.433908463 -17133884.205016665 0 -17133884.205016665 7688057.7198066935 0 0 0 0 -43130770.176200867 -25520574.688615765 0 -25520574.688615765 271148.75482570753 0 0 0 0 -51443815.306293488 -21599458.44189541 0 -21599458.44189541 7777090.7971237302 0 0 0 0 -35992310.67225647 -18238522.606659353 0 -18238522.606659353 -1520204.702839911 0 0 0 0 -38023744.226211548 -22045814.908704132 0 -22045814.908704132 -604050.05290865898 0 0 0 0 -41395758.254623413 -15356340.002498746 0 -15356340.002498746 4749302.2400645018 0 0 0 0 -43786440.762371063 -21868034.405265603 0 -21868034.405265603 4806172.1707774773 0 0 0 0 3233668.7651977539 1957732.3328486085 0 1957732.3328486085 -3183196.7654716969 0 0 0 0 -36550989.780258179 -1293623.3352628946 0 -1293623.3352628946 -309373.10221737623 0 0 0 0 -56213933.479858398 21399494.28444317 0 21399494.28444317 68024045.222960681 0 0 0 0 -49.544846722856164 -4146.9886611010879 0 -4146.9886611010879 -9779.8970721506739 0 0 0 0 -62729129.58331871 -23512867.53690467 0 -23512867.53690467 16239910.496597011 0 0 0 0 -75935062.727249146 -8507303.3772718757 0 -8507303.3772718757 29525007.263486862 0 0 0 0 -50359181.681838989 -18189503.876751542 0 -18189503.876751542 18432079.882786304 0 0 0 0 -52044878.268127441 -1972933.0114718974 0 -1972933.0114718974 29119649.397350766 0 0 0 0 -42252800.926681519 427987.20373648405 0 427987.20373648405 16650974.116521716 0 0 0 0 -56553031.397834778 -12474847.797548503 0 -12474847.797548503 16316515.443347454 0 0 0 0 -36353886.568458557 -3817761.4591824412 0 -3817761.4591824412 5998274.2890114784 0 0 0 0 -43375308.335158348 -6855043.1795175746 0 -6855043.1795175746 9867062.6053670645 0 0 0 0 -41516233.222602844 -9628820.2902176976 0 -9628820.2902176976 5212710.3067160845 0 0 0 0 -38246405.016956329 -8038619.5144890547 0 -8038619.5144890547 -3015038.5148100853 0 0 0 0 -179212.95593418647 268353.94858142175 0 268353.94858142175 -204326.59742759829 0 0 0 0 -12066918.599340439 -4077798.3449649215 0 -4077798.3449649215 5267898.6209461689 0 0 0 0 2784126.1333084106 -14503989.988988757 0 -14503989.988988757 7963219.8250684738 0 0 0 0 11644901.829948425 12762467.816322923 0 12762467.816322923 -5041959.7922307551 0 0 0 0 23413434.269420624 -8812144.8714570701 0 -8812144.8714570701 276020.32861566544 0 0 0 0 -13594627.354969025 919626.88851076365 0 919626.88851076365 2720390.516051054 0 0 0 0 4577642.7737717628 385440.63874626905 0 385440.63874626905 -1270668.785867691 0 0 0 0 -37930511.32598114 -1734222.1561344266 0 -1734222.1561344266 -6339702.6868770123 0 0 0 0 -70932.735798882321 132954.51342369989 0 132954.51342369989 -46484.684396119439 0 0 0 0 -6684862.3977966309 -10646493.600554079 0 -10646493.600554079 -17215665.238732696 0 0 0 0 -30833766.725952148 -7296826.7690762281 0 -7296826.7690762281 -2972795.1888861805 0 0 0 0 -31891856.817915916 -12150246.862156317 0 -12150246.862156317 -15947486.810814738 0 0 0 0 -18707593.405303955 -28071693.670753002 0 -28071693.670753002 30187047.881078482 0 0 0 0 -18854169.620433807 9543783.8419157863 0 9543783.8419157863 -19627098.352705002 0 0 0 0 18915474.825325012 -17134799.85223341 0 -17134799.85223341 -904000.54070663452 0 0 0 0 -13119720.18598938 -22151366.643522024 0 -22151366.643522024 -1257416.9239394665 0 0 0 0 -10104002.352249146 21541592.400092602 0 21541592.400092602 17468316.928187966 0 0 0 0 -36965683.42996788 18806582.041113615 0 18806582.041113615 17457314.135305166 0 0 0 0 2673203.7730712891 16765712.002117753 0 16765712.002117753 -20935919.121234655 0 0 0 0 4844674.3697662354 9696851.0071065426 0 9696851.0071065426 2037371.4204841852 0 0 0 0 5776057.0270690918 6831542.6065819263 0 6831542.6065819263 4951980.1447284222 0 0 0 0 9415796.3471374512 7910660.3822193146 0 7910660.3822193146 -10453909.601249218 0 0 0 0 4454501.2063140869 -1032880.3670030832 0 -1032880.3670030832 -14210539.801076889 0 0 0 0 -74856630.085018158 -65905155.387583137 0 -65905155.387583137 -24689258.22863543 0 0 0 0 -35463371.734329224 -29458915.914541125 0 -29458915.914541125 -4199448.1361490488 0 0 0 0 15541503.838043213 9790053.144017458 0 9790053.144017458 3060669.89298594 0 0 0 0 -17210237.214408875 -26660511.105147213 0 -26660511.105147213 -26678464.787238836 0 0 0 0 -17406373.14058876 -44473258.994999707 0 -44473258.994999707 -56472211.132068157 0 0 0 0 -67615252.024604797 43016024.143945694 0 43016024.143945694 -28605394.01126343 0 0 0 0 -190528.82592333108 -76329.405908680987 0 -76329.405908680987 -2955.7922453216743 0 0 0 0 -115322506.46160889 12423595.661666512 0 12423595.661666512 11162115.951213241 0 0 0 0 -64578879.216072954 -3180669.7184144808 0 -3180669.7184144808 9976236.3887765408 0 0 0 0 -64581213.470436096 22036937.710832119 0 22036937.710832119 5394989.7571195364 0 0 0 0 -613093.97579904646 -47031.67936716741 0 -47031.67936716741 128932.26932563013 0 0 0 0 -11963750.574985504 17893396.717737913 0 17893396.717737913 -18873100.4988482 0 0 0 0 -9350121.7950062752 -1572356.9422120452 0 -1572356.9422120452 4193134.6616106033 0 0 0 0 -3278812.208732605 11424394.142764807 0 11424394.142764807 -3854451.1128431559 0 0 0 0 -12862624.672836304 14316120.45261693 0 14316120.45261693 -1232475.2285140753 0 0 0 0 -9426708.7044315338 4792599.010386765 0 4792599.010386765 -813729.07649850845 0 0 0 0 -16259899.337769508 5950068.5371551812 0 5950068.5371551812 2591894.9780578613 0 0 0 0 -15766723.487668991 3742673.6563632786 0 3742673.6563632786 1929400.5145688057 0 0 0 0 -29064543.520843506 6595001.5774842501 0 6595001.5774842501 4841793.253683567 0 0 0 0 -32915814.802461624 14270699.349155962 0 14270699.349155962 5706755.4550776482 0 0 0 0 -52226716.79070282 3277362.7459661961 0 3277362.7459661961 10419814.182893515 0 0 0 0 -49267603.18460083 359387.25717771053 0 359387.25717771053 10751362.973163366 0 0 0 0 -10128379.180257797 2990566.1079546213 0 2990566.1079546213 30720377.841850519 0 0 0 0 881215.64441108704 38327.17264354229 0 38327.17264354229 2880511.7070688009 0 0 0 0 -1235774.0299639925 470908.55176653201 0 470908.55176653201 606164.64011907042 0 0 0 0 -197243.80656433105 1460157.4916635752 0 1460157.4916635752 939846.33385181427 0 0 0 0 106965.49443788826 2267539.673219528 0 2267539.673219528 1058789.3265820541 0 0 0 0 -2489534.298439933 -350031.17467521504 0 -350031.17467521504 389165.25335499179 0 0 0 0 -383075.55674743652 1011311.5206991732 0 1011311.5206991732 1024437.5483366847 0 0 0 0 -852633.30000916123 1551275.4764537388 0 1551275.4764537388 1143761.6688458018 0 0 0 0 -749507.18612727709 323765.7598447632 0 323765.7598447632 311779.59747414372 0 0 0 0 4031704.572062254 5879140.8707745597 0 5879140.8707745597 5921694.2167549133 0 0 0 0 3974041.6248168945 7255501.1237018108 0 7255501.1237018108 5592300.7173185349 0 0 0 0 10247565.637496948 2144558.4242961407 0 2144558.4242961407 -2580954.7029815912 0 0 0 0 -6561957.7368621826 320705.39132857323 0 320705.39132857323 5603594.7208471298 0 0 0 0 3429308.8333206177 -1394810.5926747322 0 -1394810.5926747322 3441535.3667246699 0 0 0 0 -143276.53807903454 361253.35316008027 0 361253.35316008027 287060.82462217932 0 0 0 0 7030406.6585922241 4458775.6487947702 0 4458775.6487947702 -4506207.2259554863 0 0 0 0 6063178.3862228394 -2457385.8385186195 0 -2457385.8385186195 -1080208.1547222137 0 0 0 0 190389.07146453857 1848669.8478143215 0 1848669.8478143215 -1189779.0573017597 0 0 0 0 51467.419807434082 1594726.7655286789 0 1594726.7655286789 -310790.83936050534 0 0 0 0 -3961319.1166687012 -2190812.3620209694 0 -2190812.3620209694 2590669.4388148785 0 0 0 0 5002865.8346233368 1644944.4821726382 0 1644944.4821726382 -3336143.0486712456 0 0 0 0 4770929.9743270874 1945360.1343072653 0 1945360.1343072653 978752.85955882072 0 0 0 0 547758.45340746827 212957.73855987098 0 212957.73855987098 425408.87487732345 0 0 0 0 4454683.9983634949 1090831.4232452214 0 1090831.4232452214 -346348.11558277905 0 0 0 0 -7045815.2760467529 -2563301.2261909246 0 -2563301.2261909246 -274323.01783204079 0 0 0 0 -3489181.3930947362 802282.16379870754 0 802282.16379870754 1425713.4675678506 0 0 0 0 3668884.1753349304 2727081.2532387376 0 2727081.2532387376 1268577.3906779289 0 0 0 0 -5782010.9701023102 -1197318.7385618687 0 -1197318.7385618687 564594.81586360931 0 0 0 0 -2804195.4596332125 -177163.13499705261 0 -177163.13499705261 1095785.0516822333 0 0 0 0 -710186.03359985352 598462.77154827118 0 598462.77154827118 1785285.2136475444 0 0 0 0 -3686405.5824127197 -1807065.8219194412 0 -1807065.8219194412 -462900.305847615 0 0 0 0 -3846438.8981509041 -679119.08060804475 0 -679119.08060804475 76207.73818424996 0 0 0 0 -2081485.8858795166 -1258919.3151794076 0 -1258919.3151794076 847960.65244483948 0 0 0 0 -2235622.0374603271 -927655.04621851444 0 -927655.04621851444 1106633.5658392906 0 0 0 0 -4336031.3926517963 -2068362.1531179501 0 -2068362.1531179501 -514415.56707144901 0 0 0 0 -4040801.5686818277 -247020.22221071366 0 -247020.22221071366 1584755.0439645057 0 0 0 0 -727380.27585447393 -673884.20367480943 0 -673884.20367480943 426842.21025032783 0 0 0 0 -479528.79659137875 -461817.29748792807 0 -461817.29748792807 593144.69826666999 0 0 0 0 12049.137115478516 -1064355.459862709 0 -1064355.459862709 2330242.8175874949 0 0 0 0 -36385.297882080078 -1118934.0042399764 0 -1118934.0042399764 2329026.0907986164 0 0 0 0 -3243913.5790543156 -149781.4553460218 0 -149781.4553460218 1827415.3479885885 0 0 0 0 -2182742.4758954495 -127365.48002037778 0 -127365.48002037778 685930.9593771596 0 0 0 0 -1371174.4530434608 -464178.15629029274 0 -464178.15629029274 669509.42495942116 0 0 0 0 -5099197.2949752808 -1898793.2575907111 0 -1898793.2575907111 527951.94007623196 0 0 0 0 -2982143.5934202652 -1151914.701143383 0 -1151914.701143383 238400.00868124398 0 0 0 0 -1317794.4827194214 -897126.25490707159 0 -897126.25490707159 863604.04860647023 0 0 0 0 -4978650.9518585205 -1306625.5131979585 0 -1306625.5131979585 532140.35772442818 0 0 0 0 -971277.58196992986 604684.94370501209 0 604684.94370501209 1124014.4773698726 0 0 0 0 -693335.88729858398 641675.16098608077 0 641675.16098608077 1795192.5788821727 0 0 0 0 -1179867.5351791382 382859.37279674411 0 382859.37279674411 991425.26890656352 0 0 0 0 -1655626.3701858521 18251.905055612326 0 18251.905055612326 712330.62608915567 0 0 0 0 100256.30009460449 365458.94673269987 0 365458.94673269987 271608.84518940747 0 0 0 0 -1422782.8713991996 -441532.63150657341 0 -441532.63150657341 46853.064931491273 0 0 0 0 -1041823.0409441832 488392.46174816601 0 488392.46174816601 327567.10656334553 0 0 0 0 -567719.04060426168 -95056.551593903452 0 -95056.551593903452 34675.450151638215 0 0 0 0 -1273376.4279060811 228351.700632222 0 228351.700632222 227839.15547080018 0 0 0 0 6381996.2733306885 5507547.2905250192 0 5507547.2905250192 5284719.5573263168 0 0 0 0 8272278.4956550598 7174406.5301989913 0 7174406.5301989913 -239218.98110604286 0 0 0 0 10542220.820098877 3844892.4784338474 0 3844892.4784338474 3069334.403547287 0 0 0 0 -1376648.7786993012 -291551.43228169437 0 -291551.43228169437 51994.70188877231 0 0 0 0 -1168593.7381668091 -162689.0620649457 0 -162689.0620649457 359673.66448330879 0 0 0 0 -1303295.8942405935 -149909.46980650723 0 -149909.46980650723 250713.71528612077 0 0 0 0 -1173810.2275543213 -156493.40620040894 0 -156493.40620040894 371402.13549661636 0 0 0 0 -1416704.3008493856 -581131.29265618697 0 -581131.29265618697 111347.82495881827 0 0 0 0 -811274.88733673096 -402379.23590743542 0 -402379.23590743542 -122380.78420472145 0 0 0 0 -1475338.7012073919 -338232.21850319859 0 -338232.21850319859 65621.700368097343 0 0 0 0 -2054497.8712384393 -786057.65570225846 0 -786057.65570225846 162707.78989970195 0 0 0 0 -1388075.1895904541 -505641.77984929085 0 -505641.77984929085 595337.95282912254 0 0 0 0 -3159814.4037818909 -2937649.3768196106 0 -2937649.3768196106 -752270.08405375481 0 0 0 0 -3593576.2912120819 -1697261.1510996372 0 -1697261.1510996372 -37999.222994804382 0 0 0 0 -5109483.5303268433 -2203078.0139241219 0 -2203078.0139241219 -178385.57651770115 0 0 0 0 -5366319.9199142456 -2375849.1558712721 0 -2375849.1558712721 -2418.6404197216034 0 0 0 0 -4413150.8332977295 -3272431.1051025391 0 -3272431.1051025391 -819139.85378032923 0 0 0 0 -2905834.9977302551 -1183553.2895669639 0 -1183553.2895669639 -508261.82439410686 0 0 0 0 -795057.30971895531 -547760.54666836094 0 -547760.54666836094 207332.9005402624 0 0 0 0 -5639714.5465011597 -3237915.6000930667 0 -3237915.6000930667 -536755.27113157511 0 0 0 0 -3061332.3914241791 -1527463.7205297947 0 -1527463.7205297947 82240.818460226059 0 0 0 0 -1227686.3557495754 40977.54933658801 0 40977.54933658801 -78960.714079130616 0 0 0 0 -3197883.6128425598 469990.75314122438 0 469990.75314122438 845320.46817803383 0 0 0 0 -384098.89559462853 1770.8026966797188 0 1770.8026966797188 153209.52581927646 0 0 0 0 17056920.133392334 -1924070.508713007 0 -1924070.508713007 -4542479.4711732864 0 0 0 0 12453370.030303955 3437047.4169785976 0 3437047.4169785976 -2290822.109008044 0 0 0 0 -275815.27340014838 511412.38993232884 0 511412.38993232884 305209.54547839373 0 0 0 0 -1033269.1726989746 -665970.60130021442 0 -665970.60130021442 210854.66322912666 0 0 0 0 -936993.84422683716 18762.702030539513 0 18762.702030539513 158192.72274971008 0 0 0 0 -4789850.1478462219 -2989614.3635546267 0 -2989614.3635546267 -558077.94203871489 0 0 0 0 -539723.48859977722 -2630777.3655284643 0 -2630777.3655284643 -702027.48181974888 0 0 0 0 -4847683.348233223 -3071106.6192601621 0 -3071106.6192601621 2959913.8900843859 0 0 0 0 -4701562.1997375488 -2417448.690797925 0 -2417448.690797925 -1977545.156735979 0 0 0 0 -5741878.9021949768 -1893234.9871766865 0 -1893234.9871766865 -816538.91526198387 0 0 0 0 -5487040.2776489258 -2620154.6317381859 0 -2620154.6317381859 -307176.33192181587 0 0 0 0 -6184941.8364067078 -2358992.3486959934 0 -2358992.3486959934 -389468.73925805092 0 0 0 0 -5321119.0217590332 -2460952.3701618314 0 -2460952.3701618314 -673809.15395307541 0 0 0 0 -5390223.9002227783 -1876448.0290228128 0 -1876448.0290228128 394162.36162204295 0 0 0 0 -5732869.3542861938 -2255156.1151431799 0 -2255156.1151431799 405809.33989834785 0 0 0 0 -5393875.3181152344 -1845258.2689200044 0 -1845258.2689200044 477960.55099534988 0 0 0 0 -5401484.7353820801 -1854712.0635576248 0 -1854712.0635576248 483558.11148566008 0 0 0 0 -5466143.1223468781 -1669729.7780730352 0 -1669729.7780730352 1096725.4405298233 0 0 0 0 -5493434.0189285278 -1880638.2486099005 0 -1880638.2486099005 518616.62170684338 0 0 0 0 -5407891.9584350586 -1776341.7416135073 0 -1776341.7416135073 611369.76942276955 0 0 0 0 -4856099.8779754639 -1343872.4119560719 0 -1343872.4119560719 507498.21790850163 0 0 0 0 -586671.04313964397 -716524.88149261568 0 -716524.88149261568 -150968.86429692782 0 0 0 0 -4312822.9473953247 -1175953.8172249794 0 -1175953.8172249794 557556.10952377319 0 0 0 0 7132075.9066047668 -31249251.379228041 0 -31249251.379228041 -19177419.987625837 0 0 0 0 -4415921.8278532028 -917167.28848479688 0 -917167.28848479688 1221111.830894351 0 0 0 0 -4623275.2477035522 -1686550.3117599189 0 -1686550.3117599189 -119401.81895112991 0 0 0 0 -5359889.1093301773 -2517421.7493568808 0 -2517421.7493568808 1188144.2037683725 0 0 0 0 -5226833.4617080688 -1378945.5139260888 0 -1378945.5139260888 1439496.2783405781 0 0 0 0 -16560624.602012634 -8343344.4353391975 0 -8343344.4353391975 -1666605.7527597845 0 0 0 0 -296467.31819152832 30575012.437523752 0 30575012.437523752 -29814443.326310728 0 0 0 0 -4903424.2872238159 -19983315.789098956 0 -19983315.789098956 8222221.5300999954 0 0 0 0 -4788939.9456481934 -1951222.9032708406 0 -1951222.9032708406 -409338.55422234535 0 0 0 0 -46146929.531253815 -16357388.245571729 0 -16357388.245571729 67899485.896597639 0 0 0 0 -5676160.5233917236 -9437384.3714332879 0 -9437384.3714332879 5127680.9380981326 0 0 0 0 -11885266.183479309 -12396334.832324166 0 -12396334.832324166 10620567.53164503 0 0 0 0 -11122618.338779449 -5983129.4206346124 0 -5983129.4206346124 3114051.1572297812 0 0 0 0 -18897930.0442276 -10485186.0623331 0 -10485186.0623331 10314710.918787792 0 0 0 0 -9729153.8534851074 -9302304.5530956239 0 -9302304.5530956239 8374031.2855225205 0 0 0 0 -30162408.69575882 -22166282.212997478 0 -22166282.212997478 2677015.22426337 0 0 0 0 -1967964.3371275738 -1318114.6447571339 0 -1318114.6447571339 -13677.475499880558 0 0 0 0 -5751009.7903747559 -2364266.1922192574 0 -2364266.1922192574 -62959.044395565987 0 0 0 0 -5004875.9308428764 -1753617.7196483538 0 -1753617.7196483538 443715.42520952225 0 0 0 0 -5373837.1661148071 -1654042.0239847898 0 -1654042.0239847898 537877.95651888847 0 0 0 0 -5151809.1449127197 -2308497.7971796989 0 -2308497.7971796989 -331025.67152833939 0 0 0 0 -5603151.545425415 -2022612.4679142237 0 -2022612.4679142237 290040.45969092846 0 0 0 0 -5261426.0863189697 -1654304.7388926744 0 -1654304.7388926744 489355.46013629436 0 0 0 0 -5408279.6210417747 -1942039.0825503841 0 -1942039.0825503841 205695.5979590416 0 0 0 0 -5288138.5679626465 -1776776.0144132376 0 -1776776.0144132376 164616.80587720871 0 0 0 0 -5125207.8891620636 -1750832.05016312 0 -1750832.05016312 -210811.93332958221 0 0 0 0 -6089373.2954559326 -1915522.170771122 0 -1915522.170771122 53731.180327236652 0 0 0 0 -5485014.1351623535 -2099731.2123488188 0 -2099731.2123488188 85920.435404062271 0 0 0 0 -5603932.9939422607 -1986233.0257365704 0 -1986233.0257365704 407846.53175139427 0 0 0 0 -5861628.7012939453 -1143384.4689629674 0 -1143384.4689629674 -670914.96491873264 0 0 0 0 140421.60926818848 -1198925.2858384848 0 -1198925.2858384848 3122516.3261041641 0 0 0 0 -2343223.3010895215 -1163313.9835926453 0 -1163313.9835926453 831919.05844335933 0 0 0 0 -410268.15577997826 -540153.29777249135 0 -540153.29777249135 713585.83984559006 0 0 0 0 -1154316.5458221436 -788634.83097982407 0 -788634.83097982407 1143972.2516498566 0 0 0 0 -16671974.146438599 -11199909.215480268 0 -11199909.215480268 -19720704.501159996 0 0 0 0 -15302259.247879028 -13954732.503995612 0 -13954732.503995612 -14300514.629277319 0 0 0 0 -22104614.49407959 -2937870.7119854093 0 -2937870.7119854093 -23462172.842812218 0 0 0 0 142226.74015817046 -562239.74816792668 0 -562239.74816792668 -176740.1302542942 0 0 0 0 -17087162.208488464 -12888521.901275739 0 -12888521.901275739 -5922579.9613729119 0 0 0 0 -3529616.6549145803 -578934.14589082194 0 -578934.14589082194 1328338.8718235362 0 0 0 0 -1775157.3395690918 -128702.50537919998 0 -128702.50537919998 564488.55775547028 0 0 0 0 -2149839.5143127441 -549591.88474220037 0 -549591.88474220037 698019.83104610443 0 0 0 0 -19097881.83404541 -2680584.268350482 0 -2680584.268350482 1381826.4957115352 0 0 0 0 -4011817.2487221733 -2385369.5882360633 0 -2385369.5882360633 -621781.83028281527 0 0 0 0 -2973627.6923105307 -358577.1764081791 0 -358577.1764081791 873900.01789214904 0 0 0 0 -6745405.3818817139 -5628679.1388799846 0 -5628679.1388799846 348329.99730741978 0 0 0 0 -958921.96147407219 -318363.22983714286 0 -318363.22983714286 -21138.689281958243 0 0 0 0 -9408398.7641601562 3328.5047896504402 0 3328.5047896504402 -2897408.8724572659 0 0 0 0 -6386580.1558532715 -2402107.2980966568 0 -2402107.2980966568 -2237709.1644916534 0 0 0 0 -7400363.2106933594 -2779577.9325683117 0 -2779577.9325683117 -2008463.5078581572 0 0 0 0 -21278274.101158142 1724484.8326148987 0 1724484.8326148987 3126154.2769643366 0 0 0 0 -12998825.113304138 -4457305.8327936381 0 -4457305.8327936381 7733220.7453811765 0 0 0 0 -11304625.906974792 -1815018.4517742395 0 -1815018.4517742395 257930.96450805664 0 0 0 0 -6721372.0750827789 -4506381.4383334331 0 -4506381.4383334331 -2347470.5474689007 0 0 0 0 -6353327.5707092285 -4728400.0817662477 0 -4728400.0817662477 -3190183.8459572792 0 0 0 0 -9207207.8703613281 -4128642.6122447252 0 -4128642.6122447252 2804916.2746616453 0 0 0 0 -6716418.5474276543 -4707196.0407770183 0 -4707196.0407770183 -741685.60082745552 0 0 0 0 -7217757.1264343262 -3587308.0684933662 0 -3587308.0684933662 -1948931.3668934107 0 0 0 0 -6216926.6781921387 -3714139.1644971371 0 -3714139.1644971371 -2651952.0747337341 0 0 0 0 -6056958.4311523438 -4358714.438709259 0 -4358714.438709259 -3470477.5832715034 0 0 0 0 -5383533.2220458984 -4142363.567625165 0 -4142363.567625165 -3844124.5760771036 0 0 0 0 -5231018.5135803223 -2763564.4561430216 0 -2763564.4561430216 -3560759.0182073116 0 0 0 0 -6624688.133895874 -2858161.418254137 0 -2858161.418254137 -3078859.0512063503 0 0 0 0 -4664068.3679676056 -1245598.4861477017 0 -1245598.4861477017 -304596.24983119965 0 0 0 0 -3942718.5792236328 -2671729.3086032867 0 -2671729.3086032867 -3629199.9396996498 0 0 0 0 -4466211.7292785645 -3720878.081625104 0 -3720878.081625104 -3650540.014351964 0 0 0 0 -4141838.8251547739 -1951740.1273938115 0 -1951740.1273938115 940767.51690832351 0 0 0 0 -5332801.4893951416 -4490574.2319790125 0 -4490574.2319790125 -4258435.387452364 0 0 0 0 485684.38472227007 -1070137.9631724427 0 -1070137.9631724427 -598389.66041661415 0 0 0 0 -21020381.438392639 -16138798.345165551 0 -16138798.345165551 -9796156.0743426085 0 0 0 0 -15352553.613601685 5390472.8465564847 0 5390472.8465564847 -5858561.4897032082 0 0 0 0 -6865953.2090072632 -801085.30443099141 0 -801085.30443099141 -2920081.4298327565 0 0 0 0 -33554186.72041893 -9030886.751684498 0 -9030886.751684498 14304248.66404286 0 0 0 0 -742781.38824045379 -511418.06837006845 0 -511418.06837006845 -145693.83445634393 0 0 0 0 17512471.97492981 22229096.365360118 0 22229096.365360118 -2119727.2650798019 0 0 0 0 -18874599.017665863 -8825260.18931178 0 -8825260.18931178 -10624263.533887893 0 0 0 0 -22040228.658905387 -16434927.146418005 0 -16434927.146418005 19056498.366099298 0 0 0 0 1112273.8003463745 -31853831.060932327 0 -31853831.060932327 16846134.716695309 0 0 0 0 -8467146.9375915527 -26112925.916092794 0 -26112925.916092794 21943891.17154035 0 0 0 0 44473034.755897522 -24595179.855150573 0 -24595179.855150573 -14591606.099719539 0 0 0 0 20657977.824645996 -6150212.9073660821 0 -6150212.9073660821 7692650.4398281258 0 0 0 0 3180118.1606559753 -59516975.062570632 0 -59516975.062570632 -2856576.2859131396 0 0 0 0 23893390.260593176 -65398375.299037509 0 -65398375.299037509 -41442609.825184464 0 0 0 0 2256264.2136039734 -41591562.701196454 0 -41591562.701196454 -36528463.464267194 0 0 0 0 3523118.4291725159 -33803024.689894341 0 -33803024.689894341 -18575581.20009768 0 0 0 0 -22801568.533770084 -39302502.907171249 0 -39302502.907171249 -19594101.77424559 0 0 0 0 -4525930.3413963318 -16275993.748026848 0 -16275993.748026848 -57866457.882605642 0 0 0 0 -1004895.980471611 -29618583.806767747 0 -29618583.806767747 -17512043.183022872 0 0 0 0 -40200799.82151413 -15058962.311499625 0 -15058962.311499625 -20450602.730508804 0 0 0 0 -25339588.063331604 4932762.1948665977 0 4932762.1948665977 -32546287.372718632 0 0 0 0 -69386318.97867012 -104785.40112001449 0 -104785.40112001449 -3363560.3758866787 0 0 0 0 -26241958.312507629 -7464274.476408422 0 -7464274.476408422 -3972046.6085995138 0 0 0 0 25807405.514707565 -35018601.618394732 0 -35018601.618394732 5550305.1863465309 0 0 0 0 65937387.696025848 2848348.5335788131 0 2848348.5335788131 -22786509.082620934 0 0 0 0 -106145.22402920574 -228222.50765703991 0 -228222.50765703991 -79119.009765174822 0 0 0 0 -683170.71248084307 -12498190.936793495 0 -12498190.936793495 27832889.114084125 0 0 0 0 6728636.2936389446 -13184112.210735567 0 -13184112.210735567 -18003639.967264876 0 0 0 0 31259265.138553619 -6114411.0662371069 0 -6114411.0662371069 -19341982.989805777 0 0 0 0 34419789.762218475 -11948827.797933042 0 -11948827.797933042 -30408573.93199724 0 0 0 0 -3319697.0447006226 8750448.7098175865 0 8750448.7098175865 -44677035.415607646 0 0 0 0 -30144646.621135712 52479555.2977494 0 52479555.2977494 -61668530.760469735 0 0 0 0 17228200.722652435 761692.38881986216 0 761692.38881986216 -65139132.411121987 0 0 0 0 19691790.237480164 -18322761.029088244 0 -18322761.029088244 1940819.6200392134 0 0 0 0 18836358.712219238 13608833.291750707 0 13608833.291750707 -50027613.007403187 0 0 0 0 -12455397.813158035 -12407526.5981574 0 -12407526.5981574 48453325.81472908 0 0 0 0 6142769.5927505493 47086645.103146002 0 47086645.103146002 -85588110.211567581 0 0 0 0 -23123079.851356983 -25897522.564504154 0 -25897522.564504154 -57817093.302049562 0 0 0 0 38365858.95256424 -4793588.6047826447 0 -4793588.6047826447 -50582087.032459952 0 0 0 0 -121549524.46604919 94247747.176706463 0 94247747.176706463 7793487.3161519533 0 0 0 0 -371350.26042465121 -148766.06600437593 0 -148766.06600437593 102150.40838414348 0 0 0 0 31310985.936309814 -781451.85460658371 0 -781451.85460658371 -7358506.0740568042 0 0 0 0 -150134287.80987167 -37400682.605584078 0 -37400682.605584078 -12593164.122269556 0 0 0 0 -19141491.148398876 -33763058.97512655 0 -33763058.97512655 -100966092.59091264 0 0 0 0 -102160951.20345497 3085821.9462833703 0 3085821.9462833703 -27842878.531211257 0 0 0 0 -59413655.392895699 24303928.84967088 0 24303928.84967088 -73773058.716034845 0 0 0 0 -78986731.284767151 21118403.0171552 0 21118403.0171552 -33539426.37347585 0 0 0 0 -88299333.966645241 17077286.997898683 0 17077286.997898683 -28542074.299069405 0 0 0 0 -88640531.069221497 -11848617.96592015 0 -11848617.96592015 -59352858.80594328 0 0 0 0 -41287469.554100037 18474496.971787542 0 18474496.971787542 -56036412.495558739 0 0 0 0 -71383685.661804199 47183799.130463272 0 47183799.130463272 -76528878.609411597 0 0 0 0 -100760057.68003464 37351827.943832248 0 37351827.943832248 -54045382.779809542 0 0 0 0 -121116881.03326797 78367396.998197079 0 78367396.998197079 -64476684.467305422 0 0 0 0 -56150743.978555679 65823737.389011964 0 65823737.389011964 -64216810.026925266 0 0 0 0 -151109307.31277084 64019669.087738693 0 64019669.087738693 -51224678.000332057 0 0 0 0 -121162663.30594635 67438612.817328811 0 67438612.817328811 -62884606.162197292 0 0 0 0 -93057263.24067688 42741896.457810119 0 42741896.457810119 -54348319.258005977 0 0 0 0 -101526954.12534523 46790412.761944413 0 46790412.761944413 -50731162.670677006 0 0 0 0 -108789064.29430389 47670357.119691908 0 47670357.119691908 -33116938.336667739 0 0 0 0 -88488530.092472076 19281718.823910967 0 19281718.823910967 -17599281.470315456 0 0 0 0 -98476397.736289978 47750170.097112477 0 47750170.097112477 -32944782.939745307 0 0 0 0 -150188895.03712463 30006049.261954132 0 30006049.261954132 -31083983.18489325 0 0 0 0 -112372137.37252617 87282097.998906255 0 87282097.998906255 -75044687.780646145 0 0 0 0 -144050564.51383495 87472993.681087166 0 87472993.681087166 -52698287.709650159 0 0 0 0 -117568798.24603653 71471182.180714726 0 71471182.180714726 -44333681.042878523 0 0 0 0 -122182416.34573174 61477050.960691392 0 61477050.960691392 -65898813.516472578 0 0 0 0 -71177937.784004211 59185202.917484909 0 59185202.917484909 -67683145.539372921 0 0 0 0 -155687902.60951614 6129018.9337103367 0 6129018.9337103367 -22866101.318333492 0 0 0 0 26017337.92137146 -11402434.940533757 0 -11402434.940533757 -24470233.02272293 0 0 0 0 -392440.48601150513 28116250.359816402 0 28116250.359816402 16906924.942062914 0 0 0 0 43365459.323360443 -29874535.199406147 0 -29874535.199406147 -10335719.731241405 0 0 0 0 -29420201.957328796 -3469340.2178909481 0 -3469340.2178909481 -13447872.686002076 0 0 0 0 -62999324.422657013 33032936.655496061 0 33032936.655496061 -15925756.047384083 0 0 0 0 -50083536.61007309 26644626.16138345 0 26644626.16138345 -9257047.5578824431 0 0 0 0 -80919757.792888641 49421761.3513484 0 49421761.3513484 -44429698.026678264 0 0 0 0 -71474044.398113251 6710800.9752133191 0 6710800.9752133191 -24128538.838234901 0 0 0 0 -90497094.194868088 29670125.131407291 0 29670125.131407291 -84942790.467610896 0 0 0 0 -53939619.226463318 49581102.216739416 0 49581102.216739416 -47162414.271556646 0 0 0 0 -56985239.008424759 11086711.370226935 0 11086711.370226935 -14170713.651498914 0 0 0 0 -23253298.22561264 21514612.552509546 0 21514612.552509546 -12624567.427200735 0 0 0 0 -10198218.583824396 -8148181.135347873 0 -8148181.135347873 6255490.7780889273 0 0 0 0 -6913913.3547592163 19226375.340489268 0 19226375.340489268 -42065222.702309787 0 0 0 0 29722733.615989685 -14303118.348717034 0 -14303118.348717034 -12164114.03523469 0 0 0 0 20221408.654376984 15582990.993393242 0 15582990.993393242 -22942196.007673383 0 0 0 0 -1014553.3607139587 17292234.811063111 0 17292234.811063111 -15979999.526906729 0 0 0 0 8662064.1877441406 -1528436.2928158045 0 -1528436.2928158045 -14023513.545228481 0 0 0 0 4106955.5620055199 29037391.178332046 0 29037391.178332046 5533174.7858758569 0 0 0 0 7014103.1627426147 6654399.4380845428 0 6654399.4380845428 -13419906.60909903 0 0 0 0 -35835888.870063782 -254389.85111272335 0 -254389.85111272335 -1963779.7789584398 0 0 0 0 -31360532.006254196 13280160.937268913 0 13280160.937268913 -9743770.1349691153 0 0 0 0 -75208985.620365143 43130153.625719905 0 43130153.625719905 -16230390.256044149 0 0 0 0 -113719617.22862816 56855557.139148146 0 56855557.139148146 -933547.74305737019 0 0 0 0 -114882771.73343277 63189776.950748824 0 63189776.950748824 -14732877.932861805 0 0 0 0 -142937575.67053986 64741293.91741389 0 64741293.91741389 10901196.018373597 0 0 0 0 -83719450.861476898 39567050.7715213 0 39567050.7715213 6997014.2011720538 0 0 0 0 -145661497.34482574 77423757.856927395 0 77423757.856927395 -9553352.3068719655 0 0 0 0 -125060543.33996391 64508846.93928884 0 64508846.93928884 -19788389.96221599 0 0 0 0 -105603153.02569962 10570670.670045786 0 10570670.670045786 -54867285.89348539 0 0 0 0 -128124756.75976944 78059667.114380315 0 78059667.114380315 -38106732.204741701 0 0 0 0 -90387845.429080963 86319396.846794829 0 86319396.846794829 -53840024.453657031 0 0 0 0 4385158.3933258057 4420798.4737170041 0 4420798.4737170041 -58679818.273047596 0 0 0 0 -11797954.962503433 211164.7986844182 0 211164.7986844182 911373.22167302668 0 0 0 0 -131023399.59743166 -5403045.3849289045 0 -5403045.3849289045 25507423.152967334 0 0 0 0 -151283.11864469945 135004.03814547323 0 135004.03814547323 -108370.33522230035 0 0 0 0 -182001808.90177917 66320589.009708285 0 66320589.009708285 -38980292.878045678 0 0 0 0 -131985519.27166748 26695632.661012769 0 26695632.661012769 -30256216.396310121 0 0 0 0 -97767983.971372604 -27646745.067991734 0 -27646745.067991734 27182804.852038026 0 0 0 0 -411088.13309748843 406036.28299341816 0 406036.28299341816 -233618.50359044888 0 0 0 0 -13256717.121246338 91435337.83556509 0 91435337.83556509 27644240.448990934 0 0 0 0 -96809117.91286087 -20958681.218959227 0 -20958681.218959227 25838650.692558751 0 0 0 0 -195423.2901694905 192498.78379995935 0 192498.78379995935 -129302.63868815114 0 0 0 0 -260926911.51167488 11111630.508539021 0 11111630.508539021 19714432.785514116 0 0 0 0 75641716.952102661 76018542.601171315 0 76018542.601171315 -74844844.593351737 0 0 0 0 -201900404.14998245 125464491.11376491 0 125464491.11376491 -58778358.261530057 0 0 0 0 -164426004.51200294 72940161.177796572 0 72940161.177796572 7376700.7335067689 0 0 0 0 -118827860.68616724 43817543.628750332 0 43817543.628750332 25665402.733507752 0 0 0 0 -96186874.360591888 19375621.407627672 0 19375621.407627672 -13357365.638863295 0 0 0 0 -74681787.502544403 13010162.73507905 0 13010162.73507905 -14367934.778710604 0 0 0 0 -74386174.116596222 24879675.683493108 0 24879675.683493108 -8614191.4759398103 0 0 0 0 -21047553.261333466 50185816.912270367 0 50185816.912270367 22491684.488361567 0 0 0 0 -18705280.799346924 -24874048.995415792 0 -24874048.995415792 34985003.751364902 0 0 0 0 -310802220.89135361 10058076.749485523 0 10058076.749485523 54600385.155298561 0 0 0 0 -238825.9008781407 213151.16490765754 0 213151.16490765754 -94619.949155497103 0 0 0 0 50184187.992084503 108839755.97919391 0 108839755.97919391 -50312022.017990023 0 0 0 0 -108875903.42137718 -44502419.855602473 0 -44502419.855602473 15432495.750291109 0 0 0 0 -256675484.76295471 275212.39199101925 0 275212.39199101925 53328155.193371654 0 0 0 0 -67076191.753984451 -26028925.284016393 0 -26028925.284016393 -11161965.148429371 0 0 0 0 -206125.20926626027 218656.72060332517 0 218656.72060332517 5610.2106450821448 0 0 0 0 -151381483.94488525 117667325.95462707 0 117667325.95462707 -47728868.374399871 0 0 0 0 -218027859.04157829 163604938.81509417 0 163604938.81509417 2218034.6928089261 0 0 0 0 -181593823.55026245 121077504.27967724 0 121077504.27967724 34577667.701105937 0 0 0 0 -162429199.92349958 44106904.962540783 0 44106904.962540783 -44103283.950707346 0 0 0 0 -651580.8290977478 64840740.596003577 0 64840740.596003577 -64870344.401826784 0 0 0 0 -97404025.498092651 68885048.986048713 0 68885048.986048713 -47217500.735023655 0 0 0 0 -86992763.830062866 32807890.485608622 0 32807890.485608622 -21358146.694089919 0 0 0 0 -74387394.070016861 20352382.038613833 0 20352382.038613833 -27264197.394757211 0 0 0 0 -63835719.01099205 8246571.0571401864 0 8246571.0571401864 -13973744.003948718 0 0 0 0 -86235878.506252289 14705724.505449653 0 14705724.505449653 -15481755.149674416 0 0 0 0 -93563623.200158119 29487545.352971129 0 29487545.352971129 -7098363.1860292107 0 0 0 0 -100330306.06230164 28412489.336609617 0 28412489.336609617 -7265968.6731882393 0 0 0 0 -95851930.216706276 34605826.845986463 0 34605826.845986463 18861.049915435033 0 0 0 0 -92670814.337985992 36418484.149690479 0 36418484.149690479 -8352571.461623555 0 0 0 0 -81206481.560991287 42756794.181793757 0 42756794.181793757 -6204958.8583844751 0 0 0 0 -30939358.062042236 18571334.857129712 0 18571334.857129712 9092.022227237183 0 0 0 0 -96333104.233821869 11167521.936317103 0 11167521.936317103 37031602.169044912 0 0 0 0 -131173123.66822624 46910755.203828439 0 46910755.203828439 14011091.616594385 0 0 0 0 -110502880.15719986 36963773.028222963 0 36963773.028222963 -8694061.0532443374 0 0 0 0 -86197555.4165802 41375405.459295459 0 41375405.459295459 -8528928.746598985 0 0 0 0 -104998619.74987411 33772897.685817286 0 33772897.685817286 -9114026.9730334952 0 0 0 0 -46101004.940341949 47592328.045041494 0 47592328.045041494 -21751792.082914487 0 0 0 0 -83861353.014219284 58437736.168264121 0 58437736.168264121 -22354990.217395321 0 0 0 0 -16252531.371135712 43833769.098195866 0 43833769.098195866 -41220831.99043256 0 0 0 0 -157491570.32385635 26985556.676411748 0 26985556.676411748 -7306757.8671681136 0 0 0 0 -99882808.878990173 26270516.84475939 0 26270516.84475939 -15674092.454984784 0 0 0 0 -91025302.290904999 22396330.379027143 0 22396330.379027143 -19141149.055369258 0 0 0 0 -84597309.8474617 14625580.059125945 0 14625580.059125945 -13576223.344142854 0 0 0 0 -136882410.76018143 31097765.627836283 0 31097765.627836283 2276112.0001066551 0 0 0 0 -49916.566639842291 31932.289607524872 0 31932.289607524872 -1592.572766566198 0 0 0 0 -107934447.88705444 20074181.304312911 0 20074181.304312911 -2832607.7249267399 0 0 0 0 -97074281.659270763 20329809.152893618 0 20329809.152893618 -1930896.4456239343 0 0 0 0 -124913652.65193176 21540201.326966032 0 21540201.326966032 -146362.476974313 0 0 0 0 -104599864.29247665 30845872.040726319 0 30845872.040726319 -19716.172211699337 0 0 0 0 -101345.25686629681 62034.477998701856 0 62034.477998701856 -2846.1270878116447 0 0 0 0 -71954712.074481905 25382877.103235651 0 25382877.103235651 -2094390.8062909022 0 0 0 0 -80808597.260784149 28903731.28270445 0 28903731.28270445 17450.924849826479 0 0 0 0 -81030936.876583099 34998646.024367899 0 34998646.024367899 -1749513.1037813351 0 0 0 0 -60830625.031593323 27903827.659584742 0 27903827.659584742 -9435.7049753424872 0 0 0 0 -77217787.884569645 39061010.581937641 0 39061010.581937641 -2197290.8884245157 0 0 0 0 -55400482.309390068 36273238.148039952 0 36273238.148039952 -6636023.702452831 0 0 0 0 -33412929.806711197 26008933.590797443 0 26008933.590797443 -8932900.4872488678 0 0 0 0 -41320745.409061432 24431168.49285683 0 24431168.49285683 -3644.1549158555499 0 0 0 0 -33263405.349773407 20802791.784111295 0 20802791.784111295 -5651724.4357963651 0 0 0 0 -33284395.901420593 29015093.737294555 0 29015093.737294555 -14515638.822437603 0 0 0 0 -62427.4560398506 -7284.3379627019167 0 -7284.3379627019167 -25431.686502992656 0 0 0 0 -30752962.967651367 19740990.0600558 0 19740990.0600558 -6312.4554758243121 0 0 0 0 -33624764.118080139 16154279.489174863 0 16154279.489174863 -4458792.526456736 0 0 0 0 -49590.044220437761 -30680.196943379939 0 -30680.196943379939 -73712.153727679804 0 0 0 0 -4117356.4654769897 8062278.4790568706 0 8062278.4790568706 -6097508.5520331934 0 0 0 0 -17415631.590560913 4299593.7523219734 0 4299593.7523219734 880510.16724060848 0 0 0 0 -3767232.644821167 -3222004.9056233168 0 -3222004.9056233168 -1747883.1746838577 0 0 0 0 -19053283.903266907 26298544.670518741 0 26298544.670518741 -29924311.776872642 0 0 0 0 -43598850.743485928 32827070.249579519 0 32827070.249579519 -14779155.666643724 0 0 0 0 -20692009.438045502 15125642.194388941 0 15125642.194388941 -8321276.6870649159 0 0 0 0 -18168168.352581382 19311946.067852318 0 19311946.067852318 -16849792.026191041 0 0 0 0 -5437757.5736999512 4927902.6284397952 0 4927902.6284397952 -12412554.641412172 0 0 0 0 -17428111.602111101 13749530.802752567 0 13749530.802752567 -14904855.820521712 0 0 0 0 -15611668.319450378 15915079.876950443 0 15915079.876950443 -12368311.938614696 0 0 0 0 2309710.3407707214 8006854.579445079 0 8006854.579445079 -12002102.953264028 0 0 0 0 9362052.3250579834 775779.26273444295 0 775779.26273444295 -4924037.7909749299 0 0 0 0 -29405.489405973814 -13750.432258587331 0 -13750.432258587331 38319.50869203818 0 0 0 0 -1114348.7607803345 6511282.8160795793 0 6511282.8160795793 3577785.4795835838 0 0 0 0 860094.48690795898 7988789.2354811728 0 7988789.2354811728 231848.08535645902 0 0 0 0 -7040937.0738334656 618890.80710757896 0 618890.80710757896 2053255.7573697567 0 0 0 0 -1376397.9898452759 586133.68749057874 0 586133.68749057874 1195968.0945829302 0 0 0 0 -2899827.2850551605 2438365.8691433603 0 2438365.8691433603 2829870.5288794041 0 0 0 0 -9263900.0101776123 4205350.2849687617 0 4205350.2849687617 -4143667.7698614374 0 0 0 0 -3245988.4936332703 -2139616.4208953343 0 -2139616.4208953343 -2524209.016764815 0 0 0 0 2925247.2158908844 29436.593326527625 0 29436.593326527625 -3168836.5904000327 0 0 0 0 -34698.264985867776 -62724.181290822104 0 -62724.181290822104 -111025.46129148212 0 0 0 0 -2170739.649646759 -2306790.9133840315 0 -2306790.9133840315 201924.91628163308 0 0 0 0 -3178727.5349407196 -904969.16728695482 0 -904969.16728695482 879391.83628645539 0 0 0 0 -1925295.7626457214 -634647.51916209422 0 -634647.51916209422 1222643.1114597395 0 0 0 0 -1298481.585811615 -912406.98332760669 0 -912406.98332760669 839414.82364432188 0 0 0 0 -531144.68743896484 -1655572.0844780821 0 -1655572.0844780821 210666.9225782454 0 0 0 0 -1457024.1981754303 -1235577.9784840757 0 -1235577.9784840757 347281.58047153801 0 0 0 0 -930962.50397491455 151189.66683902917 0 151189.66683902917 42614.557937882841 0 0 0 0 651136.65023422241 988908.87661603931 0 988908.87661603931 1449075.3711780086 0 0 0 0 -702166.21081733704 -273046.63579090789 0 -273046.63579090789 787160.82979816501 0 0 0 0 267111.25109863281 1926387.8091778941 0 1926387.8091778941 2091661.614478007 0 0 0 0 10755.832095228136 147974.18040610943 0 147974.18040610943 -139276.34728464216 0 0 0 0 638258.7723236084 250861.45876643062 0 250861.45876643062 34896.183328464627 0 0 0 0 -393141.77623159625 211083.51985158958 0 211083.51985158958 147418.02971892213 0 0 0 0 25947723.175235748 7658316.6612312198 0 7658316.6612312198 -6735793.4554961324 0 0 0 0 15354691.757164001 -2248136.9330822527 0 -2248136.9330822527 -4395821.0540475845 0 0 0 0 10093960.050571442 1875220.3655826449 0 1875220.3655826449 5377402.4636214375 0 0 0 0 -355633.58699955698 297837.3809081316 0 297837.3809081316 -105421.20930311561 0 0 0 0 352258.05995178223 385036.86581557989 0 385036.86581557989 224763.46227622032 0 0 0 0 4455395.4172477722 6264837.3053956386 0 6264837.3053956386 1475513.5677299649 0 0 0 0 -4547907.7915496826 -1425461.6701513529 0 -1425461.6701513529 307483.03302955627 0 0 0 0 -169311.76320834272 42587.250395305455 0 42587.250395305455 186630.87768271615 0 0 0 0 -429709.19025421143 2276129.6896338165 0 2276129.6896338165 3124573.8344355971 0 0 0 0 -314484.75101703592 358248.22935195174 0 358248.22935195174 -309897.48943737982 0 0 0 0 -6859378.4373893738 1992102.9448160976 0 1992102.9448160976 7614013.9302785993 0 0 0 0 23019.446233076975 237978.36210772954 0 237978.36210772954 -274683.50866435119 0 0 0 0 -121534.69870146178 83566.65379627794 0 83566.65379627794 96325.706724267613 0 0 0 0 591612.04021072388 745421.00339526869 0 745421.00339526869 2150939.3462980054 0 0 0 0 3932937.0456476212 3143562.833806823 0 3143562.833806823 1853129.8513580337 0 0 0 0 -1326573.4585456848 1902971.8716357974 0 1902971.8716357974 2711865.0440723272 0 0 0 0 -48768125.022529602 2849588.2650786638 0 2849588.2650786638 -5464822.0321811736 0 0 0 0 -52826583.389408112 7914565.8789822161 0 7914565.8789822161 3584557.0995872915 0 0 0 0 -244507.05110574886 -287865.98829247802 0 -287865.98829247802 -369685.27917728992 0 0 0 0 9914319.6117668152 4428817.0063883066 0 4428817.0063883066 12577329.820578337 0 0 0 0 -9865495.9424514771 8259267.0501661897 0 8259267.0501661897 19366488.887276173 0 0 0 0 -7488285.1267948151 5793043.5139355808 0 5793043.5139355808 17763862.666445136 0 0 0 0 -7021771.4518547058 6893780.0209906697 0 6893780.0209906697 14575114.975197434 0 0 0 0 3855162.799533844 8994796.8713675737 0 8994796.8713675737 13421240.581472158 0 0 0 0 -19203250.793373108 1373642.3367260695 0 1373642.3367260695 47430031.131884575 0 0 0 0 9996232.6793641597 -7440040.7603802718 0 -7440040.7603802718 23510453.532760143 0 0 0 0 -2960386.7629394531 16741770.982018232 0 16741770.982018232 15499593.496415138 0 0 0 0 2863211.6776809692 9834431.4134120941 0 9834431.4134120941 21569934.78599143 0 0 0 0 -49746452.358841896 14656958.919150747 0 14656958.919150747 -25723843.131250858 0 0 0 0 -107006055.78775024 40683102.785086155 0 40683102.785086155 52824113.767908692 0 0 0 0 -118771598.53335571 62904685.277908206 0 62904685.277908206 -31503308.439076424 0 0 0 0 -81887099.084899902 49546390.88566637 0 49546390.88566637 -48989451.184644848 0 0 0 0 -68977405.692047119 35112378.333486199 0 35112378.333486199 -47180214.270893782 0 0 0 0 -76612592.442382812 14030025.125516891 0 14030025.125516891 -16949204.225457489 0 0 0 0 -109017586.50411987 37712633.016009688 0 37712633.016009688 -27981891.452776909 0 0 0 0 -97095874.606845856 12155121.768460155 0 12155121.768460155 -2400042.9624788761 0 0 0 0 -71459972.64213562 -21224724.345309913 0 -21224724.345309913 -1494002.6137760878 0 0 0 0 -97168280.280479431 8661136.4833068252 0 8661136.4833068252 -9246015.6895747185 0 0 0 0 -78957460.79208374 -5846319.7003993988 0 -5846319.7003993988 -1914299.4416287243 0 0 0 0 -65445727.264038086 -1751040.5085802674 0 -1751040.5085802674 -3554340.1186702847 0 0 0 0 -63229057.323516846 589906.01607477665 0 589906.01607477665 -2050980.664131403 0 0 0 0 -75509894.044561386 14279899.677501969 0 14279899.677501969 -17309703.36985755 0 0 0 0 65245.674519596389 47963.065655568615 0 47963.065655568615 -5175.2826189635052 0 0 0 0 -33228508.57853508 -12772919.131514072 0 -12772919.131514072 -12007725.241075724 0 0 0 0 -2766145.880065918 -570859.91166381817 0 -570859.91166381817 611988.48648172244 0 0 0 0 -67777.030942066107 -78915.813174955547 0 -78915.813174955547 -204423.92258387755 0 0 0 0 -49976247.557447433 -2633382.3848896027 0 -2633382.3848896027 -5411216.7610125542 0 0 0 0 -66763838.154823303 -7592548.5167688727 0 -7592548.5167688727 4661002.7468025088 0 0 0 0 -56584752.085289001 -11902370.847395733 0 -11902370.847395733 1279631.3777805567 0 0 0 0 39048.978640114306 18832.001767490059 0 18832.001767490059 -37257.634827784233 0 0 0 0 -14885357.098190308 -4476636.262505427 0 -4476636.262505427 -1692432.983494997 0 0 0 0 -28916.00607041968 -85932.695813540369 0 -85932.695813540369 -137393.20435013052 0 0 0 0 -60307377.729202271 -12015228.293793052 0 -12015228.293793052 4285134.0670121312 0 0 0 0 -58304857.548055649 -9905745.8075016961 0 -9905745.8075016961 -917014.55685061216 0 0 0 0 -65908685.232704163 1116632.2048931122 0 1116632.2048931122 418710.37902325392 0 0 0 0 -65164935.276062012 -8004809.7047718167 0 -8004809.7047718167 3185548.3769982457 0 0 0 0 -62458698.306642532 -7161650.4788413644 0 -7161650.4788413644 -28483.895328640938 0 0 0 0 -57708109.386100769 -8322554.1157444119 0 -8322554.1157444119 3136589.18994914 0 0 0 0 -49157144.840927124 -1478045.8971708715 0 -1478045.8971708715 79553.52646894753 0 0 0 0 -58865804.870716095 -7209914.3581727594 0 -7209914.3581727594 2782745.4315824509 0 0 0 0 -49168217.106575012 -2071687.9741362482 0 -2071687.9741362482 2007264.3596189655 0 0 0 0 -54751460.94758606 -10345268.011405878 0 -10345268.011405878 -2092692.0390825272 0 0 0 0 -45705935.036144257 -4578417.3646386936 0 -4578417.3646386936 1643617.9682944715 0 0 0 0 -78727350.590713501 -11558706.984401651 0 -11558706.984401651 2966986.1134412885 0 0 0 0 8275.8435294500086 -8738.6124734748155 0 -8738.6124734748155 -11757.799214170271 0 0 0 0 -25722493.864738464 14812243.597060397 0 14812243.597060397 509468.35366672277 0 0 0 0 -63087514.330673218 -4450249.3967991769 0 -4450249.3967991769 -1076191.9251405112 0 0 0 0 -58338966.996612549 -3932587.9860290438 0 -3932587.9860290438 892160.22307156026 0 0 0 0 -52441566.083358765 -6525519.2974670567 0 -6525519.2974670567 394128.87437716126 0 0 0 0 -42758237.272632599 -23266284.762341246 0 -23266284.762341246 -5149286.86904037 0 0 0 0 -51284438.858703613 -7831306.2755117267 0 -7831306.2755117267 -6270670.4745448995 0 0 0 0 -58632645.121559143 -15929882.663453072 0 -15929882.663453072 -7286048.9021212757 0 0 0 0 -53322458.878627777 -5063455.55684698 0 -5063455.55684698 2125506.5756705701 0 0 0 0 -37847619.168689728 3289225.2545500845 0 3289225.2545500845 817824.7276737988 0 0 0 0 -47305282.432649612 -2898081.2055578604 0 -2898081.2055578604 3210612.5405330956 0 0 0 0 -46303045.318649292 -4007938.3536673635 0 -4007938.3536673635 -4175199.1992991567 0 0 0 0 -34926486.437129974 -197366.24332753196 0 -197366.24332753196 -934716.17216234282 0 0 0 0 -34701365.481201172 3899939.3724277131 0 3899939.3724277131 2976792.0359115899 0 0 0 0 -18455696.778438568 -903549.75981348008 0 -903549.75981348008 -1222175.8790622354 0 0 0 0 -25633714.403614044 5087613.8381409645 0 5087613.8381409645 -307376.44440332055 0 0 0 0 -31051560.8645401 -1899718.3957284838 0 -1899718.3957284838 987285.07613523677 0 0 0 0 -12355262.883825064 1314904.6833201498 0 1314904.6833201498 -4785233.5088475049 0 0 0 0 -28711789.295501709 12077729.40924105 0 12077729.40924105 778009.65228975564 0 0 0 0 -47863423.199645996 -11422964.508072615 0 -11422964.508072615 19623275.811640978 0 0 0 0 -356993.08963268436 -399952.82279158849 0 -399952.82279158849 -411462.90510868415 0 0 0 0 -71364609.35004425 -45807342.362593114 0 -45807342.362593114 -10635782.044254303 0 0 0 0 -12525881.701809168 -3261510.668733933 0 -3261510.668733933 -856295.44680798054 0 0 0 0 -39101001.089004517 -63194145.616590023 0 -63194145.616590023 -139197135.98783112 0 0 0 0 -11469240.894844055 7793871.1266461611 0 7793871.1266461611 944335.53163140267 0 0 0 0 -16324954.25983429 3449906.6968067884 0 3449906.6968067884 5567180.0082578361 0 0 0 0 -11890075.050563812 5510481.8480982967 0 5510481.8480982967 -1173172.4933723437 0 0 0 0 -1342232.3553667068 -4374528.7567753671 0 -4374528.7567753671 -1414773.0219323188 0 0 0 0 -22456732.217710495 -2199423.8446729016 0 -2199423.8446729016 794729.86719997227 0 0 0 0 -26530889.257591248 4834026.3210931337 0 4834026.3210931337 2223089.0952613088 0 0 0 0 -13432865.928876877 -3358940.9184772205 0 -3358940.9184772205 -1311177.3780446872 0 0 0 0 -9204106.4404792786 3897203.4757037032 0 3897203.4757037032 2600178.2413607389 0 0 0 0 -43159796.718372345 -2919844.4422822259 0 -2919844.4422822259 -179160.71843706327 0 0 0 0 -50052558.454483032 -6951841.6087915599 0 -6951841.6087915599 -439971.25923542678 0 0 0 0 -44621331.981292725 -1786280.9556213841 0 -1786280.9556213841 577112.0981223695 0 0 0 0 -43358665.913627625 1250146.0754647851 0 1250146.0754647851 3251442.2759025861 0 0 0 0 -44280972.047605515 -2799555.3965949584 0 -2799555.3965949584 3581549.4373653382 0 0 0 0 -31184686.110349655 -3676992.9154179785 0 -3676992.9154179785 -230865.3103306815 0 0 0 0 -53878183.498049736 -6046998.4013731526 0 -6046998.4013731526 3453286.1809228174 0 0 0 0 -40286397.58612442 -5569865.014958743 0 -5569865.014958743 -1072171.9798529581 0 0 0 0 -38052715.302890778 124264.77110387641 0 124264.77110387641 3119514.0103324465 0 0 0 0 -35708247.705602884 -4157479.7905385643 0 -4157479.7905385643 12457.161416123985 0 0 0 0 -46790126.513719082 -1800360.9582213787 0 -1800360.9582213787 1992601.1934713032 0 0 0 0 -35707940.024581909 -4158398.1387344347 0 -4158398.1387344347 -10786.653857135301 0 0 0 0 -22804384.155584335 -764178.11350601725 0 -764178.11350601725 -2490904.205445047 0 0 0 0 -20821667.271306992 3972421.4425342572 0 3972421.4425342572 2365965.5312759462 0 0 0 0 -9632575.492980957 -4466729.8160079541 0 -4466729.8160079541 -6779.8524166941479 0 0 0 0 -4095176.9993247986 2361854.0972211217 0 2361854.0972211217 843357.58531176392 0 0 0 0 -226107.81034165062 -91160.703564930707 0 -91160.703564930707 41050.017718941221 0 0 0 0 3636933.2204055786 -4047641.6682750387 0 -4047641.6682750387 326.99132945097381 0 0 0 0 -143819219.85532379 31933622.328020025 0 31933622.328020025 8448429.564486593 0 0 0 0 -65260605.028671265 -46891639.847987153 0 -46891639.847987153 -107064.57454327946 0 0 0 0 26797832.585245132 -49966103.996261343 0 -49966103.996261343 65834.538057538753 0 0 0 0 -16165966.786851883 -6078665.8407029659 0 -6078665.8407029659 -5540925.7256987989 0 0 0 0 -13387714.161945343 -39977487.855004236 0 -39977487.855004236 -7041864.8631508499 0 0 0 0 20425527.441049576 -18905960.277862966 0 -18905960.277862966 -13823014.0981417 0 0 0 0 -35979011.692745209 8542668.4871271253 0 8542668.4871271253 -22084383.090158209 0 0 0 0 -55018733.969327927 -10621268.799895354 0 -10621268.799895354 5443102.5443580449 0 0 0 0 -12051645.71282959 -22419186.34334451 0 -22419186.34334451 -170555.098998487 0 0 0 0 -11312533.125759125 -10387538.383459747 0 -10387538.383459747 -7272899.3259818554 0 0 0 0 8443247.298412323 -19867207.465433702 0 -19867207.465433702 -613243.93205812573 0 0 0 0 -11918679.309793949 -23456873.641739346 0 -23456873.641739346 -89003.190079510212 0 0 0 0 -11307243.131546021 -16969133.891985625 0 -16969133.891985625 12071415.189200163 0 0 0 0 8300194.217540741 -10605324.622582495 0 -10605324.622582495 12325048.744426982 0 0 0 0 -33035676.341575623 -1080170.5939471275 0 -1080170.5939471275 14986697.940031052 0 0 0 0 -1510273.6749801636 -9694995.4520955086 0 -9694995.4520955086 11950488.881311864 0 0 0 0 -13349571.673444748 11348344.163061604 0 11348344.163061604 -19864674.490474463 0 0 0 0 -390938.5621473603 -372085.51162803173 0 -372085.51162803173 -253290.71092163568 0 0 0 0 -42108069.686435699 -9290357.8231633306 0 -9290357.8231633306 13779942.464214325 0 0 0 0 -53695558.8491745 18081877.603674829 0 18081877.603674829 41487861.248571157 0 0 0 0 1455446.3588867188 -5052324.9828678444 0 -5052324.9828678444 -359676.4821032458 0 0 0 0 -309498.10517704114 -221222.39529241901 0 -221222.39529241901 -67418.412823812367 0 0 0 0 -72031125.436038971 22595434.07160376 0 22595434.07160376 -3265814.0210560858 0 0 0 0 -3248205.0988998413 -2056720.4503531149 0 -2056720.4503531149 -927545.46913205646 0 0 0 0 -4721723.6573238373 -571134.67346183769 0 -571134.67346183769 -1090777.8198792916 0 0 0 0 -590119.68638508208 -248347.19971116632 0 -248347.19971116632 -83904.519069471047 0 0 0 0 -388632.83305571973 -30153.448158252984 0 -30153.448158252984 1253.9806826381646 0 0 0 0 4360939.4754765034 -1274539.7416753145 0 -1274539.7416753145 -2110085.9205914903 0 0 0 0 -11028260.687824249 -5229842.6359252958 0 -5229842.6359252958 14334.176039765242 0 0 0 0 -2515238.9547653198 844880.94978277013 0 844880.94978277013 -218636.13172656298 0 0 0 0 -2823728.3525543213 -3933118.6974576116 0 -3933118.6974576116 -644871.88163240347 0 0 0 0 -2765006.6023483276 -3325321.6585714445 0 -3325321.6585714445 -310.90167693891294 0 0 0 0 -196615.0112854382 -193937.15773102269 0 -193937.15773102269 -18293.996186235541 0 0 0 0 -8777152.3421478271 -2509433.6526297261 0 -2509433.6526297261 1994826.5095948298 0 0 0 0 92927544.506507874 -444894.19772075862 0 -444894.19772075862 -23974113.495831549 0 0 0 0 15486606.015171051 -11016181.103196561 0 -11016181.103196561 7219037.1294311881 0 0 0 0 21662777.309923172 -14044746.194482237 0 -14044746.194482237 -6484549.1720338166 0 0 0 0 10274138.105903625 -15174574.512256339 0 -15174574.512256339 -296896.11940729618 0 0 0 0 -6221642.7276954651 -4047411.2088233232 0 -4047411.2088233232 5762384.5042418838 0 0 0 0 -2135130.2144813538 -2541985.2639676556 0 -2541985.2639676556 -780420.98376903124 0 0 0 0 -824549.51725897379 -462139.00697012059 0 -462139.00697012059 226537.1719292085 0 0 0 0 -362306.9002864901 -308459.85910682939 0 -308459.85910682939 103963.91511554332 0 0 0 0 -7246246.9131736755 -3224457.6548913531 0 -3224457.6548913531 1344135.2868981659 0 0 0 0 -3855899.7063827515 1137531.5213171989 0 1137531.5213171989 279112.68482214957 0 0 0 0 -6838473.8497530222 -892005.7974362215 0 -892005.7974362215 369004.42133456841 0 0 0 0 -579417.00407458073 -92490.48386416398 0 -92490.48386416398 7162.4602254473193 0 0 0 0 1651918.6352233887 -1794903.0957351942 0 -1794903.0957351942 -1958658.8380482718 0 0 0 0 -1061589.42354646 -362561.49472734332 0 -362561.49472734332 33262.427941043126 0 0 0 0 -3531967.4746780396 -1235545.6004880145 0 -1235545.6004880145 1372565.4646104239 0 0 0 0 -2614651.3751869202 -583934.88202542812 0 -583934.88202542812 146676.55118988082 0 0 0 0 -5088374.2391622365 -759055.27564752032 0 -759055.27564752032 470380.50931119919 0 0 0 0 -5075798.9540138245 -2117893.3760478497 0 -2117893.3760478497 344858.02924269438 0 0 0 0 -4026144.5578951836 -686996.20076721162 0 -686996.20076721162 282641.40253794193 0 0 0 0 -4332163.8329648972 -1818862.7469657511 0 -1818862.7469657511 389378.09659081697 0 0 0 0 -2667622.4420110006 -1348911.6173353423 0 -1348911.6173353423 62641.200898257957 0 0 0 0 -606804.40973353386 -920375.79895165469 0 -920375.79895165469 -76985.217560398407 0 0 0 0 -951179.59387397766 -87621.132140617818 0 -87621.132140617818 32720.627027750015 0 0 0 0 -3872758.341468811 -1750211.1817696989 0 -1750211.1817696989 256430.32163658738 0 0 0 0 -1059606.3496430158 -1057197.5702212425 0 -1057197.5702212425 14335.72203441459 0 0 0 0 -1026759.6088941218 -875654.90973570198 0 -875654.90973570198 96752.966543023242 0 0 0 0 -11488877.262405396 -2555770.7837960124 0 -2555770.7837960124 -229958.24880361557 0 0 0 0 -11730301.803375244 -2776806.7734875679 0 -2776806.7734875679 676981.54062569141 0 0 0 0 -7721798.0664596558 -25292.892532944679 0 -25292.892532944679 -37314.329350709915 0 0 0 0 -5063049.7826385498 1025921.516317606 0 1025921.516317606 -225350.84599673748 0 0 0 0 -7909361.5510253906 458841.37156003714 0 458841.37156003714 -1286196.3150327206 0 0 0 0 -11439182.270263672 840556.85368275642 0 840556.85368275642 -1273221.7697780132 0 0 0 0 -13152215.923427582 2663300.2073488235 0 2663300.2073488235 -3079135.5616636276 0 0 0 0 -21210460.685897827 1470516.8124552965 0 1470516.8124552965 -2840594.5418350697 0 0 0 0 -9788778.0931224823 -10545909.581890598 0 -10545909.581890598 4855635.3360977173 0 0 0 0 -3991952.4192962646 -1334222.9554718733 0 -1334222.9554718733 176758.64872333407 0 0 0 0 73167.793552543968 -66262.048403492197 0 -66262.048403492197 -52893.620686446084 0 0 0 0 -20972871.56161499 -11076786.383405447 0 -11076786.383405447 1012041.7397384644 0 0 0 0 -7120173.5974359512 -1120817.2001651078 0 -1120817.2001651078 -4404024.0257081985 0 0 0 0 -8538865.3730010986 396382.75493812561 0 396382.75493812561 -5827266.7498397827 0 0 0 0 -5735038.062828064 990109.81692957878 0 990109.81692957878 -1111224.0994265079 0 0 0 0 -2534961.7048606873 1717640.7726465464 0 1717640.7726465464 -1729311.9044289589 0 0 0 0 -1356620.072555542 -16591527.384144127 0 -16591527.384144127 23863354.749593556 0 0 0 0 -21752.136404916644 116352.71331762336 0 116352.71331762336 40217.559113076582 0 0 0 0 -7192654.3590555191 -794937.856780231 0 -794937.856780231 -2316687.6637687683 0 0 0 0 -2651996.4569549561 2298609.7726260424 0 2298609.7726260424 -1829291.9356325269 0 0 0 0 -4797948.990026474 1104560.9643047452 0 1104560.9643047452 -338148.17831897736 0 0 0 0 -5012527.8687210083 1885129.5094454288 0 1885129.5094454288 -1543072.9066543877 0 0 0 0 -2743571.353263855 1550050.6645517349 0 1550050.6645517349 -740930.71725571156 0 0 0 0 -1904263.3742599487 1231586.9449052811 0 1231586.9449052811 -828508.01181745529 0 0 0 0 -2876574.6446361542 2102206.2807917148 0 2102206.2807917148 1566207.7192513943 0 0 0 0 122831.60355377197 3734812.5805684775 0 3734812.5805684775 1048922.4511144161 0 0 0 0 -3534413.8564894199 35449.280525563285 0 35449.280525563285 -85378.286592483521 0 0 0 0 827969.04769897461 955913.06947207451 0 955913.06947207451 -181236.9136660099 0 0 0 0 -3550622.9237670898 1966773.4372457266 0 1966773.4372457266 1404207.9165449142 0 0 0 0 -985014.11259841919 -1687234.1996539831 0 -1687234.1996539831 1679241.0974373817 0 0 0 0 -3012587.7180175781 -1709354.4582459927 0 -1709354.4582459927 3193331.823975563 0 0 0 0 -8271721.4681453705 -6517175.5742273629 0 -6517175.5742273629 -4428875.9440555573 0 0 0 0 -6928541.5818147659 -6000170.16077777 0 -6000170.16077777 -4405643.7373931408 0 0 0 0 -5113725.8801956177 -5635413.3821486235 0 -5635413.3821486235 -4134210.7975691557 0 0 0 0 -7018416.5049917698 -7498728.4865048882 0 -7498728.4865048882 -5316391.5114722252 0 0 0 0 -124581.78816625476 -74825.481682172045 0 -74825.481682172045 63929.541057447088 0 0 0 0 -7635275.1109037399 -7864397.4777341038 0 -7864397.4777341038 -5230617.6273536682 0 0 0 0 -4548517.9336700439 3910423.7336252928 0 3910423.7336252928 -10354386.034097075 0 0 0 0 -5700322.3085823059 814383.53364634514 0 814383.53364634514 1909205.0692811012 0 0 0 0 -5235751.1778564453 -177528.95747232437 0 -177528.95747232437 3830630.0755577087 0 0 0 0 -1998272.8490428813 -21312.791474705562 0 -21312.791474705562 162669.25518722099 0 0 0 0 -5365179.6893081665 1331618.7397465706 0 1331618.7397465706 2757925.5605351925 0 0 0 0 -1552320.3462219238 -2454068.8003861904 0 -2454068.8003861904 -1319412.2101812363 0 0 0 0 -389954.02665135451 -236124.22872337885 0 -236124.22872337885 198205.94420648017 0 0 0 0 -4810785.4444046021 1594408.7021083832 0 1594408.7021083832 1008246.5497210026 0 0 0 0 -5455786.8208465576 -148071.55504852533 0 -148071.55504852533 -676656.37001609802 0 0 0 0 -6119466.9362106323 589304.95036947727 0 589304.95036947727 2388358.651458621 0 0 0 0 -6548176.4834518433 -1544275.3849886656 0 -1544275.3849886656 1758993.545096077 0 0 0 0 -5713223.1635894775 -47846.234940886497 0 -47846.234940886497 2769237.0209887028 0 0 0 0 -5794148.3954772949 -418051.71594238281 0 -418051.71594238281 1485111.7020046711 0 0 0 0 -2894332.7896118164 -15999.947252511978 0 -15999.947252511978 1385411.5907912254 0 0 0 0 -7320494.1213531494 657741.9369238615 0 657741.9369238615 1290387.1878716946 0 0 0 0 -7677894.3964118958 -724905.0595163703 0 -724905.0595163703 1404546.2398405075 0 0 0 0 -7616468.0190658569 -2169297.4386963844 0 -2169297.4386963844 73835.037774562836 0 0 0 0 -3900243.2823905945 -446753.74411463737 0 -446753.74411463737 269764.06818675995 0 0 0 0 -1211254.3412052738 -736767.69650352281 0 -736767.69650352281 130900.41383057309 0 0 0 0 -9271617.2091598511 -2002017.8247229457 0 -2002017.8247229457 1675228.8704283237 0 0 0 0 -510939.49486001185 -1103875.5707341656 0 -1103875.5707341656 182171.42214534839 0 0 0 0 -4160805.7676296234 -2401795.2396748066 0 -2401795.2396748066 -202851.11218631268 0 0 0 0 -1010764.6151792608 -997773.68961559795 0 -997773.68961559795 346602.57540011196 0 0 0 0 -2464692.1900939941 -659380.6727976501 0 -659380.6727976501 -66111.081142008305 0 0 0 0 -5812234.3968772888 217640.6207845211 0 217640.6207845211 1365219.8127169609 0 0 0 0 -2678947.9949645996 -3210313.8286930323 0 -3210313.8286930323 -988982.15681648254 0 0 0 0 -8771444.7321090698 -1084768.5155433267 0 -1084768.5155433267 640151.11459541321 0 0 0 0 -4556424.2791213989 -1487232.2176399231 0 -1487232.2176399231 -2201653.7106991112 0 0 0 0 -6856934.9659996033 -3487875.1586195827 0 -3487875.1586195827 -146139.72031676769 0 0 0 0 -6029189.2973670959 -2025896.5427103639 0 -2025896.5427103639 340318.62682497501 0 0 0 0 -5710115.8825769424 -1394032.0502883792 0 -1394032.0502883792 669616.70953524113 0 0 0 0 -5373672.747756958 -9000053.8813772202 0 -9000053.8813772202 -23112951.496004701 0 0 0 0 -3120926.0714187622 -8138534.7169516087 0 -8138534.7169516087 -23697312.558018208 0 0 0 0 -5665183.5958557129 -12287701.289960504 0 -12287701.289960504 -16148169.283176005 0 0 0 0 -5452257.0269775391 -14127220.485463023 0 -14127220.485463023 -17508902.853038311 0 0 0 0 -5240209.7978973389 -15253429.748419255 0 -15253429.748419255 -33409829.361788273 0 0 0 0 -14449636.943534851 -24701069.584101021 0 -24701069.584101021 -14037266.3897264 0 0 0 0 -2332253.7796783447 -30566838.89040184 0 -30566838.89040184 -96685636.409991622 0 0 0 0 -21454691.134101868 -40024437.4670012 0 -40024437.4670012 -45970799.777551837 0 0 0 0 -4656042.2563018799 -7250484.7195845842 0 -7250484.7195845842 -43679833.413762927 0 0 0 0 -5433766.0115814209 -6589589.2445489168 0 -6589589.2445489168 -26217618.749994755 0 0 0 0 -40577920.350307465 12647600.783017695 0 12647600.783017695 55548968.635845661 0 0 0 0 -158989.31416352466 28628.923804679886 0 28628.923804679886 18867.213692685895 0 0 0 0 39423057.030435562 127891751.00124489 0 127891751.00124489 -48555090.306799054 0 0 0 0 -38899003.038749695 18251567.439846277 0 18251567.439846277 38315298.249222279 0 0 0 0 -488378.13935216516 79817.826845905394 0 79817.826845905394 74666.403686008925 0 0 0 0 4035919.5855255127 -11327785.504725456 0 -11327785.504725456 28225073.620138645 0 0 0 0 -406822.40437316895 15362874.440501869 0 15362874.440501869 28308282.545046568 0 0 0 0 10365029.254676819 14970018.795926511 0 14970018.795926511 73491056.037794471 0 0 0 0 -22620.509349970147 -19538.634751885198 0 -19538.634751885198 25820.596644829086 0 0 0 0 -11985645.137247086 -15873229.587531939 0 -15873229.587531939 40746890.24322772 0 0 0 0 -14932524.793657303 -13874475.453979015 0 -13874475.453979015 51219728.433263421 0 0 0 0 -36345.61478818208 360518.60514995933 0 360518.60514995933 117585.68224108382 0 0 0 0 -15974048.190092087 -3768957.5462967753 0 -3768957.5462967753 44608919.327898324 0 0 0 0 991027.42204666138 433182.11208063364 0 433182.11208063364 -1376571.0126646161 0 0 0 0 -1794008.0844955444 1869574.1634087563 0 1869574.1634087563 2729029.442523241 0 0 0 0 1190078.1780738831 1123605.0755679011 0 1123605.0755679011 318061.0399967432 0 0 0 0 -775283.1869455874 56411.647130935453 0 56411.647130935453 -27917.345304048737 0 0 0 0 -3957832.6562185287 -7807086.4251693338 0 -7807086.4251693338 -14675289.145829439 0 0 0 0 -6356437.505279541 -11401404.962080598 0 -11401404.962080598 -12860149.63733834 0 0 0 0 -8266173.690486908 -7937537.2452517152 0 -7937537.2452517152 -9082825.1576223373 0 0 0 0 -10095283.738422394 -11267304.553068399 0 -11267304.553068399 -4325941.0430995226 0 0 0 0 -922944.19888305664 4259506.2279988527 0 4259506.2279988527 2153871.3605458736 0 0 0 0 -6918712.1661911011 -11295222.844283104 0 -11295222.844283104 -4567351.0701816678 0 0 0 0 -8547899.7055931091 -9430848.314961791 0 -9430848.314961791 -6604212.808231473 0 0 0 0 -1097503.241979165 144504.77503543627 0 144504.77503543627 -111571.28598040086 0 0 0 0 -9622552.2421112061 -8536986.1284321547 0 -8536986.1284321547 -3455701.9194850326 0 0 0 0 -7199179.4999923706 -7105421.4524880648 0 -7105421.4524880648 -6479756.8280227631 0 0 0 0 -8923421.3522033691 -6102114.8316397071 0 -6102114.8316397071 -374620.46100723743 0 0 0 0 -8806037.2261199951 -7029422.4406787753 0 -7029422.4406787753 -2515151.9119554758 0 0 0 0 -9310394.9056663513 -6936466.3210998774 0 -6936466.3210998774 -1132963.969250977 0 0 0 0 -11547277.152023315 -7779049.9267921448 0 -7779049.9267921448 1450731.6039971113 0 0 0 0 -10597147.289173126 -3998560.1230589747 0 -3998560.1230589747 7308782.3062447309 0 0 0 0 -15063386.247711182 -11362913.928155363 0 -11362913.928155363 2421879.8023427129 0 0 0 0 -9933905.8499560356 -9759134.5208330676 0 -9759134.5208330676 -3419955.4578192234 0 0 0 0 -12974461.967887878 -16402490.551417708 0 -16402490.551417708 -7833940.9304652214 0 0 0 0 -12973210.364403561 -16633680.358652586 0 -16633680.358652586 -8473915.0513944626 0 0 0 0 -28082344.112823486 -20065402.769864202 0 -20065402.769864202 1077785.4811794758 0 0 0 0 -32272914.378723145 -3333164.8389974833 0 -3333164.8389974833 18028136.720854759 0 0 0 0 -20424489.41506958 -3027987.239685297 0 -3027987.239685297 12769183.582888424 0 0 0 0 -4432822.3712463379 2704919.9341340065 0 2704919.9341340065 10370361.566090524 0 0 0 0 -13046060.805822372 -6824465.5397541225 0 -6824465.5397541225 7494384.8913464546 0 0 0 0 -6911949.7338104248 5105858.6268149614 0 5105858.6268149614 13944474.823308229 0 0 0 0 -1448685.6433372498 2327013.100736469 0 2327013.100736469 8469818.4327481389 0 0 0 0 -7587123.2697525024 3863682.8913552463 0 3863682.8913552463 13423301.907332599 0 0 0 0 -8937482.0034561157 -1033953.3236771226 0 -1033953.3236771226 8433563.9940431118 0 0 0 0 -9267206.9951477051 -3288141.4428328276 0 -3288141.4428328276 5533701.6563887 0 0 0 0 -3646969.8584518433 2299017.7219245136 0 2299017.7219245136 6250141.1425373554 0 0 0 0 -1639846.0125637054 852384.8366958648 0 852384.8366958648 4006750.641872108 0 0 0 0 1648982.7285079956 7186213.8417506814 0 7186213.8417506814 8642535.4389934391 0 0 0 0 -2469401.0948448181 2335606.198459059 0 2335606.198459059 4589050.4559028 0 0 0 0 -2345077.5857155323 1417083.5699063689 0 1417083.5699063689 2702165.2834995389 0 0 0 0 -6721411.4895820618 -454460.00710237026 0 -454460.00710237026 4743909.9233241677 0 0 0 0 -15544388.089744568 5803306.6951591671 0 5803306.6951591671 8969782.4726535082 0 0 0 0 -18652047.671169281 21046043.590773314 0 21046043.590773314 21565537.183510065 0 0 0 0 -1045032.7730930392 -28340.493369363248 0 -28340.493369363248 -368084.670345266 0 0 0 0 -6185872.4895057678 -788352.97855247557 0 -788352.97855247557 649394.77314847941 0 0 0 0 -6206245.3992424011 -790004.04648075998 0 -790004.04648075998 1458939.6453890651 0 0 0 0 -4473882.7828121185 -521375.36878618598 0 -521375.36878618598 1676386.871448487 0 0 0 0 -4628010.5900688171 -159413.84600526094 0 -159413.84600526094 1497445.1999171674 0 0 0 0 -7765900.6549072266 -2076801.7840742469 0 -2076801.7840742469 3074172.0423540473 0 0 0 0 -7006945.2396278381 -707395.27162927389 0 -707395.27162927389 3579762.8992336392 0 0 0 0 -6726456.7921943665 -1591080.3088753819 0 -1591080.3088753819 1768656.9775347114 0 0 0 0 -8127278.005191803 -2813033.3699632585 0 -2813033.3699632585 2245509.9275197387 0 0 0 0 -7591777.6604814529 -2587369.8754612654 0 -2587369.8754612654 2226220.7274031639 0 0 0 0 -9089803.1068725586 -4683255.2949235439 0 -4683255.2949235439 1718319.3756108284 0 0 0 0 -8592180.0995979309 -3451503.9826937318 0 -3451503.9826937318 3072291.1423082352 0 0 0 0 -8793114.6216316223 -3793944.3585366607 0 -3793944.3585366607 2786280.9594891071 0 0 0 0 -9134883.4078369141 -3474831.7152636647 0 -3474831.7152636647 4575627.5916327164 0 0 0 0 -6522746.0353279114 -792165.36429339647 0 -792165.36429339647 4217370.045411706 0 0 0 0 -9531628.8508834839 -4039253.9895718694 0 -4039253.9895718694 4121639.9620943666 0 0 0 0 -8386872.8679523468 -3689652.8626479059 0 -3689652.8626479059 3405261.3562955856 0 0 0 0 -10355583.521705627 -5569515.3183659315 0 -5569515.3183659315 2462761.0042316914 0 0 0 0 -8784995.901512146 -4833629.7615162134 0 -4833629.7615162134 1791817.2548416257 0 0 0 0 -9129298.6157417297 -6047230.3124251366 0 -6047230.3124251366 -389128.91047227383 0 0 0 0 -8204955.6843109131 -5379486.8136677742 0 -5379486.8136677742 -546930.15628147125 0 0 0 0 -8602603.5315618515 -5651173.6936283037 0 -5651173.6936283037 -298222.42775332928 0 0 0 0 -7880108.1192092896 -4673455.9569869637 0 -4673455.9569869637 909398.84578812122 0 0 0 0 -7712443.5760726929 -4881256.0916618109 0 -4881256.0916618109 -538808.76783034205 0 0 0 0 -6207622.2856864929 -4629546.1729985476 0 -4629546.1729985476 -736653.41365098953 0 0 0 0 -7915004.0937480927 -6216728.4752354324 0 -6216728.4752354324 -2208479.9465296268 0 0 0 0 -4357228.4722175598 -4622051.2985939682 0 -4622051.2985939682 -3011326.8338571787 0 0 0 0 -6466168.3722686768 -3188961.1144281626 0 -3188961.1144281626 -878504.65491050482 0 0 0 0 -4962903.8935155869 -2845768.2285507619 0 -2845768.2285507619 -683315.57670915127 0 0 0 0 -1854780.6852874756 -1179846.9686989784 0 -1179846.9686989784 -81736.872452259064 0 0 0 0 -6839718.7625226974 -3132784.8565520421 0 -3132784.8565520421 206658.23339867592 0 0 0 0 -7483417.8559055328 -4173414.9769534767 0 -4173414.9769534767 220461.28230345249 0 0 0 0 -7912541.2163925171 -3790392.0736102462 0 -3790392.0736102462 1309744.6043780744 0 0 0 0 -8319169.9988746643 -4231005.5391857028 0 -4231005.5391857028 852244.40802979469 0 0 0 0 -15135917.7866745 -9468847.6965389252 0 -9468847.6965389252 -7816642.1925740838 0 0 0 0 -6511599.2366256714 -4160382.2370722592 0 -4160382.2370722592 -5814227.2409108877 0 0 0 0 7425678.1750144958 -10978690.887215465 0 -10978690.887215465 8111997.9845943451 0 0 0 0 -2745156.5500392914 -747971.21197590232 0 -747971.21197590232 481826.88481259346 0 0 0 0 -715954.9780105846 -617189.655141172 0 -617189.655141172 56808.973291087779 0 0 0 0 -3111840.1967891455 -70655.04306428507 0 -70655.04306428507 785649.80426863465 0 0 0 0 -3677591.2584443893 -626283.78440199606 0 -626283.78440199606 1062827.2424421064 0 0 0 0 -97410021.622570038 -90439000.992924452 0 -90439000.992924452 799463.50282669067 0 0 0 0 -802668.3651008606 36347693.667090923 0 36347693.667090923 -10483931.227609158 0 0 0 0 -1600225.1604953273 -1346951.0794744864 0 -1346951.0794744864 122391.52374885761 0 0 0 0 14988331.802942276 1701018.0320748091 0 1701018.0320748091 -61958779.622461796 0 0 0 0 -2019721.2133026123 8912683.7728607655 0 8912683.7728607655 17882456.563669443 0 0 0 0 -35685143.048141479 -19083853.815986037 0 -19083853.815986037 1053331.0008850694 0 0 0 0 -668336.65975949913 -130232.6815490583 0 -130232.6815490583 -19809.994086667197 0 0 0 0 -6618631.3642253876 46025345.018328846 0 46025345.018328846 40006809.008115768 0 0 0 0 -463722.01317241974 -190844.52235173155 0 -190844.52235173155 248576.17311048644 0 0 0 0 2444222.0886459351 -3542248.4944990873 0 -3542248.4944990873 -1485876.7019897699 0 0 0 0 16142100.603956223 22298287.256885499 0 22298287.256885499 -10722963.567655087 0 0 0 0 -22117042.008918762 -2928900.2864946984 0 -2928900.2864946984 -410963.60075867176 0 0 0 0 -56859028.564289093 -57161913.730150998 0 -57161913.730150998 -46563664.521950006 0 0 0 0 -8914845.632745713 1486096.1492511597 0 1486096.1492511597 1017147.2132402658 0 0 0 0 -267478.69977634773 -50168.924553661607 0 -50168.924553661607 25620.828630707867 0 0 0 0 -30997990.653915405 -24183090.116631508 0 -24183090.116631508 -4854395.4629434943 0 0 0 0 -9208148.217443943 -15925376.397652999 0 -15925376.397652999 -12131423.947561741 0 0 0 0 -39232821.702949524 -4842521.5195673108 0 -4842521.5195673108 18209479.932059288 0 0 0 0 -22075834.944671631 -2831577.5074750185 0 -2831577.5074750185 9846640.3503391743 0 0 0 0 -164586352.12049866 -7969912.7194838524 0 -7969912.7194838524 38985257.890227795 0 0 0 0 -145401831.98745632 142202967.77416202 0 142202967.77416202 62783843.033412933 0 0 0 0 960009.11913299561 110896635.61229688 0 110896635.61229688 2728212.6410219669 0 0 0 0 -1677818.6953469152 -1294827.6091631325 0 -1294827.6091631325 -215533.28264801146 0 0 0 0 67319565.952857971 23469498.442866996 0 23469498.442866996 -21237681.680062056 0 0 0 0 14504430.779462814 -29062850.861027688 0 -29062850.861027688 17778321.071507215 0 0 0 0 -13355706.705951691 265354.4028006196 0 265354.4028006196 14267398.733386755 0 0 0 0 -21333120.397975922 -10669898.596584678 0 -10669898.596584678 10659706.365161896 0 0 0 0 -27719978.114280701 -11310025.019370228 0 -11310025.019370228 15702845.380702972 0 0 0 0 -39433912.290142059 7526983.1959854662 0 7526983.1959854662 19918124.133413084 0 0 0 0 -8299524.5200386047 -2479910.9601212442 0 -2479910.9601212442 1743698.6970877945 0 0 0 0 -8116206.5140037537 -2865452.0054803491 0 -2865452.0054803491 888800.21696205437 0 0 0 0 -8106679.9928398132 -2019007.298243925 0 -2019007.298243925 -73682.13050661236 0 0 0 0 -10824304.234495163 -2772568.8325619251 0 -2772568.8325619251 1025627.275550127 0 0 0 0 -7698345.9099617004 -2614272.752240032 0 -2614272.752240032 691961.93769273162 0 0 0 0 -7128032.6961097717 -1564739.7196312994 0 -1564739.7196312994 -524519.24264502525 0 0 0 0 -6877276.2282276154 -720598.4886252284 0 -720598.4886252284 1254470.7211442292 0 0 0 0 -9671588.5836925507 -1958751.3800667599 0 -1958751.3800667599 792367.51040495932 0 0 0 0 -5873734.6038983203 -1366880.1496624057 0 -1366880.1496624057 893417.76839579234 0 0 0 0 -18093232.015724182 6064655.0140630007 0 6064655.0140630007 7648344.5319355726 0 0 0 0 -5085331.0250358582 -13039309.09586367 0 -13039309.09586367 -12781481.759911954 0 0 0 0 -19742089.644195557 8683150.0982053131 0 8683150.0982053131 -5742828.3478135169 0 0 0 0 -282774.51646436937 -1163642.7100539894 0 -1163642.7100539894 139170.98023906857 0 0 0 0 -14433297.0104599 28638736.956190601 0 28638736.956190601 -23214031.478662327 0 0 0 0 -3088627.2029790566 -1212153.1109894514 0 -1212153.1109894514 -142248.33274764582 0 0 0 0 -31986447.710868835 -18958666.621086039 0 -18958666.621086039 34098041.782188773 0 0 0 0 11235346.565384388 1094521.0549204852 0 1094521.0549204852 -5443887.2461936474 0 0 0 0 -17468970.11063385 6404145.3339269832 0 6404145.3339269832 15312084.219349191 0 0 0 0 -20929906.13777256 -13582749.237807607 0 -13582749.237807607 4632835.4380037189 0 0 0 0 -4599362.2623214722 -1259531.3491745889 0 -1259531.3491745889 5814932.6246644258 0 0 0 0 -5680743.5124440193 -1430641.5534352735 0 -1430641.5534352735 1448068.4311864376 0 0 0 0 -9078770.2239837646 -6024238.2257554568 0 -6024238.2257554568 8815385.4016079605 0 0 0 0 -8341216.2311115265 -1836374.7917634845 0 -1836374.7917634845 1375505.8151557744 0 0 0 0 -5849607.3219878934 -1030627.3605689734 0 -1030627.3605689734 610050.02329651243 0 0 0 0 -5861386.7279682159 -2028083.7685592175 0 -2028083.7685592175 49517.889489516616 0 0 0 0 -5734810.582587719 -1171255.5708359778 0 -1171255.5708359778 215295.31717044115 0 0 0 0 4207101.4122123718 -4838283.523716256 0 -4838283.523716256 -3255499.0933511257 0 0 0 0 -1658984.5155289173 -1239678.7055756059 0 -1239678.7055756059 -4255046.2041879892 0 0 0 0 -4528555.6308040619 -2830425.0612137914 0 -2830425.0612137914 -1768392.0862097144 0 0 0 0 -12949346.125720978 2467675.3008221388 0 2467675.3008221388 -704551.1850323081 0 0 0 0 -21686295.183036804 4727469.9045305252 0 4727469.9045305252 1131792.4149197936 0 0 0 0 -117322.74943431781 77049.5940524498 0 77049.5940524498 -5151.1410600092204 0 0 0 0 79091.319030761719 3293669.4785833359 0 3293669.4785833359 -8157972.9054175615 0 0 0 0 -163206.91405798402 81222.287671795115 0 81222.287671795115 -56849.181109416473 0 0 0 0 -6357137.0886077881 3794695.0474454165 0 3794695.0474454165 -3836676.176422596 0 0 0 0 -4211832.6687257988 -732597.11650297418 0 -732597.11650297418 484131.79645471543 0 0 0 0 2789290.1991443634 -3839860.3924363554 0 -3839860.3924363554 -3777958.411138773 0 0 0 0 -7623458.7749824524 -7726066.3635804951 0 -7726066.3635804951 1437815.7398572564 0 0 0 0 -9702684.0568618774 -4550996.3132425547 0 -4550996.3132425547 1377906.1821680609 0 0 0 0 -20109980.168897629 -746407.62842276692 0 -746407.62842276692 1194313.9231119752 0 0 0 0 -8744499.9357261658 -2124459.8827117682 0 -2124459.8827117682 2879481.2571114302 0 0 0 0 -5021718.7581787109 385418.82079935074 0 385418.82079935074 650201.17370605469 0 0 0 0 -2140281.6585836411 -220941.58874630928 0 -220941.58874630928 -814501.88431453705 0 0 0 0 -8726720.7637405396 -2015296.2987689972 0 -2015296.2987689972 -482881.75165605545 0 0 0 0 -4242484.0884954361 390195.24830502504 0 390195.24830502504 580024.13958213141 0 0 0 0 -9908393.3945121765 -63799.812882661819 0 -63799.812882661819 1395286.6531279087 0 0 0 0 -1618454.8614959717 274265.22386652231 0 274265.22386652231 144285.50800037384 0 0 0 0 -1721405.4748777961 1011341.1051888354 0 1011341.1051888354 67424.451575725921 0 0 0 0 627949.82942542434 -882547.90244658664 0 -882547.90244658664 -34778.152515742171 0 0 0 0 -4913354.8894320931 -1204810.8754159324 0 -1204810.8754159324 -145250.8808109271 0 0 0 0 8098172.550201416 -8617614.509396255 0 -8617614.509396255 -2453580.2977168411 0 0 0 0 -1304883.6821974367 -2787260.84824422 0 -2787260.84824422 -763866.33058632468 0 0 0 0 10072448.043750763 -2282739.1692386866 0 -2282739.1692386866 -1398374.6886610687 0 0 0 0 -1795381.0114775319 -2687075.6510913754 0 -2687075.6510913754 152298.0866090504 0 0 0 0 8275047.9296598434 -6527232.5611546189 0 -6527232.5611546189 -8748328.567958951 0 0 0 0 13509075.077285767 4120158.614256382 0 4120158.614256382 -1509823.9752144217 0 0 0 0 136784.96024703979 -8352331.637560308 0 -8352331.637560308 -2793444.1782264709 0 0 0 0 6758158.8975944519 -6619383.8707066178 0 -6619383.8707066178 -3500946.4428941011 0 0 0 0 -23244359.026134491 -10775375.230334401 0 -10775375.230334401 905472.68263375759 0 0 0 0 492451.46887338161 -15317022.751892013 0 -15317022.751892013 -9625798.1700913906 0 0 0 0 -51519481.234619141 -1943182.6464577913 0 -1943182.6464577913 10937928.139421225 0 0 0 0 -33311176.516571045 -22423297.65107435 0 -22423297.65107435 -2548280.857663393 0 0 0 0 -22564586.024852753 -16716206.253613353 0 -16716206.253613353 -6893445.5264410079 0 0 0 0 -82455374.273096085 -54687361.406229079 0 -54687361.406229079 -23328591.616228342 0 0 0 0 -21970855.000659943 -20627888.065808833 0 -20627888.065808833 -8963338.916046977 0 0 0 0 13885859.023490906 -21127043.871748149 0 -21127043.871748149 -30269631.699234843 0 0 0 0 37499002.332813263 2991407.8861154914 0 2991407.8861154914 -24149594.359750509 0 0 0 0 -13066384.486227036 -10670160.325213164 0 -10670160.325213164 6331368.18498981 0 0 0 0 -14290996.853229523 4583037.5714024305 0 4583037.5714024305 -75998681.207121432 0 0 0 0 -114871275.69639683 7454217.2395197749 0 7454217.2395197749 5448528.4561517239 0 0 0 0 -29274502.526573181 -8727429.9309375882 0 -8727429.9309375882 1133089.1080055237 0 0 0 0 -38227613.044376373 7036255.9427614808 0 7036255.9427614808 22548510.721196812 0 0 0 0 27471679.887145996 27814782.662997633 0 27814782.662997633 -18872055.38903439 0 0 0 0 -4215056.7950592041 289097.80712259468 0 289097.80712259468 1396976.7017174605 0 0 0 0 36613737.483104706 11676787.858869612 0 11676787.858869612 2545339.9460573196 0 0 0 0 -1897352.2786439601 -402453.05180520564 0 -402453.05180520564 -654416.85207226733 0 0 0 0 -4234044.2073326111 -365159.72950294893 0 -365159.72950294893 770527.13876590459 0 0 0 0 -6311029.5619335175 -3882867.2757314444 0 -3882867.2757314444 4568354.7930861712 0 0 0 0 -4576427.8899451345 -803781.62028226163 0 -803781.62028226163 587654.96373392374 0 0 0 0 -805432.44628268853 -1965658.0988632683 0 -1965658.0988632683 -689069.17118048144 0 0 0 0 -5903755.025806427 -1218882.5348597472 0 -1218882.5348597472 501665.29778514337 0 0 0 0 16820710.402450562 9264515.2674523592 0 9264515.2674523592 -5191538.0489087105 0 0 0 0 24565601.064531326 25721672.677874953 0 25721672.677874953 24718529.178723097 0 0 0 0 -160163.04597906768 -449046.89284095913 0 -449046.89284095913 -90072.595260637245 0 0 0 0 11463439.076850891 -25998215.194569886 0 -25998215.194569886 -23768123.684013128 0 0 0 0 -38180625.747169495 -10077177.278137088 0 -10077177.278137088 46675955.343137681 0 0 0 0 9275807.8516464233 15391212.630180359 0 15391212.630180359 -87582679.22801441 0 0 0 0 16560308.286441803 5150311.1777396798 0 5150311.1777396798 -44359125.687883496 0 0 0 0 -16315855.340812683 24399227.11519894 0 24399227.11519894 43178605.471153736 0 0 0 0 15726458.257030487 36308082.012711853 0 36308082.012711853 -5775366.7332126796 0 0 0 0 -17841093.411928177 -15870176.072509229 0 -15870176.072509229 -1582730.6479676366 0 0 0 0 -1209257.9865355846 73870.903276757395 0 73870.903276757395 128526.22732729481 0 0 0 0 -45482754.633232117 -7289428.3650920391 0 -7289428.3650920391 8904113.7000509501 0 0 0 0 -360626.45897823572 22878.569264996739 0 22878.569264996739 24025.327579728968 0 0 0 0 13245818.88722229 -31510294.890587389 0 -31510294.890587389 48092163.804720163 0 0 0 0 89130877.089855194 -62438448.551329374 0 -62438448.551329374 -89566752.421672285 0 0 0 0 -21288143.915748596 25872208.723176271 0 25872208.723176271 4676466.0893206596 0 0 0 0 1908376.2037734985 25581780.695632607 0 25581780.695632607 82930.000000275671 0 0 0 0 -1016743.1623402769 151597.72893766593 0 151597.72893766593 598198.05737808836 0 0 0 0 -64184876.456302643 88338029.862519085 0 88338029.862519085 34535102.759217739 0 0 0 0 -90927134.286827087 -75258069.224125326 0 -75258069.224125326 43392066.980413973 0 0 0 0 -5393025.2631647643 1374757.9986033526 0 1374757.9986033526 430027.61163666897 0 0 0 0 23696532.330172539 -10088783.74631916 0 -10088783.74631916 -71141661.361593843 0 0 0 0 -85561240.669189453 -35817030.918767929 0 -35817030.918767929 -10765301.40022701 0 0 0 0 27593226.177295685 -13051980.010664374 0 -13051980.010664374 -6294174.4978992045 0 0 0 0 -55873428.28874588 58459649.254050136 0 58459649.254050136 -13074706.76801753 0 0 0 0 -62730783.762763977 39889170.801112205 0 39889170.801112205 76900653.59151423 0 0 0 0 -1307235.5866351128 10047525.429597974 0 10047525.429597974 5317557.9624686241 0 0 0 0 -5482710.2021141052 -18444353.332915455 0 -18444353.332915455 33729164.920976341 0 0 0 0 -7134587.155599515 2377677.7820340414 0 2377677.7820340414 40216.51754222712 0 0 0 0 -4971286.2707681656 11507904.73634398 0 11507904.73634398 7865025.479547739 0 0 0 0 -5293870.674955368 9875236.3896559477 0 9875236.3896559477 14733715.28440845 0 0 0 0 -7554496.0676532965 1867254.3915534881 0 1867254.3915534881 27783.943487299141 0 0 0 0 1233636.1394209862 19943721.417388797 0 19943721.417388797 26256379.784247398 0 0 0 0 -20104634.197548866 -31991199.160536289 0 -31991199.160536289 11054318.545238972 0 0 0 0 20877874.813007832 -1114714.8303332329 0 -1114714.8303332329 3403756.9746072292 0 0 0 0 -7530076.4973958116 1687367.2943974801 0 1687367.2943974801 137184.28452082525 0 0 0 0 -21850084.828993797 -9413974.5714739561 0 -9413974.5714739561 7813521.2073924541 0 0 0 0 -21902673.455263138 -10027370.708567739 0 -10027370.708567739 12657956.81336689 0 0 0 0 -64937994.201170921 2737025.1116366386 0 2737025.1116366386 18764936.998450518 0 0 0 0 -40398816.369781494 -18656823.344284534 0 -18656823.344284534 17872131.020798206 0 0 0 0 -43484823.461630344 827929.07221707702 0 827929.07221707702 8806827.003839016 0 0 0 0 -49784974.886593819 18652630.073816061 0 18652630.073816061 3144120.9218215346 0 0 0 0 -63844112.153915405 -11966471.161536932 0 -11966471.161536932 20769826.110975266 0 0 0 0 -3407685.2888593674 -4684852.3761560917 0 -4684852.3761560917 -801114.9255361557 0 0 0 0 -3175991.1045084596 -7602425.6324225366 0 -7602425.6324225366 -281212.92975616455 0 0 0 0 62351.275656044949 -337932.38704759208 0 -337932.38704759208 92454.449192733271 0 0 0 0 19034311.723615646 -37807958.072049379 0 -37807958.072049379 24249656.669414759 0 0 0 0 19869852.664780617 17573923.588396549 0 17573923.588396549 -38462158.028996944 0 0 0 0 1002061.5847520828 -5796792.269534111 0 -5796792.269534111 -2545667.193836689 0 0 0 0 63175851.707300186 -25140654.948928118 0 -25140654.948928118 -45348249.275293171 0 0 0 0 -103637615.70467281 61115564.961663485 0 61115564.961663485 61168696.413000464 0 0 0 0 -4507596.411945343 -1564188.8754291832 0 -1564188.8754291832 463244.81620889902 0 0 0 0 -4363127.0918936748 -873176.82696634764 0 -873176.82696634764 935958.60208230349 0 0 0 0 -6641264.1293106079 -1643556.1654531956 0 -1643556.1654531956 -80645.958069622517 0 0 0 0 5531601.772564888 -8427150.1365754604 0 -8427150.1365754604 -3031713.9593801498 0 0 0 0 -4300611.9443985578 -1755078.2749778123 0 -1755078.2749778123 186889.98929059086 0 0 0 0 1122455.3557300568 -10136159.60766077 0 -10136159.60766077 -1877024.9595556557 0 0 0 0 5112221.2467927933 -8888671.7094786167 0 -8888671.7094786167 -2902094.9281578064 0 0 0 0 -7742245.1055583954 -2222516.1369550228 0 -2222516.1369550228 16841518.983116627 0 0 0 0 -7051841.428442955 -1054664.386089623 0 -1054664.386089623 659612.96994686127 0 0 0 0 -784577.794767307 -1909936.8301894269 0 -1909936.8301894269 1049270.5203872547 0 0 0 0 -5475927.6858558655 -20443.596057355404 0 -20443.596057355404 -198267.70147873461 0 0 0 0 3330627.6728935242 -8101851.1581838131 0 -8101851.1581838131 -1728038.6108554602 0 0 0 0 4234895.5176429749 -7625818.4867582321 0 -7625818.4867582321 -1130157.5535497665 0 0 0 0 1043139.9334907532 -6641870.4259338379 0 -6641870.4259338379 -2174901.2021436691 0 0 0 0 1839685.0009708405 -9203706.7425293922 0 -9203706.7425293922 -2035512.6628279686 0 0 0 0 2900521.6449220181 -9160743.2435992956 0 -9160743.2435992956 -583892.09917259216 0 0 0 0 -5949837.9602453848 -1476567.5252754169 0 -1476567.5252754169 873750.87474690715 0 0 0 0 -4714632.1769744717 -3619621.7755758055 0 -3619621.7755758055 1290431.4961418142 0 0 0 0 -4771285.3203907283 -1367050.2447388265 0 -1367050.2447388265 354486.95746710594 0 0 0 0 -4457462.7754936218 -4754883.1224555522 0 -4754883.1224555522 -1224449.0420140624 0 0 0 0 -7591937.4243106842 -2552945.233317256 0 -2552945.233317256 703440.72981667519 0 0 0 0 -4557816.1605167389 -2993402.9606819749 0 -2993402.9606819749 -355215.7057056427 0 0 0 0 -612037.94769244362 -230371.80168889649 0 -230371.80168889649 87329.708985413075 0 0 0 0 -6184875.9142875671 -1359758.5472072363 0 -1359758.5472072363 -225005.39043629169 0 0 0 0 -164570.26659828424 -450912.39848323585 0 -450912.39848323585 93828.420264211381 0 0 0 0 7199495.5833582878 2572150.6391616911 0 2572150.6391616911 6550012.5973757505 0 0 0 0 -3303483.3493958805 -316477.90658268757 0 -316477.90658268757 742999.38705981581 0 0 0 0 3662811.8051147461 67665.253727912903 0 67665.253727912903 2212901.1169717312 0 0 0 0 -1797098.0278129578 1789774.6953939497 0 1789774.6953939497 4217084.6357046068 0 0 0 0 -13636174.936508179 9831988.7177340984 0 9831988.7177340984 5132910.765288353 0 0 0 0 311725.20236253738 2190285.2415655199 0 2190285.2415655199 1250210.9173114896 0 0 0 0 -8742028.6480808258 -1977687.1017231345 0 -1977687.1017231345 3817440.4990155697 0 0 0 0 -2046938.3627555072 289778.95080250222 0 289778.95080250222 2001822.9157869816 0 0 0 0 -2462733.1149421437 -296761.56044948846 0 -296761.56044948846 500395.47851528251 0 0 0 0 -13453548.059558868 -9522160.3990116119 0 -9522160.3990116119 15241928.928429544 0 0 0 0 7399684.0479831696 13680215.116926104 0 13680215.116926104 -9842185.6870503426 0 0 0 0 -7931989.1693387032 -9840004.0283300877 0 -9840004.0283300877 37606906.527271748 0 0 0 0 -7279950.4708092287 919697.519175358 0 919697.519175358 731726.61415704445 0 0 0 0 -9512088.6430206299 10145094.766771197 0 10145094.766771197 15386951.091461837 0 0 0 0 -8847975.0570449829 -3469086.5294378996 0 -3469086.5294378996 -1451740.6432152987 0 0 0 0 1993453.1334381104 15665482.769202828 0 15665482.769202828 3144757.7921248674 0 0 0 0 -2211668.8483827226 74376.368103773304 0 74376.368103773304 329829.74880090915 0 0 0 0 -6707529.3345298767 2459609.4279730916 0 2459609.4279730916 12800386.404901922 0 0 0 0 7030027.8356018066 4875551.2240201235 0 4875551.2240201235 -16887565.883540988 0 0 0 0 200668.61280059814 -333994.97015309334 0 -333994.97015309334 5199120.9914553463 0 0 0 0 -1503257.6190929413 3457843.7040138245 0 3457843.7040138245 987113.29941758513 0 0 0 0 -5855101.4777336121 4953800.3107820153 0 4953800.3107820153 9398257.0613724589 0 0 0 0 -7732877.5567436218 -11268506.246560961 0 -11268506.246560961 -286440.93426510692 0 0 0 0 -3488931.9277496338 3769615.0993438512 0 3769615.0993438512 -8774990.1091316044 0 0 0 0 -21010393.493954182 268020.16864030901 0 268020.16864030901 1399698.4881230295 0 0 0 0 -723195.50443649292 -483942.77404779196 0 -483942.77404779196 -2364875.4087196616 0 0 0 0 -1595700.4670543671 4897540.5714022294 0 4897540.5714022294 -2289149.6105256975 0 0 0 0 -18271153.403859138 202312.37808512151 0 202312.37808512151 3413132.9545946121 0 0 0 0 -10456384.369983673 -7650930.7625442147 0 -7650930.7625442147 -4070107.5418124199 0 0 0 0 -153049.49250475504 -270672.48104553437 0 -270672.48104553437 111570.13776333143 0 0 0 0 -283997.44169616699 -2571628.7269576788 0 -2571628.7269576788 -1011845.0269495249 0 0 0 0 -1587112.635887146 267340.0419716835 0 267340.0419716835 -201748.24149115384 0 0 0 0 863091.9248008728 -586065.80202549696 0 -586065.80202549696 -703974.09517989308 0 0 0 0 161376.05097215995 -24664.922163782641 0 -24664.922163782641 -81413.568653028866 0 0 0 0 -497998.04873490334 1150885.1655447735 0 1150885.1655447735 -550022.26474386454 0 0 0 0 -770991.37112045288 1247231.9694355726 0 1247231.9694355726 296059.73116880655 0 0 0 0 -778757.7513999939 534227.56045374274 0 534227.56045374274 439274.75439727306 0 0 0 0 -36697.967590332031 -974037.65780282021 0 -974037.65780282021 -352185.99441123009 0 0 0 0 -417992.51841545105 296341.07373204827 0 296341.07373204827 -1780514.4326821864 0 0 0 0 -393898.33746444434 -664882.04126280791 0 -664882.04126280791 279127.92938770429 0 0 0 0 -2017298.3025937276 -165615.01056779455 0 -165615.01056779455 279583.68683378014 0 0 0 0 761831.15676569939 -295761.27459252998 0 -295761.27459252998 367860.09056091309 0 0 0 0 -3925367.7089614868 14127088.704012156 0 14127088.704012156 -13936389.205010176 0 0 0 0 -873968.36806811392 -331784.43840381503 0 -331784.43840381503 163649.31100678715 0 0 0 0 32558.644293546677 -223547.95825776458 0 -223547.95825776458 29850.563206672668 0 0 0 0 -516604.04897548258 -444060.76097476948 0 -444060.76097476948 -210838.24655315297 0 0 0 0 -1647017.9206941989 96325.04159043543 0 96325.04159043543 175831.15689454728 0 0 0 0 -208511.74457816407 -1281842.602532234 0 -1281842.602532234 180316.39577916995 0 0 0 0 -6234449.7391357422 -489458.58258569241 0 -489458.58258569241 28742207.764137983 0 0 0 0 -1592372.4776821136 -1382880.6762494445 0 -1382880.6762494445 111267.31100869179 0 0 0 0 -2207343.4056434631 31172275.779059827 0 31172275.779059827 -1992068.4935181141 0 0 0 0 -208939.1292504475 -3684.9688141820952 0 -3684.9688141820952 84482.910217283061 0 0 0 0 -110384961.72202301 58323594.787116885 0 58323594.787116885 91523490.415485382 0 0 0 0 57616917.122398376 -114684558.90125453 0 -114684558.90125453 -135113137.53243923 0 0 0 0 -27293752.4324646 28076369.982443213 0 28076369.982443213 6506523.5202879906 0 0 0 0 -1538227.8957176208 12229660.296836138 0 12229660.296836138 3487636.5246218443 0 0 0 0 -4365312.106754303 1426073.7797105312 0 1426073.7797105312 -681790.87945377827 0 0 0 0 -1761492.3331146128 -396905.34429381974 0 -396905.34429381974 -468479.43709516304 0 0 0 0 -3682693.1685014516 671241.94617090351 0 671241.94617090351 -2274323.4671764374 0 0 0 0 -7978409.6196136475 2659987.7111548185 0 2659987.7111548185 -703881.48576907534 0 0 0 0 -14596533.587118149 -839914.87921714783 0 -839914.87921714783 364901.92462301254 0 0 0 0 -8081568.1234779358 794128.97499614954 0 794128.97499614954 -1090002.4218130708 0 0 0 0 -22107493.889137268 1021623.9564005733 0 1021623.9564005733 707892.39094650745 0 0 0 0 -1194640.7040934563 -2440453.4310204536 0 -2440453.4310204536 -1814799.2219163179 0 0 0 0 -7569448.5132894516 1086573.6872100532 0 1086573.6872100532 2644867.6910369396 0 0 0 0 -8889977.284860611 -739855.48351299763 0 -739855.48351299763 616570.80800306797 0 0 0 0 -6577178.3223266602 -2118969.5837930441 0 -2118969.5837930441 559528.78754689172 0 0 0 0 23337790.904758453 -4606677.7536220551 0 -4606677.7536220551 -52486826.83047086 0 0 0 0 -35542805.123176575 19649568.147610009 0 19649568.147610009 21641382.057222426 0 0 0 0 -19849504.028266907 -10650460.740118504 0 -10650460.740118504 30888054.21673882 0 0 0 0 -105173.95228879899 68441.264499464072 0 68441.264499464072 -20656.964942685736 0 0 0 0 24988174.874004364 13715975.341492027 0 13715975.341492027 -21874842.944799304 0 0 0 0 19289708.965415955 20428268.837730765 0 20428268.837730765 -19905484.743973192 0 0 0 0 -2289297.7959060669 -34488219.683524072 0 -34488219.683524072 -16249600.272961646 0 0 0 0 -19428762.831726074 -18852327.13335371 0 -18852327.13335371 32116081.66264081 0 0 0 0 -30352576.082511902 -33160581.958659023 0 -33160581.958659023 17168390.280148238 0 0 0 0 18012491.808940887 11961570.694272608 0 11961570.694272608 15391670.085042223 0 0 0 0 -3527701.0939962603 2373226.2604897246 0 2373226.2604897246 568824.55727771646 0 0 0 0 8453199.4750289917 -20053396.728388563 0 -20053396.728388563 171801.72260031104 0 0 0 0 -1594975.1120223999 2072188.0475678295 0 2072188.0475678295 -11024229.863676295 0 0 0 0 -4144946.3519805158 2455322.5005073082 0 2455322.5005073082 376374.83830044814 0 0 0 0 -4185692.9596099854 38787754.99561394 0 38787754.99561394 -16981629.818390809 0 0 0 0 -26352485.351552963 -21020017.049982801 0 -21020017.049982801 1241891.0149055123 0 0 0 0 503454.31814461946 616302.49358397629 0 616302.49358397629 -392035.02214342845 0 0 0 0 -9376036.6290225983 -6116926.0179239707 0 -6116926.0179239707 11019759.404233083 0 0 0 0 -13766929.820430756 -1830144.8034599014 0 -1830144.8034599014 8491669.7084187921 0 0 0 0 -2057177.6931381226 6815179.2587699555 0 6815179.2587699555 -1001853.2896030098 0 0 0 0 -17974059.133331299 -8971895.6906964928 0 -8971895.6906964928 1617044.2893096358 0 0 0 0 -20075520.616668224 -11776506.862244105 0 -11776506.862244105 -886964.40307445824 0 0 0 0 -3141725.3907706458 -517800.18177626096 0 -517800.18177626096 724423.37314239866 0 0 0 0 619001.50649261475 27158239.573070809 0 27158239.573070809 -3552070.4197427779 0 0 0 0 -17917512.823951721 -10339947.287910521 0 -10339947.287910521 7755689.8392699733 0 0 0 0 -5338487.4784838725 1787743.8245471576 0 1787743.8245471576 445222.21180704824 0 0 0 0 -9421321.4658737183 13918444.282045618 0 13918444.282045618 15574430.330282725 0 0 0 0 -744267.89617529884 -154474.33067735936 0 -154474.33067735936 42151.7642695135 0 0 0 0 4619685.0544395447 -6874131.9621093571 0 -6874131.9621093571 10338195.339054167 0 0 0 0 -106097.10643512011 63755.78819243703 0 63755.78819243703 -11652.456510842007 0 0 0 0 22733381.749148369 15262912.406490814 0 15262912.406490814 -2865386.5745970309 0 0 0 0 -41603992.282405853 -4739778.098967284 0 -4739778.098967284 35670393.615957379 0 0 0 0 -54060292.941146851 -729691.45117819309 0 -729691.45117819309 34923955.631905556 0 0 0 0 24505689.11076355 11648383.629377723 0 11648383.629377723 6653086.8733670712 0 0 0 0 -44469530.86630249 34075181.86947459 0 34075181.86947459 -580249.29431423545 0 0 0 0 -31204419.76871109 13408198.215266153 0 13408198.215266153 -281519.87531638145 0 0 0 0 -198175.15578294545 136139.41269971523 0 136139.41269971523 -42075.249177915481 0 0 0 0 1026590.894203186 54602898.73781997 0 54602898.73781997 11502072.089609146 0 0 0 0 -952009.75374650955 55760844.787631199 0 55760844.787631199 -2730461.4155346602 0 0 0 0 14171059.551509857 -4007098.9320453107 0 -4007098.9320453107 -73300397.649459004 0 0 0 0 -668032.79671859741 -12723707.640784264 0 -12723707.640784264 19407591.113549951 0 0 0 0 40662.268283886835 94975.982993951999 0 94975.982993951999 -1887.0696952794679 0 0 0 0 -11955422.520587921 35146517.679528236 0 35146517.679528236 44589293.455385447 0 0 0 0 -4786819.8467483521 40245722.109595686 0 40245722.109595686 -37333357.750285029 0 0 0 0 -40269119.368347168 10523227.181619287 0 10523227.181619287 -4841828.7630708218 0 0 0 0 -51086043.95419693 -38908458.413086951 0 -38908458.413086951 -6785468.4829436541 0 0 0 0 -30394500.920022964 -53168989.856695712 0 -53168989.856695712 -87524648.61354351 0 0 0 0 12564698.153217316 2941850.9072093964 0 2941850.9072093964 -52852390.724525034 0 0 0 0 -171335.19161605835 -926063.89347869158 0 -926063.89347869158 -7651722.2355490327 0 0 0 0 17553667.691278458 -1016092.7266600132 0 -1016092.7266600132 -8438559.9765081406 0 0 0 0 14412767.162643433 -8244370.6473839879 0 -8244370.6473839879 -15845915.102439404 0 0 0 0 33407820.172954559 -4153086.4206908345 0 -4153086.4206908345 -21742104.100891948 0 0 0 0 283313.55176710524 375947.64803408459 0 375947.64803408459 -96525.358100314101 0 0 0 0 15612069.067405701 15338471.722057581 0 15338471.722057581 -21751059.913237352 0 0 0 0 -35820701.011520386 30446141.754675865 0 30446141.754675865 36930185.723525047 0 0 0 0 35014863.957512856 17760484.254048921 0 17760484.254048921 -10759680.142312527 0 0 0 0 25539978.246757507 -34193160.203797698 0 -34193160.203797698 -13084670.400613368 0 0 0 0 -4951721.8316040039 5952350.3021335006 0 5952350.3021335006 21289562.398029529 0 0 0 0 1227229.6818908975 1033974.9694826729 0 1033974.9694826729 -613524.3761490311 0 0 0 0 4087177.5564880371 -1054105.6159124374 0 -1054105.6159124374 3461765.2611628771 0 0 0 0 -31020650.972335815 -5887722.3798241615 0 -5887722.3798241615 20578846.375287294 0 0 0 0 -27920867.324691772 -20518069.56428358 0 -20518069.56428358 -420088.67192792892 0 0 0 0 6182614.3169403076 21686624.932953179 0 21686624.932953179 -19784901.256249763 0 0 0 0 -31211640.874176025 -9874261.94735232 0 -9874261.94735232 15707660.81826663 0 0 0 0 7534506.2398300171 14420125.244998813 0 14420125.244998813 11892648.473652124 0 0 0 0 4171721.7524871826 3042754.8826127052 0 3042754.8826127052 692852.92102253996 0 0 0 0 19632245.419166565 14025658.397876382 0 14025658.397876382 679313.62560558319 0 0 0 0 34947503.864395142 -5399085.6506611705 0 -5399085.6506611705 -13033741.350489616 0 0 0 0 -4612860.2545700073 -1628870.3100041747 0 -1628870.3100041747 532271.6159427166 0 0 0 0 4599209.2186431885 866383.60818302631 0 866383.60818302631 -5323781.9648065567 0 0 0 0 -655174.46681213379 4125891.5187942982 0 4125891.5187942982 -6037903.9666119814 0 0 0 0 3479696.112903595 3807441.5500023365 0 3807441.5500023365 -99075.040535449982 0 0 0 0 4945831.6456069946 4241298.1269342303 0 4241298.1269342303 -1931151.9117889404 0 0 0 0 5923386.2548904419 3305345.2478230596 0 3305345.2478230596 -1127895.8748140335 0 0 0 0 -5712.5496783647686 -37046.305050039664 0 -37046.305050039664 -97251.85720329138 0 0 0 0 -6503273.9477157593 3790126.7866056263 0 3790126.7866056263 -2232727.9543302059 0 0 0 0 -18194452.936237335 -22379573.613019973 0 -22379573.613019973 4452085.4908171296 0 0 0 0 3851692.8972473145 11236171.414957047 0 11236171.414957047 -10987499.347922236 0 0 0 0 -7509598.4470329285 2837920.8297024965 0 2837920.8297024965 -538101.88110685349 0 0 0 0 268118.43840026855 -428987.10644561052 0 -428987.10644561052 -1154570.1198937297 0 0 0 0 -27541.738390050828 -87409.380589976907 0 -87409.380589976907 -292183.65388309635 0 0 0 0 -413412.35152816772 -3757.931597866118 0 -3757.931597866118 42315.952467679977 0 0 0 0 55681.446753256023 -120415.41244496219 0 -120415.41244496219 -125548.23063869268 0 0 0 0 -1641003.0422935486 -2080319.069169119 0 -2080319.069169119 -2430923.4648818374 0 0 0 0 1844436.3213883638 536778.48130279873 0 536778.48130279873 -2317822.4833920002 0 0 0 0 3431674.6271133423 464420.383900702 0 464420.383900702 -3487857.076170221 0 0 0 0 1786568.5128173828 -1469827.7841549516 0 -1469827.7841549516 -6782736.456038788 0 0 0 0 1047555.7649040222 -317298.30257532001 0 -317298.30257532001 -2619848.6072062254 0 0 0 0 -30743.461545769125 19868.714670334011 0 19868.714670334011 -284677.15267815284 0 0 0 0 404532.68999481201 445389.73789577652 0 445389.73789577652 -364407.21359229548 0 0 0 0 -261431.28181838989 -374961.45193494856 0 -374961.45193494856 -448851.25302472711 0 0 0 0 -514298.88235473633 -371488.91284260154 0 -371488.91284260154 -642183.85619524121 0 0 0 0 -1708721.9231033325 -201059.36798429489 0 -201059.36798429489 -390102.60233747959 0 0 0 0 -101731465.79531097 -109881383.98291612 0 -109881383.98291612 -75688477.830869004 0 0 0 0 -65388.812152907252 -26092.342832074501 0 -26092.342832074501 -29230.701243030722 0 0 0 0 -107303580.73471165 -100895067.15217391 0 -100895067.15217391 -50111523.609641135 0 0 0 0 -107750938.08474159 -88152591.606540412 0 -88152591.606540412 -53597205.230727434 0 0 0 0 703498.99519348145 -1882626.6394433379 0 -1882626.6394433379 3109148.3582910299 0 0 0 0 -1061840.4792613983 1100495.9622594118 0 1100495.9622594118 408551.23486828804 0 0 0 0 4410808.6476402283 -7037943.6804787517 0 -7037943.6804787517 3652847.2895559072 0 0 0 0 18296.04533690773 -38772.842215292156 0 -38772.842215292156 -36755.32688494859 0 0 0 0 3853906.7206420898 -3827656.8452268243 0 -3827656.8452268243 -1212738.9302208424 0 0 0 0 -6098756.5395011902 516691.88072741032 0 516691.88072741032 277489.01006686687 0 0 0 0 -6637008.8711585999 -921388.48383745551 0 -921388.48383745551 602242.30619990826 0 0 0 0 -8957275.2844467163 983058.99269002676 0 983058.99269002676 581816.24154627323 0 0 0 0 -7554427.7342700958 -567227.70534691215 0 -567227.70534691215 234532.07942849398 0 0 0 0 -4554858.6677017212 1677074.3228049278 0 1677074.3228049278 -1266653.1173350215 0 0 0 0 -6012584.5381011963 678805.04022657871 0 678805.04022657871 441918.08163577318 0 0 0 0 -6000596.3108234406 614204.2647574544 0 614204.2647574544 679368.70965957642 0 0 0 0 -6895133.3710403442 1502974.3443971872 0 1502974.3443971872 318083.55712968111 0 0 0 0 -1682866.0561523438 653187.82713481784 0 653187.82713481784 -349046.72000789642 0 0 0 0 -1740395.9130677003 -197133.24238516297 0 -197133.24238516297 18012.114970747498 0 0 0 0 -6801003.8462295532 -270813.18583971262 0 -270813.18583971262 689019.36472165585 0 0 0 0 254296.3567940034 204721.69741676189 0 204721.69741676189 -163714.77074275032 0 0 0 0 -4834797.8224983215 1338288.1440074742 0 1338288.1440074742 -78238.150341272354 0 0 0 0 -2850824.3286822122 -722331.45871940069 0 -722331.45871940069 -335737.22029871552 0 0 0 0 -3941849.3172917366 187956.51887455583 0 187956.51887455583 -161813.21114236116 0 0 0 0 25115893.428752899 10971388.190128058 0 10971388.190128058 -11596362.72801125 0 0 0 0 -3134120.2944913935 2026805.7057021018 0 2026805.7057021018 706552.25410464522 0 0 0 0 10033220.402412415 -1945478.1538674235 0 -1945478.1538674235 9708585.8195135146 0 0 0 0 9697397.4574356079 -616858.39458465576 0 -616858.39458465576 9962306.0528200865 0 0 0 0 8377135.1829376221 -1586928.8982921839 0 -1586928.8982921839 9778369.7520360947 0 0 0 0 4988106.8166885376 1252420.5282847881 0 1252420.5282847881 9324255.5571637154 0 0 0 0 -985037.1005859375 308538.7573749423 0 308538.7573749423 554404.30044257641 0 0 0 0 1328889.6087646484 4082747.321269989 0 4082747.321269989 7562483.2900460958 0 0 0 0 1328889.6087493896 4082747.3213014603 0 4082747.3213014603 7562483.2900496721 0 0 0 0 1328889.6087341309 4082747.3212907314 0 4082747.3212907314 7562483.2900665998 0 0 0 0 -1887509.4226284102 2014163.7190307649 0 2014163.7190307649 497857.19856776169 0 0 0 0 955857.70557403564 2774948.0713055134 0 2774948.0713055134 612670.65919834375 0 0 0 0 -1464506.369275406 1057852.8276080508 0 1057852.8276080508 431671.57517083082 0 0 0 0 3791905.3864440918 3672680.072576642 0 3672680.072576642 -582374.34711289406 0 0 0 0 896785.36346435547 2440939.0082979798 0 2440939.0082979798 3424962.9634065628 0 0 0 0 4639619.172088623 6047989.4602842927 0 6047989.4602842927 3632547.3291056156 0 0 0 0 1462508.9952526093 1002899.2018380724 0 1002899.2018380724 -730211.79281562567 0 0 0 0 1254260.692527771 1666762.9424842149 0 1666762.9424842149 -1336697.1942234039 0 0 0 0 2848559.9367599487 2949870.3688329458 0 2949870.3688329458 -378479.73942920566 0 0 0 0 -16600.745087623596 711487.71622009168 0 711487.71622009168 32053.367544302251 0 0 0 0 335817.05451965332 690314.95357910171 0 690314.95357910171 -809127.13746266812 0 0 0 0 -293518.00070953369 1169625.5659370869 0 1169625.5659370869 116066.12608720362 0 0 0 0 -4377374.0031356812 2192200.5543643236 0 2192200.5543643236 52847.657524228096 0 0 0 0 -2187202.0669050533 712725.35300978087 0 712725.35300978087 3951.4695758694143 0 0 0 0 -988762.52502059937 1278406.865189746 0 1278406.865189746 101538.06484955549 0 0 0 0 -167168.18549346924 2967847.2819127738 0 2967847.2819127738 748822.24379827082 0 0 0 0 -4526809.5072879791 -282083.24212688208 0 -282083.24212688208 203054.73636984825 0 0 0 0 -3786918.6277656555 450297.13245403767 0 450297.13245403767 -493636.73672682047 0 0 0 0 -5041871.8412017822 1150743.0018618703 0 1150743.0018618703 -872550.47770702839 0 0 0 0 -5629658.4535503387 199118.14203874767 0 199118.14203874767 78892.085337400436 0 0 0 0 -4977856.3948974609 -412580.74277603626 0 -412580.74277603626 472601.99821636081 0 0 0 0 -5125702.8134841919 -323697.9772759676 0 -323697.9772759676 435890.65097415447 0 0 0 0 -5102234.311870575 -793929.54082161188 0 -793929.54082161188 499315.89984703064 0 0 0 0 -2255352.9018287659 -1061563.3833737718 0 -1061563.3833737718 -230913.32246479299 0 0 0 0 -1232155.6289765909 -297877.14526604954 0 -297877.14526604954 80843.890068258217 0 0 0 0 -2124830.0830566883 1986198.3035027822 0 1986198.3035027822 2099196.9857416637 0 0 0 0 -4924098.2117080688 -375100.85087701678 0 -375100.85087701678 199572.21488893032 0 0 0 0 -2205764.5405516624 -2327342.5519635491 0 -2327342.5519635491 717688.87299035862 0 0 0 0 -3235015.7299166564 -853268.48500223644 0 -853268.48500223644 361411.34822176362 0 0 0 0 -924254.83370018005 818455.31168518588 0 818455.31168518588 278686.57350731641 0 0 0 0 -2403717.2291903403 556482.3590742005 0 556482.3590742005 196706.77883365852 0 0 0 0 -1310215.7209127061 421582.19975347444 0 421582.19975347444 105079.74737312278 0 0 0 0 -2401922.4603157043 -411027.3712768238 0 -411027.3712768238 729749.51999477111 0 0 0 0 -481714.93078613281 722801.65904258564 0 722801.65904258564 293260.89873158559 0 0 0 0 -487270.36710786819 684877.74016873026 0 684877.74016873026 34549.788167987484 0 0 0 0 -249236.05167139135 110318.38889717031 0 110318.38889717031 -258479.37646717383 0 0 0 0 -497064.3960647583 175595.32192793116 0 175595.32192793116 119558.16807998344 0 0 0 0 -141316.89966964722 43838.429924465716 0 43838.429924465716 -107551.59252348542 0 0 0 0 -110869.93584823608 945.7318213135004 0 945.7318213135004 -130929.88830676675 0 0 0 0 -568209.55414548516 171721.42875446333 0 171721.42875446333 -28838.7491354462 0 0 0 0 -50013.955910842866 47010.338838887867 0 47010.338838887867 40551.191843851833 0 0 0 0 1501343.371919632 -2621235.1171846474 0 -2621235.1171846474 -11965032.46096554 0 0 0 0 -5062750.0937194824 -2592539.9261406986 0 -2592539.9261406986 16470145.832370518 0 0 0 0 -17657679.763725281 -3323159.8908964917 0 -3323159.8908964917 -7313198.3657160504 0 0 0 0 -36377706.726680756 -15342154.340038147 0 -15342154.340038147 -25050.039064016742 0 0 0 0 -4366211.9629058838 -7245687.5289193112 0 -7245687.5289193112 -22061184.308000438 0 0 0 0 -4301477.6794471741 -26137992.608141281 0 -26137992.608141281 -46040302.158371225 0 0 0 0 -6253699.4367141724 -10642301.157198574 0 -10642301.157198574 -3788920.8150816346 0 0 0 0 -3898390.6656169891 7699223.1472718958 0 7699223.1472718958 -2649301.5691850991 0 0 0 0 -1288501.5816955566 -1117057.1168515217 0 -1117057.1168515217 -282113.76681127585 0 0 0 0 -3451187.9968605042 393547.83909662813 0 393547.83909662813 2757724.1841441914 0 0 0 0 -242848.03977631964 -110421.55728095304 0 -110421.55728095304 21215.52208541759 0 0 0 0 -195740.37876036763 -53104.160678628832 0 -53104.160678628832 89071.268614937042 0 0 0 0 -2897511.279800415 -1100025.6057237629 0 -1100025.6057237629 1230890.5099030901 0 0 0 0 -1104541.790512085 11791.850481384899 0 11791.850481384899 -3162869.2703815242 0 0 0 0 -5248447.2464141846 -2333528.8539832509 0 -2333528.8539832509 600037.10923956428 0 0 0 0 -5541916.3322525024 -6712910.7111723991 0 -6712910.7111723991 -2262030.2158799125 0 0 0 0 800051.97537517548 -1633497.6432695976 0 -1633497.6432695976 -11199.103507583426 0 0 0 0 -102165.56590998359 -64148.735388330184 0 -64148.735388330184 -33830.662737256855 0 0 0 0 -8867567.9133033752 5198021.1470081788 0 5198021.1470081788 916.46895309180536 0 0 0 0 2802809.1577644348 2533533.5366372056 0 2533533.5366372056 -1075944.3675669171 0 0 0 0 -6605549.0583209991 1077269.6311373462 0 1077269.6311373462 2989683.2827546373 0 0 0 0 -99436897.280331612 -59431269.083897673 0 -59431269.083897673 -18899661.282429069 0 0 0 0 -98854998.661491394 -65284449.48998192 0 -65284449.48998192 -20083162.490685567 0 0 0 0 -112123502.67672586 -77900927.321872413 0 -77900927.321872413 -30784910.577352107 0 0 0 0 -103435886.43124962 -77126646.587406665 0 -77126646.587406665 -32143264.417764992 0 0 0 0 -114599387.45059109 -71724950.401499867 0 -71724950.401499867 -9887843.0541241765 0 0 0 0 -84089970.147766113 -77645210.478687346 0 -77645210.478687346 -77111736.5742421 0 0 0 0 -70034827.669859886 -49427266.526819557 0 -49427266.526819557 -32888466.713411182 0 0 0 0 -186191.70386658795 -58602.564127684571 0 -58602.564127684571 -76955.720540002687 0 0 0 0 29114.96284866333 -91888.324405804276 0 -91888.324405804276 -256832.30196207762 0 0 0 0 -152987.28718807036 -170667.07148482837 0 -170667.07148482837 -277084.80982372188 0 0 0 0 -238483.03483049385 -77747.264937807806 0 -77747.264937807806 -137821.46323655982 0 0 0 0 -112052.00278065586 -113042.23832497373 0 -113042.23832497373 -218393.85792192971 0 0 0 0 -724598.88996887207 -414555.61316826195 0 -414555.61316826195 2431999.6981695592 0 0 0 0 -59331764.479413033 -33942011.627272874 0 -33942011.627272874 -20076285.950722843 0 0 0 0 -87594748.651126862 -57973621.518869519 0 -57973621.518869519 -32761070.724772561 0 0 0 0 -102754799.39924622 -60274713.559216738 0 -60274713.559216738 -19044163.696707301 0 0 0 0 -99630638.617261887 -58149338.780564971 0 -58149338.780564971 -27584461.928248584 0 0 0 0 -103342849.13769531 -47259786.481762625 0 -47259786.481762625 -23385744.752155468 0 0 0 0 -139122587.75039673 -65735555.673892461 0 -65735555.673892461 -21896451.605139062 0 0 0 0 8380692.9571647644 -2367297.2718566433 0 -2367297.2718566433 -16873478.109286718 0 0 0 0 -40719.734163709451 -36642.009577393532 0 -36642.009577393532 -75917.924765123622 0 0 0 0 -3867775.3463068008 -7092794.6973233055 0 -7092794.6973233055 5753993.9006122351 0 0 0 0 -113741069.7181778 -46702151.337787122 0 -46702151.337787122 -14102807.898050897 0 0 0 0 -105958664.1576767 -60256699.230495892 0 -60256699.230495892 -43700608.30154486 0 0 0 0 -90213878.444904327 -47917394.906084903 0 -47917394.906084903 -13938096.91469443 0 0 0 0 -89799912.220186412 -32551633.991246168 0 -32551633.991246168 -30421392.736764677 0 0 0 0 -111034797.57849121 -39544160.325057223 0 -39544160.325057223 -25030.501157703715 0 0 0 0 -106997584.40867233 -49693785.229481496 0 -49693785.229481496 -17477514.650072075 0 0 0 0 -113506907.75846672 -56938140.716466367 0 -56938140.716466367 36668.458511442099 0 0 0 0 -108789274.39726257 -53854438.446442835 0 -53854438.446442835 -14974155.601713359 0 0 0 0 -110276578.35878754 -66613886.756150052 0 -66613886.756150052 -17922850.696538612 0 0 0 0 -103447771.54914665 -61154616.04167074 0 -61154616.04167074 -15003851.241044149 0 0 0 0 -114310406.68392563 -63452955.658934489 0 -63452955.658934489 -7697213.7849218249 0 0 0 0 -115744876.23742867 -61379587.952443242 0 -61379587.952443242 -8599450.8977599591 0 0 0 0 -117606101.72465515 -61717682.158943035 0 -61717682.158943035 -191506.97286555279 0 0 0 0 -118922270.97188187 -65376205.57978496 0 -65376205.57978496 -9065127.1095338762 0 0 0 0 -112224311.56636429 -58330011.54404901 0 -58330011.54404901 -8015641.0961147584 0 0 0 0 -119679118.3298645 -68321580.073915899 0 -68321580.073915899 -12053482.235871941 0 0 0 0 -120081802.83977509 -61983226.160136923 0 -61983226.160136923 3988929.481523633 0 0 0 0 -129565143.39431858 -76001623.582049608 0 -76001623.582049608 -6694351.1856219769 0 0 0 0 -125077057.1180954 -91115429.742701873 0 -91115429.742701873 -28152615.218907177 0 0 0 0 -124308665.71290588 -83121625.858972281 0 -83121625.858972281 -566173.241843611 0 0 0 0 -92140979.247749329 -37666400.638440907 0 -37666400.638440907 21178131.098923758 0 0 0 0 -16824113.114742279 12473437.741232064 0 12473437.741232064 42256771.255001545 0 0 0 0 -124699481.13406563 -54170012.040613115 0 -54170012.040613115 28822122.330756783 0 0 0 0 -160310964.57775879 -82102337.487183005 0 -82102337.487183005 17066532.29166612 0 0 0 0 -110119632.66799974 -49555993.614310309 0 -49555993.614310309 10282193.348787665 0 0 0 0 -98520665.163749695 -53126916.069230691 0 -53126916.069230691 6771610.0059402585 0 0 0 0 -81423442.447228432 -17539521.907103203 0 -17539521.907103203 26763351.369640648 0 0 0 0 -16502636.683296204 -19476719.794198349 0 -19476719.794198349 -5800617.4741652757 0 0 0 0 -74761.923746239394 -39764.452851136215 0 -39764.452851136215 -16815.690386337224 0 0 0 0 -13680393.209033966 -9078119.8812200297 0 -9078119.8812200297 -35675.01778510079 0 0 0 0 -52873531.214946985 -20699089.855019126 0 -20699089.855019126 -2302963.9051932395 0 0 0 0 -51362957.296051025 -45282873.572047457 0 -45282873.572047457 -23682004.785800368 0 0 0 0 -104262123.4090519 -89405701.084368125 0 -89405701.084368125 -58944211.566217691 0 0 0 0 -87279.738834163174 -59416.818537179381 0 -59416.818537179381 -27386.563882935046 0 0 0 0 -27029723.703517914 -24902722.781511214 0 -24902722.781511214 -18788766.966367356 0 0 0 0 -30556913.097509384 -28278310.679218087 0 -28278310.679218087 7271.2456376721548 0 0 0 0 -32741735.175510406 -15966781.935940078 0 -15966781.935940078 -19572281.076901928 0 0 0 0 -13963804.096143723 -10210537.812496182 0 -10210537.812496182 16245283.619525872 0 0 0 0 6694915.2565279007 -39811226.486643471 0 -39811226.486643471 6782422.5611379221 0 0 0 0 21584978.388494492 -51294510.433825895 0 -51294510.433825895 39419176.372171938 0 0 0 0 17026861.54083252 -40061458.826814741 0 -40061458.826814741 -99836173.199183136 0 0 0 0 -39518523.022438049 -66005902.656585112 0 -66005902.656585112 69765124.205999821 0 0 0 0 -65440.724252622575 -69026.717381736962 0 -69026.717381736962 -12059.934431369373 0 0 0 0 -5459134.3782348633 -63003261.055584162 0 -63003261.055584162 17988131.35826923 0 0 0 0 -13331938.477676392 -63232440.012313247 0 -63232440.012313247 -27873351.326815665 0 0 0 0 -41802590.389892578 -89572163.116104603 0 -89572163.116104603 -20220290.627622604 0 0 0 0 -8570549.0193481445 -35902577.663150936 0 -35902577.663150936 6966491.69384408 0 0 0 0 -31092179.821277618 -39757952.205028772 0 -39757952.205028772 45167125.313688219 0 0 0 0 -861908.37850952148 -10518358.934146747 0 -10518358.934146747 -9153033.6459740698 0 0 0 0 -14482293.147037506 2867166.5954610854 0 2867166.5954610854 28572886.887389958 0 0 0 0 -19869886.651695251 1692986.2881514877 0 1692986.2881514877 45784174.824638665 0 0 0 0 -21133.03641301021 -13650.123284458183 0 -13650.123284458183 -13536.134916377305 0 0 0 0 -3718395.5650787354 -13561921.272773683 0 -13561921.272773683 23846496.958462238 0 0 0 0 -49538870.03691864 -30498361.286248177 0 -30498361.286248177 -20133964.466241598 0 0 0 0 -44398644.398906708 -75548109.456459492 0 -75548109.456459492 -36128371.406829193 0 0 0 0 -88844095.366569519 -50333131.192958832 0 -50333131.192958832 22207422.842170477 0 0 0 0 -40234285.834701538 -44982836.277652144 0 -44982836.277652144 -7464426.8055614233 0 0 0 0 -30695455.366241455 -27850060.740961909 0 -27850060.740961909 46621660.465565398 0 0 0 0 -37824485.594482422 -24696324.26237011 0 -24696324.26237011 24585131.533066839 0 0 0 0 -40496961.254505634 -47812935.83626084 0 -47812935.83626084 23266771.056609631 0 0 0 0 -12194230.026150703 -23684074.888980426 0 -23684074.888980426 12179471.11607337 0 0 0 0 -11984765.127231598 -24443276.635334969 0 -24443276.635334969 12938011.531551361 0 0 0 0 -55982044.506134033 -57474889.869079828 0 -57474889.869079828 13595610.226052046 0 0 0 0 -22475396.05267334 -46460380.39736402 0 -46460380.39736402 6836025.355612278 0 0 0 0 -33702648.220046997 -38341849.995227098 0 -38341849.995227098 17651382.253165245 0 0 0 0 -41991949.317169189 -49576869.93933019 0 -49576869.93933019 16933659.787155151 0 0 0 0 -13116629.102561951 -53766983.772613168 0 -53766983.772613168 16248739.79328087 0 0 0 0 -9997962.2571411133 -30191577.735503018 0 -30191577.735503018 15741908.692247301 0 0 0 0 -9784981.3344306946 -35033864.354258537 0 -35033864.354258537 31645090.887495399 0 0 0 0 9104387.649394989 -22717781.930081904 0 -22717781.930081904 12163342.791877985 0 0 0 0 -4531662.505487442 -6737587.4602023661 0 -6737587.4602023661 41762252.008720756 0 0 0 0 -3532693.6024326086 -6569947.205165117 0 -6569947.205165117 7125940.0328367949 0 0 0 0 -16451174.309909821 -22890013.353295535 0 -22890013.353295535 20090984.362105936 0 0 0 0 5289906.6343383789 -56307838.459634364 0 -56307838.459634364 133056273.43824589 0 0 0 0 42811770.108913422 -43949609.431270868 0 -43949609.431270868 30006718.203177437 0 0 0 0 9086156.0912094116 -28459824.408531845 0 -28459824.408531845 32673418.717651762 0 0 0 0 -5834578.1920461655 -59556807.772854298 0 -59556807.772854298 52423336.229097247 0 0 0 0 583431.27733612061 -5663009.6538704634 0 -5663009.6538704634 -11938935.288732469 0 0 0 0 220553.93543960899 -98977.580117948819 0 -98977.580117948819 26009.379132203714 0 0 0 0 -18902118.115563393 2337660.6506215185 0 2337660.6506215185 192912228.95411438 0 0 0 0 1907710.7739276886 -10487103.714219406 0 -10487103.714219406 73961840.216547489 0 0 0 0 -7926023.66022861 -46186073.773118526 0 -46186073.773118526 45528723.747354925 0 0 0 0 34545980.629016876 -39577701.559224382 0 -39577701.559224382 31503601.698923454 0 0 0 0 -6181456.1225700378 -27926473.077594131 0 -27926473.077594131 85555916.582386881 0 0 0 0 -2584965.1093559265 -17953114.449687004 0 -17953114.449687004 66749570.938977599 0 0 0 0 494424.22725168988 -649488.7100764818 0 -649488.7100764818 212897.81527658689 0 0 0 0 -5607758.1543598175 -1953949.3657353818 0 -1953949.3657353818 -77035.878801345825 0 0 0 0 -331536.60861620679 -190831.07383194193 0 -190831.07383194193 168031.17213226698 0 0 0 0 12877913.356096268 -26085033.009124026 0 -26085033.009124026 53935265.391448975 0 0 0 0 -782320.09218215942 376549.55772328004 0 376549.55772328004 -357142.65347698331 0 0 0 0 -239869.17339740694 -27397.743462571409 0 -27397.743462571409 158333.14147459168 0 0 0 0 -1211034.4791927338 1410669.350190185 0 1410669.350190185 555272.22316300869 0 0 0 0 -634226.29055404663 -1303299.4394391179 0 -1303299.4394391179 3503231.0325779915 0 0 0 0 -868208.9433965683 324901.33356377482 0 324901.33356377482 1649012.5443929434 0 0 0 0 -2010914.5208701752 -130888.52152753994 0 -130888.52152753994 818759.01774733327 0 0 0 0 -864654.01457595825 -6100638.6425527334 0 -6100638.6425527334 160134.85617738962 0 0 0 0 -3157458.2913077436 -1212681.0570847855 0 -1212681.0570847855 760383.4169748039 0 0 0 0 -82465433.405464172 -155087367.42315686 0 -155087367.42315686 -161744128.83202696 0 0 0 0 -1296296.4217529297 1376645.2647686601 0 1376645.2647686601 2519956.9969757199 0 0 0 0 -35908777.416088104 -110093304.25186431 0 -110093304.25186431 -177722618.63050437 0 0 0 0 -224016.26674626395 -33063.501479912549 0 -33063.501479912549 155444.93058575876 0 0 0 0 20758445.630447388 -97592836.996274471 0 -97592836.996274471 -394984765.42599678 0 0 0 0 -2472514.0846905708 -11153080.670051217 0 -11153080.670051217 4679619.3987519741 0 0 0 0 -7003899.0977478027 -1183984.6761026382 0 -1183984.6761026382 10543868.139165759 0 0 0 0 -2469470.6645141747 58773.38088713726 0 58773.38088713726 490419.35476470529 0 0 0 0 -76889596.678707123 -100630937.8569935 0 -100630937.8569935 -262231830.80890566 0 0 0 0 -66563365.213043213 -156458603.93851948 0 -156458603.93851948 -383179040.32243872 0 0 0 0 -65634702.959255219 -205300102.81051028 0 -205300102.81051028 -343704451.11655891 0 0 0 0 -136582745.6062851 -155836545.65957057 0 -155836545.65957057 -228813642.88897657 0 0 0 0 -3463538.6284902096 -8349867.0897984803 0 -8349867.0897984803 36759061.061530471 0 0 0 0 -132174276.26909637 -314162078.53918433 0 -314162078.53918433 -593077320.96733701 0 0 0 0 -812030.17825812101 -39312.994337782264 0 -39312.994337782264 103656.15196496612 0 0 0 0 -177035029.1592083 -1846765.4317519367 0 -1846765.4317519367 -212780470.40029585 0 0 0 0 -111173343.93374252 43289334.872505069 0 43289334.872505069 -87006886.353505969 0 0 0 0 -373841990.7355938 -185170876.89650631 0 -185170876.89650631 -156159797.23452973 0 0 0 0 -86619758.140766144 -148463978.73889327 0 -148463978.73889327 -211504137.00532985 0 0 0 0 -72231673.019802094 -63345584.960546732 0 -63345584.960546732 -180791319.93070233 0 0 0 0 -50892117.778057098 7669897.0319647193 0 7669897.0319647193 -90048419.57938242 0 0 0 0 -30509478.694011688 -8938787.3695353866 0 -8938787.3695353866 -76759095.411901593 0 0 0 0 -60526482.564540863 -90681950.685312748 0 -90681950.685312748 -127090920.63017592 0 0 0 0 -95185904.915065765 -132707327.45843643 0 -132707327.45843643 -267531227.31069016 0 0 0 0 -91774280.815770149 -99944693.981367722 0 -99944693.981367722 -86489834.906100392 0 0 0 0 -96005014.221195221 -97095186.404685706 0 -97095186.404685706 -50917292.091297805 0 0 0 0 -97396024.161045074 -121953028.06947282 0 -121953028.06947282 -99886815.680184066 0 0 0 0 -159803074.41304398 -134193146.80131039 0 -134193146.80131039 -3644575.7152180672 0 0 0 0 -134228074.5682373 -94063125.101156831 0 -94063125.101156831 -12219107.770210385 0 0 0 0 -139219474.37963963 -30143836.02957008 0 -30143836.02957008 51470312.673736572 0 0 0 0 12392427.733078003 56653335.181509756 0 56653335.181509756 70269925.75555408 0 0 0 0 -125267709.56293106 -44687096.072175324 0 -44687096.072175324 24549103.658447564 0 0 0 0 -125599659.62254333 -28900696.826933146 0 -28900696.826933146 47992914.864964969 0 0 0 0 -236219588.15217972 -31722731.300699413 0 -31722731.300699413 132120482.929474 0 0 0 0 -211554057.29519653 -221472884.24544883 0 -221472884.24544883 -125562988.20434713 0 0 0 0 -299498852.09971809 -137657035.98333916 0 -137657035.98333916 89344101.819512248 0 0 0 0 -213952991.39455414 -19054253.938448898 0 -19054253.938448898 90090.763690768683 0 0 0 0 -944649460.94867039 26453031.231202528 0 26453031.231202528 -132329437.43843701 0 0 0 0 -981152440.32134581 238274252.33689278 0 238274252.33689278 64383710.859658226 0 0 0 0 -507286235.57637125 576101261.22733414 0 576101261.22733414 -129729231.2982513 0 0 0 0 -1110101205.6495247 -203016577.75576958 0 -203016577.75576958 49829190.783476755 0 0 0 0 98968008.094223022 -124520015.65524384 0 -124520015.65524384 52011843.471480876 0 0 0 0 -889498.02185604163 -189622.26587109221 0 -189622.26587109221 44990.201981366154 0 0 0 0 -17516280.00582695 -4016174.8120387569 0 -4016174.8120387569 -9908358.5927311108 0 0 0 0 -1773914.9721474387 -616672.64606955461 0 -616672.64606955461 -25213.801330986338 0 0 0 0 -142208410.24828339 -67970868.878087491 0 -67970868.878087491 210103737.17798376 0 0 0 0 -526713181.97993958 -79173402.603861839 0 -79173402.603861839 446478378.3738848 0 0 0 0 -80704774.575222015 84192962.784454167 0 84192962.784454167 39328924.072081506 0 0 0 0 -46000153.49961853 -505542335.24240452 0 -505542335.24240452 -64830981.237088561 0 0 0 0 -869215.22273796611 -430847.40035903407 0 -430847.40035903407 -110509.59716423362 0 0 0 0 -233915922.83724594 -547131366.51261675 0 -547131366.51261675 245410523.83776662 0 0 0 0 -628465929.26160431 107395951.37136991 0 107395951.37136991 97605415.330293655 0 0 0 0 -587767681.00357056 -273989099.84391773 0 -273989099.84391773 31106238.230980754 0 0 0 0 -188760366.76277924 -297229497.96007413 0 -297229497.96007413 -119986120.39812282 0 0 0 0 -267177775.06952667 130835389.27367593 0 130835389.27367593 -72065624.267038718 0 0 0 0 -186592883.39385223 -105395154.94855151 0 -105395154.94855151 88513534.158311188 0 0 0 0 -383340964.40842628 -161574583.24956912 0 -161574583.24956912 115554217.92853874 0 0 0 0 -458255836.65385437 -70796824.829803616 0 -70796824.829803616 43447296.733964697 0 0 0 0 -281803322.57814407 83604712.797222555 0 83604712.797222555 93710644.693888783 0 0 0 0 -231180796.99506247 -151730747.53057209 0 -151730747.53057209 -17598766.068437502 0 0 0 0 -226039713.39476585 -13710647.392278353 0 -13710647.392278353 -2261345.2602893775 0 0 0 0 -240416831.60951996 -9511484.7979137134 0 -9511484.7979137134 27657546.88696117 0 0 0 0 -36264276.485116959 -17560292.011472922 0 -17560292.011472922 -71514.244208391465 0 0 0 0 -140999.59758630395 -88367.894636275945 0 -88367.894636275945 -773.02084979958818 0 0 0 0 49302376.473590851 -57450341.399241358 0 -57450341.399241358 38673565.122331649 0 0 0 0 75621002.354610443 -48468304.667570725 0 -48468304.667570725 21589915.336981028 0 0 0 0 -203221.87317190692 -163851.99997910229 0 -163851.99997910229 -21609.203175712937 0 0 0 0 -251032578.3028183 -76733642.68391642 0 -76733642.68391642 152551597.48134381 0 0 0 0 74962101.519981384 -5607740.5878421664 0 -5607740.5878421664 61957281.397886366 0 0 0 0 -40282.069467425346 -37422.311374608427 0 -37422.311374608427 1837.5835777973407 0 0 0 0 52544278.854028702 31131616.924883999 0 31131616.924883999 -8226083.6858497262 0 0 0 0 -189918223.81650543 -69847171.059056997 0 -69847171.059056997 -50055594.117471397 0 0 0 0 46102199.581413269 -61346407.42060259 0 -61346407.42060259 22583318.830883946 0 0 0 0 53438102.766395569 -37644592.302219242 0 -37644592.302219242 22393294.200417429 0 0 0 0 -22460128.987373352 7103851.172811076 0 7103851.172811076 3424075.1641327143 0 0 0 0 -142281.41739939712 -113925.26271444559 0 -113925.26271444559 31200.702949404222 0 0 0 0 -13592035.795959473 -10036783.127538353 0 -10036783.127538353 8155126.4024382159 0 0 0 0 2598720.6153469086 -609479.94582825899 0 -609479.94582825899 1815590.2434652448 0 0 0 0 -12078621.142436981 -18781000.35937348 0 -18781000.35937348 9955115.2412438393 0 0 0 0 -11180050.187599182 -212305.97758700699 0 -212305.97758700699 12172488.930465996 0 0 0 0 -4696485.673576355 -3766275.8772706389 0 -3766275.8772706389 2184732.233930707 0 0 0 0 -11433193.466896057 -1876754.1124328375 0 -1876754.1124328375 2963398.8044228163 0 0 0 0 -13361134.563171387 -23904403.265338898 0 -23904403.265338898 -61916603.262290001 0 0 0 0 -4006117.7174797058 5784069.1984349489 0 5784069.1984349489 5318970.8910598755 0 0 0 0 -4221549.9444988109 -617471.39226865629 0 -617471.39226865629 1015790.9318331729 0 0 0 0 -1974800.4529800415 1534913.7537354231 0 1534913.7537354231 2242019.4946244359 0 0 0 0 -2515705.9904450644 -712118.04230890237 0 -712118.04230890237 638348.19863389712 0 0 0 0 -30747426.992038727 19011703.889674336 0 19011703.889674336 15012430.928101301 0 0 0 0 -1207006.0757057667 -692327.84567740839 0 -692327.84567740839 1019961.0110753477 0 0 0 0 -8564852.5834999084 -6459466.3187060356 0 -6459466.3187060356 21908010.439277634 0 0 0 0 2022290.5539340973 3516692.7370219231 0 3516692.7370219231 -13180489.615015864 0 0 0 0 -6038804.5853271484 -13561118.784509912 0 -13561118.784509912 -16879041.211889505 0 0 0 0 -60456.98517505452 26373.526589322835 0 26373.526589322835 26604.20894553962 0 0 0 0 -2184436.2495221198 -269480.334863903 0 -269480.334863903 1882531.6802811229 0 0 0 0 4051964.6393623352 11418436.827186242 0 11418436.827186242 -40025590.245226622 0 0 0 0 28828497.184961319 24386562.886471868 0 24386562.886471868 12464346.138571024 0 0 0 0 -2966992.5630743923 -1263920.3393524624 0 -1263920.3393524624 575929.783902906 0 0 0 0 88165998.531101227 12421889.706548929 0 12421889.706548929 -60843834.676543534 0 0 0 0 -104110437.1135807 -68706761.369927943 0 -68706761.369927943 38975987.327423394 0 0 0 0 -40073469.694973946 57269728.127558947 0 57269728.127558947 -146509553.19178987 0 0 0 0 -3524956.5467094947 -2037315.5917105325 0 -2037315.5917105325 38782.568716327893 0 0 0 0 -12511412.133428574 4090269.4767284393 0 4090269.4767284393 81415323.76531601 0 0 0 0 -51751953.078804016 53475464.954529285 0 53475464.954529285 55249050.276343346 0 0 0 0 39109625.686891556 18433064.834000707 0 18433064.834000707 -169403192.59907484 0 0 0 0 -53507082.948986769 -209648050.84035689 0 -209648050.84035689 -312590031.78336835 0 0 0 0 19665054.881969452 49962826.64814949 0 49962826.64814949 -31834863.191024899 0 0 0 0 -66175274.260467529 -63450738.942342699 0 -63450738.942342699 17258283.964715064 0 0 0 0 67762075.801428795 28459558.368530527 0 28459558.368530527 -133162739.92918789 0 0 0 0 -624418.99962101411 105063.43488191441 0 105063.43488191441 580342.46761644853 0 0 0 0 -167736873.46046448 -160343897.53844512 0 -160343897.53844512 -50591788.574248791 0 0 0 0 -201119982.46109772 -308574584.62237376 0 -308574584.62237376 -143281598.53264844 0 0 0 0 -615813951.52184868 -256388501.23410323 0 -256388501.23410323 29610872.977811202 0 0 0 0 -148878856.10301971 -212250038.26061022 0 -212250038.26061022 27318422.173516095 0 0 0 0 -235224236.27695084 -301110562.03337383 0 -301110562.03337383 -130569752.00981498 0 0 0 0 -796125905.11799622 -108898577.43328157 0 -108898577.43328157 -78102495.498248696 0 0 0 0 -829167320.13568878 -92012368.720600605 0 -92012368.720600605 18162621.732215226 0 0 0 0 -772056167.08648682 -10446318.38831079 0 -10446318.38831079 -40163398.494599521 0 0 0 0 -1166317294.4573631 282304794.35187936 0 282304794.35187936 -409578223.08499861 0 0 0 0 -762975387.33273315 -76649632.777774483 0 -76649632.777774483 -240090594.45253968 0 0 0 0 -892852910.22531891 148229080.68956745 0 148229080.68956745 -914065070.08534801 0 0 0 0 -219735483.82835197 -314792749.15033722 0 -314792749.15033722 -322610982.84372687 0 0 0 0 -897311054.00554371 -357719191.77809554 0 -357719191.77809554 -219803185.21248412 0 0 0 0 -141149130.77388 -258813104.69788468 0 -258813104.69788468 -396602909.4802773 0 0 0 0 -362422760.88873291 329906307.97609103 0 329906307.97609103 -152050253.80935562 0 0 0 0 -904730889.14940643 510827772.51164615 0 510827772.51164615 -207282994.81683469 0 0 0 0 -1355649.0883585159 -788765.59077699343 0 -788765.59077699343 -195792.03853917005 0 0 0 0 -923837034.20909882 123387779.16474909 0 123387779.16474909 59623453.539718509 0 0 0 0 -461648564.57209778 141100835.09882954 0 141100835.09882954 19627192.095811576 0 0 0 0 -460614111.1315918 121829952.37269253 0 121829952.37269253 41230873.424102604 0 0 0 0 -864489319.65666389 -18501763.605607361 0 -18501763.605607361 85970435.983191311 0 0 0 0 -885511836.97961807 17663239.804102972 0 17663239.804102972 167808081.60957205 0 0 0 0 -769912.07796185592 -97669.268385208212 0 -97669.268385208212 -554006.51255576336 0 0 0 0 -1342063240.4902935 125765800.2246595 0 125765800.2246595 179456682.74054956 0 0 0 0 -369880.6548896319 2201.576892000623 0 2201.576892000623 -371106.19800849631 0 0 0 0 -796881627.0934881 -45229922.63964542 0 -45229922.63964542 -85351456.767881095 0 0 0 0 -818991759.17588997 43557090.37643338 0 43557090.37643338 -53144218.843158275 0 0 0 0 -698819349.04981732 223881347.90303808 0 223881347.90303808 -383336881.51744437 0 0 0 0 -944896541.2881875 -5524011.1912139654 0 -5524011.1912139654 37997793.395724922 0 0 0 0 -844846956.53874111 -56341591.680871904 0 -56341591.680871904 33491271.628773354 0 0 0 0 -845832057.741642 -5914956.5836754376 0 -5914956.5836754376 35032462.865940996 0 0 0 0 -842074307.51535606 -13384078.049307656 0 -13384078.049307656 2327919.1936049499 0 0 0 0 -907425114.72813511 40296467.056239642 0 40296467.056239642 7911450.5105432533 0 0 0 0 -854285662.08402824 -7587932.9516193643 0 -7587932.9516193643 679500.31940528005 0 0 0 0 -807921578.43733978 16223894.505625615 0 16223894.505625615 18757142.125535578 0 0 0 0 -637358303.69504547 65694223.559066869 0 65694223.559066869 -20611587.107519452 0 0 0 0 -765299083.87996674 18779155.128690533 0 18779155.128690533 -24282443.208753854 0 0 0 0 -764087.82471487788 -92889.046877330169 0 -92889.046877330169 -226144.98336850366 0 0 0 0 -468391014.72269917 42603500.222851738 0 42603500.222851738 -72729601.225570798 0 0 0 0 -342020.96855401667 -162845.45523724891 0 -162845.45523724891 -43800.851659991895 0 0 0 0 -412387313.37015152 142493913.53805307 0 142493913.53805307 5121054.7143900394 0 0 0 0 -533485617.95991707 108648807.36720559 0 108648807.36720559 23989437.145330459 0 0 0 0 -440918645.26997757 14370843.825971961 0 14370843.825971961 -47030057.571181804 0 0 0 0 -380967975.05397415 15919904.543264151 0 15919904.543264151 -36716964.870960139 0 0 0 0 -573600978.25427628 6307396.1546519399 0 6307396.1546519399 -28365638.160869479 0 0 0 0 -488994215.04670334 70660241.411174163 0 70660241.411174163 50036165.686813831 0 0 0 0 -566445.00582370767 -194454.15764861554 0 -194454.15764861554 -162051.59772631834 0 0 0 0 -360919.1815211639 -34245.666905065998 0 -34245.666905065998 -43842.907122077144 0 0 0 0 -749798362.93800545 28706341.471959453 0 28706341.471959453 39276278.288581364 0 0 0 0 -665834046.40306664 -24323524.013417143 0 -24323524.013417143 35424343.919776134 0 0 0 0 -756401337.37461948 -44046060.490663111 0 -44046060.490663111 -41280078.678424522 0 0 0 0 -641258778.63121414 83595398.451952502 0 83595398.451952502 46837386.922860205 0 0 0 0 -572216153.96321869 32728125.697196573 0 32728125.697196573 -52370564.577056825 0 0 0 0 -448467959.7610321 66942421.139073759 0 66942421.139073759 -53491275.895879641 0 0 0 0 -300236768.73817825 -68949563.421544671 0 -68949563.421544671 -183730734.65470725 0 0 0 0 -311011207.0043869 -79396841.04051362 0 -79396841.04051362 -143876924.54806554 0 0 0 0 -528853074.20951843 -160300047.06421548 0 -160300047.06421548 -159065352.82069689 0 0 0 0 -110632015.47895145 -139707049.65738302 0 -139707049.65738302 -266083744.89529091 0 0 0 0 -104894417.58413315 -141300811.33384222 0 -141300811.33384222 -359849898.66104221 0 0 0 0 -39185132.61879921 -193288663.60357845 0 -193288663.60357845 -319015504.01805389 0 0 0 0 -194358658.46266556 -10543225.808237076 0 -10543225.808237076 -278440224.27756202 0 0 0 0 -54606932.908370972 58730146.219929874 0 58730146.219929874 -130403024.17423084 0 0 0 0 -90631075.875370026 -140975977.54736978 0 -140975977.54736978 -117932897.69319493 0 0 0 0 -181863648.43696594 3899127.0317105055 0 3899127.0317105055 53314640.696230665 0 0 0 0 -372732491.58673859 47192792.155784875 0 47192792.155784875 80486018.594245285 0 0 0 0 -165499676.8341713 -30272025.437794238 0 -30272025.437794238 13641658.372699857 0 0 0 0 -401714904.34647179 102088130.82846734 0 102088130.82846734 10055111.898384571 0 0 0 0 -249917954.50681305 -35316187.553099588 0 -35316187.553099588 24521634.886781335 0 0 0 0 -152797984.17176247 127992016.32631743 0 127992016.32631743 -64828502.573206902 0 0 0 0 -705252.87262072228 -717783.14275018487 0 -717783.14275018487 278327.3623567812 0 0 0 0 -13592128.401420593 58270130.455942094 0 58270130.455942094 -109406402.26926076 0 0 0 0 36832649.028609753 30213613.254354924 0 30213613.254354924 -63103982.937262654 0 0 0 0 -887095.22373249126 -229004.40910430904 0 -229004.40910430904 616484.20012347237 0 0 0 0 -40741258.608844757 -47244543.353895307 0 -47244543.353895307 -18531147.799896836 0 0 0 0 -62282496.676109314 -15969034.333525419 0 -15969034.333525419 -63522726.66410701 0 0 0 0 -153104156.0010376 -133580947.71477729 0 -133580947.71477729 -93542594.855534226 0 0 0 0 -81558826.146869659 -89927635.713465959 0 -89927635.713465959 -106451092.82831204 0 0 0 0 -71770439.34412384 -14883724.590480685 0 -14883724.590480685 42321336.460688829 0 0 0 0 -2775429.4513287004 -1194960.6710895258 0 -1194960.6710895258 950537.216355382 0 0 0 0 -29320974.543540955 29855709.855478525 0 29855709.855478525 44254925.26825504 0 0 0 0 -12706219.151437759 -47991849.941343904 0 -47991849.941343904 -65193305.361289263 0 0 0 0 -60734349.865509033 -59428160.346133709 0 -59428160.346133709 -30761820.911481619 0 0 0 0 -28466444.082588196 -81018746.296319723 0 -81018746.296319723 -55046073.712748528 0 0 0 0 22351862.797489166 -21290328.36034441 0 -21290328.36034441 -30773324.176760197 0 0 0 0 29123163.862190247 -60772009.220745564 0 -60772009.220745564 71874837.004289627 0 0 0 0 -149831.41981691681 121600.85669302335 0 121600.85669302335 158944.41302178515 0 0 0 0 -55273417.18914032 -63658591.33959496 0 -63658591.33959496 -40562844.077645212 0 0 0 0 -39783458.247039795 -91953871.59843564 0 -91953871.59843564 -70351919.462340355 0 0 0 0 -64943377.474136353 -90884805.489542961 0 -90884805.489542961 -46348562.406044722 0 0 0 0 -70701796.837356567 -82437699.262777478 0 -82437699.262777478 -58738110.849910378 0 0 0 0 -54537469.019828796 -78835287.206954598 0 -78835287.206954598 -79586772.811544478 0 0 0 0 -73569800.138946056 -121388000.80138323 0 -121388000.80138323 -107514244.75053406 0 0 0 0 -88480043.470767975 -55480545.512730092 0 -55480545.512730092 -54071023.00072287 0 0 0 0 -69015116.047615051 -98983321.430462539 0 -98983321.430462539 -137677338.20064381 0 0 0 0 -129801549.9215889 -117321778.06734914 0 -117321778.06734914 -142583525.6743395 0 0 0 0 -79537892.552093506 -108337905.43396866 0 -108337905.43396866 -248699357.85759693 0 0 0 0 -166730241.37599945 -270477682.42455369 0 -270477682.42455369 -312131397.92811739 0 0 0 0 -306767155.54908752 -150796046.47659212 0 -150796046.47659212 -90628151.719796062 0 0 0 0 -126557859.86062527 -98300461.110542059 0 -98300461.110542059 -152751882.95980644 0 0 0 0 -150928525.05014038 -63608432.196944177 0 -63608432.196944177 -55695894.42965132 0 0 0 0 -442464133.62367249 -19086166.386538029 0 -19086166.386538029 -131218268.12100255 0 0 0 0 -45342750.512641907 -230333412.71629965 0 -230333412.71629965 -477619370.60428953 0 0 0 0 -562313.36126237363 -388129.20797075564 0 -388129.20797075564 356401.58510521706 0 0 0 0 45630651.687547684 33222269.940182924 0 33222269.940182924 -171587772.30565232 0 0 0 0 33005674.932050705 -175696369.38912076 0 -175696369.38912076 -447366703.2831552 0 0 0 0 -1067683.0577590801 -34931.385823023273 0 -34931.385823023273 22297.355173561489 0 0 0 0 129922816.29061127 -4854343.0487166643 0 -4854343.0487166643 -74837027.038698375 0 0 0 0 -302924809.13503647 53531510.433967769 0 53531510.433967769 -55407407.369018018 0 0 0 0 -243329602.67110062 -337804222.89554149 0 -337804222.89554149 -274192082.25883532 0 0 0 0 -173910571.69981003 -209357304.74892306 0 -209357304.74892306 -63733436.772930145 0 0 0 0 -2232575.6041094325 785697.98226726684 0 785697.98226726684 -73322.058746727009 0 0 0 0 39638509.431867599 28139914.33264339 0 28139914.33264339 -76534311.842213273 0 0 0 0 -165473263.12804794 51701901.935735345 0 51701901.935735345 262655335.85292166 0 0 0 0 -7996175.4068694115 33881523.608585104 0 33881523.608585104 -4696796.4600098133 0 0 0 0 -29716260.95872879 -88651245.936953619 0 -88651245.936953619 23099765.487144709 0 0 0 0 -72254765.631736755 -118380298.19629669 0 -118380298.19629669 -175491393.42975879 0 0 0 0 -266000646.78155327 -3307904.3408071995 0 -3307904.3408071995 12517426.293331861 0 0 0 0 -108790792.23799515 40421170.06636703 0 40421170.06636703 235946544.15751338 0 0 0 0 -69289934.622591019 107316537.55507839 0 107316537.55507839 -182889011.79739055 0 0 0 0 99859230.05919075 84500709.650255501 0 84500709.650255501 -181649383.69231534 0 0 0 0 -615316968.11834335 169508952.61945271 0 169508952.61945271 -12426490.122710943 0 0 0 0 -467087233.62471008 -106982118.96515512 0 -106982118.96515512 46021681.340601921 0 0 0 0 -1128463.6443386674 323458.93753164215 0 323458.93753164215 -10423.661865131522 0 0 0 0 -115445665.88734436 271462227.50993896 0 271462227.50993896 -110283499.79794121 0 0 0 0 -598810408.17533875 29531006.798596263 0 29531006.798596263 -73324891.062195778 0 0 0 0 -476434424.41029358 -94916607.447115839 0 -94916607.447115839 984426.54946279526 0 0 0 0 -483939514.53499603 -29586925.592473507 0 -29586925.592473507 -245125340.5994637 0 0 0 0 -397260283.93501282 -138747969.78012565 0 -138747969.78012565 -300984519.01078248 0 0 0 0 -544887847.54221725 -252919074.51797324 0 -252919074.51797324 -288668767.78415287 0 0 0 0 -363544867.74922943 -213366618.94439042 0 -213366618.94439042 -146054353.66618142 0 0 0 0 -382547174.07447624 -78209435.091242194 0 -78209435.091242194 -206559218.58514082 0 0 0 0 -228789933.41752243 -266458822.51505762 0 -266458822.51505762 -13281377.579447597 0 0 0 0 64433273.256479263 -194288664.22145316 0 -194288664.22145316 -228073824.296749 0 0 0 0 -210195132.72541237 -161127035.33498573 0 -161127035.33498573 -164696025.90595806 0 0 0 0 -109246714.97465897 -235042391.09864306 0 -235042391.09864306 -240978404.54501545 0 0 0 0 -73606772.004081726 -203908932.44412094 0 -203908932.44412094 -321982816.76652205 0 0 0 0 -230101100.32433701 -159414426.95499402 0 -159414426.95499402 -268706768.34386772 0 0 0 0 -336305874.42297745 -214757287.33503485 0 -214757287.33503485 -195068588.35892475 0 0 0 0 -357776833.61013031 -149431738.67262554 0 -149431738.67262554 -213262740.95210654 0 0 0 0 -543091514.75611627 -245094361.3987352 0 -245094361.3987352 -180361749.16204488 0 0 0 0 -204291870.13769054 -199070021.63669887 0 -199070021.63669887 -276565916.4255383 0 0 0 0 -442724919.61664963 13268113.096891135 0 13268113.096891135 -150781496.74194917 0 0 0 0 -299996.82067058072 -36785.147094146349 0 -36785.147094146349 -116305.5951170575 0 0 0 0 -756922863.77266502 -118462021.47643237 0 -118462021.47643237 -50839245.694337904 0 0 0 0 -599013907.78297043 -81334583.917735636 0 -81334583.917735636 -192561782.95873165 0 0 0 0 -541970358.78512776 -207019002.42870304 0 -207019002.42870304 -268173887.09013247 0 0 0 0 -668253659.87793732 -15012635.567189481 0 -15012635.567189481 -49519931.576936543 0 0 0 0 -581960361.19791031 -45488611.476761535 0 -45488611.476761535 -177329477.98515421 0 0 0 0 -614397353.03736591 -204007715.25850797 0 -204007715.25850797 -159043212.25266513 0 0 0 0 -644778492.10289764 -122946332.32877432 0 -122946332.32877432 -229028555.90569714 0 0 0 0 -620158181.52149582 -70157758.563584298 0 -70157758.563584298 -169661542.0516068 0 0 0 0 -618900467.88426208 -172840812.86617562 0 -172840812.86617562 -374120319.39698619 0 0 0 0 -636974691.55639744 -114608626.99954881 0 -114608626.99954881 -205332004.52542388 0 0 0 0 -754627557.65228271 53423638.79001987 0 53423638.79001987 -384326472.7747246 0 0 0 0 -881873552.77125549 -114429046.83369136 0 -114429046.83369136 -236295930.39241502 0 0 0 0 -241694.00025764434 93331.814343085513 0 93331.814343085513 -597816.76038090221 0 0 0 0 -563837818.93505597 347553366.58340019 0 347553366.58340019 -370318036.87008715 0 0 0 0 -657482436.48940277 -254206706.73021081 0 -254206706.73021081 -198279041.78106445 0 0 0 0 -359688267.18422222 154737493.82103837 0 154737493.82103837 -254007827.57546568 0 0 0 0 -553865440.80000687 -236421724.85281599 0 -236421724.85281599 227009043.23493671 0 0 0 0 -409616022.40244865 -138600441.2667819 0 -138600441.2667819 -30960197.622171305 0 0 0 0 -661961141.22768021 -225848843.49757576 0 -225848843.49757576 -49623264.660698511 0 0 0 0 -630052243.63511181 -221877839.19747323 0 -221877839.19747323 -165358702.81570828 0 0 0 0 -663748271.13635778 -290632570.08031297 0 -290632570.08031297 -13725790.545107456 0 0 0 0 -677433827.64320374 -235192356.68030488 0 -235192356.68030488 -20144152.493236985 0 0 0 0 -945008181.48180032 -108427731.62784965 0 -108427731.62784965 28853794.592122089 0 0 0 0 -805917606.57208633 -218964275.15218157 0 -218964275.15218157 -47494243.777149446 0 0 0 0 -696355491.20898914 -77904178.42639032 0 -77904178.42639032 -113683600.90040009 0 0 0 0 21721569.300010681 -19534166.378135622 0 -19534166.378135622 15550661.526127964 0 0 0 0 -308475.81498834491 -701222.53891857085 0 -701222.53891857085 216630.26160566806 0 0 0 0 -6365639.6340338774 344321.44835385587 0 344321.44835385587 1069241.8747654853 0 0 0 0 -43624191.071907043 -3271460.5038697422 0 -3271460.5038697422 14028466.126047075 0 0 0 0 -111544.7944984436 -21699265.787008405 0 -21699265.787008405 50339812.135483027 0 0 0 0 23816481.929637909 -46526192.076282024 0 -46526192.076282024 20414743.924748182 0 0 0 0 23892782.058198929 -31051844.788309127 0 -31051844.788309127 -30404024.534940004 0 0 0 0 23760031.586078644 -27880950.060438633 0 -27880950.060438633 -4931314.3712410927 0 0 0 0 1030967.2849769592 -10976870.412097454 0 -10976870.412097454 20630965.555679798 0 0 0 0 -2600401.3838747824 -2173493.5169882411 0 -2173493.5169882411 784879.25323939719 0 0 0 0 -1876689.2796669006 -7139669.4236528575 0 -7139669.4236528575 -404462.82618367672 0 0 0 0 306849.23844909668 -13729872.506076604 0 -13729872.506076604 -66652.693422317505 0 0 0 0 -15229893.633846283 -8258943.6610812247 0 -8258943.6610812247 21173408.423461854 0 0 0 0 2702029.2698287964 -11212098.459522247 0 -11212098.459522247 -10467870.259102046 0 0 0 0 -2834171.8140182495 -4699864.5071874261 0 -4699864.5071874261 -9246241.0861979127 0 0 0 0 -7716459.9863891602 -5146350.1339276135 0 -5146350.1339276135 -3339373.6672720313 0 0 0 0 -207043.07461166382 -9533033.3134443611 0 -9533033.3134443611 -3855902.9504603148 0 0 0 0 12115.730972290039 -9655043.476401031 0 -9655043.476401031 -5288483.3925787807 0 0 0 0 -42764273.788337708 -5261339.2067464292 0 -5261339.2067464292 26049271.948661804 0 0 0 0 -21209675.639884949 -23480052.579602182 0 -23480052.579602182 -13646929.165817291 0 0 0 0 -13974456.909698486 9388614.2690070868 0 9388614.2690070868 -30107795.230231807 0 0 0 0 -58173344.408981323 19654602.424417168 0 19654602.424417168 12429634.657785952 0 0 0 0 -37199614.84538269 -2166718.5008297563 0 -2166718.5008297563 34686543.170358121 0 0 0 0 -49145887.677490234 3130052.005177021 0 3130052.005177021 34775031.840107888 0 0 0 0 4906555.9355239868 -17835696.758345097 0 -17835696.758345097 9643824.4209513068 0 0 0 0 8216534.3639221191 -1817736.4638949633 0 -1817736.4638949633 -1958821.0218257904 0 0 0 0 -6498304.9251251221 -6859321.9865864515 0 -6859321.9865864515 -846471.85599753261 0 0 0 0 -6120904.1753005981 -4990180.9235790372 0 -4990180.9235790372 -3568838.1076219678 0 0 0 0 -34373755.965171814 3278585.0444643497 0 3278585.0444643497 16627492.984211981 0 0 0 0 -41568589.317993164 -9970080.4119307399 0 -9970080.4119307399 56444942.480636716 0 0 0 0 -19163530.532803059 -12302965.601471074 0 -12302965.601471074 28216028.08703959 0 0 0 0 -18476504.27150631 -17827098.450335804 0 -17827098.450335804 26278419.377247214 0 0 0 0 13678328.928512573 -44610805.892124593 0 -44610805.892124593 48050968.739092886 0 0 0 0 -53663389.518783569 -7446229.0102206469 0 -7446229.0102206469 95855559.948168039 0 0 0 0 -49472518.229551315 11901812.041573331 0 11901812.041573331 46090950.446978569 0 0 0 0 -26000583.248584747 -44393523.386206001 0 -44393523.386206001 144053680.23931623 0 0 0 0 -51326095.35433197 3275889.6122515798 0 3275889.6122515798 39192864.188839316 0 0 0 0 -50204547.621067047 9034594.9815823138 0 9034594.9815823138 41415546.184711337 0 0 0 0 -53059762.478111267 16193883.68677932 0 16193883.68677932 31933328.674558371 0 0 0 0 -30145872.735561371 44983780.789861798 0 44983780.789861798 -60901151.656404793 0 0 0 0 -29705479.185535431 32540237.097002119 0 32540237.097002119 -3008736.3210070133 0 0 0 0 -55274070.49405098 54815803.012605317 0 54815803.012605317 17325872.475353599 0 0 0 0 -30507954.228035927 -3083432.9426817074 0 -3083432.9426817074 -61237216.022888184 0 0 0 0 304829.83123469353 -130031221.458259 0 -130031221.458259 -25607310.546720624 0 0 0 0 13912045.2616539 100212930.41161641 0 100212930.41161641 71710042.071653962 0 0 0 0 -973542.22405996406 -129072.78416778892 0 -129072.78416778892 367626.21517136658 0 0 0 0 55887480.774757385 -63089157.876096845 0 -63089157.876096845 60865280.995362163 0 0 0 0 54107836.27173233 39736759.161909074 0 39736759.161909074 32452795.443664089 0 0 0 0 -79264462.580002308 -84396396.230593741 0 -84396396.230593741 -62239662.465618968 0 0 0 0 -64142545.504024506 19672595.461201817 0 19672595.461201817 148647552.36169034 0 0 0 0 -103816288.87083054 -42556234.423779964 0 -42556234.423779964 -92175741.989860654 0 0 0 0 -180641359.71841717 -179762307.47483921 0 -179762307.47483921 -58089482.146925986 0 0 0 0 -79293160.189956665 -137827776.6327318 0 -137827776.6327318 -228867908.98521006 0 0 0 0 -91617991.785115242 -205906661.49062413 0 -205906661.49062413 -108054636.27670312 0 0 0 0 -549175.80510350503 -458249.17192346789 0 -458249.17192346789 459795.03000485664 0 0 0 0 -29161891.319225311 -198288003.64981243 0 -198288003.64981243 -264023647.37529224 0 0 0 0 -113254998.65717697 -83269309.241660506 0 -83269309.241660506 10047213.32540527 0 0 0 0 -24081206.458433151 -11475509.59736985 0 -11475509.59736985 11303291.207234025 0 0 0 0 -122063673.59104538 -138411300.66652316 0 -138411300.66652316 -92262494.49715668 0 0 0 0 -51956916.714851379 -104772610.1884774 0 -104772610.1884774 -173525856.89433551 0 0 0 0 -73113599.409435272 -125370187.31998676 0 -125370187.31998676 -107857333.516268 0 0 0 0 -32302645.324136734 -63744774.962231457 0 -63744774.962231457 -88073332.623247623 0 0 0 0 -68215476.933380127 -109681774.93009691 0 -109681774.93009691 -110599464.55823883 0 0 0 0 -72202277.850170135 -122011820.25922275 0 -122011820.25922275 -107706492.03523433 0 0 0 0 -64928901.792369843 -111184465.26060849 0 -111184465.26060849 -133411243.18949431 0 0 0 0 -80075387.387191772 -154788499.50754726 0 -154788499.50754726 -164254546.52962735 0 0 0 0 -68870732.51675415 -120413543.18654907 0 -120413543.18654907 -178499994.5919168 0 0 0 0 -983215.06162014417 -749590.64529227465 0 -749590.64529227465 720915.05216544052 0 0 0 0 -98997852.44216156 -161743443.29537842 0 -161743443.29537842 -163272697.04429138 0 0 0 0 -81544632.565296173 -146162235.70904875 0 -146162235.70904875 -181814555.03660977 0 0 0 0 -103069250.51508427 -79514993.600207061 0 -79514993.600207061 -198688953.21234167 0 0 0 0 -99143989.209976196 -116381776.83104283 0 -116381776.83104283 -157606180.31935394 0 0 0 0 -3274549.9395312108 133321.63245327049 0 133321.63245327049 185849.15230324841 0 0 0 0 32243366.390975952 89127584.012735367 0 89127584.012735367 27273425.676844358 0 0 0 0 -5157127.4046495669 347968.51890326221 0 347968.51890326221 497045.64096883923 0 0 0 0 -80718831.869171143 -7104922.0753303766 0 -7104922.0753303766 25227388.218314052 0 0 0 0 6624917.7964820862 -125466848.87482166 0 -125466848.87482166 -180936173.199121 0 0 0 0 80497475.897174835 119996149.96294081 0 119996149.96294081 -69971556.322412252 0 0 0 0 -216094571.2991066 5947423.2627645731 0 5947423.2627645731 187797463.69418919 0 0 0 0 36017027.845380783 -51318648.911040425 0 -51318648.911040425 -105801886.51806033 0 0 0 0 -10561378.023241043 67162525.688806891 0 67162525.688806891 -97064291.290103555 0 0 0 0 -162187277.71449566 30371523.432364196 0 30371523.432364196 15383186.650862455 0 0 0 0 -116729281.60810685 -89024383.946053028 0 -89024383.946053028 -14708924.055123568 0 0 0 0 -592138.72475932911 281601.33381887176 0 281601.33381887176 -91576.842027729959 0 0 0 0 -68620378.878768921 -42798583.798000932 0 -42798583.798000932 13416875.032559156 0 0 0 0 -6264203.0372657776 -8195716.8442872763 0 -8195716.8442872763 24736681.576735497 0 0 0 0 -87147887.598358154 -2256569.1334136724 0 -2256569.1334136724 77253374.342114687 0 0 0 0 6970034.9407391548 174084581.50342304 0 174084581.50342304 103740777.58553445 0 0 0 0 -1410177.7922821045 -4851199.1295290887 0 -4851199.1295290887 1235999.2844138145 0 0 0 0 55044842.361709595 46877560.468829572 0 46877560.468829572 -3140403.1838400364 0 0 0 0 70034081.277763367 33957337.600569308 0 33957337.600569308 -104031839.37159282 0 0 0 0 -21467473.774168015 -30588020.303035557 0 -30588020.303035557 4772669.7133438587 0 0 0 0 -36653496.206085205 -45957222.966168761 0 -45957222.966168761 5597560.0144171715 0 0 0 0 -44491604.663700104 -16559481.349255204 0 -16559481.349255204 127500136.99310517 0 0 0 0 -1721420.5904395245 717062.87134252419 0 717062.87134252419 -130837.71919500188 0 0 0 0 -37909205.269317627 -43194621.860948086 0 -43194621.860948086 17281564.72243917 0 0 0 0 -39054798.113199711 -38638051.656284779 0 -38638051.656284779 497397.64628410339 0 0 0 0 -13243933.784633636 -48236205.858344197 0 -48236205.858344197 -51863061.74857688 0 0 0 0 -2315252.1978730094 738285.48259559344 0 738285.48259559344 -192183.92631719331 0 0 0 0 -22863645.90530014 -32135202.602353692 0 -32135202.602353692 -56620575.089240551 0 0 0 0 -19112721.841171265 -61375113.663118124 0 -61375113.663118124 -14390661.726648927 0 0 0 0 -169398.23138459399 -171051.17354728444 0 -171051.17354728444 40420.022320587945 0 0 0 0 -255120.30263900757 -246970.24345755577 0 -246970.24345755577 -12346804.874889851 0 0 0 0 -19881792.073120117 -32471902.570866585 0 -32471902.570866585 -7611192.5230976343 0 0 0 0 -35217152.999653578 7508272.5726303458 0 7508272.5726303458 9589533.0903396606 0 0 0 0 -22742624.120429993 14795150.755625486 0 14795150.755625486 22335294.286143601 0 0 0 0 -3786188.4222226227 994666.55338500952 0 994666.55338500952 -104270.12445331312 0 0 0 0 -3566575.7198066711 2396123.6431899071 0 2396123.6431899071 3605347.0372527838 0 0 0 0 -13041882.116928101 2235931.6525337696 0 2235931.6525337696 24860141.587318182 0 0 0 0 -5146327.9103658758 1144669.8335762387 0 1144669.8335762387 91753.372854362184 0 0 0 0 -4326846.5681028366 -594251.28552746773 0 -594251.28552746773 7698631.0025200844 0 0 0 0 -3929339.4190692902 673075.10794609785 0 673075.10794609785 1516718.6252360344 0 0 0 0 -3792005.4346542358 603175.83699017763 0 603175.83699017763 446355.24993228912 0 0 0 0 -1596851.4636154175 126452.39969301224 0 126452.39969301224 -653596.81402754784 0 0 0 0 -3533484.5336780548 25191.46810144186 0 25191.46810144186 350800.16787815094 0 0 0 0 -3786274.4894065857 -339509.65729665756 0 -339509.65729665756 103071.22488307953 0 0 0 0 734032.80595588684 3460437.5678894222 0 3460437.5678894222 -2331567.0906229019 0 0 0 0 -1566458.2146530151 -1520621.3477232456 0 -1520621.3477232456 -5237134.6842767 0 0 0 0 -427523.41550362483 -551401.02964849165 0 -551401.02964849165 85732.993304708565 0 0 0 0 -12965568.511562586 66243951.394696012 0 66243951.394696012 49708921.557457924 0 0 0 0 22706686.819876671 16073580.656987548 0 16073580.656987548 14854535.945356607 0 0 0 0 -3183371.8603820801 -1244443.0343910456 0 -1244443.0343910456 -1735461.5123118162 0 0 0 0 -1014935.1127114128 -1518061.8708105341 0 -1518061.8708105341 445057.16105962556 0 0 0 0 -4267128.5129089355 -1033175.7718977928 0 -1033175.7718977928 -57779.108890533447 0 0 0 0 21292315.428482056 -305640.45144563913 0 -305640.45144563913 -8039659.2256548405 0 0 0 0 32725944.408870697 -5950776.549516201 0 -5950776.549516201 -15790452.595486879 0 0 0 0 32721703.103172302 -9884852.4717479348 0 -9884852.4717479348 -43783734.469088793 0 0 0 0 30517986.938180923 14261248.430810809 0 14261248.430810809 -21108502.8751688 0 0 0 0 27148907.045499802 10378067.453169465 0 10378067.453169465 -14153921.4363693 0 0 0 0 -18849927.066036224 2194046.7013367116 0 2194046.7013367116 28273066.399530903 0 0 0 0 -5247938.03621535 87242.210392103065 0 87242.210392103065 1112167.5909780203 0 0 0 0 -16552171.183408737 3208009.5852689743 0 3208009.5852689743 -565068.53808748722 0 0 0 0 -1289496.525156552 231370.81821851991 0 231370.81821851991 -5235.6593958519807 0 0 0 0 4324025.4102554321 -18317465.21997869 0 -18317465.21997869 15932303.147708051 0 0 0 0 -2999958.4139132681 -2173878.8540053526 0 -2173878.8540053526 792137.27946885652 0 0 0 0 -16484338.321670532 1325904.4864819869 0 1325904.4864819869 10335740.435407639 0 0 0 0 -5554216.0941638537 663088.01856452879 0 663088.01856452879 189782.98504548776 0 0 0 0 -6110834.5153863337 1522630.9191455087 0 1522630.9191455087 1204807.6669299665 0 0 0 0 -4444187.4833946228 -647295.83875596523 0 -647295.83875596523 478312.69490289688 0 0 0 0 -9881251.87266922 -1141142.4793288708 0 -1141142.4793288708 830592.83432912827 0 0 0 0 -4360391.0890884399 49113.509857416153 0 49113.509857416153 245190.23689806461 0 0 0 0 -674712.29932764499 8647.385404098779 0 8647.385404098779 20757.881164556602 0 0 0 0 -249627.32720926031 -5560.9907079837285 0 -5560.9907079837285 190192.74629892479 0 0 0 0 -4477799.8140903823 -419688.69281350682 0 -419688.69281350682 1212731.292351367 0 0 0 0 -2992677.0664710999 -682921.54831254482 0 -682921.54831254482 1328280.5101044178 0 0 0 0 29273021.320765972 9607020.1118688136 0 9607020.1118688136 -4484857.6650064588 0 0 0 0 -8475988.9804138597 1434047.3143814011 0 1434047.3143814011 919320.68500650546 0 0 0 0 4255352.1344966888 -8151994.763430804 0 -8151994.763430804 -1649416.6829805933 0 0 0 0 -8356488.5734481812 858370.65544223785 0 858370.65544223785 3441746.4363520145 0 0 0 0 -2092608.8322839737 1617860.466230154 0 1617860.466230154 -508065.67671394348 0 0 0 0 -6598159.0156461857 870672.75801915606 0 870672.75801915606 636093.75639924267 0 0 0 0 -8594094.8627319336 797569.15139818192 0 797569.15139818192 -3544239.6615371704 0 0 0 0 -4238956.7507705688 -101586.46694540977 0 -101586.46694540977 1463088.7099575996 0 0 0 0 -9980177.4959793091 3926977.3512806892 0 3926977.3512806892 5320383.4567060471 0 0 0 0 -7767853.4396381378 -3369510.3246145248 0 -3369510.3246145248 8263863.3878241181 0 0 0 0 -4142267.4992786353 529178.55695206346 0 529178.55695206346 991805.45394518226 0 0 0 0 -8352644.3169877529 -1957649.9209139347 0 -1957649.9209139347 5696684.9721493721 0 0 0 0 1600278.7500753403 11247868.426366806 0 11247868.426366806 5657603.1386089325 0 0 0 0 -6433027.6044969559 -4180849.3560165167 0 -4180849.3560165167 4287385.4478472471 0 0 0 0 -10597306.748731613 -5496411.7457541227 0 -5496411.7457541227 13431642.258279085 0 0 0 0 -3780800.1112127304 -3672520.6124749184 0 -3672520.6124749184 3420775.4278334975 0 0 0 0 -2978346.0814890862 -14314892.71808508 0 -14314892.71808508 37473576.04201901 0 0 0 0 469101.39206838608 50462546.920796096 0 50462546.920796096 58566222.046675801 0 0 0 0 -4351066.7226057053 31482261.848581143 0 31482261.848581143 -15678414.881091148 0 0 0 0 -13525214.050859451 25457385.649859667 0 25457385.649859667 12330986.052641034 0 0 0 0 -3405148.4608612061 26074448.604421481 0 26074448.604421481 -21135098.463104412 0 0 0 0 81046392.762329102 53754939.606700256 0 53754939.606700256 -44063335.582738787 0 0 0 0 -4472546.6914558411 14311825.501847148 0 14311825.501847148 -39676090.207978182 0 0 0 0 -43724263.710874557 12555675.592472196 0 12555675.592472196 -15608903.89315629 0 0 0 0 -5682522.8088283539 29163909.119827747 0 29163909.119827747 -21912132.922366932 0 0 0 0 -14863227.281673431 15593649.232829854 0 15593649.232829854 -38133931.144453436 0 0 0 0 -23996455.764052391 24024577.919322282 0 24024577.919322282 -13644776.902289867 0 0 0 0 -15976047.088186264 13278730.63105011 0 13278730.63105011 -18211842.564648628 0 0 0 0 -46494488.107569575 41985378.240231767 0 41985378.240231767 -26487405.451396585 0 0 0 0 -22723471.483641624 7807524.1914089918 0 7807524.1914089918 -2726022.3671004772 0 0 0 0 -15825464.776152134 20575096.381494254 0 20575096.381494254 -32413860.432907104 0 0 0 0 -14607702.468172073 5298327.4757665396 0 5298327.4757665396 -10785990.146508962 0 0 0 0 -17028798.093877792 2306079.6795684099 0 2306079.6795684099 4216304.5483870506 0 0 0 0 -11609732.797897339 -4554778.9942834377 0 -4554778.9942834377 7545318.9598660469 0 0 0 0 -6466494.4374947548 -4665433.9886132702 0 -4665433.9886132702 2161153.1853871346 0 0 0 0 -6722996.9558606148 2159292.1194263101 0 2159292.1194263101 -5722517.191927433 0 0 0 0 -8296012.2865839005 -7428798.6978151798 0 -7428798.6978151798 10980895.919900656 0 0 0 0 -1328518.7013480663 11494546.849724829 0 11494546.849724829 -7860441.1906490326 0 0 0 0 983047.43991565704 4966760.6968652606 0 4966760.6968652606 -24982453.84780097 0 0 0 0 -14132370.202273846 40952736.24004887 0 40952736.24004887 -56295262.818785191 0 0 0 0 -62285276.035478592 56319646.325590789 0 56319646.325590789 -40685950.26158303 0 0 0 0 -24552062.174917221 11565666.642949104 0 11565666.642949104 -6667824.3552336693 0 0 0 0 316731.3514213562 43211300.063829303 0 43211300.063829303 -82848982.698729753 0 0 0 0 -24101713.293605804 46553177.330428481 0 46553177.330428481 -50188090.343675137 0 0 0 0 -81120651.489011288 85679320.692440957 0 85679320.692440957 -23664255.005227447 0 0 0 0 -74896220.511987686 95376763.446937501 0 95376763.446937501 -89902133.703942388 0 0 0 0 -31486698.673721313 71383918.543229014 0 71383918.543229014 -97779745.785361767 0 0 0 0 -90855663.853076935 148918238.9284462 0 148918238.9284462 -125730068.58175743 0 0 0 0 -35579934.232658386 42179957.481567532 0 42179957.481567532 114159864.54818302 0 0 0 0 -410054.29649283923 351347.22466781945 0 351347.22466781945 452768.37917499815 0 0 0 0 -53439427.122080803 -9948461.7176130712 0 -9948461.7176130712 137146470.66129744 0 0 0 0 -36923120.167489886 57471335.859278068 0 57471335.859278068 -55689616.364025593 0 0 0 0 -39480690.322950363 33421339.888888687 0 33421339.888888687 -18404265.197331876 0 0 0 0 -63314968.881811142 82147012.490092874 0 82147012.490092874 -17348339.415118705 0 0 0 0 -74419160.342069626 54230182.695674032 0 54230182.695674032 12080743.293538362 0 0 0 0 -74052114.68539238 26856339.851937681 0 26856339.851937681 -34010513.223229408 0 0 0 0 -19667260.873868942 73203124.458135486 0 73203124.458135486 -144018117.81522751 0 0 0 0 -147599740.11301804 -9538827.602519393 0 -9538827.602519393 -34540173.210109353 0 0 0 0 -1366749.8042682437 -140832.33871374151 0 -140832.33871374151 167111.59021933458 0 0 0 0 -193644097.85308313 -86578386.987016499 0 -86578386.987016499 134079295.39765322 0 0 0 0 -33421486.041559458 90328339.377251059 0 90328339.377251059 -35143124.954135656 0 0 0 0 39738149.877052307 -5367565.5539765358 0 -5367565.5539765358 -27972856.496516764 0 0 0 0 -66488238.641363144 -101406127.7929886 0 -101406127.7929886 54352343.803858042 0 0 0 0 -1624550.7305526137 -46083.042022689187 0 -46083.042022689187 148141.53565742107 0 0 0 0 -61403377.15189743 22716868.707486287 0 22716868.707486287 204877217.54581955 0 0 0 0 146827450.17595482 21994220.572042704 0 21994220.572042704 -173121029.43311721 0 0 0 0 -537936.40115995891 134934.70965338199 0 134934.70965338199 73428.280673821821 0 0 0 0 -76182608.028980255 109891129.55704944 0 109891129.55704944 36234921.516733289 0 0 0 0 -6142633.3965969086 46836757.25009799 0 46836757.25009799 45950525.521919966 0 0 0 0 -1157717.0568184853 -167083.79870851012 0 -167083.79870851012 108983.79173594271 0 0 0 0 -17169061.410772324 6411080.2542610168 0 6411080.2542610168 76091042.622067988 0 0 0 0 5018524.2985715866 29117890.794265985 0 29117890.794265985 -17228770.639045238 0 0 0 0 -861592.96930122375 53762739.428948998 0 53762739.428948998 -11397599.038650513 0 0 0 0 8285966.8168888092 1680883.4561817646 0 1680883.4561817646 -48559743.394039869 0 0 0 0 -105533.16855343524 161023.27642661938 0 161023.27642661938 -142842.22754717944 0 0 0 0 -94632589.154112816 -10348724.750793457 0 -10348724.750793457 3995084.2364559174 0 0 0 0 -2742509.8900526166 4955531.7579007819 0 4955531.7579007819 -1366268.7556390762 0 0 0 0 5040800.237622261 10312054.738250732 0 10312054.738250732 -9328290.7577118278 0 0 0 0 649626.22404003143 6763751.0936353207 0 6763751.0936353207 -408719.59432888031 0 0 0 0 34510139.652624071 -84324417.836486652 0 -84324417.836486652 -42537089.083414555 0 0 0 0 -646296.01194965839 -2043.8385833723005 0 -2043.8385833723005 107841.26526888052 0 0 0 0 20929273.611747742 1638156.2934088707 0 1638156.2934088707 -36209389.667896271 0 0 0 0 -87261352.962692261 -71372614.102307558 0 -71372614.102307558 114158815.01839626 0 0 0 0 -40784249.271730423 -39234199.148601294 0 -39234199.148601294 35612508.895250082 0 0 0 0 -88728400.919417381 17602049.250121355 0 17602049.250121355 -16599820.537541807 0 0 0 0 -54612473.38107872 -72638144.055487156 0 -72638144.055487156 -40137086.967206478 0 0 0 0 -105285832.54436398 122171055.66499662 0 122171055.66499662 66500385.189569235 0 0 0 0 -115010674.75618643 -67755692.319777772 0 -67755692.319777772 56092981.242900848 0 0 0 0 42388659.070833206 -61744549.728479505 0 -61744549.728479505 -97777194.880004421 0 0 0 0 66259003.779637337 107841250.80311513 0 107841250.80311513 -109935949.16866851 0 0 0 0 78413925.114027023 54834677.050429106 0 54834677.050429106 11683870.47529313 0 0 0 0 189109905.81112194 186339968.01126909 0 186339968.01126909 20022310.216840252 0 0 0 0 -36098949.857390881 -58899316.310944676 0 -58899316.310944676 -96994863.256092072 0 0 0 0 167940620.15226364 232120795.12071133 0 232120795.12071133 78270562.173411727 0 0 0 0 31960.160866374616 124221.06608001888 0 124221.06608001888 -307744.17935857503 0 0 0 0 -529557.94919446111 -47664.159289906849 0 -47664.159289906849 330591.98384811729 0 0 0 0 -5170245.677945137 -111052770.09931028 0 -111052770.09931028 19868763.893112421 0 0 0 0 -227054603.78749132 -87156940.269780815 0 -87156940.269780815 18145650.122456551 0 0 0 0 -202812104.75081396 -96626629.725627422 0 -96626629.725627422 -18985647.988798618 0 0 0 0 108215.93897222076 55239.734936590772 0 55239.734936590772 -315085.65246544546 0 0 0 0 229283828.90714407 87370795.721520185 0 87370795.721520185 -28714100.102016449 0 0 0 0 70181468.874414444 119328863.43002439 0 119328863.43002439 158895820.98654306 0 0 0 0 89151673.858000755 106339046.66598594 0 106339046.66598594 -18881239.479248643 0 0 0 0 -8982086.539580822 46964760.457866371 0 46964760.457866371 -36025584.693088412 0 0 0 0 -55141176.690041542 14743759.218979165 0 14743759.218979165 -35597420.364168406 0 0 0 0 11581540.423469067 22976582.402912252 0 22976582.402912252 -38166290.013229132 0 0 0 0 1992753.8634867668 45527769.095373467 0 45527769.095373467 -38073087.576871961 0 0 0 0 18377535.998570442 43027307.688234568 0 43027307.688234568 -43980811.491692901 0 0 0 0 11537164.559784889 -1135149.3146926761 0 -1135149.3146926761 -35360088.675475717 0 0 0 0 -62979041.037459373 58201879.760419726 0 58201879.760419726 -64833597.530753613 0 0 0 0 -65937976.464193344 24808836.319779813 0 24808836.319779813 -30912042.089006096 0 0 0 0 -148440422.89132261 -22265311.599958114 0 -22265311.599958114 -34826347.977935076 0 0 0 0 -145627465.64116192 106949598.45300913 0 106949598.45300913 -13884768.701669455 0 0 0 0 -943733296.74141335 -548461162.9866513 0 -548461162.9866513 39994099.069579132 0 0 0 0 -1224121.7661242681 -620617.07255062973 0 -620617.07255062973 -269716.71724754793 0 0 0 0 -370022608.4691658 350272473.8292101 0 350272473.8292101 -294686096.89195305 0 0 0 0 -212523169.02889445 -288490487.2157262 0 -288490487.2157262 -68813243.374790907 0 0 0 0 -205870559.44696426 -654027049.53695214 0 -654027049.53695214 -847705754.31484067 0 0 0 0 -662140024.70662498 -271752911.68874508 0 -271752911.68874508 10920771.094464291 0 0 0 0 -643414177.96556735 -354434699.41623592 0 -354434699.41623592 2600773.3397075944 0 0 0 0 91429155.55622673 -159515857.11263514 0 -159515857.11263514 -187507540.32814059 0 0 0 0 -162762.46739382949 -14748.447344559245 0 -14748.447344559245 -393712.57454098552 0 0 0 0 -508273046.15915298 -304246667.95187765 0 -304246667.95187765 -26138630.229683746 0 0 0 0 -169592099.06505299 -183069996.97940588 0 -183069996.97940588 -34023716.237419724 0 0 0 0 -293487.07844962971 -42928.365417701192 0 -42928.365417701192 -1050675.8255844419 0 0 0 0 -298963579.40276718 -87623087.608288407 0 -87623087.608288407 -80627224.901164293 0 0 0 0 -268854533.74799442 -75179476.903098702 0 -75179476.903098702 -84979461.220294714 0 0 0 0 -140365995.91591454 -83338367.364641786 0 -83338367.364641786 -103817950.49836159 0 0 0 0 -27953687.694244385 -61198553.635885835 0 -61198553.635885835 -84472638.719611406 0 0 0 0 -76115387.664779663 -136433187.49842453 0 -136433187.49842453 82213259.127609015 0 0 0 0 -152074710.70429993 -66470777.424659729 0 -66470777.424659729 19213987.916594744 0 0 0 0 -154603668.79063433 -209595523.07727993 0 -209595523.07727993 37005644.465748787 0 0 0 0 26586350.901527405 -260351290.43533993 0 -260351290.43533993 -276375167.3610394 0 0 0 0 -524169688.86651134 -359380400.00042731 0 -359380400.00042731 -26353828.244523168 0 0 0 0 -105382716.73973846 -274905235.90916455 0 -274905235.90916455 -112507576.20538449 0 0 0 0 -3506307.987045913 -795991.66818333324 0 -795991.66818333324 38082.481043503263 0 0 0 0 -118777770.89733887 55552573.848675132 0 55552573.848675132 44395827.769438922 0 0 0 0 71317895.260311127 18995810.248510897 0 18995810.248510897 -86738036.197650433 0 0 0 0 107058574.25277328 151609093.6916576 0 151609093.6916576 -119522750.80446742 0 0 0 0 113024203.77115357 -78692940.923787251 0 -78692940.923787251 -35596727.347614437 0 0 0 0 -100513878.32330704 -66738233.217452168 0 -66738233.217452168 385240903.26183367 0 0 0 0 -4719290.8497665543 -640474.55407568638 0 -640474.55407568638 534610.24853572634 0 0 0 0 -11899828.87245369 -55866806.685986921 0 -55866806.685986921 62589707.191528633 0 0 0 0 74448952.513580322 -118996175.57149124 0 -118996175.57149124 297557559.28551972 0 0 0 0 78047526.720153809 17742435.262320518 0 17742435.262320518 422922690.49437809 0 0 0 0 -32816195.703285217 -120887665.44317389 0 -120887665.44317389 298399001.19534063 0 0 0 0 -77042800.554222107 -51656921.733125448 0 -51656921.733125448 239528977.15513706 0 0 0 0 39010452.898540497 -46280281.227949023 0 -46280281.227949023 110263827.60962176 0 0 0 0 112814183.16740417 -59696968.392131805 0 -59696968.392131805 216555122.86263275 0 0 0 0 -76196872.035102844 -116571347.86953664 0 -116571347.86953664 6047861.0909147263 0 0 0 0 -67422318.873371124 55218738.426345527 0 55218738.426345527 313242796.14855719 0 0 0 0 -50335611.794780731 -50202581.265643597 0 -50202581.265643597 358244982.2594825 0 0 0 0 -2752013.7987563498 -1536477.6539795906 0 -1536477.6539795906 -54184.658904374417 0 0 0 0 -34512245.100009918 -27980357.913311481 0 -27980357.913311481 225607983.81890297 0 0 0 0 -26753261.742591858 29524702.839671612 0 29524702.839671612 206265719.11402339 0 0 0 0 -34723451.643096924 -13018147.830324411 0 -13018147.830324411 224089174.61546612 0 0 0 0 52778025.150997162 -19776068.699345469 0 -19776068.699345469 107480250.15713 0 0 0 0 27627085.398452759 -108200199.56196165 0 -108200199.56196165 193545093.84622121 0 0 0 0 59620563.908665657 42285302.905424416 0 42285302.905424416 194229555.21453094 0 0 0 0 51058213.563919067 -21139090.738635063 0 -21139090.738635063 261319661.79618406 0 0 0 0 39821189.14074707 36358078.429868698 0 36358078.429868698 240253520.71841216 0 0 0 0 24063365.604442596 -29489464.785516977 0 -29489464.785516977 340079600.08055234 0 0 0 0 109630626.03916931 -109056724.09391117 0 -109056724.09391117 250744025.07266808 0 0 0 0 233408625.33283997 5791412.0542397499 0 5791412.0542397499 326827741.45813322 0 0 0 0 121908883.53193665 67803128.58154726 0 67803128.58154726 369840691.57380009 0 0 0 0 103199996.6125946 -141602970.0054965 0 -141602970.0054965 486812028.42622375 0 0 0 0 129086273.22680664 67712175.107903242 0 67712175.107903242 610661923.17977524 0 0 0 0 152029820.47171021 48478829.416459084 0 48478829.416459084 357288524.775702 0 0 0 0 -217689.49223779142 -33509.614854580723 0 -33509.614854580723 175405.67205816903 0 0 0 0 117604605.86547852 -204812875.05988216 0 -204812875.05988216 758489963.82829642 0 0 0 0 -38835781.014038086 14872681.777967811 0 14872681.777967811 337216819.72630787 0 0 0 0 -10370010.200626373 -92760203.86501503 0 -92760203.86501503 305832604.58069408 0 0 0 0 -56971343.574569702 -28535176.175086737 0 -28535176.175086737 293774464.17856777 0 0 0 0 65410313.639255524 17020253.771064579 0 17020253.771064579 192880820.55303311 0 0 0 0 43178893.061374664 -83743180.105543047 0 -83743180.105543047 245722028.02362388 0 0 0 0 15081400.577800751 16999070.839291602 0 16999070.839291602 69608167.584921837 0 0 0 0 9477529.8066253662 -31036392.986580849 0 -31036392.986580849 106127757.5224545 0 0 0 0 15897526.450813293 -34619096.484086275 0 -34619096.484086275 195627318.16081667 0 0 0 0 -58135600.12979126 -30293231.087730765 0 -30293231.087730765 199644078.49703479 0 0 0 0 -87537717.777796507 -38863698.467511274 0 -38863698.467511274 109286453.31043005 0 0 0 0 -68909343.556282282 72251434.545247376 0 72251434.545247376 68340323.738185644 0 0 0 0 14361224.303623199 -30242416.295512199 0 -30242416.295512199 -45320213.268853188 0 0 0 0 -99069405.597675323 -19730694.256621003 0 -19730694.256621003 -43839850.138467491 0 0 0 0 19833302.844091415 -105862893.00555855 0 -105862893.00555855 -45634483.95621109 0 0 0 0 -38814155.152439117 -30880512.37388134 0 -30880512.37388134 116852350.37527406 0 0 0 0 -85215054.12852478 -162498148.40605271 0 -162498148.40605271 -91182850.234120905 0 0 0 0 -152457398.22263026 -16115253.210010529 0 -16115253.210010529 -161769772.53926945 0 0 0 0 -180205519.46931458 32690693.375282049 0 32690693.375282049 28828384.485786438 0 0 0 0 -131194714.18508148 40360710.55057919 0 40360710.55057919 -114626524.36775398 0 0 0 0 -55138497.485006332 -76394820.968885064 0 -76394820.968885064 -130073224.9273622 0 0 0 0 -175926800.05264664 -131003870.13779408 0 -131003870.13779408 -54302106.264525414 0 0 0 0 -138686953.72600102 112730836.07939139 0 112730836.07939139 -112676998.51165199 0 0 0 0 -361572.14819966257 233847.33093018457 0 233847.33093018457 307996.87021364958 0 0 0 0 -40848548.888203621 120163145.00847811 0 120163145.00847811 -375871294.73516607 0 0 0 0 -757390.10816153511 329477.61875428556 0 329477.61875428556 -139369.29956087033 0 0 0 0 -13758685.30542469 99009888.520178705 0 99009888.520178705 -302270598.06675482 0 0 0 0 -112838324.54776955 190386083.19262522 0 190386083.19262522 -114209670.28770733 0 0 0 0 -34041152.283256531 116510578.47189549 0 116510578.47189549 -61176893.388257802 0 0 0 0 -678097.86704382673 526091.82609133236 0 526091.82609133236 672882.9967910439 0 0 0 0 18608459.416164398 10832502.658810735 0 10832502.658810735 -85739392.569353342 0 0 0 0 -77830490.62985611 4603887.7121478915 0 4603887.7121478915 69545917.40386045 0 0 0 0 -3880428.7030601501 31698415.037488386 0 31698415.037488386 79334141.410834312 0 0 0 0 -6490130.5428543091 -31268701.248824477 0 -31268701.248824477 165010915.94220281 0 0 0 0 -36895572.768037796 9063612.0460854173 0 9063612.0460854173 221889474.04932582 0 0 0 0 7778256.829826355 42335349.920789957 0 42335349.920789957 238861694.34364504 0 0 0 0 -11617413.949796677 -14932017.143890679 0 -14932017.143890679 38748049.990008354 0 0 0 0 3233094.0390110016 50894839.145898804 0 50894839.145898804 116577473.66319886 0 0 0 0 9782169.0749015808 -66766122.433593273 0 -66766122.433593273 204544500.78516439 0 0 0 0 -428745.04227852635 -39751.82516638597 0 -39751.82516638597 46363.856404608116 0 0 0 0 62812354.767503738 15961010.587029457 0 15961010.587029457 -8791116.014269352 0 0 0 0 -69320018.762214661 55964250.816674232 0 55964250.816674232 -27382982.127024889 0 0 0 0 -56466874.887088776 -24658085.264388025 0 -24658085.264388025 297992649.1289584 0 0 0 0 -2560159.4775618985 -532324.72996300296 0 -532324.72996300296 137805.09898154106 0 0 0 0 -264987161.56246185 -44865469.931648731 0 -44865469.931648731 -5592090.9800251126 0 0 0 0 -175497736.8002491 4464852.8178924322 0 4464852.8178924322 28464277.66778183 0 0 0 0 -86242387.469168663 -187937456.41555071 0 -187937456.41555071 -57280847.944752216 0 0 0 0 -39438170.027336121 -12334804.229523897 0 -12334804.229523897 24454179.746974766 0 0 0 0 -18060202.462412834 -2640890.9506448507 0 -2640890.9506448507 15466422.36969018 0 0 0 0 -59886738.031478882 18372554.773057103 0 18372554.773057103 21806110.144910812 0 0 0 0 -11873167.008291245 28664179.27212429 0 28664179.27212429 -16090087.491647005 0 0 0 0 1438507.9083986282 4206591.0805146694 0 4206591.0805146694 19218151.677650452 0 0 0 0 -2304937.4553937912 33174528.616872072 0 33174528.616872072 16516267.149249554 0 0 0 0 -16765319.338837624 19368672.620802045 0 19368672.620802045 5846447.2456412315 0 0 0 0 -4413041.7705516815 10312497.575373411 0 10312497.575373411 6778935.7263677418 0 0 0 0 -18032148.708562851 16538029.124405146 0 16538029.124405146 21666172.335365772 0 0 0 0 -10321236.421854019 5200477.8223257065 0 5200477.8223257065 3786803.7195420265 0 0 0 0 -2742263.269733429 4994289.5361762047 0 4994289.5361762047 1390722.8187007904 0 0 0 0 -7356252.1170959473 -2581016.4346477985 0 -2581016.4346477985 14554976.276645154 0 0 0 0 -3361319.5032852888 -525946.8581983177 0 -525946.8581983177 2194612.9678569362 0 0 0 0 -1328141.1650468567 -246905.17183376942 0 -246905.17183376942 1648519.4471005448 0 0 0 0 -27840988.485595226 2769188.8336184621 0 2769188.8336184621 14874659.073136091 0 0 0 0 -3299948.0170860291 -1037673.3717270344 0 -1037673.3717270344 5811954.7666384354 0 0 0 0 -2021110.9850158691 811339.44453557208 0 811339.44453557208 4939907.0959507301 0 0 0 0 -1475176.0652399063 532404.73299731314 0 532404.73299731314 786700.38523434103 0 0 0 0 -3221797.188826561 1043785.8659153432 0 1043785.8659153432 1089874.0145064965 0 0 0 0 -1277981.3298955485 38988.671578483656 0 38988.671578483656 669601.32602053124 0 0 0 0 19284254.016202927 11116617.72296283 0 11116617.72296283 -3845122.2262503281 0 0 0 0 11387147.640096664 -9097537.6477679238 0 -9097537.6477679238 3284502.7816151045 0 0 0 0 968286.04281044006 -59764034.051554978 0 -59764034.051554978 -4487720.4749646187 0 0 0 0 -1438679.5808204641 -472961.43264938891 0 -472961.43264938891 1330466.0137685044 0 0 0 0 18232923.915700912 -14825949.04997015 0 -14825949.04997015 5644119.759250164 0 0 0 0 -387467.39359914418 8719.742156076245 0 8719.742156076245 359152.36947333347 0 0 0 0 98914896.184654236 39033079.519870281 0 39033079.519870281 18620789.454820395 0 0 0 0 106661653.56231308 19230483.316654921 0 19230483.316654921 -2836269.2937224805 0 0 0 0 104420099.96239853 -28600826.647407055 0 -28600826.647407055 -17592233.792052746 0 0 0 0 -35482617.118648529 -96493094.256392717 0 -96493094.256392717 -16325300.453837872 0 0 0 0 78538860.975959778 -105819799.69247723 0 -105819799.69247723 -118027424.07833767 0 0 0 0 162941213.77339172 -18010208.968566656 0 -18010208.968566656 -83381473.84835434 0 0 0 0 -2811801.8199006086 -300257.03233322594 0 -300257.03233322594 1111940.0229623201 0 0 0 0 -2110362.8630981445 -205766.56261533499 0 -205766.56261533499 4079921.1899878979 0 0 0 0 20514852.798871994 -10627628.403839627 0 -10627628.403839627 -1485807.4430052955 0 0 0 0 18920232.599369049 -1390894.0137603818 0 -1390894.0137603818 10880516.837824926 0 0 0 0 2831132.1548881531 -10248537.08149302 0 -10248537.08149302 -18527548.095769994 0 0 0 0 -33589253.805397034 6515042.237709567 0 6515042.237709567 -21673561.485123888 0 0 0 0 -33139661.764263153 2097661.7934951335 0 2097661.7934951335 -6469540.3195393309 0 0 0 0 6420315.4715270996 1672096.3701676093 0 1672096.3701676093 -9698736.7079391815 0 0 0 0 13399226.401649475 -12146578.874779299 0 -12146578.874779299 -7855547.6727004386 0 0 0 0 8272011.8988304138 2226410.593417719 0 2226410.593417719 24257590.243719719 0 0 0 0 -16625017.468406677 -15790456.279466867 0 -15790456.279466867 51225755.495284483 0 0 0 0 818094.45818328857 -9335038.5980647635 0 -9335038.5980647635 17206981.792526044 0 0 0 0 15953549.948390961 -32110743.58205495 0 -32110743.58205495 -8297003.6648056656 0 0 0 0 -33640523.717029572 5714899.4603068642 0 5714899.4603068642 -9647287.9326265529 0 0 0 0 -285349524.66203499 117796252.50685541 0 117796252.50685541 11097329.597312562 0 0 0 0 -57454425.909515381 16884382.519199505 0 16884382.519199505 -38763755.843289919 0 0 0 0 -225607549.00672746 -101456923.32618952 0 -101456923.32618952 74636.556599326432 0 0 0 0 -89100245.589645386 539461.18106689421 0 539461.18106689421 -4601837.2183903083 0 0 0 0 -75266916.598930359 4301132.1331181601 0 4301132.1331181601 -9931697.0611475594 0 0 0 0 -60957721.792930603 -16009194.084710753 0 -16009194.084710753 -14692083.349707238 0 0 0 0 -170760271.37891579 -3713208.5043008029 0 -3713208.5043008029 7792275.9994005263 0 0 0 0 -89262442.756387711 -23427619.319980644 0 -23427619.319980644 -11744793.158217952 0 0 0 0 -68095776.610155106 -18321584.735437222 0 -18321584.735437222 3891052.5221783519 0 0 0 0 -35144908.710128784 -8402002.6069272384 0 -8402002.6069272384 -11162238.579480164 0 0 0 0 8961408.1565570831 -7896511.7742092498 0 -7896511.7742092498 -12426440.311179467 0 0 0 0 -35014865.427146837 550628.62905787886 0 550628.62905787886 -3680892.9638009667 0 0 0 0 2917182.3804531097 -3463236.1084677242 0 -3463236.1084677242 -15023350.258359455 0 0 0 0 646050.83530426025 20925383.377054676 0 20925383.377054676 8154678.0635804674 0 0 0 0 -442869.01847040746 -319.84209209494293 0 -319.84209209494293 113662.57713096136 0 0 0 0 361740.66298007965 12125561.083814595 0 12125561.083814595 41800323.063454255 0 0 0 0 788031.51334953308 884835.2268171981 0 884835.2268171981 4774541.5007570423 0 0 0 0 -120778.77252578596 2302.5624829055741 0 2302.5624829055741 16748.312322820606 0 0 0 0 -13056928.473758698 2987243.8370730728 0 2987243.8370730728 16343297.640346762 0 0 0 0 -29819692.078134537 9006515.627336096 0 9006515.627336096 15729665.385451622 0 0 0 0 -6803752.2597134113 -10227744.402293602 0 -10227744.402293602 -29544678.917171068 0 0 0 0 -152042786.79396629 -8747447.6036791503 0 -8747447.6036791503 -10849229.859551352 0 0 0 0 -37274964.186980963 -50072273.406804547 0 -50072273.406804547 -10148818.830638342 0 0 0 0 28517138.726672173 11912268.091215938 0 11912268.091215938 17283114.560480833 0 0 0 0 54683663.683408737 -223005810.4091585 0 -223005810.4091585 -19261975.484706342 0 0 0 0 -906647.03087513568 -181892.40584503231 0 -181892.40584503231 57897.738129502701 0 0 0 0 -244853780.0225141 -255221225.54254803 0 -255221225.54254803 -4106996.7857697434 0 0 0 0 -938071692.12440586 94886016.073934317 0 94886016.073934317 108234342.1562213 0 0 0 0 -83342044.427848816 57049494.643467948 0 57049494.643467948 109268721.74690947 0 0 0 0 -943408642.51638603 -89135731.82149066 0 -89135731.82149066 216548266.86042017 0 0 0 0 -535937.93047996797 97829.381460305303 0 97829.381460305303 50143.86218618686 0 0 0 0 -48757237.619691849 -70305517.039215356 0 -70305517.039215356 -25328499.426883489 0 0 0 0 -66650014.123011559 -46773747.219196305 0 -46773747.219196305 -52605336.909742445 0 0 0 0 -265288.15065603983 162433.43024170236 0 162433.43024170236 -140015.03441398742 0 0 0 0 -128318932.94758153 -88792738.291844979 0 -88792738.291844979 -28112895.299608715 0 0 0 0 59968481.458450317 186159863.04503268 0 186159863.04503268 105519071.12198177 0 0 0 0 76333022.577252388 115769970.13296963 0 115769970.13296963 -234201583.04781687 0 0 0 0 -943938291.57728195 180219984.76754126 0 180219984.76754126 104169843.19380306 0 0 0 0 -413586348.03441525 -91491889.876729861 0 -91491889.876729861 193783216.94504952 0 0 0 0 173106882.88769054 -39001756.16993618 0 -39001756.16993618 -65278650.716329306 0 0 0 0 -916491.41945572523 -120945.25341250293 0 -120945.25341250293 -156395.22988634717 0 0 0 0 149785180.71265411 -44384741.933909118 0 -44384741.933909118 102205668.58213854 0 0 0 0 -182849912.75780106 59599554.815183759 0 59599554.815183759 27744373.343597919 0 0 0 0 -128766121.9694252 66963509.413268939 0 66963509.413268939 28674814.601481281 0 0 0 0 -64731.89450018527 -126547.33540303539 0 -126547.33540303539 -247249.4980898744 0 0 0 0 -129633534.48990726 67323719.906201094 0 67323719.906201094 28624875.682522766 0 0 0 0 -74269890.960178852 90683840.160419613 0 90683840.160419613 -61115345.154632062 0 0 0 0 -67739337.971767902 -95757264.433589458 0 -95757264.433589458 5247049.5676865578 0 0 0 0 -137688.17355220858 -111178.18328474648 0 -111178.18328474648 -217854.72078392381 0 0 0 0 -940445008.00506783 -220632342.60737014 0 -220632342.60737014 89764701.889510915 0 0 0 0 -239882945.56027365 148881756.70171526 0 148881756.70171526 -33351941.125837155 0 0 0 0 -942884878.44002485 -157429333.16062942 0 -157429333.16062942 54830477.440028541 0 0 0 0 -944280587.99052596 271727163.68378437 0 271727163.68378437 -52909650.833694018 0 0 0 0 -231347370.87450075 -44663954.785792656 0 -44663954.785792656 23953413.059122119 0 0 0 0 -1368476.1304009482 -587916.83945708047 0 -587916.83945708047 -90491.700947482168 0 0 0 0 32719455.682871908 -20945276.451125376 0 -20945276.451125376 53549410.968069196 0 0 0 0 30943282.685362816 -109524196.03124377 0 -109524196.03124377 129649951.37382631 0 0 0 0 -21368821.320293427 -12198692.9212671 0 -12198692.9212671 117968518.75446281 0 0 0 0 5057020.9277248383 -30525578.726093527 0 -30525578.726093527 52924361.53675472 0 0 0 0 7280231.3626661301 -43866575.247704305 0 -43866575.247704305 82061416.353271693 0 0 0 0 -1328766.6112083532 -545706.47764547099 0 -545706.47764547099 19799.928254004997 0 0 0 0 4112554.5960521698 21573979.411326438 0 21573979.411326438 -16535871.114771843 0 0 0 0 2496502.7874879837 -37095680.760019764 0 -37095680.760019764 6187488.3142977208 0 0 0 0 -148764253.50827837 39555850.878157511 0 39555850.878157511 -1955513.3654156029 0 0 0 0 -20868774.566510201 -18429224.191798598 0 -18429224.191798598 -15842226.67116648 0 0 0 0 -166921887.55029774 -51050353.357846022 0 -51050353.357846022 -15996136.233488858 0 0 0 0 2791791.3865022659 6624946.7362990975 0 6624946.7362990975 -5320090.4707724825 0 0 0 0 18771901.856786728 -3102716.6480152458 0 -3102716.6480152458 -14007081.472818166 0 0 0 0 -3747454.9220123291 -13689169.588353232 0 -13689169.588353232 48024907.886668295 0 0 0 0 -1230191.6161969099 -299762.03566407366 0 -299762.03566407366 259652.36555784248 0 0 0 0 2252187.8437151909 -20163504.858475387 0 -20163504.858475387 32466244.559151828 0 0 0 0 11480779.825127602 -22575520.883597933 0 -22575520.883597933 49853851.614601128 0 0 0 0 -14680.060811664909 -25395.065346654155 0 -25395.065346654155 121764.30841589969 0 0 0 0 8419548.6816475391 -38122014.98117391 0 -38122014.98117391 95685229.960806221 0 0 0 0 1638915.4891867638 -13121529.168012327 0 -13121529.168012327 -16751731.937527403 0 0 0 0 -3826681.8204803467 -3094297.2301756479 0 -3094297.2301756479 10068900.04756989 0 0 0 0 -3850131.0323678255 -3519578.8835915821 0 -3519578.8835915821 2376914.0688145421 0 0 0 0 -22309.28689625673 -113381.96411922027 0 -113381.96411922027 381405.36262183974 0 0 0 0 -1222577.4085016251 -3258020.4212241238 0 -3258020.4212241238 -688959.54853920918 0 0 0 0 -1138375.184885025 -33949172.068871394 0 -33949172.068871394 67336389.294778973 0 0 0 0 -197383.46659088135 -1013068.1404331271 0 -1013068.1404331271 2259078.7841310473 0 0 0 0 31609280.130310059 -15374671.035832405 0 -15374671.035832405 8887582.5105317459 0 0 0 0 -34928.356999536045 -338754.35632462648 0 -338754.35632462648 773865.28859738761 0 0 0 0 180063.98144817352 -1107605.9657479012 0 -1107605.9657479012 2249851.5420413036 0 0 0 0 -261267.11570167542 -1186338.1302411221 0 -1186338.1302411221 2279896.9920314252 0 0 0 0 -2686335.3765296936 3161722.7762241364 0 3161722.7762241364 582632.96278917789 0 0 0 0 -173026.89567184448 -961900.77929305984 0 -961900.77929305984 2318486.3062363267 0 0 0 0 -1300061.9692781819 90855.900075393729 0 90855.900075393729 1879294.1508684084 0 0 0 0 -2684165.0208487511 3194394.9281728417 0 3194394.9281728417 -819843.32048654556 0 0 0 0 5224642.9773130417 -2387610.9083871841 0 -2387610.9083871841 235547.52996063232 0 0 0 0 -16431896.881937027 14524998.694258273 0 14524998.694258273 -109630657.57458234 0 0 0 0 -1358772.2666034894 -130370.41781671811 0 -130370.41781671811 1810431.7408967956 0 0 0 0 -23483227.583118916 14048029.188600935 0 14048029.188600935 61150413.043641984 0 0 0 0 -353792.14335125405 85865.075191926211 0 85865.075191926211 440882.04184479418 0 0 0 0 -11482658.715109587 -33546159.950455323 0 -33546159.950455323 48885793.33471483 0 0 0 0 58331736.513452888 23859375.749449179 0 23859375.749449179 48006076.497010469 0 0 0 0 13723185.9618029 29148373.28766321 0 29148373.28766321 56334559.158415914 0 0 0 0 1471236.6879825592 -43372724.838706449 0 -43372724.838706449 125713969.61206114 0 0 0 0 72529794.068416595 -66479723.678605676 0 -66479723.678605676 65033821.220592469 0 0 0 0 10949602.952219367 -55753910.225970641 0 -55753910.225970641 67363789.851486564 0 0 0 0 440184.54660892487 -36284515.060321093 0 -36284515.060321093 70788646.265816242 0 0 0 0 -8896609.7991027832 -14717839.13931635 0 -14717839.13931635 72026594.261298344 0 0 0 0 6229754.2871758938 -22317338.297927666 0 -22317338.297927666 67054690.387791872 0 0 0 0 -3984607.2919807434 25808948.260430694 0 25808948.260430694 48866651.834684402 0 0 0 0 -301843.46512000775 -148485.97657088097 0 -148485.97657088097 174676.11860520701 0 0 0 0 53698135.609844208 -56375889.535931498 0 -56375889.535931498 25297631.000936627 0 0 0 0 -9156042.1896877289 5100634.4285655618 0 5100634.4285655618 102146686.3760998 0 0 0 0 6348162.9979343414 24345862.916179299 0 24345862.916179299 -18059049.993141055 0 0 0 0 -1864933.3455371857 3256519.2907556295 0 3256519.2907556295 9838982.597577095 0 0 0 0 -6933059.7007389069 12464563.458411217 0 12464563.458411217 23481506.839208126 0 0 0 0 -1167829.0932598114 -6944069.6970291734 0 -6944069.6970291734 -588600.19443646073 0 0 0 0 -3190217.381321907 -38543.407132685184 0 -38543.407132685184 1690248.2778377533 0 0 0 0 -1286426.6144384751 -337513.97189349635 0 -337513.97189349635 748936.5527486935 0 0 0 0 -2778960.1054921481 -881212.02910052822 0 -881212.02910052822 1130708.9261039593 0 0 0 0 -2799055.8646755219 715667.07842874527 0 715667.07842874527 634768.6900177002 0 0 0 0 4759407.9931356907 -9159628.8777492493 0 -9159628.8777492493 -26398028.899966955 0 0 0 0 5168970.3023319244 -5666165.7136181593 0 -5666165.7136181593 1003886.1821744889 0 0 0 0 -4090056.3067762852 316950.73568716645 0 316950.73568716645 2919251.6413202286 0 0 0 0 -3939052.6183180809 20170.505936801434 0 20170.505936801434 2958581.4531521797 0 0 0 0 -2498416.0486983582 744972.61751372623 0 744972.61751372623 1227171.7751714268 0 0 0 0 -7377980.3823193312 -58759665.395475246 0 -58759665.395475246 32365139.856250193 0 0 0 0 -77923404.189546227 46061626.55553247 0 46061626.55553247 27882215.533392485 0 0 0 0 18390708.212188125 1029604.6368255895 0 1029604.6368255895 -1058125.6463197269 0 0 0 0 -2537717.8135788441 -906030.95965054631 0 -906030.95965054631 2011583.9685662985 0 0 0 0 -2000933.4431290627 -359979.38568821549 0 -359979.38568821549 653387.23317551613 0 0 0 0 -2995642.0324753374 400480.21885916858 0 400480.21885916858 1113775.1378598558 0 0 0 0 -18775788.90257597 -12979791.13396732 0 -12979791.13396732 44515010.683244221 0 0 0 0 8848271.0998840928 35352992.646210462 0 35352992.646210462 -35701914.439545169 0 0 0 0 -38842887.717618585 67214180.349875644 0 67214180.349875644 -24533413.691719241 0 0 0 0 -2772402.833243927 -1136921.0653580884 0 -1136921.0653580884 -57242.785611637344 0 0 0 0 -31825131.510136843 29919032.066030264 0 29919032.066030264 -15702570.977450993 0 0 0 0 -86588481.5760144 39676004.732183889 0 39676004.732183889 -17440700.854871608 0 0 0 0 -820119.01314400055 25591.179612434411 0 25591.179612434411 286684.31159607391 0 0 0 0 -3574106.0433182716 -159035.55212700367 0 -159035.55212700367 4137500.5112230778 0 0 0 0 -2893873.7615680695 -1401810.1121666431 0 -1401810.1121666431 5183122.6443374753 0 0 0 0 -3023837.8948975056 -329206.56333746295 0 -329206.56333746295 1002039.7341349842 0 0 0 0 -2965861.6254433393 33305.85735912621 0 33305.85735912621 1643697.6532772779 0 0 0 0 -4056183.8474507332 -1349073.1051297188 0 -1349073.1051297188 2996252.9864327908 0 0 0 0 2403620.0542697906 9240358.069847852 0 9240358.069847852 8884100.2175673693 0 0 0 0 -1678442.5402756301 29134.08617043565 0 29134.08617043565 919199.73707711743 0 0 0 0 -3880917.0040330887 4053589.5893423557 0 4053589.5893423557 1442650.2635171413 0 0 0 0 -3915311.4585416615 4604893.7368024439 0 4604893.7368024439 10934063.388544798 0 0 0 0 11431165.726895332 13832948.035578728 0 13832948.035578728 -13637851.858019117 0 0 0 0 22069906.077539921 40155722.97969681 0 40155722.97969681 27518156.638279676 0 0 0 0 96876547.200428486 -44348530.180362031 0 -44348530.180362031 -66456929.181566119 0 0 0 0 -22737214.6894674 6538002.7054129094 0 6538002.7054129094 -122668622.17723724 0 0 0 0 -2403538.4678808758 -993410.23825497099 0 -993410.23825497099 -280730.25226745685 0 0 0 0 -2881351.9117250443 -306336.83662843704 0 -306336.83662843704 42356929.350131929 0 0 0 0 -14369979.398485899 47295771.735242315 0 47295771.735242315 -58856017.361140892 0 0 0 0 -33342683.20943439 40792219.13529475 0 40792219.13529475 -40136548.464085691 0 0 0 0 -16924912.049720526 64953925.255426839 0 64953925.255426839 -27492388.84858942 0 0 0 0 2353454.908593297 44898228.184664413 0 44898228.184664413 -39825821.469180122 0 0 0 0 -1673542.7166227251 -374925.91753719829 0 -374925.91753719829 39290.736926866586 0 0 0 0 -36958798.255191803 -716819.56757155806 0 -716819.56757155806 128582411.77632479 0 0 0 0 -65529961.554728746 100808451.93182477 0 100808451.93182477 -42254024.211433031 0 0 0 0 -178718170.00296974 -260145834.21059161 0 -260145834.21059161 -17634506.679996789 0 0 0 0 -945232696.15870881 262805846.80130708 0 262805846.80130708 144415407.17534649 0 0 0 0 -697014792.29398632 386060496.7956537 0 386060496.7956537 -77731027.669931322 0 0 0 0 -870826.96004430833 -137248.65705248696 0 -137248.65705248696 22191.345955363853 0 0 0 0 -1291154031.4898992 -7885336.299300937 0 -7885336.299300937 -50429125.036356978 0 0 0 0 -945159424.7805202 -58259781.736737967 0 -58259781.736737967 -218349454.69008175 0 0 0 0 -940863958.71822679 -14993081.101392716 0 -14993081.101392716 99925600.564144939 0 0 0 0 -278665170.70867991 52150976.729063049 0 52150976.729063049 20590711.141350433 0 0 0 0 -277174863.34770989 61343063.740245603 0 61343063.740245603 -30564689.572465271 0 0 0 0 -271502694.10362816 -147715064.67951518 0 -147715064.67951518 81265298.613537073 0 0 0 0 -1884786.1705456583 -715200.2127187883 0 -715200.2127187883 -335095.37467641465 0 0 0 0 -943370917.55773115 406255561.91801423 0 406255561.91801423 -104488568.50919306 0 0 0 0 -6002038.7902193069 1657295.8522913456 0 1657295.8522913456 -7158699.7608549595 0 0 0 0 -17463689.744848251 -2114195.7163844109 0 -2114195.7163844109 -1234412.9652795792 0 0 0 0 -6274522.1358563602 -6267463.5047057495 0 -6267463.5047057495 -831548.12488365173 0 0 0 0 -246985.38430214254 -540213.18157370575 0 -540213.18157370575 1054208.239917279 0 0 0 0 3040407.253446579 601968.54344654083 0 601968.54344654083 -1729656.7433828115 0 0 0 0 -3805985.6659536362 3756268.0153918266 0 3756268.0153918266 17544538.406062603 0 0 0 0 -12392374.010377884 667180.52340269089 0 667180.52340269089 27698273.321872234 0 0 0 0 -3005118.2105064392 -6164812.7887439728 0 -6164812.7887439728 -3942694.1918048859 0 0 0 0 -9938888.5485429764 -11953503.183411598 0 -11953503.183411598 15116804.524525642 0 0 0 0 -39989.433618241921 298462.3026170833 0 298462.3026170833 -8567.3955460034776 0 0 0 0 -3726898.878430903 27925119.049050301 0 27925119.049050301 -14607512.027345181 0 0 0 0 -94612374.632109165 19669116.736974001 0 19669116.736974001 25758526.848824024 0 0 0 0 -64654363.787373543 37907049.321692944 0 37907049.321692944 -614235.03844451904 0 0 0 0 -58720085.809459686 -18219025.903581977 0 -18219025.903581977 6077217.0780296326 0 0 0 0 -94084783.331064224 12677266.163161993 0 12677266.163161993 26244096.812939793 0 0 0 0 -145128092.33040214 52700944.907413602 0 52700944.907413602 -3993373.6605424881 0 0 0 0 -50666905.12624836 31191866.838873386 0 31191866.838873386 545490.41303443909 0 0 0 0 -159562695.96703053 -32352857.873902738 0 -32352857.873902738 4104052.9505233765 0 0 0 0 81185237.803471088 14772167.563093722 0 14772167.563093722 70669700.789455414 0 0 0 0 110226412.77189732 137213784.20542836 0 137213784.20542836 117379946.45481658 0 0 0 0 -115475.34706536587 -71854.813721318264 0 -71854.813721318264 265752.67815982713 0 0 0 0 -39048237.804264069 1585007.6876111031 0 1585007.6876111031 -1178979.235350132 0 0 0 0 79613891.240115643 -9334457.8646962494 0 -9334457.8646962494 15585351.458158493 0 0 0 0 -40581428.048213959 17062525.619560122 0 17062525.619560122 87400176.570196986 0 0 0 0 -48098702.105354428 -20657436.488386124 0 -20657436.488386124 21347256.384587526 0 0 0 0 -164638457.0643158 -26152807.301882386 0 -26152807.301882386 40333248.561568618 0 0 0 0 36567207.292879105 42233724.887328386 0 42233724.887328386 -124015930.38420224 0 0 0 0 1805077.3557739258 44457596.620025635 0 44457596.620025635 83647500.075544119 0 0 0 0 -954910.01686277892 638031.20047554327 0 638031.20047554327 303013.03930278111 0 0 0 0 -14854863.829444885 1996012.1474802494 0 1996012.1474802494 1068252.3594026566 0 0 0 0 -15249269.999099731 2541733.772652626 0 2541733.772652626 2472566.1582370996 0 0 0 0 -15789506.751325607 3006921.1142419577 0 3006921.1142419577 2250050.3546626568 0 0 0 0 -89468820.598084927 61320887.003569007 0 61320887.003569007 -26239815.132680416 0 0 0 0 -345500.21937778778 -115033.85495979572 0 -115033.85495979572 149535.36498018407 0 0 0 0 -1030241.8458999386 -87365.967760598287 0 -87365.967760598287 607165.0430794945 0 0 0 0 -14375629.604032516 3506142.5862448215 0 3506142.5862448215 1519547.9077253938 0 0 0 0 -12535334.90229702 -2681516.1875463724 0 -2681516.1875463724 1706934.5790278912 0 0 0 0 -167735.43613533443 652503.98293003789 0 652503.98293003789 1035357.0609391851 0 0 0 0 -30280373.634088516 -46191527.782158613 0 -46191527.782158613 -60200145.721967578 0 0 0 0 -48362268.947711945 -18335261.823949099 0 -18335261.823949099 -9507000.2278774977 0 0 0 0 162153.60229921341 -10326393.073956907 0 -10326393.073956907 -17987107.594249964 0 0 0 0 -56217741.437353134 20915182.541431189 0 20915182.541431189 29501857.150024295 0 0 0 0 -89553029.71911335 -1818706.0539457798 0 -1818706.0539457798 59049402.811415672 0 0 0 0 -37940148.551259995 42576229.353496194 0 42576229.353496194 55771186.578126669 0 0 0 0 -57600852.465484619 40340690.547053695 0 40340690.547053695 102783473.97915554 0 0 0 0 35914.988366900943 248393.54853345454 0 248393.54853345454 313057.75452493608 0 0 0 0 14444886.917503357 -66656766.895374775 0 -66656766.895374775 79321949.935967445 0 0 0 0 45510197.197003126 -127245043.67509919 0 -127245043.67509919 129607684.36392343 0 0 0 0 156508333.90637207 125142397.99823594 0 125142397.99823594 3998656.4341762066 0 0 0 0 -261519871.05646515 -4658822.3166670799 0 -4658822.3166670799 47732827.049214602 0 0 0 0 -44101807.262613297 25620344.569566727 0 25620344.569566727 41512831.389107227 0 0 0 0 -700335.19599628448 75334850.990169585 0 75334850.990169585 89575271.622163981 0 0 0 0 -51863363.561788559 18701248.056343794 0 18701248.056343794 105483049.71311069 0 0 0 0 -518909.29807151388 -1305089.7064083666 0 -1305089.7064083666 1992333.882011716 0 0 0 0 -85641905.989422798 23982921.57953155 0 23982921.57953155 94705031.514988899 0 0 0 0 -1155768.0900505921 370882.74859460909 0 370882.74859460909 966395.24514160887 0 0 0 0 -7087084.7902383804 -2464796.4889359474 0 -2464796.4889359474 1559625.4315047264 0 0 0 0 -4509932.9448108673 -4040911.5393369198 0 -4040911.5393369198 8077708.3575773239 0 0 0 0 -702128.91387068667 -781715.9166051728 0 -781715.9166051728 1313205.0157343461 0 0 0 0 -43180424.522191048 9492680.443005085 0 9492680.443005085 74037683.682158232 0 0 0 0 -42824765.21878624 -2869027.2300007343 0 -2869027.2300007343 54212718.615875244 0 0 0 0 -527254.65452957153 202769.7776248455 0 202769.7776248455 1130430.7390298843 0 0 0 0 978189.884557724 17785.248830795288 0 17785.248830795288 1885152.4778347015 0 0 0 0 -379515.87529714871 -226617.51741388731 0 -226617.51741388731 1298580.7350346758 0 0 0 0 -730549.1568107605 -1972927.3856358528 0 -1972927.3856358528 3521467.0267477036 0 0 0 0 -1023444.402961642 -606663.42603498558 0 -606663.42603498558 1215107.7405729713 0 0 0 0 -2572543.4214572906 -2263516.2198405266 0 -2263516.2198405266 2771140.2810702324 0 0 0 0 -6637693.7492322922 3825449.5211789608 0 3825449.5211789608 2751976.0923805237 0 0 0 0 -83155840.912918091 -18736015.14541471 0 -18736015.14541471 187691769.06262136 0 0 0 0 -61237729.368280411 14449492.907508612 0 14449492.907508612 29312910.377371192 0 0 0 0 24598009.89263916 -32106672.057486236 0 -32106672.057486236 41590854.677007675 0 0 0 0 26674981.525363922 -45723868.251563191 0 -45723868.251563191 -106400072.88997674 0 0 0 0 25208974.633232117 -86901797.908864737 0 -86901797.908864737 37363377.42728281 0 0 0 0 73413291.704273224 122061418.00237942 0 122061418.00237942 39735473.831265286 0 0 0 0 -164584587.42236519 -11602584.213462114 0 -11602584.213462114 56614446.071154118 0 0 0 0 -27600778.440895081 33601596.122233391 0 33601596.122233391 -234211844.20239782 0 0 0 0 -96957.394307252951 13586.497017982416 0 13586.497017982416 141355.8167221836 0 0 0 0 -1962606.463092804 123590973.62594223 0 123590973.62594223 39743736.072068773 0 0 0 0 280604063.84175301 -50395657.383488536 0 -50395657.383488536 59737419.0999403 0 0 0 0 -62305009.487436295 -28097498.368650675 0 -28097498.368650675 291870401.80048656 0 0 0 0 -64184149.532962799 -6200904.5983784199 0 -6200904.5983784199 80667864.801750422 0 0 0 0 -14918102.201030731 -40373240.081530929 0 -40373240.081530929 -104862117.89819288 0 0 0 0 -445311.04018238559 1121132.2335386579 0 1121132.2335386579 1870870.5483689704 0 0 0 0 996850.77069091797 1436980.8313381672 0 1436980.8313381672 3726851.8922140598 0 0 0 0 1045362.9637069702 3287171.2349774837 0 3287171.2349774837 3429643.7546978295 0 0 0 0 -3314257.2657718658 82438.631796360016 0 82438.631796360016 9227273.8452730179 0 0 0 0 -2395535.4269898012 -1310594.5336710005 0 -1310594.5336710005 3006838.5726666823 0 0 0 0 1029077.0985355377 3770291.9449818134 0 3770291.9449818134 1010019.4767866135 0 0 0 0 1002675.306096077 1309708.7667227983 0 1309708.7667227983 1594014.7100744247 0 0 0 0 -29721994.790641785 -8286332.0795352459 0 -8286332.0795352459 11299159.222858012 0 0 0 0 -3026363.2998485565 5067272.1810564399 0 5067272.1810564399 -498020.76640796661 0 0 0 0 -106469.39878681488 60670.75212099019 0 60670.75212099019 568371.36608275597 0 0 0 0 -20364782.940179825 8424800.894127965 0 8424800.894127965 5630059.9033238888 0 0 0 0 -5362503.2710609436 36400.998040318489 0 36400.998040318489 9926607.0487186909 0 0 0 0 -3934813.1223966284 -1085702.1143929784 0 -1085702.1143929784 1658086.5865010764 0 0 0 0 -7010991.7801952362 -6265183.7123985291 0 -6265183.7123985291 9456752.9628353119 0 0 0 0 -14557317.745044708 -7330173.321079731 0 -7330173.321079731 9430864.091982007 0 0 0 0 -3985379.8613915443 483532.21201258898 0 483532.21201258898 2589829.2700309753 0 0 0 0 -13669226.880702972 6519077.8100960255 0 6519077.8100960255 11502859.23233372 0 0 0 0 -3745099.5391368866 1621283.5717570782 0 1621283.5717570782 6312815.6422237456 0 0 0 0 -1848240.9314624481 -746821.04671449563 0 -746821.04671449563 2146113.9497320401 0 0 0 0 -1668663.6257758141 -1446217.0893423557 0 -1446217.0893423557 3274639.8844261169 0 0 0 0 -3499897.9667224754 218307.15361279086 0 218307.15361279086 1958642.6345216015 0 0 0 0 -771970.42618179321 5997595.648951292 0 5997595.648951292 5176849.7442443371 0 0 0 0 -469743.6433568853 -361699.94241084671 0 -361699.94241084671 371556.3332510693 0 0 0 0 -1518599.8554375016 -672391.11697119079 0 -672391.11697119079 2026037.7140439665 0 0 0 0 -1844058.702214241 -760118.96475023031 0 -760118.96475023031 1391055.5566759109 0 0 0 0 -2634134.7505288124 142813.17281210423 0 142813.17281210423 1635952.4509658813 0 0 0 0 -3703311.59547925 133622.88937950134 0 133622.88937950134 2480558.9751791954 0 0 0 0 -1440917.0663332939 1117428.6152303219 0 1117428.6152303219 5098740.3542377949 0 0 0 0 -5737809.564605359 -1075780.3593801646 0 -1075780.3593801646 2501748.0324927438 0 0 0 0 -159269.02413736936 -139376.61962895095 0 -139376.61962895095 581389.40329934214 0 0 0 0 622073.85967206955 -2974875.7781882286 0 -2974875.7781882286 3762254.2992525101 0 0 0 0 967908.09364461899 -2717249.9114952087 0 -2717249.9114952087 2943767.8953886032 0 0 0 0 -112027.05266189575 -1585596.8378510475 0 -1585596.8378510475 3273754.7793440819 0 0 0 0 -962831.00216913223 -2296113.7190580368 0 -2296113.7190580368 3193181.6053876877 0 0 0 0 -694525.5896062851 -1929395.1978960037 0 -1929395.1978960037 3331906.3621578217 0 0 0 0 -1138322.1484661102 -1551551.4749031067 0 -1551551.4749031067 2540620.1927499771 0 0 0 0 -2605642.8019113541 -1130923.9166121483 0 -1130923.9166121483 3063442.0008602142 0 0 0 0 -270924.08875703812 -2799921.764954567 0 -2799921.764954567 2932033.1166725159 0 0 0 0 1148215.220261097 -2692543.3268680573 0 -2692543.3268680573 1821540.6789455414 0 0 0 0 455834.14435005188 -2182058.7806591988 0 -2182058.7806591988 2922907.6534948349 0 0 0 0 580390.47835445404 -4303007.1025595665 0 -4303007.1025595665 -202350.70045089722 0 0 0 0 1520615.5421953201 -1945805.1605491638 0 -1945805.1605491638 2780830.287817955 0 0 0 0 -18909781.640724182 -4500070.6555337906 0 -4500070.6555337906 5002054.6326758862 0 0 0 0 -60099.724460129626 -36349.751505685272 0 -36349.751505685272 181772.31861133547 0 0 0 0 -9883946.6797814369 9965414.6084294319 0 9965414.6084294319 -2901702.6313643456 0 0 0 0 -7107313.7016334534 6007185.6042742729 0 6007185.6042742729 1445923.9397621155 0 0 0 0 -7649603.931728363 5363322.6708036661 0 5363322.6708036661 3887489.6073980331 0 0 0 0 -8046826.1953458786 4265154.9470579624 0 4265154.9470579624 5459117.6081857681 0 0 0 0 -4753778.1608543396 1730127.0936686993 0 1730127.0936686993 4276703.722287178 0 0 0 0 8820465.6702523232 342940.81415987015 0 342940.81415987015 -1141338.0936555862 0 0 0 0 -429953.85982210003 525739.90382754849 0 525739.90382754849 252135.8936374333 0 0 0 0 -128256.33147444157 -75551.08575969236 0 -75551.08575969236 361524.33517315611 0 0 0 0 173999305.81472015 -52214517.471587181 0 -52214517.471587181 15051838.639183998 0 0 0 0 981495.43859195709 10651660.652385592 0 10651660.652385592 -2154700.782242775 0 0 0 0 -17609817.402534485 3697995.466594696 0 3697995.466594696 5425514.2067793608 0 0 0 0 -106002611.04893541 11907580.090970755 0 11907580.090970755 16427184.047232628 0 0 0 0 -52562788.662743568 -30541696.617943287 0 -30541696.617943287 -29922853.786427021 0 0 0 0 13552351.12238884 -45759833.590717793 0 -45759833.590717793 -3245154.4595932961 0 0 0 0 -205641860.01272774 -12635015.92167902 0 -12635015.92167902 105545781.38028145 0 0 0 0 -46948871.805956841 18381007.566761732 0 18381007.566761732 15589486.292503357 0 0 0 0 -54470695.619086266 10737628.783411741 0 10737628.783411741 12760722.23869133 0 0 0 0 -69474359.708406448 14670430.075489521 0 14670430.075489521 21641184.577897072 0 0 0 0 -46540494.431615114 14412565.653568625 0 14412565.653568625 4639163.5510425568 0 0 0 0 3566738.8630182743 -7406776.0676449537 0 -7406776.0676449537 -6550784.8463811874 0 0 0 0 -41178824.26905489 1974330.4424905777 0 1974330.4424905777 16375835.83500883 0 0 0 0 -232592.34038544586 7359.9685669005848 0 7359.9685669005848 961934.09613371547 0 0 0 0 -3798945.955663681 8548539.2730903625 0 8548539.2730903625 -733415.84876537323 0 0 0 0 -63114681.061062813 21995557.706950665 0 21995557.706950665 3834082.7126501184 0 0 0 0 -60852427.057260513 14033296.459668636 0 14033296.459668636 3812757.5835380554 0 0 0 0 -79564284.218920708 18028115.744105816 0 18028115.744105816 5715124.6791052818 0 0 0 0 -88556384.781874657 11593057.17553091 0 11593057.17553091 3740740.2335319519 0 0 0 0 -105836827.59817791 8115278.2213282585 0 8115278.2213282585 8155356.1772375107 0 0 0 0 -81244068.875196725 -130373.57696467638 0 -130373.57696467638 8327270.1375255585 0 0 0 0 -73789921.160007954 4170825.5853891373 0 4170825.5853891373 10779769.709937096 0 0 0 0 -63463823.122259617 1807490.1113600731 0 1807490.1113600731 8099601.7233285904 0 0 0 0 -67543408.418780327 9963340.2264580727 0 9963340.2264580727 8937305.3120679855 0 0 0 0 -64990758.396533489 15787290.878197193 0 15787290.878197193 11560260.402899265 0 0 0 0 -97656119.809232712 -28010667.246554852 0 -28010667.246554852 -2214953.2593502998 0 0 0 0 -61392861.31276226 -15230254.606084824 0 -15230254.606084824 1635070.9069423676 0 0 0 0 -77891141.283307552 -10321225.947396994 0 -10321225.947396994 6363184.7158145905 0 0 0 0 -50127170.706242561 -18071972.253308296 0 -18071972.253308296 3480325.1232318878 0 0 0 0 -62505162.215214908 -19171349.60783112 0 -19171349.60783112 4056978.3971796036 0 0 0 0 -56356867.302503586 -19108901.540315628 0 -19108901.540315628 10859738.847366154 0 0 0 0 -54886365.283720255 -20744719.234698415 0 -20744719.234698415 7362585.7178001404 0 0 0 0 -51181852.62712431 -9917308.479183197 0 -9917308.479183197 5538034.9291101694 0 0 0 0 -61991371.811084747 -113768.04462718964 0 -113768.04462718964 1282861.3546581268 0 0 0 0 -13595841.378910065 5882744.1281785965 0 5882744.1281785965 -2904119.1765341759 0 0 0 0 -96926318.09389019 -16649502.384424686 0 -16649502.384424686 10718797.869630814 0 0 0 0 -41937453.698270798 -42251120.339592218 0 -42251120.339592218 9288351.8579406738 0 0 0 0 -72249473.62446022 38990507.463446379 0 38990507.463446379 -7473184.2155361176 0 0 0 0 -68438851.072162747 20572101.266650498 0 20572101.266650498 5234096.9424381256 0 0 0 0 -43534563.307105064 448351.32757806778 0 448351.32757806778 -956508.57749915123 0 0 0 0 -45709903.332310677 21571323.172537327 0 21571323.172537327 3948082.1418886185 0 0 0 0 -25164399.236791611 16311398.075134516 0 16311398.075134516 -26887850.48688364 0 0 0 0 -72622017.540729523 -12239298.486935258 0 -12239298.486935258 4974980.6731581688 0 0 0 0 -22098571.984445572 13529935.947596312 0 13529935.947596312 12349734.898828268 0 0 0 0 4842934.7319822311 -36028057.336345911 0 -36028057.336345911 29985465.256880522 0 0 0 0 -36746764.870191813 -5429450.7491554022 0 -5429450.7491554022 9604147.4451246262 0 0 0 0 -3779503.0447058678 10642328.279018879 0 10642328.279018879 16582803.177843094 0 0 0 0 -507007.2805958048 -23248.710916528711 0 -23248.710916528711 345317.90750958538 0 0 0 0 26863003.70019424 -54482246.038989902 0 -54482246.038989902 9814694.4186668396 0 0 0 0 -112961779.2749486 63467967.188289165 0 63467967.188289165 -21202670.833435297 0 0 0 0 -998031.11903348705 -91321.255317321164 0 -91321.255317321164 622317.72695496352 0 0 0 0 -44598540.80060786 2165190.7317200899 0 2165190.7317200899 12189443.355395317 0 0 0 0 -82588741.346507788 25858079.157264709 0 25858079.157264709 11183611.249293089 0 0 0 0 -49565881.394090652 29866006.94590044 0 29866006.94590044 -4074500.0738830566 0 0 0 0 -75093810.68456316 32289933.722048283 0 32289933.722048283 6589642.1505590677 0 0 0 0 -57126569.593483925 5530090.6851358414 0 5530090.6851358414 -14020423.478391409 0 0 0 0 -30682546.462679863 29067098.944445491 0 29067098.944445491 3693204.0435685515 0 0 0 0 -17805238.218458176 -18114694.446873665 0 -18114694.446873665 49128960.025660753 0 0 0 0 -1026864.6043192917 -113951.01797581924 0 -113951.01797581924 611754.66542947828 0 0 0 0 -35774139.776739717 -11515347.234776855 0 -11515347.234776855 25121421.968449116 0 0 0 0 399160.41087841988 4215622.8272051811 0 4215622.8272051811 -6706024.1069602966 0 0 0 0 10182911.374908924 -17685741.218979836 0 -17685741.218979836 1764260.8942844197 0 0 0 0 140067.92141493806 265123.12164822227 0 265123.12164822227 -471859.50824768073 0 0 0 0 -2128153.5583868027 4317783.5728936195 0 4317783.5728936195 -1542684.3708095551 0 0 0 0 -5360507.9838972092 -1912795.718057394 0 -1912795.718057394 -966528.49036049843 0 0 0 0 -3460194.1861202149 -804229.31657851883 0 -804229.31657851883 -1881383.0002393352 0 0 0 0 -5725637.6167583466 -1293275.6907105446 0 -1293275.6907105446 -1370819.5337085724 0 0 0 0 -5282671.4018168896 -2726665.4293770273 0 -2726665.4293770273 -354512.72028803825 0 0 0 0 -4145171.1612944603 1000219.4857983589 0 1000219.4857983589 -6414596.8474140167 0 0 0 0 -3740473.6169033656 -1519593.0263870829 0 -1519593.0263870829 -1839501.4177427818 0 0 0 0 42411.821865080041 -117735.44750551053 0 -117735.44750551053 -147110.68861743202 0 0 0 0 8236649.1712408066 433825.76803040504 0 433825.76803040504 -7620319.853551507 0 0 0 0 -5170431.1577954292 -1328546.4613190293 0 -1328546.4613190293 39080.870783567429 0 0 0 0 -997586.09731185436 6851392.4369988441 0 6851392.4369988441 2614323.5363874435 0 0 0 0 -8337358.026714325 -4537149.8933711052 0 -4537149.8933711052 -1276897.260468781 0 0 0 0 -1483925.9997842708 -1182665.0153541993 0 -1182665.0153541993 -420921.69818213535 0 0 0 0 -854941.32929991675 -1137626.1405743232 0 -1137626.1405743232 -971088.96065603476 0 0 0 0 -12242045.967761517 -7550530.8800599575 0 -7550530.8800599575 6668604.3434188366 0 0 0 0 -15111839.983999968 200025.86531364918 0 200025.86531364918 -5613263.9265912175 0 0 0 0 -55763029.924464583 1084713.1090261936 0 1084713.1090261936 5994522.1852359772 0 0 0 0 -43489391.375388145 13545489.444898367 0 13545489.444898367 848400.89471709728 0 0 0 0 -26366558.470705032 -9270509.8186836243 0 -9270509.8186836243 576792.95715093613 0 0 0 0 -4732392.2533769608 309833.32560610771 0 309833.32560610771 -16915565.652720928 0 0 0 0 -41455784.572928667 2713952.4721391499 0 2713952.4721391499 833108.13748168945 0 0 0 0 -121633652.37815523 9141512.8568060398 0 9141512.8568060398 7538489.4255236387 0 0 0 0 -45617473.38354516 -20846971.541445017 0 -20846971.541445017 -32742436.955817223 0 0 0 0 -7592408.5488858223 -2029970.7803833485 0 -2029970.7803833485 -25313921.813786507 0 0 0 0 -7331336.6534383297 3646839.9583747387 0 3646839.9583747387 9132902.9053897858 0 0 0 0 -4590708.3871273994 2241794.7117369175 0 2241794.7117369175 2455690.9205448478 0 0 0 0 21087437.955684781 -5793673.01618433 0 -5793673.01618433 -16380820.771927834 0 0 0 0 -5268218.932046771 -348126.11873102188 0 -348126.11873102188 -463863.32904720306 0 0 0 0 -1700050.4602620311 -145585.23400557874 0 -145585.23400557874 -1713527.5408090544 0 0 0 0 -5305009.7419802248 -112399.63905602694 0 -112399.63905602694 119506.82429027557 0 0 0 0 -4201272.2345995903 224665.30581212044 0 224665.30581212044 -279992.26963436604 0 0 0 0 -53085.461501650163 -142000.85220268357 0 -142000.85220268357 16012.484393347171 0 0 0 0 -1684717.0158088207 1479038.6977732182 0 1479038.6977732182 -1398277.9332456589 0 0 0 0 -2849690.1361955702 932547.82128384151 0 932547.82128384151 -881957.02561235428 0 0 0 0 19028907.422147751 6548735.2545220852 0 6548735.2545220852 -15719659.35270834 0 0 0 0 -2186478.9342905818 785910.22611562908 0 785910.22611562908 -2219720.9142975397 0 0 0 0 -6574283.3217329979 7859212.3000233173 0 7859212.3000233173 -9003681.9616336823 0 0 0 0 -4622138.8299774528 2518539.4297236204 0 2518539.4297236204 3113137.0914335251 0 0 0 0 -3069319.8967311382 16400391.312279701 0 16400391.312279701 2183158.9407458603 0 0 0 0 239418554.44798872 -2991099.5853910819 0 -2991099.5853910819 266527060.06055117 0 0 0 0 -370872.59168609272 294447.62512919866 0 294447.62512919866 49271.681659992435 0 0 0 0 -49555510.302165985 -71691942.979801297 0 -71691942.979801297 238009398.65754724 0 0 0 0 259188.84273134172 138576546.12812477 0 138576546.12812477 117726440.25970578 0 0 0 0 -1623628.5322168451 2310904.8990441551 0 2310904.8990441551 -2566542.3013511817 0 0 0 0 12776996.307193756 -18792874.106705904 0 -18792874.106705904 69064153.299467802 0 0 0 0 -59128408.535964966 21062501.075014114 0 21062501.075014114 -25688768.567280829 0 0 0 0 -33399340.079645634 -1359172.0392417908 0 -1359172.0392417908 -6996763.6001739502 0 0 0 0 -30495318.416251183 10693573.263066292 0 10693573.263066292 -1553869.1275625229 0 0 0 0 -37778659.621472359 10225544.35720253 0 10225544.35720253 -3459042.1505171061 0 0 0 0 -30448576.730289459 723806.828602314 0 723806.828602314 1450411.577703476 0 0 0 0 -63982566.825592279 -9356743.1933994293 0 -9356743.1933994293 8759651.2391109467 0 0 0 0 -42932326.799636364 -6455200.1952209473 0 -6455200.1952209473 9063373.6991280317 0 0 0 0 -31089661.296324492 -9036990.6334795952 0 -9036990.6334795952 471866.5886554718 0 0 0 0 -1358740.44967556 1529201.7434711456 0 1529201.7434711456 -5366178.7421426773 0 0 0 0 -23633072.614235938 -601985.39081263542 0 -601985.39081263542 166656.95971870422 0 0 0 0 -2381050.2838023715 3072899.8992833802 0 3072899.8992833802 -3607279.8290035799 0 0 0 0 285159193.10809135 306057563.72911811 0 306057563.72911811 39937067.835877419 0 0 0 0 -32907428.723478794 -21060776.84025383 0 -21060776.84025383 -14118029.804406404 0 0 0 0 -459080722.0394516 -56862791.296528339 0 -56862791.296528339 171118537.99886829 0 0 0 0 21034887.456526756 88257319.637874603 0 88257319.637874603 204493696.4192853 0 0 0 0 102242061.44124985 -42803351.569444895 0 -42803351.569444895 198037032.25012827 0 0 0 0 -146696081.49102688 -25151355.146410346 0 -25151355.146410346 229718189.17116261 0 0 0 0 150349556.40049458 99999638.123395801 0 99999638.123395801 164432858.90379429 0 0 0 0 -3901274.0063587977 3437887.3897564495 0 3437887.3897564495 -3478229.0312413475 0 0 0 0 -328350682.43861961 274771022.51929569 0 274771022.51929569 345611223.69474447 0 0 0 0 -75809753.198631287 336346841.48998642 0 336346841.48998642 300411025.44064713 0 0 0 0 264918544.34519362 39127026.470599748 0 39127026.470599748 -187672409.05047846 0 0 0 0 -4056184.6786766052 -100461577.08216619 0 -100461577.08216619 -242269553.13399959 0 0 0 0 -38621154.133662224 -52041964.879744172 0 -52041964.879744172 6025668.5505974293 0 0 0 0 69942759.044870377 -35382224.940701008 0 -35382224.940701008 6759276.0085483789 0 0 0 0 -101129947.18186855 -142857711.37296847 0 -142857711.37296847 159298486.36307001 0 0 0 0 -7645784.2274932861 -57197435.60311985 0 -57197435.60311985 14768041.644222438 0 0 0 0 -12233555.978649139 -81950943.735614538 0 -81950943.735614538 148173276.67030144 0 0 0 0 395908.11874198914 -40640938.988756835 0 -40640938.988756835 48728669.140291691 0 0 0 0 29288850.838469505 -57541297.017097712 0 -57541297.017097712 13961201.550805807 0 0 0 0 47957554.091347694 -84477456.940542459 0 -84477456.940542459 -82811837.835026503 0 0 0 0 19542660.133275986 -36830261.463812828 0 -36830261.463812828 -16814984.067010283 0 0 0 0 -6419711.8971729279 -36635291.140551805 0 -36635291.140551805 24250043.001291752 0 0 0 0 -3619680.7602653503 -30022135.723928452 0 -30022135.723928452 13531372.755924702 0 0 0 0 -26406113.647823334 -12536661.098091841 0 -12536661.098091841 -4727753.7147755623 0 0 0 0 -22566971.821694374 -5185832.3287864923 0 -5185832.3287864923 9216532.0687148571 0 0 0 0 -58231685.514530182 16559863.046504498 0 16559863.046504498 5867750.745634079 0 0 0 0 -580764.07664857805 182251.62199973641 0 182251.62199973641 65755.098706158693 0 0 0 0 9071834.3202819824 -35896155.028412819 0 -35896155.028412819 31623431.585853338 0 0 0 0 -1706978.6833667755 -44421324.422124863 0 -44421324.422124863 25733219.404054761 0 0 0 0 5696651.6878795624 -39585729.978717804 0 -39585729.978717804 14637695.328149587 0 0 0 0 -95494095.72718811 -29007692.972840786 0 -29007692.972840786 -21597571.612723351 0 0 0 0 4744845.7943687439 -16646889.554437906 0 -16646889.554437906 30272652.458477974 0 0 0 0 -77518031.453258514 80641352.260532022 0 80641352.260532022 44775770.276405334 0 0 0 0 -2817542.0411321651 -1094451.8215073687 0 -1094451.8215073687 1405668.3582731811 0 0 0 0 -15842341.120774269 6019987.5023140907 0 6019987.5023140907 -10366373.272348166 0 0 0 0 -2097424.1089405138 -218555.7381774676 0 -218555.7381774676 743149.81155416812 0 0 0 0 -34021957.194791794 -13726245.842126608 0 -13726245.842126608 -7499173.8094103336 0 0 0 0 -89796707.955408096 -26280017.974723101 0 -26280017.974723101 12784186.798438549 0 0 0 0 12173598.613358498 18436177.319911361 0 18436177.319911361 -12589517.635895014 0 0 0 0 -32235799.159371138 1985987.0604169369 0 1985987.0604169369 2831547.9506120682 0 0 0 0 -10467949.949288368 -6176593.3086134195 0 -6176593.3086134195 4500772.8970003128 0 0 0 0 -2121425.2447214378 92823.498612677678 0 92823.498612677678 806994.9788911473 0 0 0 0 6003544.0978136063 -3689854.6682375371 0 -3689854.6682375371 -670149.37981033325 0 0 0 0 -23092837.007423401 2865708.6835776567 0 2865708.6835776567 2213267.4369747639 0 0 0 0 -2331726.507918668 651001.1425068411 0 651001.1425068411 597378.81329207332 0 0 0 0 -4709699.0003547668 4921371.9947810173 0 4921371.9947810173 6013497.7591662407 0 0 0 0 -3261994.8675613403 -4747445.6251652837 0 -4747445.6251652837 -158711.16079568863 0 0 0 0 -1745786.5937036127 2315529.8670396283 0 2315529.8670396283 -344014.73678302765 0 0 0 0 -3120704.1653663768 2217219.1385145551 0 2217219.1385145551 -1394165.9976071846 0 0 0 0 -12091038.212648392 10311216.760882139 0 10311216.760882139 1052952.3683800697 0 0 0 0 -20318280.798007965 9527299.1100251675 0 9527299.1100251675 1322038.5775637031 0 0 0 0 13112033.886001587 -79049036.558302641 0 -79049036.558302641 80422515.505808949 0 0 0 0 -576921.934569743 -82422.015219985042 0 -82422.015219985042 211929.15023488645 0 0 0 0 2593080.8764805794 18289314.695272341 0 18289314.695272341 1925450.3633856773 0 0 0 0 -41966398.988494873 -69399614.220678091 0 -69399614.220678091 181724827.61300951 0 0 0 0 -1401476.075963974 32716541.59035337 0 32716541.59035337 75682109.727408886 0 0 0 0 -2898821.5979709625 8711629.6736345291 0 8711629.6736345291 34102406.237737656 0 0 0 0 -7215065.5164794922 -13900009.229215503 0 -13900009.229215503 69669404.402994156 0 0 0 0 11843464.332073212 7357715.2570135593 0 7357715.2570135593 6192686.3535647392 0 0 0 0 -2176620.8232741356 7454083.9044491053 0 7454083.9044491053 8368885.1836853027 0 0 0 0 -52365968.066748619 -10078285.77464962 0 -10078285.77464962 -7023394.102837801 0 0 0 0 -69919428.743741751 -54817563.383573115 0 -54817563.383573115 -37175409.747733593 0 0 0 0 -110067959.20621681 -49250013.310303211 0 -49250013.310303211 -15509413.582075596 0 0 0 0 -69209653.429759979 -56466636.719204187 0 -56466636.719204187 -35432516.12181282 0 0 0 0 -72125688.911771774 -15684563.995568752 0 -15684563.995568752 4359016.7422788143 0 0 0 0 -9548963.9970502853 10808346.225762844 0 10808346.225762844 14683510.000878334 0 0 0 0 -8848711.25090909 -7844533.9493000358 0 -7844533.9493000358 6415022.5547704697 0 0 0 0 -219247.53692028904 -75527.605923317606 0 -75527.605923317606 173637.63028838765 0 0 0 0 -55158414.154270172 -58355479.194669247 0 -58355479.194669247 -41481410.547959805 0 0 0 0 -95027832.625073433 -85166963.882923245 0 -85166963.882923245 -57729972.561505795 0 0 0 0 421164.97637748718 -1940986.1668152809 0 -1940986.1668152809 9929183.3259716034 0 0 0 0 6811838.8326382637 -5765911.0047426224 0 -5765911.0047426224 1716409.5035653114 0 0 0 0 -533029.80776424846 -164629.55789108411 0 -164629.55789108411 464321.29973491759 0 0 0 0 -1218113.2630730462 -744825.49742151937 0 -744825.49742151937 769909.57827340392 0 0 0 0 996760.42727184296 -10626634.906603098 0 -10626634.906603098 -1301189.2076907158 0 0 0 0 598065.16533279419 5310137.1884009838 0 5310137.1884009838 136823.68507683277 0 0 0 0 15667023.923355758 598422.89077365398 0 598422.89077365398 -9227162.1578121185 0 0 0 0 -421877.22713088989 -807785.39796113968 0 -807785.39796113968 5372127.8811554909 0 0 0 0 -16753309.979621887 -4055736.4568657875 0 -4055736.4568657875 -7866797.7794232368 0 0 0 0 -8019209.0515985489 9791663.2022194862 0 9791663.2022194862 -8751818.6123390198 0 0 0 0 -8571396.1334199905 -6729351.1859046221 0 -6729351.1859046221 -6119236.5549325943 0 0 0 0 -14945302.118813992 3417344.0100380182 0 3417344.0100380182 -19233655.828547478 0 0 0 0 -44511436.882628441 -155671.29593205452 0 -155671.29593205452 -2644317.6735477448 0 0 0 0 -40381552.142889023 -12987058.5593068 0 -12987058.5593068 -51303966.531973839 0 0 0 0 -52069706.785797119 -38627281.029262066 0 -38627281.029262066 -21690157.6885252 0 0 0 0 -25350588.641540527 6997440.4032173157 0 6997440.4032173157 2027364.4680213928 0 0 0 0 -54310653.057153702 1231133.3872418404 0 1231133.3872418404 8636099.7082207203 0 0 0 0 -41090582.915166855 -8256547.93298769 0 -8256547.93298769 4110147.5705900192 0 0 0 0 -37113565.601082802 25437114.670017719 0 25437114.670017719 -97136724.975729942 0 0 0 0 -137962614.47022152 -50271865.23904562 0 -50271865.23904562 -15694823.77310288 0 0 0 0 -184801739.2083168 -83319651.859806061 0 -83319651.859806061 13090895.894774437 0 0 0 0 -65043458.262122154 -76344612.87789011 0 -76344612.87789011 -116571514.57172108 0 0 0 0 -25443565.368619919 -3760972.0685048103 0 -3760972.0685048103 -1020791.6451659203 0 0 0 0 -592271.57262250874 67130.540416689124 0 67130.540416689124 380299.65853239782 0 0 0 0 -48656556.486246586 -21481015.319093943 0 -21481015.319093943 1098969.6694784164 0 0 0 0 -31220082.485936165 -16111024.556929111 0 -16111024.556929111 -9581848.2077407837 0 0 0 0 -31804192.545883 -3479414.976020962 0 -3479414.976020962 7499247.2920207977 0 0 0 0 -33681956.931042194 -11867929.785351515 0 -11867929.785351515 269276.48117399216 0 0 0 0 -25478387.327807426 -5167807.640093565 0 -5167807.640093565 6524670.6184897423 0 0 0 0 -11690223.118188381 -3068185.5176875591 0 -3068185.5176875591 212691.63488411903 0 0 0 0 -12540519.598635256 7144299.1794406176 0 7144299.1794406176 10570741.743300915 0 0 0 0 -6448361.7734899521 13016650.761613846 0 13016650.761613846 10781779.733040094 0 0 0 0 -5416882.9437406249 1731564.8464071602 0 1731564.8464071602 1820460.5290913454 0 0 0 0 -7205068.108259201 -2588309.1225671768 0 -2588309.1225671768 3161670.9478216171 0 0 0 0 -6398714.191800762 1837685.0441221613 0 1837685.0441221613 2394447.5868917196 0 0 0 0 6722762.054265976 15407345.203040838 0 15407345.203040838 3116640.2126470804 0 0 0 0 -16826685.740843773 -1137988.1181074381 0 -1137988.1181074381 1782311.3609716892 0 0 0 0 -14129613.403288364 -5265561.3425727487 0 -5265561.3425727487 -249320.19183206558 0 0 0 0 -10752491.711353302 -1598749.2419071198 0 -1598749.2419071198 1886712.0113625526 0 0 0 0 -13760373.129042149 -5925815.5726829767 0 -5925815.5726829767 903754.44611692429 0 0 0 0 -20081863.486455798 -4840707.3543681204 0 -4840707.3543681204 5255724.0516314507 0 0 0 0 -17751335.650021315 -11689556.299327254 0 -11689556.299327254 -7416074.2863731384 0 0 0 0 -102850.7595916735 -656145.99050875497 0 -656145.99050875497 -19009.316071866313 0 0 0 0 -24610231.757984161 -13607928.836037874 0 -13607928.836037874 -4963662.911231041 0 0 0 0 -1987145.2139152014 -418880.04198798491 0 -418880.04198798491 112111.1256596786 0 0 0 0 -25482901.173342943 -13335392.343687117 0 -13335392.343687117 -748140.25555610657 0 0 0 0 -2926503.14457798 -7262924.4957536459 0 -7262924.4957536459 11356032.366879463 0 0 0 0 -12391164.861288071 -8833524.0144520998 0 -8833524.0144520998 -16693549.347075939 0 0 0 0 -23377803.83088851 -4512789.0332301855 0 -4512789.0332301855 10530830.579235792 0 0 0 0 -17868221.70734024 -7689766.3089907169 0 -7689766.3089907169 -3817572.078928709 0 0 0 0 -5408340.2206198797 1500792.7677316531 0 1500792.7677316531 1796727.1919884372 0 0 0 0 -12752578.871701717 3840097.5097537041 0 3840097.5097537041 6400673.6098818779 0 0 0 0 4668118.6253597736 15751647.672951281 0 15751647.672951281 5324078.4303810596 0 0 0 0 -44029608.116877079 5013917.3004289269 0 5013917.3004289269 14771877.953019857 0 0 0 0 11285105.438555717 -1958539.8427929878 0 -1958539.8427929878 -2779494.1458113194 0 0 0 0 -22597898.520656586 -7556817.0047588348 0 -7556817.0047588348 1969781.798199594 0 0 0 0 -15367398.110743523 -3902360.1718201637 0 -3902360.1718201637 1532128.7600474358 0 0 0 0 -1035722.4663408918 81213.494691558124 0 81213.494691558124 114893.92913023417 0 0 0 0 -4203100.0180100799 528321.27413827181 0 528321.27413827181 5359905.2076053619 0 0 0 0 -3792205.492159605 2002321.2463831902 0 2002321.2463831902 485744.2672021389 0 0 0 0 -2816958.3172986507 -1121338.6690350771 0 -1121338.6690350771 5781351.6268920898 0 0 0 0 -5020177.445669055 2478259.6307398081 0 2478259.6307398081 4191161.6038663387 0 0 0 0 -2098844.4186141491 921823.90494918823 0 921823.90494918823 458731.67881095409 0 0 0 0 -3602500.0979227843 1310824.2105673309 0 1310824.2105673309 72508.138062219601 0 0 0 0 -3800053.9938002755 1197859.1180494232 0 1197859.1180494232 -272552.7554396023 0 0 0 0 -4338334.848464489 2854180.5748752356 0 2854180.5748752356 -559518.77043175697 0 0 0 0 -2508134.989521116 1266946.1879286468 0 1266946.1879286468 -572875.6340098381 0 0 0 0 -2276027.3965287209 473427.47693514824 0 473427.47693514824 -1799883.76770401 0 0 0 0 -5233705.7724312171 518028.21714856289 0 518028.21714856289 433810.15393750538 0 0 0 0 -3193455.0790279098 724123.01538968086 0 724123.01538968086 -89736.705535627669 0 0 0 0 -1937506.0188050237 316605.48312050523 0 316605.48312050523 -279207.51450865762 0 0 0 0 -4016855.3747173846 477714.8560718298 0 477714.8560718298 -3430234.8021454811 0 0 0 0 -1171498.6146960258 -178196.15060019493 0 -178196.15060019493 -36542.401710987091 0 0 0 0 4899837.0928001404 9090543.9490849972 0 9090543.9490849972 -2209367.2433516681 0 0 0 0 -8775529.4216222763 2003190.2214480639 0 2003190.2214480639 4095482.5307393074 0 0 0 0 -19469236.590581894 11059689.434931517 0 11059689.434931517 3978650.8855746984 0 0 0 0 -3388282.2007821943 -4013066.3056705268 0 -4013066.3056705268 -359456.7234332487 0 0 0 0 -27566054.843746185 -2507781.8765692711 0 -2507781.8765692711 1396233.5157282352 0 0 0 0 -21549670.304813385 -4471820.3795359135 0 -4471820.3795359135 -5738268.8565244973 0 0 0 0 -10787931.459295273 -2780284.1911892891 0 -2780284.1911892891 -1221048.9996364117 0 0 0 0 -21279965.658281326 1151579.692240119 0 1151579.692240119 3297794.5069701672 0 0 0 0 -10384006.762783051 9375778.3796060085 0 9375778.3796060085 3142237.6691710949 0 0 0 0 -4963726.7997659687 959423.13756120612 0 959423.13756120612 -94451.389891615137 0 0 0 0 -15085822.984394431 683683.67715406418 0 683683.67715406418 1063991.5360658169 0 0 0 0 -557742.9140355289 -2356064.3745369911 0 -2356064.3745369911 8718610.1349859238 0 0 0 0 23616685.934422016 24418097.006895065 0 24418097.006895065 -14543486.87156105 0 0 0 0 -9618887.3254528046 1085723.1158533096 0 1085723.1158533096 925738.18494153023 0 0 0 0 -7613316.1131997118 424953.89547318569 0 424953.89547318569 1159299.3054926805 0 0 0 0 -22453022.483951092 -4710200.838170886 0 -4710200.838170886 842088.10227584839 0 0 0 0 -4032951.7942008767 -3662413.4971046811 0 -3662413.4971046811 -247046.07936040987 0 0 0 0 -4586950.0593237169 2470482.9295100109 0 2470482.9295100109 986155.58241638332 0 0 0 0 -4926378.1631774902 3004707.6408748627 0 3004707.6408748627 1628208.4026167393 0 0 0 0 -9797797.5397777651 3065612.2226466285 0 3065612.2226466285 1636631.9208090573 0 0 0 0 -4006089.5440778816 455289.29869015398 0 455289.29869015398 740058.50109702419 0 0 0 0 -9468420.7484064102 1119226.7392121553 0 1119226.7392121553 1208946.8410838842 0 0 0 0 -8303949.859459877 1582756.5128782392 0 1582756.5128782392 -241250.44295763969 0 0 0 0 -9621256.4040985107 1105346.1422544122 0 1105346.1422544122 900087.49098956585 0 0 0 0 -2650454.2987749497 -793167.02451848844 0 -793167.02451848844 203915.76796936558 0 0 0 0 -9409587.4731895924 1059715.9338432401 0 1059715.9338432401 86110.255763053894 0 0 0 0 -5182841.4442858696 -562803.03401076794 0 -562803.03401076794 -69556.384366750717 0 0 0 0 -6367488.1376810074 42189.599224448204 0 42189.599224448204 1598172.4007365704 0 0 0 0 -5071100.7382338364 -696032.73969016923 0 -696032.73969016923 390295.69617347745 0 0 0 0 -4582856.9119460583 -871968.30891859531 0 -871968.30891859531 8917738.3723320961 0 0 0 0 -36605499.588639259 11875374.908267975 0 11875374.908267975 5471158.2119345665 0 0 0 0 -6726263.0499000549 -1595145.8758888245 0 -1595145.8758888245 892496.1901652813 0 0 0 0 -5234379.1225717701 -733022.63472907781 0 -733022.63472907781 313235.12643566111 0 0 0 0 -5460527.8393788338 -2458607.0887964517 0 -2458607.0887964517 -297551.58968758583 0 0 0 0 -7975148.1191048622 -1773941.7458533645 0 -1773941.7458533645 -70188.148133575916 0 0 0 0 -17575999.92259407 -7054696.8161458969 0 -7054696.8161458969 2415494.0634253025 0 0 0 0 -543618.31712236116 -1134529.461318231 0 -1134529.461318231 -362375.54476592527 0 0 0 0 -7805715.3179655075 -3343913.3088658452 0 -3343913.3088658452 -2259997.4175677299 0 0 0 0 -3325011.8357362747 -1112635.7131919861 0 -1112635.7131919861 -166103.74033308029 0 0 0 0 -1789605.8057169914 -1763621.6722172201 0 -1763621.6722172201 -318241.81185269356 0 0 0 0 -28218067.87642622 5038859.6330166757 0 5038859.6330166757 57080615.294549227 0 0 0 0 -6348476.5035543442 -15665869.906630516 0 -15665869.906630516 -4007746.3460229039 0 0 0 0 -16897324.301281929 -10749288.767823339 0 -10749288.767823339 -6064292.9303779602 0 0 0 0 -8632212.6435422897 -153685.70542760193 0 -153685.70542760193 966199.48703074455 0 0 0 0 -15640956.863688469 -257591.16343086958 0 -257591.16343086958 1484969.6669650078 0 0 0 0 -1776726.4338853634 -697239.31369245984 0 -697239.31369245984 -168012.30751198123 0 0 0 0 3197840.1828284264 7833419.4158198237 0 7833419.4158198237 6342312.5032214522 0 0 0 0 -12187565.158838272 -1089369.2201555967 0 -1089369.2201555967 -964558.87467998266 0 0 0 0 -10656810.754687786 2310435.1996068954 0 2310435.1996068954 1873343.0136647224 0 0 0 0 -2956593.0882905126 686923.75034609623 0 686923.75034609623 934985.94552140823 0 0 0 0 -12213673.116521358 -153158.09768548608 0 -153158.09768548608 -327276.96620154381 0 0 0 0 34760433.985853255 -144822033.14380953 0 -144822033.14380953 -201758665.11676025 0 0 0 0 -13030373.869365692 -331524.00777816772 0 -331524.00777816772 930045.19347578287 0 0 0 0 -13285302.773587227 597014.1421533674 0 597014.1421533674 -822035.05049490929 0 0 0 0 -124602624.08867645 -210600429.18724537 0 -210600429.18724537 117968688.96410227 0 0 0 0 -10757068.914115906 -26353481.930903018 0 -26353481.930903018 -155504894.17083335 0 0 0 0 -1903977.9262584746 -837823.02571947314 0 -837823.02571947314 -251217.08577208978 0 0 0 0 -10643299.151660919 35172948.300972626 0 35172948.300972626 -16692987.224608183 0 0 0 0 -14258681.763758659 -1438616.7049624249 0 -1438616.7049624249 1554342.5284604728 0 0 0 0 -13303964.159885406 -1046631.3436570764 0 -1046631.3436570764 -1134060.7005259618 0 0 0 0 -13124326.928505421 -339720.29094277322 0 -339720.29094277322 1609081.0507158041 0 0 0 0 -14026572.856201172 -1013913.4968362004 0 -1013913.4968362004 1497179.2850680538 0 0 0 0 68665420.457267284 65005802.1535151 0 65005802.1535151 12668475.167840004 0 0 0 0 -4220268.3223795807 117722.11585299671 0 117722.11585299671 1796978.7258073564 0 0 0 0 -11987506.213210106 -44164.583139143884 0 -44164.583139143884 562809.70884481072 0 0 0 0 -14571167.303003073 2668119.4137467816 0 2668119.4137467816 -1776267.7565032691 0 0 0 0 -29877304.493894577 65597373.955064893 0 65597373.955064893 -1852612.7019133568 0 0 0 0 -64503788.188518524 75572519.814276218 0 75572519.814276218 30487375.259461679 0 0 0 0 -14145617.526042461 -798229.44380345568 0 -798229.44380345568 2992806.3348543942 0 0 0 0 -16592292.923496246 -1799599.3096721768 0 -1799599.3096721768 1956678.5938422382 0 0 0 0 -13034695.283449173 630358.56989406049 0 630358.56989406049 3013167.9198829532 0 0 0 0 -25017419.926294327 303247.22039014101 0 303247.22039014101 10693286.098838404 0 0 0 0 -4498433.5299196243 14778264.891468465 0 14778264.891468465 -13440054.871584773 0 0 0 0 -7931374.5230665207 -1354150.5990327597 0 -1354150.5990327597 3604535.8722288609 0 0 0 0 -60830068.087506771 10182353.465622026 0 10182353.465622026 13928346.095013708 0 0 0 0 -19023147.824659348 -43183080.420744359 0 -43183080.420744359 13959851.035773933 0 0 0 0 -86951692.715270996 -57510536.488105416 0 -57510536.488105416 39097102.229301691 0 0 0 0 -101181268.04344893 16643988.543362975 0 16643988.543362975 16665749.897845507 0 0 0 0 -185833.00156877609 -1537.4166028439067 0 -1537.4166028439067 -71801.142559091502 0 0 0 0 -6557645.6063747406 6790251.0225215256 0 6790251.0225215256 -2045522.6134113967 0 0 0 0 -1631073.1116191479 -964351.97349629912 0 -964351.97349629912 640272.44877672754 0 0 0 0 -1325707.543413043 -2440971.1466856301 0 -2440971.1466856301 671500.1252168417 0 0 0 0 -1155558.9180762768 -928627.43978434801 0 -928627.43978434801 -345206.57850778103 0 0 0 0 -1298709.144925639 -1817533.1594528127 0 -1817533.1594528127 -881240.28297567368 0 0 0 0 -338984.64064092026 -1168655.5716564525 0 -1168655.5716564525 -174473.0618902744 0 0 0 0 -22502028.394795895 10071945.922122687 0 10071945.922122687 -9211804.8873348236 0 0 0 0 -4818404.2083234787 -19758503.922001243 0 -19758503.922001243 -85055512.13650775 0 0 0 0 50377.88695377158 -164366.86611946858 0 -164366.86611946858 -134787.96265998104 0 0 0 0 -53110345.959714413 10295054.510882616 0 10295054.510882616 -7384136.2150566578 0 0 0 0 -2705830.4637735104 720582.64228606713 0 720582.64228606713 1307696.9943455879 0 0 0 0 -5380026.9820976257 715021.70650601387 0 715021.70650601387 -6668090.7523252964 0 0 0 0 -2437018.9331587004 390873.72557333612 0 390873.72557333612 1353312.9998002429 0 0 0 0 -18035611.361308098 15933970.872548342 0 15933970.872548342 11077264.28856352 0 0 0 0 -6262294.4688482285 -1763875.983263731 0 -1763875.983263731 7009180.0919657946 0 0 0 0 -6281433.1187984915 1036328.2979773489 0 1036328.2979773489 2122192.1140734754 0 0 0 0 22357550.965673447 14131511.575039983 0 14131511.575039983 -6898615.5206456184 0 0 0 0 28357075.856962204 -16160072.478745222 0 -16160072.478745222 9349475.7509185076 0 0 0 0 30642576.443634987 37544051.912832022 0 37544051.912832022 -40224879.921099186 0 0 0 0 -78150330.607684612 24051187.114876509 0 24051187.114876509 1305457.8201243877 0 0 0 0 -4312458.8403053284 -20885540.79512167 0 -20885540.79512167 19468720.678752065 0 0 0 0 -100953822.49653196 -22558074.12333262 0 -22558074.12333262 47472533.814995766 0 0 0 0 -1290044.4921794669 -225425.7898613303 0 -225425.7898613303 218066.78017953597 0 0 0 0 1916831.1661269665 29879677.865040839 0 29879677.865040839 -12202306.062673092 0 0 0 0 6144756.7733707428 21895916.425909758 0 21895916.425909758 -3230617.0059828758 0 0 0 0 -9166577.2168254852 18030584.689845085 0 18030584.689845085 -1985225.4978203773 0 0 0 0 -78301150.779068947 -39251236.778641701 0 -39251236.778641701 -11743397.912969559 0 0 0 0 -480342.89453477412 -108591.26665630471 0 -108591.26665630471 -83747.328490327345 0 0 0 0 -6116823.5083851814 5001163.1606178284 0 5001163.1606178284 29286328.16792345 0 0 0 0 -28450493.054436684 32608472.912470341 0 32608472.912470341 22984141.503809512 0 0 0 0 -31623303.528080463 44111527.677473068 0 44111527.677473068 4494422.0610029697 0 0 0 0 -12457789.336409092 51499500.023510695 0 51499500.023510695 -29331918.386314511 0 0 0 0 -38825459.680198669 -86088808.069042206 0 -86088808.069042206 -57622294.521476507 0 0 0 0 -48545062.261758804 -73092459.368106484 0 -73092459.368106484 -36969824.358018875 0 0 0 0 -394503.92048948305 -180987.35266355192 0 -180987.35266355192 -19666.123089237139 0 0 0 0 -244564328.3999958 24978690.679044485 0 24978690.679044485 284517538.14132547 0 0 0 0 -77969209.503321648 -95317715.052470207 0 -95317715.052470207 -45772165.928895473 0 0 0 0 -13356760.856651306 37917440.085554242 0 37917440.085554242 -31848216.947094917 0 0 0 0 1141161.867836237 9136343.147657156 0 9136343.147657156 25225993.583460331 0 0 0 0 -13755621.141414642 -57149332.345978737 0 -57149332.345978737 -45318140.306285858 0 0 0 0 -92793238.923890114 22918762.444773197 0 22918762.444773197 42069213.551270008 0 0 0 0 -67190659.29248333 -52655374.107682705 0 -52655374.107682705 3211004.3259115219 0 0 0 0 -37934776.367898941 -20078743.239794254 0 -20078743.239794254 39330267.264829636 0 0 0 0 -27263152.141368687 33217116.71583635 0 33217116.71583635 -1818733.8039183617 0 0 0 0 -18594233.351744652 -72629466.377921581 0 -72629466.377921581 -57938591.030828476 0 0 0 0 -165002.11856030719 -124030.41967258835 0 -124030.41967258835 -179327.69491177087 0 0 0 0 4614672.781955719 -9160255.6362409592 0 -9160255.6362409592 -66066655.258611679 0 0 0 0 -4009810.0764122009 16942150.330693007 0 16942150.330693007 -51401545.774856567 0 0 0 0 -3372155.4387617111 -11350615.224479437 0 -11350615.224479437 -9443230.4729747772 0 0 0 0 -9398563.3055896759 -21534035.48680687 0 -21534035.48680687 -9635834.3898983002 0 0 0 0 -6857828.3906011581 -57894353.015275717 0 -57894353.015275717 14708237.806190491 0 0 0 0 -5360958.6468009949 -35390652.410254776 0 -35390652.410254776 9208835.9537563324 0 0 0 0 2798651.1066112518 -6263933.6837487221 0 -6263933.6837487221 -5980495.5194010735 0 0 0 0 -387481.83727455139 -13664905.333175182 0 -13664905.333175182 6708815.3394284248 0 0 0 0 -11875739.408683777 -8261314.0145497322 0 -8261314.0145497322 42565965.424403667 0 0 0 0 2273249.3636302948 -2119229.0735104084 0 -2119229.0735104084 15331755.364187241 0 0 0 0 875741.6404299736 -4004756.3760796785 0 -4004756.3760796785 -6644483.4649810791 0 0 0 0 3382132.2788848877 1633834.0581998825 0 1633834.0581998825 -18004372.907762766 0 0 0 0 -10996027.737157822 5604597.2952078581 0 5604597.2952078581 -7643912.7505335808 0 0 0 0 -1642318.5359382629 -3352417.9417262077 0 -3352417.9417262077 -4903091.3083157539 0 0 0 0 -3622755.582877636 -1277457.5200088024 0 -1277457.5200088024 -6620412.4805455208 0 0 0 0 -14021864.164299011 26911639.223879933 0 26911639.223879933 10503027.913782358 0 0 0 0 683793.95932197571 -9893092.7765163928 0 -9893092.7765163928 1769142.7807992697 0 0 0 0 -7450021.5879497528 -25998424.77669695 0 -25998424.77669695 11826597.119510412 0 0 0 0 3025674.8763122559 -7770092.359369278 0 -7770092.359369278 -8837802.7989323139 0 0 0 0 -11519190.703036472 -2814677.8124388834 0 -2814677.8124388834 653948.44371754222 0 0 0 0 -2710217.083920734 -3255920.6548589645 0 -3255920.6548589645 236492.8218344904 0 0 0 0 -21076224.551486969 -39776519.922383308 0 -39776519.922383308 56841386.621032715 0 0 0 0 8572946.3302383423 -45033387.376431465 0 -45033387.376431465 19210818.009324789 0 0 0 0 -10003612.438770294 -7754946.5744184256 0 -7754946.5744184256 13524938.614100486 0 0 0 0 -4621885.1246823901 -3107888.2502397345 0 -3107888.2502397345 -420653.87154056516 0 0 0 0 -5352518.9691753387 -9128138.6794095933 0 -9128138.6794095933 4820959.6608088017 0 0 0 0 -2178849.7975254059 -3352264.0493505597 0 -3352264.0493505597 651788.38802731782 0 0 0 0 -6242684.8672172278 -5024390.4685294926 0 -5024390.4685294926 -401983.00305571727 0 0 0 0 -49442682.663323402 2116310.0651655197 0 2116310.0651655197 108851995.89034891 0 0 0 0 -1170236.7251787186 -4176470.0048363209 0 -4176470.0048363209 3738339.7128419876 0 0 0 0 -7580475.3930511344 -1411027.3919710517 0 -1411027.3919710517 357409.6223302047 0 0 0 0 19292977.711673737 -446473.69109725952 0 -446473.69109725952 42179240.168191314 0 0 0 0 -7905349.0542583466 -12696980.07406044 0 -12696980.07406044 52592146.782224894 0 0 0 0 -1797977.4030082431 -4695163.2440561093 0 -4695163.2440561093 -829214.96449655562 0 0 0 0 -751592.74401092529 -2130032.4425402582 0 -2130032.4425402582 615004.5059543252 0 0 0 0 -3651618.7402667999 -2994690.8266607821 0 -2994690.8266607821 979581.85825580359 0 0 0 0 -2180924.7692390531 -1824277.0987257501 0 -1824277.0987257501 -245376.46804719549 0 0 0 0 -6022466.893583063 -3224231.8273923956 0 -3224231.8273923956 460072.47530731419 0 0 0 0 -12748480.583921254 24894676.939109832 0 24894676.939109832 44159564.734976292 0 0 0 0 -2531122.1697778702 -2322879.4810301363 0 -2322879.4810301363 -86410.159321337938 0 0 0 0 -2140677.0767459869 -1843232.2357169092 0 -1843232.2357169092 -546541.65022319555 0 0 0 0 -3681981.1644668579 -1760576.3877291381 0 -1760576.3877291381 -307347.66411519051 0 0 0 0 -3097808.9768681191 -3050432.3380786907 0 -3050432.3380786907 -458296.68409940391 0 0 0 0 -2594467.403629303 -11820152.056689858 0 -11820152.056689858 2476644.905071497 0 0 0 0 -4724810.3759145737 -6731132.7730720341 0 -6731132.7730720341 625470.92659401894 0 0 0 0 -3317650.9448356628 -7379836.7090207338 0 -7379836.7090207338 4916550.7058961391 0 0 0 0 5095494.7650108337 -13708392.778774619 0 -13708392.778774619 -43611.79900097847 0 0 0 0 -10392247.378887892 -4763781.5760719702 0 -4763781.5760719702 1558535.8537993431 0 0 0 0 -11205566.845355988 -12378959.068500519 0 -12378959.068500519 2536452.3941791058 0 0 0 0 -11956254.729522705 -11514259.276508391 0 -11514259.276508391 295339.62975251675 0 0 0 0 -28629294.051902771 187137.93926131725 0 187137.93926131725 7741353.3997489214 0 0 0 0 -31606797.618930817 -5309777.3776603937 0 -5309777.3776603937 4466332.5264315605 0 0 0 0 -21924844.414169312 -2099898.9564945698 0 -2099898.9564945698 3066231.5792224705 0 0 0 0 -16963249.262908936 6186436.9682865143 0 6186436.9682865143 2436303.7168254852 0 0 0 0 -3521206.0119234985 -823482.78759409511 0 -823482.78759409511 857125.19950767723 0 0 0 0 -4278986.0523910495 -670398.6554728034 0 -670398.6554728034 395334.80210767343 0 0 0 0 -3474544.4041671753 -813832.02970454097 0 -813832.02970454097 729973.74170444906 0 0 0 0 -6377437.353395462 -869047.3706394434 0 -869047.3706394434 -375346.86422133446 0 0 0 0 -2288172.0159763694 -10959858.470096108 0 -10959858.470096108 -1944222.6840324402 0 0 0 0 -2795946.9884075201 -2000410.9265508035 0 -2000410.9265508035 414423.98175686272 0 0 0 0 -11755587.226079941 -667319.97102636099 0 -667319.97102636099 -195534.60728543997 0 0 0 0 335286.15779523645 -707363.75030077551 0 -707363.75030077551 -254576.16638985934 0 0 0 0 -4882316.9467719197 -8338535.8778149728 0 -8338535.8778149728 3156432.6117237806 0 0 0 0 -626336.41690289509 -102216.62659392576 0 -102216.62659392576 231058.76079777302 0 0 0 0 -4551010.9511904716 5579064.976353189 0 5579064.976353189 -2473331.967772603 0 0 0 0 -5166397.4808263779 3654668.5951663703 0 3654668.5951663703 -4350093.2219957113 0 0 0 0 -11212862.877324104 7149656.7176674604 0 7149656.7176674604 7782756.3555469513 0 0 0 0 -16412276.68972683 1675702.9204458147 0 1675702.9204458147 1179986.2061849833 0 0 0 0 -6110822.4492970705 -962008.77343179099 0 -962008.77343179099 1235423.930280447 0 0 0 0 -1380459.2454028595 313034.2701441641 0 313034.2701441641 867295.60735210124 0 0 0 0 -6579324.7655744553 -4366622.3837332278 0 -4366622.3837332278 -6729768.5466398299 0 0 0 0 10977580.557059765 -13358325.444757223 0 -13358325.444757223 -10639697.792701244 0 0 0 0 -3083546.2761494336 -955637.14420429082 0 -955637.14420429082 124962.86170257026 0 0 0 0 -4385665.4636535645 -1057048.2505821884 0 -1057048.2505821884 -4965299.4249428511 0 0 0 0 -4079062.658480512 -1316569.7617696992 0 -1316569.7617696992 413225.97044313967 0 0 0 0 -12350148.40983963 -3796447.7457586974 0 -3796447.7457586974 3805887.535346508 0 0 0 0 2231164.6782894135 -4504308.3160202801 0 -4504308.3160202801 -4350199.9889115989 0 0 0 0 -411970.73558177892 -934165.45830021799 0 -934165.45830021799 235921.72459873144 0 0 0 0 -5257988.8852594746 -1210119.8607502189 0 -1210119.8607502189 147449.98693715991 0 0 0 0 -3361690.805238171 -859378.26525484677 0 -859378.26525484677 151779.39447517591 0 0 0 0 -5484963.8262643814 -1124536.4671304673 0 -1124536.4671304673 381350.47940561175 0 0 0 0 -4697335.4774246216 -2245428.218365252 0 -2245428.218365252 629857.9383957684 0 0 0 0 -4708092.6451625824 -629390.71062660217 0 -629390.71062660217 338537.9696951583 0 0 0 0 -3859558.9669780731 -1039074.6874189973 0 -1039074.6874189973 -252314.92072612047 0 0 0 0 -4330805.3706063796 -601382.82399990782 0 -601382.82399990782 430276.95097986463 0 0 0 0 -4437254.7581539154 -1337911.8769936711 0 -1337911.8769936711 -78340.432144582272 0 0 0 0 -3749400.5488605499 -1061048.7366734892 0 -1061048.7366734892 -595474.913400352 0 0 0 0 -2890091.9703491144 -836297.3930249 0 -836297.3930249 -243823.61132160175 0 0 0 0 -7384551.8352305889 -1060911.4547100486 0 -1060911.4547100486 612437.2917432785 0 0 0 0 -3664852.3814045545 -1014360.8188270954 0 -1014360.8188270954 -348650.1991575876 0 0 0 0 -5277297.7561340332 140836.96088936925 0 140836.96088936925 185027.16341671348 0 0 0 0 -6535915.3496434689 -2984545.463298317 0 -2984545.463298317 -1468565.1148443222 0 0 0 0 -4264557.6275700768 -62784.165825346485 0 -62784.165825346485 994503.57862448972 0 0 0 0 -7474312.2583179474 -1535268.7484252844 0 -1535268.7484252844 306558.84710681438 0 0 0 0 -6337121.4776763916 -1417155.0782546997 0 -1417155.0782546997 -68670.689430952072 0 0 0 0 -5986600.892332077 -1647824.9344485998 0 -1647824.9344485998 78144.801241755486 0 0 0 0 -5700174.604101181 -1112647.443328023 0 -1112647.443328023 -315381.0384773016 0 0 0 0 -4999548.1800765991 -1959607.4067836404 0 -1959607.4067836404 -86930.176596641541 0 0 0 0 -5691966.8020496368 -1389540.8512486815 0 -1389540.8512486815 544242.64802747965 0 0 0 0 -7506918.3834495544 973070.65565764904 0 973070.65565764904 544007.67661660165 0 0 0 0 -5266286.4721088409 -1812593.2344921231 0 -1812593.2344921231 -165197.5323920846 0 0 0 0 -4709832.8815081846 -866170.31309990352 0 -866170.31309990352 24953.33205950947 0 0 0 0 -7067013.811873436 -89533.026035934687 0 -89533.026035934687 -335439.49435830116 0 0 0 0 -3519837.821875223 -1991741.7553500861 0 -1991741.7553500861 918316.12160155491 0 0 0 0 1148854.4135906193 -1242042.2781588086 0 -1242042.2781588086 -325536.00893763732 0 0 0 0 -1921863.2435703278 -10616226.666188955 0 -10616226.666188955 5150637.3845705986 0 0 0 0 6719103.125544548 -2548100.6007390022 0 -2548100.6007390022 -1114089.9586096704 0 0 0 0 170994.87292861938 -7360114.0065714717 0 -7360114.0065714717 -957857.76859545708 0 0 0 0 -464100.84668540955 -4167988.7866377831 0 -4167988.7866377831 5645518.0025835037 0 0 0 0 7424923.9400520325 -1949163.8420622349 0 -1949163.8420622349 1771586.6220617294 0 0 0 0 -1141795.4791269805 -183659.62844931241 0 -183659.62844931241 73941.185765636852 0 0 0 0 -3429682.2843545498 -1827435.5273287045 0 -1827435.5273287045 -364524.15377297997 0 0 0 0 -27126382.038386345 1392308.4401785135 0 1392308.4401785135 -1034564.7355408669 0 0 0 0 1395382.6227178574 2005466.6655809879 0 2005466.6655809879 2496762.7055143118 0 0 0 0 14632902.684069157 -6858125.3385680318 0 -6858125.3385680318 -5752606.4779303074 0 0 0 0 124057.82703571208 -3204105.4709321661 0 -3204105.4709321661 132655.44373392838 0 0 0 0 -1519499.1791017065 -1906186.4179807892 0 -1906186.4179807892 131894.61852163309 0 0 0 0 -22475717.645460129 16528425.352909327 0 16528425.352909327 23252355.42420578 0 0 0 0 5808220.4483995438 -5461655.6210045815 0 -5461655.6210045815 -6732560.5803010985 0 0 0 0 -3859113.8257286549 7324012.198323451 0 7324012.198323451 -1983201.4841682911 0 0 0 0 -1544778.1253566742 -31588596.884762287 0 -31588596.884762287 -37179261.214918137 0 0 0 0 -4619496.7041301727 -6484862.3645409346 0 -6484862.3645409346 -867239.41801333427 0 0 0 0 7666840.3872570992 -10496356.968952596 0 -10496356.968952596 -5502483.2820482254 0 0 0 0 238493.0085644722 -3359951.6656869352 0 -3359951.6656869352 -4598034.1161181368 0 0 0 0 -1610843.599875316 -3978461.9533151733 0 -3978461.9533151733 983736.76686859131 0 0 0 0 366206.70951690665 -198025.53431291855 0 -198025.53431291855 -64909.596707133926 0 0 0 0 -8644894.2493534088 2892951.2329264432 0 2892951.2329264432 -972948.16358166933 0 0 0 0 -2997589.0412820638 -1980306.7868003803 0 -1980306.7868003803 -76917.992477972584 0 0 0 0 -4808023.0659780502 -14140972.524321824 0 -14140972.524321824 -24839033.764759973 0 0 0 0 -1476009.91600205 -6569719.2535387902 0 -6569719.2535387902 -9345382.0447542667 0 0 0 0 -2627730.0535755157 -3750563.1317195892 0 -3750563.1317195892 -4261335.9170279503 0 0 0 0 -6729709.291893959 -10292226.485965967 0 -10292226.485965967 -7612586.7313468456 0 0 0 0 -15694891.470552087 -10012761.79624474 0 -10012761.79624474 517525.75844931602 0 0 0 0 -15166648.411136985 -14148224.531159684 0 -14148224.531159684 571517.65166974068 0 0 0 0 -29711459.521548271 -17174516.4647488 0 -17174516.4647488 3973720.8479647636 0 0 0 0 -8858221.7890520096 -6995909.9145424366 0 -6995909.9145424366 1835467.4458838701 0 0 0 0 -20206433.990813255 -7759938.7569105625 0 -7759938.7569105625 4370966.3237072229 0 0 0 0 -7867790.0449399948 -8919495.4259047508 0 -8919495.4259047508 3629536.8229401112 0 0 0 0 -18050.427710294724 -4722014.739659816 0 -4722014.739659816 907405.96465229988 0 0 0 0 -22707479.260538101 8613702.7636660337 0 8613702.7636660337 -126425.50484329462 0 0 0 0 -19722046.653082371 -9397947.2548319101 0 -9397947.2548319101 9832374.7837843895 0 0 0 0 -32940668.929491997 -6692345.2196376324 0 -6692345.2196376324 13889429.574305654 0 0 0 0 -33205543.690911293 -8813508.6567460299 0 -8813508.6567460299 11001911.745553017 0 0 0 0 -32037430.605277538 -12927841.205491245 0 -12927841.205491245 15228868.667558432 0 0 0 0 -29816130.098697662 -13583173.066437364 0 -13583173.066437364 12508894.098074436 0 0 0 0 -31745288.816720009 -5120529.0414392948 0 -5120529.0414392948 22045530.494489312 0 0 0 0 -8336448.1934232712 -1081087.610879302 0 -1081087.610879302 12268628.568495512 0 0 0 0 -8921341.7139556557 13301058.761265397 0 13301058.761265397 12142698.94130969 0 0 0 0 -81467312.885117531 -12180980.799779475 0 -12180980.799779475 28411521.674421787 0 0 0 0 -43059351.013102055 -12221647.442527682 0 -12221647.442527682 17711922.459179878 0 0 0 0 -33065272.639927387 13101400.058051646 0 13101400.058051646 39705802.343344927 0 0 0 0 -33084809.978823662 -15295711.496064901 0 -15295711.496064901 11062924.840760157 0 0 0 0 -32630613.515358925 -14206788.981592655 0 -14206788.981592655 13140778.278447151 0 0 0 0 -5231803.8850793839 18990175.048855186 0 18990175.048855186 5116908.2235219479 0 0 0 0 -1373443.3070430756 13169799.679175138 0 13169799.679175138 8472352.0634820461 0 0 0 0 -5804664.0704088211 17797357.037779391 0 17797357.037779391 16028080.090495348 0 0 0 0 58831104.906917572 44240616.90117979 0 44240616.90117979 14156237.966509104 0 0 0 0 -1179443.3288375253 27568.29370445013 0 27568.29370445013 406950.90991970431 0 0 0 0 54714185.139116287 -29388919.567715615 0 -29388919.567715615 -75019902.603622764 0 0 0 0 -38568451.000439644 46424813.205361187 0 46424813.205361187 63165626.619861186 0 0 0 0 -110720903.44312668 -299384.08719414473 0 -299384.08719414473 55312324.942123249 0 0 0 0 -55533132.218032837 -66661775.30400911 0 -66661775.30400911 -61339473.191233993 0 0 0 0 -54045932.712061882 -27387183.987823844 0 -27387183.987823844 -33723642.246052861 0 0 0 0 -25915689.876450062 -25163643.86904186 0 -25163643.86904186 -10714726.253226221 0 0 0 0 -42512322.92579937 -20626108.447741866 0 -20626108.447741866 10954309.418091707 0 0 0 0 -39539113.761822224 -18546148.016282022 0 -18546148.016282022 7945773.4861138463 0 0 0 0 -77369468.575722694 -35026498.784037888 0 -35026498.784037888 2534226.0697094798 0 0 0 0 -75166640.704795837 -41821189.501687042 0 -41821189.501687042 -31866224.582888186 0 0 0 0 -103447418.22846603 1416602.4069195688 0 1416602.4069195688 -29280594.108745445 0 0 0 0 -26063482.380878448 -32286805.960105509 0 -32286805.960105509 -30546756.381257385 0 0 0 0 -18749508.099779129 -19386824.50520286 0 -19386824.50520286 -10416763.150085494 0 0 0 0 -41045418.589715958 80770131.334702194 0 80770131.334702194 -77791843.022284091 0 0 0 0 -13574644.180378437 -25524139.823544897 0 -25524139.823544897 -55203846.84234263 0 0 0 0 -479765.82822009083 197009.68522217911 0 197009.68522217911 162916.24493511234 0 0 0 0 -97335784.630712986 137499806.1630483 0 137499806.1630483 140563548.25194126 0 0 0 0 -50376546.256799221 5348438.7965643406 0 5348438.7965643406 7003186.7520557642 0 0 0 0 -484843.10481135687 -556742.87850920856 0 -556742.87850920856 171372.45772557217 0 0 0 0 -16209729.299887896 13158135.440248847 0 13158135.440248847 -29471738.944902897 0 0 0 0 -52626280.917842627 9969272.8419419229 0 9969272.8419419229 2612671.0063437223 0 0 0 0 -20459548.887412071 18222568.85239172 0 18222568.85239172 -3031325.2721092701 0 0 0 0 7474577.9852890968 -21795104.600568369 0 -21795104.600568369 -44883688.93942517 0 0 0 0 -62178732.875301361 -19107029.401832104 0 -19107029.401832104 -39380733.064652145 0 0 0 0 -273282.83977507707 -317676.74864720227 0 -317676.74864720227 66586.649876415991 0 0 0 0 -97701672.944752216 -26004152.898456454 0 -26004152.898456454 -9340630.3362443447 0 0 0 0 -65396067.937637329 -43410129.684342861 0 -43410129.684342861 -252762556.05548185 0 0 0 0 -57906638.055912971 -1465428.9582209587 0 -1465428.9582209587 5790175.3568385839 0 0 0 0 -41512691.619469643 13934105.486804008 0 13934105.486804008 -20387889.655349255 0 0 0 0 -25038615.371054173 23740517.898964912 0 23740517.898964912 -16150305.983645201 0 0 0 0 -32519845.525378466 -11323387.619216442 0 -11323387.619216442 -41597793.362077236 0 0 0 0 -41662007.931346893 24469160.173925281 0 24469160.173925281 -68716627.791558266 0 0 0 0 -108241561.92893028 58697082.426267803 0 58697082.426267803 -38465577.638593674 0 0 0 0 -42690563.642140865 19453992.507334948 0 19453992.507334948 -16996283.087405205 0 0 0 0 -32930965.516369581 35391542.300539076 0 35391542.300539076 -22833127.523115873 0 0 0 0 -23898797.896524906 9760605.2566232681 0 9760605.2566232681 -29525246.022236109 0 0 0 0 -22530581.513641685 45030676.655254066 0 45030676.655254066 5345934.4465811253 0 0 0 0 -61337073.484115005 21194679.190322936 0 21194679.190322936 -789525.21439671516 0 0 0 0 -285476.0839588535 -312780.32496095356 0 -312780.32496095356 169860.287450579 0 0 0 0 -54562668.505001307 45135522.68716526 0 45135522.68716526 -5861822.4468460083 0 0 0 0 -38362972.626348495 17635829.102833748 0 17635829.102833748 -21263220.420945764 0 0 0 0 -37346185.705877304 -331236.50703859329 0 -331236.50703859329 -6979461.5680346489 0 0 0 0 -31488221.140056849 6197913.0759697556 0 6197913.0759697556 -1386498.443056345 0 0 0 0 -33630225.487742126 3669376.2156932652 0 3669376.2156932652 -569143.0638256073 0 0 0 0 -3307705.5764248371 -1947072.3620526791 0 -1947072.3620526791 -7268568.9713306427 0 0 0 0 -3750276.3906452805 -4549920.32106103 0 -4549920.32106103 87761.27663230896 0 0 0 0 3449105.1672515273 3406382.2600118518 0 3406382.2600118518 -4994838.7285122871 0 0 0 0 -3403272.2695641518 -1428456.7107383013 0 -1428456.7107383013 -1152092.3769629002 0 0 0 0 -1018082.0584421502 -1401938.4291145268 0 -1401938.4291145268 -284286.89292311575 0 0 0 0 -3961780.2910017967 -1374458.9880916476 0 -1374458.9880916476 161800.63599085808 0 0 0 0 5277623.2581607103 -3864299.2531420588 0 -3864299.2531420588 -2395317.2412512898 0 0 0 0 -1509312.4097102771 -347842.52113837918 0 -347842.52113837918 378506.48525505606 0 0 0 0 -5764712.0208213329 -7752444.5593189895 0 -7752444.5593189895 7108774.6447262764 0 0 0 0 -4022889.9906806946 -156972.64927875996 0 -156972.64927875996 443568.37723398209 0 0 0 0 -3736664.7447590828 -394507.29800462723 0 -394507.29800462723 -419689.75691199303 0 0 0 0 -4364487.8555698395 -2028353.3165941834 0 -2028353.3165941834 -841888.52575445175 0 0 0 0 23899.11236700369 -46437.832897565095 0 -46437.832897565095 -19018.88457213965 0 0 0 0 -1822982.1358294685 -755963.03149734624 0 -755963.03149734624 541280.85406716692 0 0 0 0 -1806748.719082478 -1316075.1867502413 0 -1316075.1867502413 461396.31440152373 0 0 0 0 -2971508.6406216621 -1111419.2121004462 0 -1111419.2121004462 1300875.6065391898 0 0 0 0 -543405.53104066849 92835.010843228549 0 92835.010843228549 1796157.0698218942 0 0 0 0 817038.04848790169 27673.193748667836 0 27673.193748667836 -638986.97274044901 0 0 0 0 1204838.0815548897 -1102501.4187894836 0 -1102501.4187894836 -5708787.6487481631 0 0 0 0 -5970592.1636776924 -2669298.6456373855 0 -2669298.6456373855 2350485.1772686243 0 0 0 0 -1176605.9735909868 189656.03053526272 0 189656.03053526272 348046.53220695507 0 0 0 0 3632596.4025261402 7127768.7448619679 0 7127768.7448619679 -10780342.550942719 0 0 0 0 -27755562.710839987 2747116.5354246832 0 2747116.5354246832 10003580.654652297 0 0 0 0 -400987.6071999073 1786974.3082034588 0 1786974.3082034588 -3690027.488799572 0 0 0 0 
</DataArray>
<DataArray type="Float64" Name="cross_section_updated" format="ascii">
1 1 0.050036623628869306 1 1 1 1 0.050036746136509831 1 1 1 1 1 1 1 1 1 1 1 1 0.04992364451925068 1 1 1 1 0.049923546880939841 1 1 1 1 1 1 1 0.049792504823191003 1 1 1 1 1 1 1 1 0.049445160812636405 1 1 1 1 1 1 1 1 1 1 1 0.04928627429821672 0.049951512454091004 1 1 1 1 1 1 1 1 0.049613052796889372 1 1 1 1 1 1 1 1 1 1 1 1 1 1 1 1 1 1 1 1 1 1 0.049727215492195699 1 1 1 1 1 1 1 1 1 1 1 0.049506264546103747 1 1 1 0.049786682902009889 1 1 1 1 1 1 1 1 1 1 1 1 1 1 1 1 1 1 1 1 1 1 1 1 1 1 1 1 1 1 1 1 1 1 1 1 1 1 1 1 1 1 1 1 1 0.050028543745033162 1 0.050192908137840483 1 1 1 1 1 1 1 1 1 1 1 1 1 1 1 1 1 1 1 1 1 1 1 1 1 1 0.048665746493198332 1 1 0.049818664942202689 1 0.04983894201711124 1 1 1 1 1 1 1 1 1 1 1 1 1 1 0.051339477875796791 1 0.049043674227792225 1 1 1 1 1 1 1 0.048654255220929504 1 0.050597981070876305 1 1 1 1 1 1 0.050076230858472362 1 1 0.048617214357920532 1 1 1 1 1 1 0.049532895381187089 0.04632922520791577 1 1 0.050073682109893325 1 0.047516606441733243 1 0.049901766262384933 0.048333986880334155 1 1 1 0.04702551514477149 1 1 1 1 1 1 1 1 1 1 1 1 1 0.046387009407389719 1 1 1 1 1 1 1 0.046536384902738606 1 1 1 1 1 1 1 0.046902397010422821 1 1 1 1 0.049789607019997711 1 1 1 1 1 1 0.050067212638972958 1 1 1 0.049432752085190254 1 1 1 1 1 1 1 0.049200049044267981 1 1 1 1 1 1 0.05056734213722635 1 1 1 1 1 1 0.04886741504587698 1 1 1 1 1 1 1 0.050362491907941592 1 1 1 1 1 1 1 1 1 1 1 1 1 1 1 1 1 1 1 1 1 0.051113987811047715 0.050051695721768083 1 1 1 1 1 0.044267379000801382 1 1 1 1 1 1 1 0.049822485031642716 1 0.044458329758912708 1 1 1 0.048291669094581449 1 1 1 0.049523093782430895 1 0.050006599852629854 1 1 1 1 1 1 1 0.045692663156174158 1 1 1 1 1 1 1 0.047630628777568608 1 1 1 0.049995987227294439 1 1 1 1 1 1 1 1 1 1 1 1 1 1 1 1 1 1 1 1 1 1 1 1 1 1 1 1 1 1 1 1 0.045676031752737212 1 1 1 1 1 1 1 1 1 1 1 1 1 1 1 1 1 1 1 1 1 1 1 1 1 1 1 1 1 1 1 1 0.050366775725999569 1 1 1 1 1 1 1 1 1 1 1 1 1 1 1 1 1 1 1 1 0.049970243609253402 1 1 1 1 1 1 1 0.04963028262409732 1 1 1 1 1 0.04904234700227561 1 1 0.049911543018691447 1 0.046314354069600355 1 1 1 1 0.045464790851619558 1 1 0.044792891310019498 1 1 1 1 1 1 0.049938624353022681 1 1 1 1 1 1 1 1 1 1 1 1 1 1 1 1 1 1 1 0.046797985292731839 1 1 1 1 1 1 1 1 1 1 1 0.050375693069540095 0.04507415599302543 1 1 1 1 1 1 1 1 1 1 1 1 1 1 1 1 1 1 1 1 1 0.04958166178876329 1 0.049812988802152812 0.048592246834396252 1 1 0.049557008137564598 1 1 1 1 1 1 1 1 1 1 1 1 1 0.047490852409193915 1 1 1 1 1 1 1 0.048805796060154415 0.048790928698050101 1 1 1 1 1 1 1 1 0.049434629232695794 0.050860136992368563 1 1 1 0.048404900079485592 1 1 1 1 1 1 1 1 1 1 1 1 1 1 1 1 1 1 1 1 1 1 1 1 1 1 1 1 1 1 1 1 1 1 1 0.049394848613495107 1 1 0.049704001891668195 1 1 1 1 0.049623560668711889 1 1 1 0.0487747400366366 1 1 1 0.049514833078425115 1 1 0.049258448564993854 1 1 1 1 1 1 1 1 1 1 1 1 1 1 1 1 1 1 1 1 1 0.04885710867944603 1 1 1 0.048547308127117349 1 1 1 1 1 0.049318504562134637 1 1 1 1 1 1 0.049285403591201926 1 1 1 1 1 1 1 1 1 1 1 1 1 1 1 1 1 1 0.049596427466621365 1 1 1 1 1 1 1 1 1 1 1 1 1 1 1 1 1 1 1 1 1 0.049919558777043696 1 1 1 1 1 1 1 1 1 1 1 1 1 1 1 0.050307188215801359 1 1 1 1 1 1 1 1 1 1 1 1 1 1 1 1 1 1 0.049851610216842895 1 1 1 1 1 1 1 0.04984351991058171 1 1 1 1 1 1 1 1 1 1 1 1 1 1 1 1 1 1 1 1 1 0.049944663410395995 1 1 1 1 1 1 1 1 1 0.049872572757712348 1 1 1 1 1 1 1 1 0.045947291475095242 1 1 1 1 1 1 1 1 1 1 1 1 1 1 1 1 1 1 1 0.052063646468478067 1 1 1 1 1 0.046436227135052244 1 1 1 0.049989621493580418 1 1 1 1 1 1 0.049918523594615322 1 1 1 1 1 1 1 1 1 1 0.050279390329367318 1 1 1 1 1 1 1 1 1 1 1 1 0.046427792765085567 1 0.050892861645101886 1 1 1 1 1 1 1 0.052202572942672172 1 0.04711046918319535 1 1 1 1 1 1 1 1 1 1 1 1 1 1 1 1 1 1 1 1 1 1 1 1 1 1 1 1 1 1 1 1 1 1 1 1 1 1 1 1 1 1 1 1 1 0.047664193163883831 0.049934947489716226 1 1 0.05021837182210858 1 1 1 1 1 1 1 1 1 1 1 1 1 1 1 1 0.050627413658550932 1 1 1 1 0.050278314688380489 1 1 0.050000297823224897 1 1 1 1 1 1 0.050462429987979174 1 0.050566743763049579 1 1 0.050053178020976211 1 1 1 1 1 1 1 1 1 1 0.047415061781436597 1 1 1 1 1 0.050318795225861648 0.049920200551033689 1 1 1 1 0.049402888989576565 1 1 0.049271640533561117 1 0.047619705233785128 1 1 1 1 1 0.048088909963890931 1 1 0.049977456298350188 1 1 1 1 1 1 1 1 1 1 1 1 0.049948044672114812 1 1 1 1 1 1 1 1 1 1 1 1 1 1 1 0.048880138475130681 1 0.04999910324473146 1 0.049240635607153062 0.05046029314566805 1 0.048196484110614723 1 1 0.04999855886808801 1 1 1 1 1 1 0.045460695927991623 1 0.050014393138785626 1 1 0.045973267477505936 1 1 1 0.050400177037215409 1 1 0.049998454124418529 1 1 1 1 1 0.04767426292771372 1 1 0.04806722864504271 1 1 1 1 1 0.049989350036131724 1 0.049793722973970972 1 1 0.050099268649490755 1 1 0.046721983833683145 1 1 1 1 1 1 1 1 0.046812239262888369 1 1 1 1 1 1 1 1 1 1 0.046976737543140502 1 1 1 1 0.049838705101632345 1 1 0.049435075836488152 1 1 1 1 1 0.051178955631233564 1 1 1 1 1 0.05000302258073798 1 0.049962322197405699 1 1 1 1 1 1 0.050041731587761706 1 1 1 1 1 1 1 1 0.049866909060583504 0.049409856937517364 0.047195771553766468 1 1 1 1 0.049663371201141664 1 0.048832931315218479 1 1 1 0.051315469083154694 0.049999079026766126 1 1 1 0.050214128280754666 1 1 1 0.050494394279096633 1 0.049532734043650654 1 0.049689966841744738 0.051313228176942303 1 0.049996203035264725 1 1 1 1 0.049356092858805489 1 1 1 0.049981137483375314 1 0.046987731658221822 1 0.048111464484762702 1 1 1 1 1 1 1 0.050009205354100708 1 1 1 1 0.048674235253095527 1 1 1 1 1 1 1 1 0.049998001045778145 1 0.050028560140165323 0.049930769927014257 1 1 1 0.048162025015124767 1 1 1 1 0.047922174374004471 0.049924498399814138 1 1 0.049106075270681164 0.049707803645574526 1 1 1 1 1 0.04989761353389504 1 1 1 1 1 1 1 1 0.049573017049054882 1 0.048888079330876293 1 1 1 1 1 1 1 1 1 1 1 1 1 1 1 1 1 0.049718710890381532 1 1 1 1 1 1 1 1 1 1 1 1 1 1 1 1 1 1 1 1 1 1 1 1 1 0.049976809833679997 1 0.049418188109869782 1 1 1 1 1 0.050004876986747243 0.049994027187338898 1 1 1 1 0.050893484786560604 0.048130909447062747 1 0.048269490473637142 1 1 0.048385967554330854 1 1 0.048271480116644998 1 1 1 1 0.049920814852694555 0.046889381866665053 1 1 1 1 1 1 1 1 0.049458284212228358 1 1 0.048712805969439693 1 1 1 0.048668438190481021 1 1 0.049356796163827786 1 1 1 1 1 1 0.050035198241075218 1 1 1 1 1 1 0.048316434032594578 1 1 1 1 1 0.050101458090847678 1 1 0.0499004336446663 0.04782137307809517 1 1 0.050258131617044476 1 1 0.049996382810103976 1 1 1 1 1 1 1 1 1 1 1 1 0.047522193432414137 1 0.050231107054135596 1 1 0.050167683495763019 1 1 1 1 1 1 0.050015231633127898 1 1 1 0.049809716011128734 0.047841970296350976 0.050000690158599363 1 1 1 0.050707945061400313 0.049471007198639234 1 0.049906067949189274 0.048992692398787008 1 1 0.049686202618380054 1 1 0.049727026791686051 1 0.049464552916080207 1 0.049741047854920874 1 1 1 0.050384740150357862 0.049850547588547782 1 1 0.050338009198951678 0.049572897836551111 0.049715125417125659 0.049906849319368486 1 1 1 0.04965207316592201 0.050237346808937662 1 1 0.04983039883629526 0.048883425430319614 0.050236670620728258 1 0.049331026452782277 0.050139170782580511 1 1 0.050375651293273899 1 0.050111591207366468 0.049715007845559191 1 0.050239831226561206 1 1 0.049255087759994043 1 0.048787018141063773 0.049424578945281329 1 1 1 1 0.049771232228351725 0.047868791742852523 1 1 0.050011325340967368 1 1 1 0.049967800692828204 1 1 1 1 1 1 1 1 1 1 1 1 1 1 1 1 1 1 1 1 1 1 1 1 1 1 1 1 1 1 1 1 1 1 1 1 1 1 1 1 1 1 1 1 1 1 1 1 1 1 1 1 1 1 1 1 1 1 0.048278514418778479 1 0.049439320341921944 1 1 1 1 1 1 1 1 1 1 1 1 1 1 0.048396480894200011 1 1 1 1 1 1 1 1 1 1 0.049437107590515998 1 1 1 1 1 1 1 1 1 1 1 1 1 1 1 1 1 1 1 1 1 1 1 1 1 1 1 1 1 1 1 1 1 1 1 1 1 1 1 1 1 1 1 1 1 1 0.0499935525495541 1 1 1 0.049994784213244388 1 0.049951801840186827 1 1 1 1 1 0.049876947072992076 1 0.050846959873031464 1 1 1 1 1 1 1 1 1 1 1 1 1 1 1 1 1 1 1 1 1 1 1 1 1 0.05029178003482411 1 1 1 1 1 1 0.047296253505844883 1 0.049160120161285736 1 1 1 0.046897086929161419 1 1 0.045171194063283751 1 1 1 1 1 1 1 1 1 1 1 1 1 1 1 1 1 1 1 1 1 1 1 1 1 1 1 1 1 1 1 1 1 1 1 1 1 0.050522389045366801 1 0.048921822829453614 1 1 1 1 1 1 1 1 1 1 0.050133546085736141 1 1 1 1 1 1 1 1 1 1 1 1 1 1 1 1 1 0.046679254932456102 1 1 1 0.05000956709738226 0.04397112247252323 1 0.043023815043976385 1 1 1 1 1 1 1 1 0.049876158841708436 1 1 1 1 0.049379185835277735 1 1 1 1 1 1 1 0.04988504340073871 1 1 0.047924458744778874 1 0.044549051391493913 1 1 0.050167318707664388 1 1 0.045752047409581699 0.050010347796481662 1 1 1 1 1 1 1 1 1 1 1 1 1 1 1 0.043015440208151012 1 0.045875954141041418 1 1 1 0.04993372933277436 1 0.049052599832153446 1 1 1 1 1 1 1 1 1 1 1 1 0.049644927395622485 1 0.050392447963112159 1 1 1 1 1 1 1 1 0.049019322831156988 1 1 0.048768452370895415 1 1 1 0.050683271728007039 0.050172023150565355 1 1 1 1 1 1 1 1 1 1 1 1 1 1 1 1 1 1 1 1 1 0.049425753426004852 1 1 1 1 1 0.050008194506411169 1 0.049535318051657479 1 1 1 1 0.049341259408813912 1 1 0.050197828034333571 1 1 1 1 1 0.050381175989014648 1 1 1 1 0.049851955277167521 1 1 1 1 1 1 1 0.049178179043183307 1 1 1 0.048435219619215014 1 1 1 1 1 1 1 1 1 1 1 0.048397293192751191 1 1 1 1 1 1 1 1 0.049589115784737209 1 1 1 1 1 1 0.048954289038304857 1 1 1 1 1 1 0.048727907566227163 1 1 1 1 1 1 1 1 1 1 1 0.049989743219185756 1 1 1 0.050053012449754145 1 1 1 0.049859567225780485 1 0.050003917660726649 1 1 1 1 1 1 0.049362734312659522 1 1 1 1 1 1 1 1 1 1 1 1 1 1 1 0.049847485275476354 1 1 1 1 1 0.050380891242917766 1 1 1 1 1 1 1 1 0.050096949216364026 1 1 1 1 1 1 1 1 1 1 1 1 1 1 1 1 0.049907786634131993 1 1 1 1 0.049981995059986795 1 1 1 1 1 1 1 1 1 1 1 1 1 1 1 1 1 1 1 1 1 1 1 1 1 1 0.04736936138878186 1 1 1 0.049997150096585501 1 0.048761510281003104 1 1 1 1 0.048982678361291096 1 0.049957570936162668 1 1 1 1 1 0.04998928463283249 1 1 1 1 1 1 1 1 1 0.047529179834498322 1 1 1 1 1 1 1 1 1 1 1 1 1 1 1 1 1 1 1 1 1 1 1 1 0.049772447404919117 0.050220066963850243 1 1 1 1 1 0.050141078779882838 1 1 1 0.049977434658539981 1 1 1 0.049743529265460378 1 1 0.049972614419726308 1 0.050050485962003607 1 1 1 1 0.049816976100469708 1 1 1 1 0.049730945479550107 0.049970980221439837 1 1 1 1 1 1 1 1 1 1 1 1 0.049896623370627689 1 1 1 1 0.04999159429626078 1 1 1 1 1 0.050187885426596808 1 1 0.050067926813206327 1 1 1 1 1 1 1 1 1 1 1 1 1 1 1 1 0.050034214724548172 1 1 0.049953306198672609 1 1 1 0.049940146590393163 1 1 1 1 1 1 1 1 1 1 1 0.049986840391720549 1 1 1 1 1 1 1 1 1 1 1 1 1 1 1 1 0.049981347263997007 1 1 0.050773204611463028 1 0.051262472667882378 1 1 0.047248803465946676 1 0.049940912851806546 1 0.047210938954343237 1 1 1 1 1 1 1 1 1 1 1 1 1 0.047219558126924674 1 0.050409090787324362 0.049635264923779336 1 1 0.046796876272207855 0.049853866072284661 1 1 0.050000554455385239 0.049353737945527026 1 1 1 0.045783122314365612 1 0.047937598475668065 1 1 0.050102624329499197 1 1 1 1 0.049773089981800786 0.047345137513681475 1 0.051436482267202835 1 1 0.048742074331349632 0.050006028253580873 1 1 0.049616443635467293 1 1 1 0.048953757820123567 1 1 1 0.050224270491247468 0.051436822266548089 0.04929831355041827 1 1 0.050465897179670954 1 0.054734220928052454 0.050016623627206491 1 1 1 1 1 1 1 1 1 1 1 0.050210969621865685 0.050393165336781925 1 0.051311568976233728 1 0.047657230076129847 1 0.048968808177541581 1 1 1 0.049932459097933896 1 1 1 1 1 0.050137336741529481 1 1 1 1 1 1 1 1 1 1 1 1 1 1 1 1 1 1 1 1 1 1 1 1 0.049949540743120011 1 1 1 1 1 1 1 1 1 1 1 1 1 1 1 1 1 1 0.042946271736310028 1 1 1 1 1 1 1 1 1 1 1 0.050236691332180165 1 1 1 1 1 0.042875642289317069 1 1 1 1 1 1 1 1 1 1 1 1 1 1 0.049436255261592406 1 1 1 1 1 1 1 1 1 1 1 1 1 1 0.048687033250223985 1 0.047794671418763916 1 1 1 1 0.048497410414881537 1 1 1 1 1 1 1 1 1 1 1 1 0.047899413361589219 1 0.050014205041871068 1 1 1 1 0.050046683904600979 1 1 1 1 1 1 1 0.045821644904913632 1 1 1 1 1 1 1 0.049996187505626323 1 1 1 0.048418415555091784 1 0.049998426881687 1 1 1 1 1 1 1 1 1 0.049409652256089703 1 1 1 1 1 1 1 1 1 1 1 1 1 1 1 1 1 1 1 1 1 1 1 1 1 1 1 1 1 1 1 1 1 1 1 1 1 1 1 1 1 1 1 0.049829523366777886 1 1 0.047862330137724639 1 1 1 1 1 1 1 1 1 1 0.049943011477616255 1 1 1 1 1 0.050505620472123383 1 1 0.049285173524145194 1 1 1 1 1 1 0.048019409935477292 1 1 1 1 0.049994377626783847 1 1 0.04904939463446234 1 0.048940241394690276 1 1 1 1 1 1 1 1 1 1 1 0.049291051265454078 1 0.048750439499862831 1 1 1 1 0.04974803733477394 1 1 1 1 1 1 1 1 1 1 1 1 1 1 1 1 1 1 1 1 1 0.047850379240127999 1 1 1 1 0.049118714518952118 1 1 1 1 1 1 1 0.04955117641633601 1 1 1 1 1 0.047317460652879277 1 1 1 0.051165835855103023 1 1 1 0.048332060384964376 1 1 0.049417010576527864 1 1 1 0.050738762867795439 1 1 0.050246904682688963 1 1 1 1 1 1 1 1 1 1 1 1 1 1 1 1 1 1 1 1 1 1 1 1 1 1 1 1 1 1 1 0.049817219029896678 1 1 1 1 1 1 1 1 1 1 1 0.050061711976111194 1 1 1 1 1 1 1 1 1 1 1 1 1 1 1 0.050165021356147477 0.050338893805054311 1 1 1 0.049492506483949518 1 1 1 1 0.050044021605514945 1 1 0.049481540566129217 1 1 1 1 1 1 1 1 1 1 1 1 1 0.049379833761622971 0.04971863461406098 1 1 1 1 1 1 1 1 1 1 1 0.04819393018206581 1 1 0.049532203804577311 1 1 1 1 1 1 1 1 1 1 1 1 1 1 1 1 1 1 1 0.049037117112611481 1 1 1 0.050001782636881612 1 1 1 1 1 0.049988245273211329 1 1 1 1 1 1 1 1 1 1 1 1 1 1 1 1 1 1 1 1 0.049920444250244431 1 1 0.049881787165265493 1 1 1 1 1 1 1 1 1 1 1 1 1 1 1 1 1 1 1 0.049896511812361377 1 1 1 1 1 1 1 1 1 1 1 1 1 1 1 1 1 1 1 1 1 1 1 1 1 1 1 1 1 1 1 1 0.050079946268994209 1 1 1 1 1 1 0.0534215101890122 1 1 1 1 1 0.052075449950576426 1 1 1 1 0.050952170357847215 1 1 1 1 1 1 1 1 1 1 1 1 1 1 1 1 1 1 1 1 1 1 0.05032414983936092 1 1 1 1 1 1 1 0.050070391327772849 1 1 0.050028554492548442 1 1 0.049982664377690139 1 1 1 1 1 1 0.050008557312943583 1 1 1 1 1 1 1 1 1 1 0.050576561618345686 1 0.048508891257644272 1 1 1 1 1 1 1 1 0.049999346858764546 1 1 0.04993373451339142 1 1 1 0.049616569164142241 1 1 1 0.049492370931593671 1 1 1 0.049999997505837071 0.050001850443557899 1 1 0.049410942693222229 1 1 0.04930235131739634 1 1 0.049998619249990196 1 1 1 1 1 1 1 1 1 0.049998621409850896 1 1 1 0.049193683852025681 1 1 1 0.049085594504575517 1 1 1 0.049998636475694101 1 0.049995428953835457 1 1 0.048510244859440915 1 1 1 1 1 1 1 1 0.049911841513831462 1 1 0.050012490369585841 1 1 1 1 1 1 1 1 1 1 1 1 1 0.049527660676552621 1 0.050001378352692166 1 1 1 0.049353501708626291 0.049932527329459755 1 0.049654844373550305 1 1 1 1 0.050004159690620859 1 0.050087604421169621 1 1 1 1 1 1 1 1 1 0.050033414519093655 1 1 1 1 1 1 1 1 1 1 1 1 1 1 1 1 1 1 1 1 1 1 1 1 1 1 1 1 0.050009387972578187 1 1 1 1 1 1 0.050011108506169868 1 1 1 1 1 1 0.050007342623665067 1 1 1 1 1 1 0.050001150445730468 1 1 1 0.049989074735476938 1 1 1 0.04997664155862877 1 1 0.04692342034451235 1 1 1 1 1 1 0.048143710234058917 1 1 1 0.047372985670062276 0.049993900936900704 1 1 1 1 1 1 1 1 1 1 1 1 1 1 1 1 1 0.049995564829819213 1 1 1 1 1 1 1 0.049997721690465576 1 1 1 1 1 0.047285775965959488 1 1 1 1 1 0.049999949506624619 1 1 0.049631174115936365 1 1 1 1 0.049997072909357593 1 1 1 1 1 1 0.051459178563575299 1 0.046502409741170335 1 0.05162521299078187 0.047401637319036384 1 0.049998990165286208 1 1 1 0.050000953281756536 1 1 1 1 1 0.050005879806668256 1 1 1 0.049998548343283954 1 1 1 1 0.049995810769890514 0.049720939243902598 0.04984084927967937 1 1 1 1 0.049804946770664105 0.047691110114397202 1 0.047291986515466677 1 1 1 1 1 1 0.049998878244051304 1 0.049620470962182424 1 1 0.049696773104944324 1 1 1 0.049998741164956645 1 1 0.04692565562206627 1 1 1 1 1 1 1 1 1 1 1 1 0.049978116872714251 1 1 1 1 0.04864102559161676 1 1 1 1 0.048594965815858954 1 1 1 1 1 1 1 1 1 0.049930300005005146 0.048248005751333756 0.050204298656857715 1 1 1 0.050000744418703738 0.049972295959957357 1 1 0.049681215833139357 1 0.048531922416949522 1 1 1 1 1 1 1 0.049586878660838718 1 1 1 1 1 1 1 1 1 1 1 1 1 1 1 1 0.04997930433370032 1 1 1 1 1 1 1 1 1 0.04993677899485062 1 1 0.04874443181906573 1 0.049384344444172987 1 0.04996828058515429 1 1 0.049079278482535529 1 1 1 0.049999905248584532 0.050508060533079088 1 1 0.049865628741576587 1 1 1 0.049311408437617867 1 1 1 1 0.049950128894069926 1 1 1 1 1 1 1 1 1 1 1 0.049306331784247447 0.04999749406338868 1 1 1 1 1 1 1 1 1 1 1 1 1 1 1 1 1 1 1 1 1 1 1 1 1 1 1 1 1 1 1 1 0.049998074905498069 1 1 1 1 1 1 1 1 1 1 1 1 1 1 1 1 1 1 1 0.050102386825951785 1 1 1 1 1 1 0.049997521233918908 0.048920553045705355 1 1 0.049293070936706374 0.049816683868938262 1 1 1 0.050006303780959938 1 1 1 1 1 1 1 1 1 1 1 1 1 1 1 1 1 1 1 1 1 1 1 0.049917025810814544 1 0.049056695409871551 1 0.049971709306193365 1 1 1 1 1 1 0.047525731575063034 1 0.049716892698294123 0.050230388264444058 1 1 0.04841882244210613 1 1 1 1 1 1 0.049959734464735013 0.048730586895579409 1 1 0.047726853051143811 0.050058215386328049 1 1 0.047771467857078698 0.049986964975330617 1 1 1 1 1 1 1 1 0.04715748616154429 1 1 1 1 1 0.048263358350235333 1 1 0.048536790950547956 1 1 1 0.050000575521094409 1 1 1 1 1 1 1 1 1 1 1 1 1 1 1 1 1 1 1 1 1 1 1 1 1 1 1 1 1 1 1 1 1 1 0.049902326365771965 1 1 0.044559611232941825 1 0.051186506746459561 0.046565734542477241 1 1 1 1 1 1 1 1 1 0.051062524354809929 1 1 1 1 1 0.050948217314712864 1 1 1 1 1 1 1 0.050032794925286166 1 1 1 1 1 1 1 1 0.050114639422973832 1 1 1 1 1 0.050220818751894304 1 1 1 1 1 1 1 1 1 1 1 1 1 1 1 1 1 1 1 1 1 1 1 1 1 1 1 1 1 1 0.050091679435228499 0.049957184944382484 1 1 1 1 1 1 1 0.050011377764161404 1 1 1 0.050295298927360919 1 0.049861851166702796 1 1 1 1 1 1 1 1 1 1 1 1 1 1 1 1 1 1 1 1 1 0.049875638621851209 1 1 1 1 1 1 0.050353058843103163 1 1 1 1 1 1 1 0.04354393342693972 1 1 0.049965344508443796 1 1 1 1 1 1 0.05032751431716035 1 1 1 0.043322299987121435 1 1 0.043146324984900321 0.049998215198294747 1 1 1 1 1 1 1 1 1 1 1 1 1 1 1 1 1 1 1 1 1 1 1 1 1 1 1 1 0.050004916328235276 1 1 1 1 1 1 1 1 1 1 1 1 1 1 1 1 1 1 1 0.04410261257457665 1 1 1 0.04387533820667712 0.049901265839865795 1 1 1 1 1 0.049964892161710239 1 1 1 0.049767527087721586 1 1 1 1 1 0.049709325499279984 1 1 1 1 1 1 1 1 1 1 1 1 1 1 1 1 1 1 1 1 1 0.049107795315898775 1 1 1 1 1 1 0.047800535969290806 1 1 1 1 1 1 1 1 1 1 1 1 0.049497770403883298 1 1 1 1 0.049746243947764404 1 0.049499240265246838 1 1 1 1 1 1 1 1 1 1 1 1 1 0.047024254791619653 1 1 1 1 1 0.046503602604186789 1 1 1 1 1 1 0.04974676120218275 1 1 1 1 1 1 1 1 1 1 1 1 0.049978835995315364 1 1 0.04995137527533515 1 1 0.049818008242687506 1 1 0.0499390211738086 1 1 1 1 1 1 1 1 1 1 0.050716623753893138 1 1 1 1 1 1 1 1 0.050011576222513232 1 1 1 0.049990260214826943 1 1 1 0.047647830188795773 1 1 0.049876712211766198 1 1 1 0.050187076948913549 1 1 1 1 1 0.04977808206514435 1 0.049999852113560533 1 1 1 1 0.0500132297478234 0.050493380250466131 1 1 1 0.045837946749757358 1 1 1 1 0.049962756883446216 1 1 1 1 1 1 1 1 1 1 1 1 1 1 1 0.049973878244916871 1 1 0.050178865808641469 0.050179255381351595 1 1 1 1 0.049788757985750748 1 1 1 1 1 1 0.050037794648086234 1 1 1 1 1 1 0.05001255561209577 1 1 1 1 1 1 1 1 0.049763386926173943 1 1 1 1 1 1 1 1 1 1 0.050109638606067014 1 1 0.046800006943075741 1 1 0.04660034714335097 1 1 1 1 1 0.049848642772698473 0.049985856957640414 1 1 0.049999066085450218 0.050331593953890377 1 0.050139095067836627 1 0.048899306267502579 1 0.048721005362073577 0.04970355647940522 1 1 0.049504786352694591 1 0.050117503642499728 1 0.049431401086946866 1 0.04814850047042088 1 0.050164133785529003 1 1 0.049997751893771286 1 0.050003223811403777 1 0.049686805293073122 1 1 1 1 1 1 0.050453567881490663 1 1 1 0.050000365056415343 1 1 1 1 1 1 1 1 1 0.049429318326234956 1 1 0.050547425804434706 1 0.049996245675702364 1 0.049437381891383067 1 1 1 0.064908233474687618 0.049629001301805357 1 1 1 1 1 1 1 1 1 1 1 0.049884326210406962 1 1 1 1 1 0.04965739401177563 1 1 1 1 1 1 1 1 1 1 1 1 1 1 1 1 1 0.049906424404982469 1 1 1 1 1 1 0.046638438308837779 1 1 1 0.046521384391519059 1 1 0.049987863935378941 1 1 1 0.048336082541032874 1 0.048796420537441106 0.049931602586218607 1 1 1 1 1 1 1 1 1 0.048431443321236833 1 1 1 1 1 1 1 0.050003258550654697 1 0.049759557179855064 1 0.049919766650039166 1 1 1 1 1 1 1 1 1 1 1 1 1 1 1 1 1 1 1 1 1 1 1 1 1 1 1 1 1 1 1 1 1 1 1 1 1 0.047842513084870628 1 1 0.047633016101682059 0.04831726146579543 1 1 1 1 0.048064120661244131 1 1 1 1 1 0.048696289789671353 1 1 0.049999187681381105 0.049095050729675647 1 1 1 1 1 1 0.049112154645303635 1 0.049984674485432444 1 1 0.047288346213312488 0.048858152032412096 1 0.050414086324747198 1 1 1 0.049943259607857469 1 1 1 1 0.049923888739046511 1 1 1 0.047211370166818076 1 1 0.049067680612487785 0.049990102174339739 1 1 1 0.048115965779306602 1 1 1 1 0.04999953089394351 1 1 0.047037696764882474 1 1 1 0.050655886192998462 1 1 0.046977963398981804 1 1 1 0.050710093191329644 1 0.050099217830519183 1 1 0.049744736045994338 1 1 0.046643168747754454 0.049998895265669252 1 1 0.048072738871336791 1 0.050001781453783686 0.048555769584982499 1 1 1 1 0.049368554334434975 1 1 1 1 0.049845014526951947 1 1 1 1 1 1 1 1 1 1 1 1 0.047681383762080504 1 1 1 1 0.050000977910093641 1 0.05127873247563601 1 1 1 1 1 0.048894624967031494 0.049993500865668852 0.04998575741440392 1 1 1 1 1 1 1 1 0.048722136270576984 1 1 1 1 1 1 0.049256243855236026 1 1 1 1 0.048731848445087711 1 1 1 1 1 1 1 1 1 1 1 1 1 1 1 1 1 1 0.049509065154487164 1 0.050335636085009773 1 1 0.049182654308560704 0.050465535444295689 1 0.049889080193213836 1 1 0.049990693786749772 1 0.050113851476987555 1 0.05015270225562346 1 0.049737730725459596 1 1 1 1 0.049906686118028912 1 1 1 0.049682358236438851 1 1 1 1 1 1 1 1 1 1 1 1 1 1 1 1 1 1 1 1 1 1 1 1 1 0.049999624048731997 1 1 1 1 1 0.04405187774288416 1 1 1 1 1 1 1 1 1 1 1 0.050027742906191844 1 1 1 1 1 0.049971699579724985 1 1 0.049866507493976107 0.044242986826510483 1 1 1 0.04701735489685023 1 1 0.049245413268257765 0.047180330188617801 1 0.047786370612652798 1 1 1 1 1 1 1 1 1 1 1 1 1 1 1 1 0.049885111823195542 1 1 1 1 0.050155726850644185 1 1 1 1 1 1 1 1 0.047308116158068764 0.047513486449154263 1 1 0.049941418574856171 1 1 1 1 1 1 1 1 1 0.04795525517747088 0.050648129573890005 1 1 0.049673010928871109 1 1 1 0.049500960735869855 1 1 1 1 1 1 1 1 1 1 1 1 1 1 1 1 1 1 1 1 1 1 1 1 1 1 0.049941769799620617 1 1 1 1 1 1 1 1 1 1 1 1 1 1 1 1 1 1 1 1 0.048989549248811305 1 1 1 0.049565779951196903 0.049996139327022945 1 1 1 0.048439910467808739 1 1 0.049957092682176997 1 1 1 1 1 0.049499000370141301 1 0.050148761938522954 1 1 1 1 1 1 1 1 0.049879802162417435 1 1 1 0.048949078993380919 1 1 0.049767633062107811 1 0.049660946301817346 1 1 1 0.049708596193851193 1 1 1 0.049120593421538045 1 1 1 1 1 1 1 1 1 1 1 1 1 1 1 1 1 0.048594472818185845 1 1 1 1 1 1 1 1 1 0.05001394774564951 1 1 1 1 1 1 1 1 0.048252170782387652 1 1 1 1 1 1 1 1 1 1 1 1 1 0.050005589036886407 1 1 1 0.049959082555654538 1 1 1 1 1 1 1 1 1 1 1 1 1 1 1 1 1 1 1 0.050039017178033003 1 1 1 0.04974612867338802 1 0.050008952473572656 1 1 1 0.048897128745710797 1 1 1 0.050002444970828522 0.050280770752093085 1 1 1 1 1 1 1 1 1 1 1 1 1 1 1 1 1 1 1 1 1 1 0.050023046787077648 1 1 1 1 0.050047714043509918 1 1 1 1 0.050024667256432273 1 1 1 1 1 1 1 0.050490806869212611 1 1 1 1 0.050313421910976312 1 1 1 1 1 1 0.05011068753929418 1 1 1 1 1 1 0.049976201192087975 1 1 1 0.049967677126112595 1 1 1 1 1 1 1 1 1 0.049885562891112879 1 1 1 1 1 1 0.049671566729515726 1 1 1 1 1 1 1 1 1 1 1 0.049999825962124857 1 1 0.049188738439682793 1 1 1 1 1 0.04992151132849653 1 1 0.049573600142370985 1 1 1 1 1 1 1 0.047745031563204671 0.050507775333286181 1 1 1 1 0.05048922822723094 1 1 1 1 1 1 0.049999185008598693 1 1 1 1 1 1 1 1 1 1 0.049499921594484492 1 1 1 1 1 1 1 1 1 1 1 1 0.049765782369281676 1 0.050043334816131081 1 1 1 0.049474983806508395 1 1 0.049394617591226958 1 1 1 1 0.049341398125974878 1 1 1 1 1 0.049362475558787894 1 1 1 1 1 1 1 1 0.049351392145139915 1 1 1 1 0.050056748213179035 1 1 1 1 1 1 1 0.050018120141348314 1 1 1 1 1 1 1 1 1 1 0.050040030649549719 1 1 1 0.050058775578829998 1 0.049956829203110287 1 1 1 1 1 1 0.049625486782308499 1 0.049853374201781611 1 0.049990408175259529 1 1 1 1 0.049810440830906119 1 1 1 1 1 1 1 1 1 1 1 1 1 1 0.050139248214700241 1 0.046043624329254296 1 1 1 1 1 1 1 0.049958312136568185 1 1 1 1 1 1 1 1 1 1 1 1 1 0.046534448017709146 1 1 1 1 0.047120172713588634 1 1 1 1 1 1 1 1 1 1 1 1 1 1 1 1 1 1 1 1 1 1 1 1 0.049971128194729479 1 1 1 1 0.050860637635393967 1 1 1 0.049771566541521373 1 1 0.049993962558231311 1 1 0.049132253862978842 1 1 1 1 1 1 1 1 1 1 1 1 1 1 1 0.049850191219969343 1 1 0.049870393020785102 1 1 1 1 1 1 1 0.049542510990109187 1 1 1 1 1 0.048796052726712655 1 1 1 0.048557900176466169 1 1 1 0.048594858294849337 1 1 1 1 1 1 1 0.050526994621164778 1 1 1 0.049190344947217531 1 0.050254771955698947 0.049562043718902431 1 1 1 1 1 0.049759905122540887 1 1 1 1 1 1 1 1 1 1 0.050584439882565925 1 1 1 1 1 1 1 1 1 1 1 1 1 1 1 1 1 1 1 1 1 1 1 1 1 1 1 1 1 1 1 1 1 1 1 1 1 0.049116402678638989 1 1 1 1 1 1 1 1 1 1 1 1 1 1 1 1 0.048202871203149512 1 1 1 1 1 1 1 1 1 0.049118029058767235 1 1 1 1 1 1 1 0.049070617340170673 1 1 1 1 1 1 1 1 1 1 1 1 1 1 1 1 1 1 1 1 1 0.049970345415920089 1 1 1 1 1 1 1 1 1 1 1 1 1 1 1 1 1 0.04999474544373525 1 1 1 1 1 1 1 1 1 1 1 1 1 1 1 1 1 1 1 1 1 1 1 1 1 1 1 1 1 1 1 1 1 1 1 1 1 1 1 1 1 1 1 1 1 1 0.049853549478839368 1 1 1 1 1 1 1 1 1 1 1 1 1 0.049998692261082119 1 0.050001492890344001 1 1 1 1 1 0.050096190160809038 1 1 1 1 1 0.049949538308679986 0.049899312667614507 1 1 1 1 1 1 1 1 1 1 1 1 1 1 1 1 1 0.049938236707465666 0.049903603783814907 1 1 1 1 1 1 0.049937927824126267 1 0.049913501038747872 1 1 1 1 1 1 1 1 1 0.049980613367047462 1 1 1 1 1 1 1 1 1 1 1 1 1 1 1 1 1 1 1 0.049977336045486952 1 1 1 1 1 0.049937428464824171 1 0.049876388400586461 1 1 1 1 1 1 1 0.049879566979262387 1 1 1 0.049938959935762299 1 1 1 0.049606456969010795 1 1 0.048160630741254998 1 1 1 0.050726760665935178 1 1 0.050348554690367878 1 0.049753602819421733 1 0.05075924568642886 1 1 0.0502103394462571 1 1 1 1 1 1 1 1 1 1 1 1 1 1 1 1 1 1 1 1 1 0.0499810756984162 1 0.049692718903642033 1 1 1 1 1 1 1 0.049719895190139175 1 1 1 1 1 1 1 1 1 1 1 1 1 1 1 1 1 1 1 0.049948752824528798 1 1 1 0.04999376468855294 1 1 1 1 1 1 1 1 1 1 0.050094727437120477 1 1 1 1 0.050135534212821166 1 1 0.049977612694871262 1 1 1 1 1 0.050121740524857523 1 1 1 1 0.049976270312510084 1 0.050145080852597827 1 1 0.049609107465318408 1 1 1 1 1 1 1 0.049532382124874666 1 1 0.050037834959271214 1 0.049502403425296659 1 1 1 1 1 1 1 1 1 1 1 1 1 1 1 1 1 1 0.049967736994952321 1 1 1 1 1 1 1 0.050025179608234452 1 1 1 1 0.049701467203390637 1 1 1 1 1 1 1 1 1 0.049983848006318332 1 1 1 1 0.050008543770653002 1 1 1 1 1 1 1 1 1 1 1 1 0.049828810583461142 1 1 1 1 1 1 1 1 1 0.048561975848353665 1 1 1 1 1 1 1 1 1 1 1 1 0.048816795706732204 1 1 0.049510444269473063 1 1 1 1 1 1 1 1 1 0.049870272040059588 0.045861121401339369 0.047974875972672519 1 1 1 0.049999412711422796 1 1 1 1 1 1 0.048020595088572676 1 1 1 0.050093107251765349 0.050006232974515001 1 1 1 1 1 1 1 1 1 1 1 1 0.048447504799448871 1 1 1 0.049956272063320616 0.048418188394198612 1 1 1 1 1 0.046437510299395413 1 1 1 1 0.048161760583377358 1 1 1 1 0.050000549506554678 1 1 1 1 1 0.04844546319606205 0.04790684622375755 0.04966508006631818 1 1 1 0.048501706056031414 0.048172561486937215 1 1 1 1 1 1 1 1 1 0.048770292659175263 0.049992695954164196 1 1 1 0.04992894591928581 0.050031083767091346 1 1 1 1 1 1 1 1 1 1 1 1 1 1 1 1 1 0.04880943377182459 1 0.04894287235723177 1 1 1 1 0.048277328316889863 1 1 1 1 1 1 1 0.048640459741265636 1 1 1 1 1 1 1 0.049152201169795663 1 1 0.04789373089081788 1 0.048562521167901954 0.049250480164038379 1 1 1 0.048975389792280631 0.050001320580890136 1 1 1 0.050001543622415559 0.04998865033967155 1 1 1 1 1 1 1 1 1 1 0.050001736073302105 1 1 1 1 1 1 1 0.049759212433025966 1 1 1 1 0.049019063207447089 1 1 1 1 1 1 0.04775642370290048 1 1 1 1 0.049956835973128097 1 0.048086422835848783 1 1 1 1 1 1 1 1 1 1 1 1 1 1 0.047594836416819455 1 1 1 1 1 1 1 0.047704074939107943 1 1 1 1 0.049997013162792266 1 1 1 0.049199084481267807 1 1 1 1 1 1 1 1 1 1 1 1 1 1 1 1 1 1 1 1 1 1 0.049433853152513071 1 0.049784496832568303 1 1 0.049801761333477725 1 1 1 0.049451687455657312 1 1 0.049279493707689352 1 1 1 1 1 1 1 1 1 1 1 1 1 1 1 1 1 1 1 1 0.049295954147583552 0.050044864980364166 0.049890850239532568 1 1 1 1 1 1 1 1 1 1 1 1 1 0.049305444148623534 1 1 1 0.0506767281915423 1 1 0.047620171121697835 1 1 1 1 0.048556132907811654 1 1 0.049729510245306606 0.049937736967249076 1 1 1 1 0.049790517636095162 1 1 0.050180313686458422 1 0.050050345461529581 1 1 1 1 1 1 1 1 1 1 1 1 0.050743781405209715 1 1 1 1 1 1 1 0.04951272855120064 1 0.049984104575198036 1 1 1 1 0.049868173257253366 1 1 1 1 1 1 1 1 1 1 1 1 1 1 1 1 1 1 1 1 1 1 1 0.04931382724165418 1 1 1 0.049992231364240462 1 0.050071522231423853 1 1 1 0.044820883911730537 1 1 1 1 1 0.050006081466730044 1 1 0.051967099476065995 1 1 1 1 1 1 1 1 0.049945219207661228 1 1 1 1 1 0.049743158371126604 1 1 1 1 1 1 1 1 1 1 1 1 1 1 0.049902673324146919 1 1 1 1 0.049875801199108866 1 1 1 1 1 1 1 1 1 1 1 1 0.049874418614609693 1 1 1 1 0.049957581228036813 1 1 1 1 1 1 1 1 1 1 1 1 1 0.049727188790438179 1 1 0.050118977821986273 1 1 1 0.049972091332699281 1 1 1 1 1 1 1 1 1 1 1 1 1 0.050372378381910846 0.048256702694849128 1 0.049188021092986083 0.049569148791761643 1 1 1 0.050119240069852619 0.045733614810920531 1 0.048737113050705876 1 0.049755953084754584 1 0.04787332173260344 1 1 1 0.050718680010114016 1 0.05002032771877251 1 1 1 1 0.048499200753499394 1 1 1 1 1 1 0.049582518785014087 1 1 1 1 1 0.044819413448053402 1 1 0.049993108577727451 1 1 0.049941747493672993 1 1 0.050019203427073791 1 1 1 1 1 0.048757668246310303 1 0.049459068784692167 1 1 1 1 1 1 1 1 1 1 1 1 1 0.049669047763459061 1 1 0.049912473972780091 1 1 1 1 1 1 1 1 1 0.048310282815275551 1 1 1 1 1 1 1 1 1 0.043341420508279903 1 1 0.049485315393605463 1 0.044689894071823291 1 1 1 1 1 1 1 0.050236642085270733 1 1 1 1 1 1 1 0.042252276690695659 1 0.051929213024740545 1 1 0.051073218491304952 1 1 1 0.0498938900177269 1 1 1 1 0.049710032087603169 1 1 1 1 1 0.049999907953784166 1 1 1 1 1 1 1 1 1 1 1 1 1 1 1 1 1 1 1 1 1 0.04986182415455824 1 1 0.049852575392555935 1 1 1 0.04961077121872564 1 1 1 1 0.049948332466034515 1 1 1 1 1 1 1 1 1 1 1 1 1 1 1 1 1 1 1 1 1 1 1 0.049756352461489711 1 1 1 1 1 1 0.049303501876004782 1 1 1 1 1 1 1 1 1 1 1 1 1 0.050006242337136984 1 0.045609161875510736 1 1 0.050382196532528914 1 1 1 1 0.041261491655119623 0.04945838393491462 1 0.05026697249452599 1 0.046919006745456224 1 1 1 1 1 0.039660633276252605 1 1 0.04573734968245971 0.047437108593440538 1 1 1 1 1 0.049705591643917239 1 1 0.049999495483856959 1 1 1 1 1 1 1 1 0.04678708431726316 0.049037417352848715 1 1 1 0.047168616598261819 1 0.049995584650033828 1 1 1 1 1 0.050199476769625329 1 0.04803292309290555 1 1 1 1 1 0.050151155237743605 0.04998519846706885 1 1 1 1 0.050002268067520159 1 1 1 1 0.05006136716626744 1 1 1 1 1 1 1 1 1 1 1 1 1 1 1 1 1 0.0501837823524608 1 1 0.050069774933723291 1 1 1 0.049899441652960758 1 1 1 1 1 1 1 1 1 1 1 1 1 1 1 1 1 1 1 0.049461285063588899 1 1 1 1 1 1 1 1 1 1 1 1 1 1 0.049365705139702558 0.049975945860787865 1 1 1 0.049935210716284206 1 1 1 1 1 0.049819072380817946 1 1 1 1 1 1 1 1 1 1 1 0.049823545109936612 1 1 0.049924103456975844 1 1 1 1 1 1 1 1 1 1 0.048730766714747915 1 1 1 0.048350661475210714 1 0.049438000994391579 1 0.050011373132254025 1 1 1 0.049998729042778529 0.050209234007701171 1 0.048536433066040462 1 1 0.050372626192810813 1 1 0.049788891829636132 0.048573186427904959 1 1 1 0.048050888977977359 1 1 0.050923159050431273 1 0.048462176658950709 1 1 1 0.050718155581817664 1 1 0.050361479501156436 0.049597466054141698 1 0.04951982104937825 1 1 0.04990373822156495 1 0.050090969087093928 1 1 1 1 1 1 1 1 1 0.050015140563261347 1 1 1 1 1 0.049662255874073434 1 1 1 1 1 1 1 1 1 1 0.049701920600863682 1 1 1 1 0.049680731352459949 0.049625108986570736 1 1 0.044723628977872826 1 0.04494560734962242 1 1 1 1 1 0.04078135175167609 1 1 0.050479434474395179 1 0.050007320171466203 1 1 1 1 1 1 1 0.050934541246916744 1 1 1 1 1 1 1 1 1 0.04511249149673037 1 0.050011876111117397 1 0.049984075908300729 1 0.047830164293365847 1 1 1 1 0.049966092733711095 1 1 1 1 1 0.049887786907258314 0.05050792800159775 1 1 1 1 1 1 0.050085923409382282 1 1 1 1 1 0.048919029602758873 1 1 1 1 0.044553072221201487 1 1 0.048703709884646201 1 0.048327235801225374 1 1 1 0.051217357258525033 1 0.043422891530321008 1 1 0.046108669157750831 0.050000757668627174 0.04488835730567807 1 1 1 1 1 1 0.050000695082391328 0.051244128046276427 0.050253048244360617 1 1 1 1 0.048492992806099006 1 0.049334509926330962 1 0.047533084243034304 1 1 1 1 1 1 0.049677684700420041 1 1 1 1 1 1 1 1 1 1 1 1 1 1 1 1 1 1 1 1 1 1 1 1 1 1 1 1 1 1 1 1 1 1 1 1 1 1 1 1 1 1 1 1 1 1 1 1 1 0.049775470863933351 1 1 1 0.049489693046460656 0.050013937699911276 1 1 1 1 1 1 1 1 1 1 1 1 1 1 1 1 1 1 1 0.04709395759921544 1 1 1 1 1 1 1 0.049292999610985933 1 1 0.046867794146958047 1 1 0.049117874663198821 1 1 0.049637027658930112 1 0.045633911308374395 1 1 0.045310776892828947 1 1 1 0.049985302307770756 1 0.047630115163565044 1 0.04721580963823329 0.045047827880930875 1 1 1 0.045283510615906686 0.050004646108962957 1 1 0.045023255573356749 1 1 0.045993251426099155 1 1 1 1 1 1 1 1 1 1 1 1 0.044736983278935105 1 1 1 1 0.044093217996769726 1 1 1 1 0.044904132363009608 1 1 1 1 1 1 1 1 1 0.049907317402785811 1 0.050000564673375707 1 1 1 1 0.049532381861448142 1 1 1 0.048848465223987857 1 1 1 1 1 1 0.04773432878374495 1 1 0.049994227730564549 1 1 1 0.049465158388689964 1 1 1 1 1 1 1 0.04976084818794372 1 1 1 1 1 0.050001013624965188 1 1 1 1 1 1 1 1 1 1 1 1 1 1 1 0.050073989170069479 1 1 1 1 1 0.049579413678597223 1 1 0.049328046296553914 1 0.050203228982151238 1 1 1 1 0.049964514921907961 0.049953854968050437 1 1 0.049898620808085548 1 1 1 1 1 1 1 1 1 1 1 0.050025628966076825 1 0.049845844795065403 1 1 1 1 1 0.049952856428469812 1 1 1 0.050120603567104065 1 1 1 0.050170614989624031 1 1 1 1 1 1 1 1 1 1 1 1 1 0.049615435839240517 1 1 1 1 1 1 1 0.046926912534161792 1 0.050652846624542024 1 1 1 1 1 1 1 0.050013230239215348 0.041297088926707463 1 1 1 1 1 1 1 1 1 0.049199454100437343 1 1 1 1 1 1 0.047394449611232715 0.046399271369183759 0.050283843279072205 1 0.044355563797693509 1 1 1 1 1 1 0.04393635253258165 1 0.049833988073494762 1 0.050153762142353175 1 0.046285398790243432 1 1 1 1 1 1 0.046497930656781143 1 1 0.049952696616280046 1 1 1 1 0.050036078800542075 1 1 1 1 1 1 1 1 1 1 1 1 1 1 1 1 1 1 1 1 1 0.049186321799510803 1 0.049737184523663588 1 1 1 1 1 1 1 1 1 1 1 1 1 1 1 1 1 1 1 1 1 1 1 1 1 1 1 1 1 1 1 1 1 1 1 1 1 1 1 1 1 1 1 1 1 1 1 1 1 1 1 1 1 1 1 1 1 1 0.049847840914347949 1 1 1 1 1 1 1 1 1 1 1 1 1 1 1 1 1 1 1 1 1 1 1 0.049947781360231341 1 1 1 0.049314006345418882 1 0.050012530609758972 1 1 1 1 1 1 1 1 1 1 1 1 1 1 1 1 1 1 1 1 1 1 1 1 1 1 1 1 1 1 1 1 1 1 1 1 1 1 1 0.049397801305426939 1 0.050133815223097775 1 1 1 1 1 1 1 1 1 1 1 1 1 1 1 1 1 1 1 1 1 1 1 1 1 0.049703869111385468 1 1 1 1 1 1 1 1 1 1 1 1 1 1 1 1 1 1 1 1 1 1 1 1 1 1 1 1 1 1 1 1 1 1 1 1 1 1 1 1 1 1 1 1 1 1 1 1 1 1 1 1 1 1 1 1 1 1 1 1 1 1 1 1 1 1 1 1 1 0.045819130601120889 1 1 1 1 1 1 1 0.046774293037595477 1 1 0.050021644896987016 1 1 1 1 1 1 1 1 1 1 1 1 1 1 1 1 1 1 1 1 0.04939364819184245 1 1 1 1 1 1 1 1 1 1 1 1 1 1 1 1 1 1 1 1 1 1 1 1 1 1 1 1 1 1 1 1 0.04905203930195659 1 1 1 1 0.049824382846314651 1 0.047582563770674387 1 1 1 1 1 1 0.049900333519353086 1 1 0.049750298173346849 1 1 0.049785442208464002 0.049268633535239262 1 0.049983718650100879 1 1 1 0.04977365598992791 1 1 1 1 1 1 1 1 1 1 1 1 1 1 1 0.049586825839970552 1 1 1 1 1 1 1 1 0.049402152313795217 1 1 1 1 1 1 1 1 1 1 1 1 1 1 1 1 1 1 1 1 1 1 1 1 1 1 1 1 1 1 1 1 1 1 1 1 0.048614627460983648 1 1 1 1 1 1 1 0.048547926575182448 1 1 0.050398079157865726 1 0.048401967690674501 1 1 1 1 1 1 1 1 1 1 1 0.050000193861756179 0.04999515578855987 1 1 0.050177615050714365 1 1 0.049906834194193186 0.04995284707176189 1 1 1 1 0.049826732001499174 1 0.050235092945299015 1 1 0.049830015268150965 1 0.049964977688445149 0.050114965020201949 1 0.049206867291607163 1 0.050507385318713224 1 1 1 1 1 1 1 0.050009472648314304 1 0.049985582124098059 1 1 1 1 1 0.049970428380670825 1 1 1 0.049095099771801681 1 1 0.050086768748287672 1 0.048129682360964703 1 0.048357644551797793 0.050312098847710221 1 1 0.049841124135346519 1 1 1 1 1 1 0.049868443128561937 1 1 1 1 1 1 1 1 0.048399945334010763 0.05001669235512933 1 1 1 0.049401558135691012 1 1 1 1 0.050452619356415637 0.049251935891528653 1 0.049512129173630876 1 1 1 0.049823673819321602 1 1 1 1 1 1 1 1 1 1 1 1 1 1 1 1 0.050071024298359745 1 1 1 1 1 1 0.04950652909994982 1 0.049290489274076213 1 1 1 0.049537759246016028 0.049269999978679244 1 1 0.050002061172688558 1 0.050001505851532374 1 1 1 1 1 1 1 1 1 1 1 1 0.04999977432305433 0.050000489060424071 1 1 1 1 1 0.04918308506506703 1 1 1 1 1 1 1 0.049904625795728852 1 1 1 0.050000040384771599 1 0.04869574544799106 1 1 0.05001791549814677 1 1 1 1 1 1 1 1 1 0.050019231438965535 1 1 0.049996216540199208 1 1 1 1 1 1 1 1 1 1 1 0.049285312077705992 1 1 1 1 1 1 1 1 1 1 1 1 1 1 1 1 1 1 1 1 1 1 0.049992541484974347 1 1 1 1 1 1 1 1 1 1 1 0.050013203371552024 1 1 1 1 0.050075718773073069 1 1 1 1 1 1 1 1 1 1 1 0.049953886887525209 1 1 1 1 1 0.049857590271937535 1 0.050019124430047725 1 1 1 1 1 1 1 1 1 0.050060470620213147 1 1 0.050005530551709934 1 1 0.048646488919959416 1 1 1 1 0.050063362910603697 1 1 1 1 1 1 1 1 1 1 1 1 1 1 1 1 1 1 1 1 1 0.048807638750463726 1 1 0.049636027215298348 1 0.049384191745445033 1 1 1 1 1 1 1 1 1 0.0496583216322996 1 1 0.049811018108228383 0.050013083433670044 0.049805709497952093 1 1 1 0.050004946168621486 1 1 1 1 1 1 0.050111659030494062 0.049999961212481167 1 0.049366378575823863 1 1 0.049494361863204842 1 1 0.050002470621888249 1 1 1 1 0.049883586929268649 1 1 1 1 0.04917279582270475 1 1 1 1 1 1 1 1 1 1 1 0.050023022288360294 1 1 0.049993637196768533 1 0.049523702005662015 0.049997749340826181 1 1 0.049999670377563706 0.049745385800581986 0.049526447167771576 1 1 1 1 1 1 1 1 1 1 0.0500481322734391 1 1 1 1 1 1 1 1 1 0.050797175904385053 1 1 1 1 1 0.050256607195559466 1 1 1 1 1 1 1 1 1 1 0.049901105767891196 1 1 1 1 1 1 1 1 1 1 1 1 1 1 1 1 1 1 1 1 1 1 1 1 0.048626340605198902 0.050174143687507104 1 1 1 1 1 1 1 1 0.049422116107062083 1 1 1 1 1 1 1 1 1 1 1 1 1 1 1 1 0.04967754222236688 1 1 1 1 0.0475862021118406 1 1 1 0.050728098642253021 0.049988200453367992 1 1 1 1 1 1 0.049988095921840753 1 0.0502582299128344 1 1 1 0.050088934498496773 1 1 1 1 1 1 1 1 0.049547234326506248 1 0.047274035297522957 0.05121940105933695 1 1 1 1 1 1 1 1 1 1 1 1 0.049419647910455125 1 1 0.050457454776862844 1 0.049763304712432732 1 1 1 1 1 1 1 1 1 1 1 1 1 1 1 1 1 1 1 1 1 1 1 0.049655622608566832 1 1 1 1 1 0.049753372186471294 1 1 1 1 1 1 1 1 1 1 0.050176402001519273 1 1 1 0.050066795251634155 1 1 1 1 1 1 1 1 1 1 1 0.049994190930068585 0.04972650508513414 1 1 1 1 1 0.049704162090943936 1 1 1 0.049731257808902876 1 1 1 1 1 1 1 1 1 1 0.049817006097742006 1 1 1 1 1 1 1 0.049998427272530205 0.049624491596861199 1 0.049940763267884096 1 1 1 1 0.049898270666564729 1 1 1 1 1 0.049696572102603843 1 1 1 1 1 1 1 1 1 1 0.049999799408336862 1 1 1 1 1 1 1 1 1 1 0.049783705026036879 1 1 1 1 1 1 1 0.049935801755013748 1 1 1 1 1 1 1 1 1 1 1 1 1 1 1 1 1 1 1 1 0.049827665321390782 1 1 1 0.049542450155795753 1 1 1 1 1 1 1 1 1 1 1 1 1 0.049350834991875481 1 0.050881808655424146 0.050173570726505995 1 0.050142429305595267 0.049640291655536135 1 1 1 1 1 0.050023636251603297 1 1 1 1 1 1 1 0.05021156092080388 1 1 0.050118608674798913 1 1 0.047860309760000629 1 1 0.049263759516886267 1 1 0.049994004728470161 0.050511761991366179 0.049239441621096947 0.049487455777505122 1 1 0.050384491554003784 0.050163223188972525 1 1 0.048796343170356658 1 1 0.049636840489233225 1 1 1 1 0.050114924201578842 0.049421226900680806 0.049901317444282924 0.049880766771806744 1 1 1 0.05003994249899571 1 0.049948347184957984 1 0.049404069025986277 1 0.049803721777143359 0.049174940011585455 1 1 1 1 1 1 1 0.050259731034343579 1 1 0.049782439875955584 1 0.050020620706537899 1 1 0.050446459918170171 0.04947955359389361 1 1 1 1 1 1 1 1 1 1 1 1 1 1 1 1 1 0.050299377918967471 1 1 1 1 1 1 1 1 1 1 1 1 1 1 1 1 1 0.050397091104441551 1 1 1 1 1 1 1 1 1 1 1 1 1 1 0.047865896074344556 0.04953489295714323 1 1 1 1 0.049999591621453447 1 0.047185367736219314 1 1 1 0.050290965967371482 0.049718986029775883 1 0.050054805358489496 1 1 1 1 1 1 1 1 1 1 1 1 1 1 1 1 1 1 1 0.046246861123122492 1 0.049985707361443116 1 1 1 1 0.050109996520326973 1 1 1 1 1 1 1 1 1 1 1 1 1 1 1 1 1 1 1 1 0.050105935050457025 1 1 1 1 1 1 1 1 1 1 1 1 1 1 0.049802459507824429 1 1 1 1 1 1 1 1 1 1 1 1 1 1 1 1 1 1 1 1 1 1 1 1 1 1 1 1 1 1 1 1 1 1 1 1 1 1 1 1 1 1 1 1 1 1 1 1 1 1 1 1 1 1 1 1 1 1 1 1 1 1 0.049788588101479618 1 1 1 0.049474511556510864 1 1 0.049740525330090157 1 1 1 1 1 1 1 1 1 1 1 0.049733986226420709 1 1 1 1 0.049904903282998112 1 1 1 1 1 1 1 1 1 1 1 1 1 1 1 1 1 1 1 1 1 1 1 1 1 1 1 1 1 0.04999979414257149 1 1 1 1 0.049999795054834005 1 1 1 1 1 1 1 1 1 1 0.049980806363546577 1 1 0.049948043087866725 1 1 1 1 1 1 1 1 1 1 1 1 0.050031233519431111 1 1 1 1 1 1 1 1 0.049925621448487695 1 1 1 1 1 1 1 1 1 1 0.049838903817688344 1 0.049961980156834666 1 1 1 0.049699575028559061 1 1 1 0.050094594452386121 1 0.049469464166880986 1 0.04972556016418675 0.050004737074393131 1 1 1 1 1 0.049539427682584056 1 1 1 1 1 1 1 1 1 1 1 1 1 1 1 1 1 1 1 1 1 1 1 0.049992270546183944 1 1 0.049855577614332069 1 1 1 0.04996910264404561 1 0.049909829007721652 1 1 1 1 1 1 1 1 1 1 1 1 0.049991392067754145 1 1 1 1 1 1 1 1 1 1 1 1 1 1 1 1 1 1 1 0.04942043718034738 1 1 1 1 1 1 1 1 1 1 1 1 1 1 1 1 1 1 1 1 1 1 1 1 1 1 1 0.049926365520324131 1 1 1 1 1 1 1 1 1 1 1 1 1 1 1 1 1 1 0.049530897708880535 1 1 1 0.049759283024376752 1 1 1 0.050008650466451761 0.049999225026786227 1 1 1 1 1 0.050057149095756565 1 1 1 1 1 1 1 0.050311585654773075 0.050185128167997431 1 1 1 0.050000714900979223 1 0.050007827705238879 1 1 1 1 1 1 0.047452232878367875 0.049029079000992438 1 1 0.049958825980358557 0.05038055811396281 1 1 1 1 1 1 1 1 1 1 0.049998756269660792 1 1 1 1 1 1 0.050004399515600158 1 1 1 1 1 1 1 1 1 1 1 1 1 1 1 1 1 0.05000035071338281 1 1 1 1 0.049049385619423583 1 1 0.050002036661838049 1 1 1 1 1 1 1 1 1 1 1 0.050334770218536183 1 0.050090032050836723 1 0.050225224059922038 1 1 1 1 1 1 1 1 1 1 1 1 1 1 1 1 1 1 1 0.049880841867919218 1 1 0.049632680596898626 1 1 1 0.050010819950145426 1 1 0.050037880761722324 1 1 1 1 0.049555796487486314 1 1 1 1 1 1 1 0.049301253099500592 1 1 1 1 1 1 1 1 1 1 1 1 1 1 1 1 1 1 1 1 1 1 1 1 1 1 1 1 1 0.04951715958052879 1 1 1 1 1 1 1 1 1 1 1 1 1 1 1 1 1 1 1 1 1 1 1 1 1 1 1 1 1 1 1 1 1 1 1 1 1 0.050260384037994356 0.048475482201954488 0.04891676375763606 1 1 0.050029913777781182 1 1 1 0.049718457223590709 1 0.050031079064052575 1 1 1 1 1 0.049811183865162492 1 1 1 1 1 1 1 0.049764467079284121 1 1 1 1 1 1 1 1 1 1 1 1 1 1 0.046024501332854247 1 1 1 0.049916217233407223 1 0.049825555110542506 1 1 1 1 1 1 1 1 0.045922759158188838 1 1 1 1 1 1 1 0.050000068857711091 1 0.049989700111013627 1 0.050344830920577836 1 1 1 1 1 1 1 1 0.048642122100452552 1 1 0.050107770558337004 0.049509804691239667 0.049321747643697317 1 0.047482538218164456 1 0.051594755327710157 1 1 1 1 1 1 1 1 1 1 1 1 1 1 1 1 1 1 1 1 1 0.049402478395901964 1 1 0.046813248979065421 0.050942425871208161 1 1 1 0.050022307098969966 1 1 1 1 1 1 1 0.049037488564595215 1 0.049712793004062235 1 1 1 1 0.050096692312323041 1 1 0.045561593990569929 1 1 1 1 1 1 1 0.043860791057458048 1 1 0.043677556671051165 1 1 1 0.043748376152289103 1 1 1 1 1 1 1 1 1 0.049793016051450298 1 1 1 1 1 1 0.050735170797590184 1 1 0.049676247814713734 1 1 1 1 0.050369444556570671 1 1 1 1 1 1 0.046001988324791035 0.04765470824544156 0.05026943077284865 1 1 1 0.050005520040068335 1 0.049999438013685657 1 0.047434144980477599 1 1 1 1 1 1 0.05039451090047229 1 1 1 0.044165958356541649 1 1 1 0.048247285092282065 1 1 1 1 1 1 1 1 1 1 1 1 0.049966899335791924 1 1 1 0.049992870781900095 1 1 1 1 1 0.04990511665120069 0.050220409923814026 1 1 0.04943541298286256 1 0.04939115628943911 0.050140336448451756 0.050227891674547304 1 1 1 0.050067011280668823 1 1 1 1 1 0.048911648315717995 1 1 1 1 1 1 1 1 1 1 1 1 0.049890302495377958 1 1 1 1 1 1 0.048190131179295645 1 1 0.047910298109937022 1 1 0.049999724565446324 1 1 1 1 1 0.049584495176704921 1 1 0.045389546804121543 1 0.049870842197184073 1 0.049896398897254779 1 1 1 1 1 1 0.049786701392632735 1 1 1 1 0.049963502318297437 1 1 1 1 1 1 1 1 1 1 0.049917076871685853 1 1 1 1 1 0.049993602624385819 1 1 1 1 1 1 1 1 1 1 1 1 1 1 1 0.04993510223561369 1 1 1 1 1 0.049798268155962139 1 0.050065628103926549 1 1 1 1 1 0.04985602922686852 1 1 1 1 1 0.049980026652637663 1 1 1 1 1 0.050022773420097491 1 1 1 1 1 1 1 1 1 1 0.049839828053888605 1 0.049998702506609267 1 0.048378382541308412 1 1 0.048570462820017944 1 1 1 1 1 1 1 1 0.05120685947181268 1 0.048470413297179549 1 1 1 1 1 1 1 1 1 1 0.049158137360081573 1 1 1 1 1 1 1 1 1 1 0.050032559740804235 1 1 1 0.04743432603399262 1 0.049342780216021322 0.0494274650248714 1 1 1 0.049710900518866771 1 1 1 0.049733947303794157 0.050002552597901012 1 1 1 1 1 1 1 1 1 1 0.049977977243718719 0.050003210095555216 1 1 1 1 1 0.049990803446382251 1 1 1 1 1 1 1 1 1 1 0.049932915577095532 1 0.049829530212220731 0.049903576640287897 0.049859998657562049 1 1 1 1 1 1 1 1 0.04995056799873808 1 1 1 1 1 1 1 1 1 1 1 1 1 1 1 1 1 1 1 1 1 1 1 1 1 1 1 1 1 0.049983802517865147 1 1 1 1 0.049988711346306058 1 1 1 1 1 1 1 1 0.049927248965494067 1 1 1 1 1 1 1 1 0.049995052847513495 1 1 1 1 1 1 1 1 1 1 1 1 1 1 1 1 1 1 1 1 1 1 1 1 1 1 0.050202432012458761 1 1 1 1 1 1 0.050615895999425294 1 0.049835861828133932 1 1 0.049837092881624676 1 1 1 0.049696515421577596 1 0.04822536456872438 1 1 1 0.049983583475819299 1 1 1 0.048188569944254495 1 1 1 1 1 1 0.049425287962277992 1 1 1 1 1 1 1 1 1 1 1 1 1 1 1 1 1 1 1 1 1 1 1 1 1 1 1 0.049331153240850328 1 0.04849012456651032 1 1 1 1 0.049158971325660002 1 1 1 1 1 1 1 1 1 1 1 1 1 0.049864019000119511 1 1 0.049791267965613575 1 1 0.049959943233878132 1 1 1 1 1 0.049884743186949992 1 1 1 1 1 1 1 1 0.047211239071242438 1 0.0480463001207381 1 1 1 1 1 0.049946269438457119 0.051499997113829715 1 1 0.050650108864305085 1 1 1 0.046473255728861872 1 1 1 1 1 1 1 0.050428594579607681 1 1 1 1 1 1 1 1 1 1 1 1 1 1 1 1 0.048607480284742877 1 1 1 1 1 0.049561427706670297 1 0.049705445976662654 1 1 1 1 1 1 1 1 1 1 1 1 0.04982156679077139 1 0.049935528419559116 1 1 1 1 1 1 0.049835486628280613 0.049965585060763741 1 1 1 1 1 1 1 1 1 1 1 1 1 1 1 1 1 1 1 1 1 0.049795150222702471 1 1 0.050515079405526325 1 1 1 1 1 0.048510015595471696 1 1 1 1 1 1 0.050005972919709471 1 1 1 1 1 1 1 1 1 1 1 1 1 1 1 1 0.049965795407167612 1 1 0.049202169611255071 1 1 1 1 0.048034325150053236 1 1 1 1 1 1 1 1 1 1 1 0.049049643681617572 1 1 1 1 1 1 1 1 1 1 1 1 1 1 1 1 1 1 1 0.049899958208721507 1 1 1 1 1 1 1 1 1 1 1 1 0.049507487190836391 1 1 1 1 1 1 1 1 1 1 1 1 1 0.050002096049348105 0.045095928690230692 1 1 1 1 1 1 0.049963802988246514 1 1 1 1 1 1 1 1 1 1 1 1 1 1 1 1 1 1 1 1 1 1 1 1 1 1 1 1 1 1 1 1 1 1 1 0.050226217661521244 1 1 1 1 1 1 1 1 0.050037632517760215 1 1 1 1 1 1 1 1 1 1 1 1 0.050003427924927818 1 1 1 1 0.047478823632551057 1 0.045991546737060837 1 1 1 1 1 1 1 1 0.049430731757428431 1 1 1 1 1 1 1 1 1 1 0.048415413225864096 1 1 1 0.048011873155941479 1 1 0.049972898423423034 1 1 1 1 0.046812261413178111 1 1 0.04572970688994199 1 1 1 1 1 1 1 1 0.049991419471746477 1 1 1 0.050109415612512129 1 1 1 1 1 1 1 0.046386930780798294 1 0.050020653231713896 1 0.04996003780475064 1 0.050117605096134797 0.04505615097841334 1 1 1 0.050002676552441686 0.049996097397852081 0.049233919589642836 1 1 0.050810957157380071 1 1 1 0.044701490328256294 1 1 1 1 0.050733043535600965 1 1 1 1 1 1 1 1 1 1 1 1 1 1 1 1 1 1 1 1 1 1 1 1 1 1 1 1 1 1 1 1 1 1 1 1 1 1 0.050075093109744923 1 1 1 1 1 1 1 1 0.048980255677828682 1 1 1 1 0.048724960246559847 1 1 0.049608803399517315 1 1 0.049109508798180261 1 1 1 1 0.049773418092623145 1 1 1 1 1 0.049552530243462609 1 1 1 1 1 1 1 1 1 1 1 1 1 0.049754529277331566 0.049837220321153758 1 1 1 0.049823386377770625 1 1 1 1 1 1 1 1 1 1 1 1 1 1 0.048914459314465052 1 1 1 1 1 1 0.049701003748430894 1 1 0.049208490939267283 1 1 1 1 1 1 1 1 1 1 0.047102002548444773 1 1 1 1 1 0.046193940710656509 1 1 1 1 1 1 1 1 1 1 0.047538069538977774 1 1 1 1 1 1 1 1 1 1 1 1 1 1 1 0.050031126441901441 1 1 1 1 1 1 1 1 1 1 1 1 1 1 1 1 1 1 1 1 1 1 1 0.049997626808522433 1 0.049323614744425599 1 1 1 0.050072719918267353 1 1 1 1 1 1 1 1 1 0.04968178336381418 1 1 1 0.047895457911040898 1 1 1 1 1 1 1 1 1 1 1 1 1 1 1 1 0.050494719395356616 1 1 1 1 1 0.049902138617185676 1 1 1 0.05012744778226591 1 0.050048613836433636 1 1 1 1 1 1 0.049827767803544046 1 1 1 1 1 1 1 1 1 1 1 1 1 1 1 1 1 1 1 1 1 1 1 1 1 1 1 0.04991924863490689 1 1 0.049969203863398454 1 1 1 1 1 1 1 0.049486700668334098 1 1 1 1 0.049704596426868065 1 1 0.049705583978862752 1 1 1 1 1 1 0.049338082492371545 1 1 1 0.049769019897058397 1 1 1 0.04976793441493569 1 1 1 1 1 0.048912870471832168 1 1 1 1 1 0.049003382771299626 1 1 1 1 1 1 1 1 0.049327377450507345 1 1 0.049985052237356449 1 1 1 1 0.049965059978692619 1 1 1 1 0.049945100920995536 1 1 1 1 0.050872539312373573 1 1 1 0.050664044001930093 1 0.050035066035841146 1 1 1 1 1 1 1 1 1 1 0.050125220150659816 1 1 1 1 1 1 1 0.050315980537953005 0.048516718634918764 1 1 1 1 1 0.049251820871530724 1 1 1 1 1 0.048696644256165732 1 1 1 0.047551980246517592 1 1 0.049920277479692507 1 1 0.049992395634453679 1 1 1 0.049633789396832613 1 1 1 1 1 1 0.047827366599513088 1 1 1 1 1 0.048630154160273095 1 1 1 1 1 0.049315091878451685 1 1 1 1 1 1 0.048317473580989763 1 1 1 1 0.05088989130552888 1 1 1 1 1 0.049861580916530944 1 1 1 1 1 1 1 1 1 1 0.050161412316007584 1 1 1 1 1 1 1 0.049352735042873526 1 1 1 1 0.049709353682529697 0.049185298472264903 1 1 0.051023433407371234 1 1 1 1 1 1 1 0.050364101963172245 1 1 1 1 1 1 1 0.051881655545299561 1 0.049041173489544392 1 1 0.04981382010435894 1 1 1 1 0.049879983099310965 1 0.050812846287874108 1 1 1 1 1 1 1 1 1 1 0.049980386142139573 1 1 1 1 1 0.050886835521249563 1 1 1 0.051905086064659149 1 1 1 1 0.049923021020918432 1 1 0.048048624101920047 1 1 1 1 1 0.050855412189300953 1 0.04990627747551328 1 0.050004289631656443 0.049549637922593641 1 1 1 1 0.050556133354249924 0.049926389794472621 1 1 1 1 1 1 1 1 1 1 1 1 1 0.049975871506531371 1 1 1 1 1 1 0.049498231881030835 0.050201287216421885 1 1 1 1 1 1 1 1 1 1 1 1 1 0.050653434726812246 1 1 1 1 1 1 1 1 1 1 1 1 1 1 1 1 1 1 1 1 1 1 1 1 1 1 1 1 1 1 1 1 1 0.049871632112219719 1 1 0.049691793837028923 1 1 1 1 1 1 1 0.049657382045962963 1 1 1 0.050012981914202087 1 1 0.047414636065009987 1 1 1 0.04852693032033481 0.049999567380826053 1 1 1 1 0.050265654331613743 0.049219487488588169 1 1 1 1 1 1 1 1 1 1 1 1 1 1 0.048638802446947627 1 1 0.049999850598560221 1 1 1 0.048245094387722662 1 1 1 1 0.050041633679188638 1 1 0.046517211617012708 1 1 1 1 1 1 1 1 1 1 1 0.045203145859291388 1 1 1 1 1 1 1 0.04433897150117757 1 1 1 1 1 1 1 1 1 1 1 1 1 1 1 1 1 1 0.049998622243368776 1 1 1 1 1 1 0.051050938587180725 1 0.049864563705172921 1 1 1 1 1 0.050370229499284679 1 1 0.05009698848320121 1 1 1 0.04642605677622396 1 1 1 0.050145976333825129 1 1 1 1 1 1 1 1 1 1 1 1 1 1 0.049940367818216272 1 1 1 1 0.049849776589647551 0.050567884020022144 1 1 1 1 1 1 1 1 1 1 1 1 1 1 1 1 1 1 1 0.050125095445050248 1 1 1 1 1 1 1 1 0.047819781995734299 1 0.047702723614426436 1 1 1 1 1 1 1 0.04999705150614555 1 0.049559390454606111 1 1 1 1 1 0.047990338221958681 1 1 1 1 1 1 0.049963939329681233 1 1 1 1 1 0.049964583684923645 0.049648013441680482 1 1 1 0.049043906934965784 0.049347763726078797 0.048846481859039996 1 1 1 1 1 0.049489624804160318 1 1 1 1 1 0.047165005619287312 1 1 1 1 0.046981490130389526 1 0.049597520063743815 0.045845236355992129 1 0.044173031405247816 0.050607965444425987 1 1 1 0.050120863691357077 1 1 1 0.046363122792529105 1 1 1 0.046197809818941588 1 1 1 0.050448454451982025 1 1 1 1 1 1 1 1 0.049831318239741365 1 1 1 0.050776319121026536 1 1 1 1 1 1 0.049758369101321441 1 1 1 1 1 1 0.051426874589642471 1 1 1 1 1 1 1 1 1 1 1 1 1 1 0.049922198994151845 1 0.048704311755551052 1 1 1 0.050623976140060332 1 1 0.04984983385915312 1 0.048585039585426315 1 0.049288266787304434 1 1 0.048231730881380198 1 1 1 1 1 1 0.048999869347578967 1 1 1 1 0.049856846858564841 1 1 1 1 1 1 0.049629449808885229 1 1 1 1 1 1 1 1 1 1 0.049774386273774736 1 1 1 1 1 1 1 1 1 1 1 1 1 1 1 1 1 1 1 0.040388483610278102 0.048986343353989624 1 1 1 0.046920046330006522 1 1 0.043843093209766315 1 1 0.048006055776247433 1 1 0.050103282277210594 1 1 0.04782828811811432 0.046465805293943015 1 1 1 1 0.047194618313446228 1 1 1 1 1 1 1 1 1 1 1 0.047095583785726328 0.049365407306441268 1 1 1 0.047388999876821554 1 0.04998878400531271 1 0.049993317862982639 1 1 1 1 1 0.049987173388834183 1 1 0.050049983719730615 1 0.046515552558401792 1 1 0.049992735718368424 0.050044806447981469 0.050069488373163544 1 1 1 1 0.050308461586021605 1 1 0.049757633714544558 1 0.049671144999265719 1 1 0.049185532746909615 1 1 1 1 1 1 1 1 0.050012224376322759 1 0.050203908193053225 0.04938045650989549 1 1 1 1 1 0.049996946549705011 0.049694865413814591 1 1 1 0.047563930583789021 0.047897656726184915 1 1 1 1 1 1 1 1 0.049992507442529283 1 0.049921809453118145 1 1 1 1 1 1 1 1 1 1 1 1 1 1 1 1 1 1 1 1 1 1 1 1 1 1 1 1 1 0.050253608417981432 1 1 1 1 1 1 1 1 1 1 1 1 1 1 1 0.049724309245634805 1 1 0.04978390870052702 1 1 1 1 1 0.049855273128486442 1 1 1 1 1 1 1 1 1 1 1 1 1 0.049928635572040581 1 1 1 1 1 1 1 1 1 0.049762269431839645 1 1 0.048760995609240798 1 1 1 1 0.049999386152097862 0.050423013961185315 0.048288440560561509 1 1 1 1 1 0.049210616668097729 1 1 1 
</DataArray>
</CellData>
</Piece>
</UnstructuredGrid>
</VTKFile>
