<?xml version="1.0"?>
<VTKFile type="UnstructuredGrid" version="0.1" byte_order="LittleEndian">
<UnstructuredGrid>
<Piece NumberOfPoints="30881" NumberOfCells="10862">
<Points>
<DataArray type="Float64" NumberOfComponents="3" format="ascii">
-0.49999999999999828 -0.48677703703187492 0 -0.5 -0.5 0 -0.48129281494584059 -0.49338851851593718 0 -0.5 -0.5 0 -0.48129281494584059 -0.49338851851593718 0 -0.46258562989168328 -0.5 0 -0.49999999999999828 -0.48677703703187492 0 -0.48129281494584059 -0.49338851851593718 0 -0.49999999999999828 -0.48677703703187492 0 -0.4824545428279598 -0.47451624516148783 0 -0.48129281494584059 -0.49338851851593718 0 -0.49999999999999828 -0.48677703703187492 0 -0.4824545428279598 -0.47451624516148783 0 -0.5 -0.46599539173150673 0 -0.4824545428279598 -0.47451624516148783 0 -0.46853075243710779 -0.48354990242643758 0 -0.46411508256092049 -0.46598235294430129 0 -0.4824545428279598 -0.47451624516148783 0 -0.48129281494584059 -0.49338851851593718 0 -0.46853075243710779 -0.48354990242643758 0 -0.48129281494584059 -0.49338851851593718 0 -0.46258562989168328 -0.5 0 -0.48129281494584059 -0.49338851851593718 0 -0.46258562989168328 -0.5 0 -0.46853075243710779 -0.48354990242643758 0 -0.46258562989168328 -0.5 0 -0.46853075243710779 -0.48354990242643758 0 -0.45147378687733691 -0.48362213557840178 0 -0.46853075243710779 -0.48354990242643758 0 -0.45147378687733691 -0.48362213557840178 0 -0.46411508256092049 -0.46598235294430129 0 -0.4457251648104853 -0.47020164095208389 0 -0.45147378687733691 -0.48362213557840178 0 -0.46411508256092049 -0.46598235294430129 0 -0.4457251648104853 -0.47020164095208389 0 -0.45147378687733691 -0.48362213557840178 0 -0.43513446131126993 -0.48199891714758791 0 -0.45147378687733691 -0.48362213557840178 0 -0.43275163025255442 -0.5 0 -0.43513446131126993 -0.48199891714758791 0 -0.46258562989168328 -0.5 0 -0.45147378687733691 -0.48362213557840178 0 -0.43275163025255442 -0.5 0 -0.4467190029717853 -0.45478934699519452 0 -0.4422915115958943 -0.43555510214664611 0 -0.43246707723660932 -0.44794326854796312 0 -0.4457251648104853 -0.47020164095208389 0 -0.4467190029717853 -0.45478934699519452 0 -0.46411508256092049 -0.46598235294430129 0 -0.4457251648104853 -0.47020164095208389 0 -0.4467190029717853 -0.45478934699519452 0 -0.43016578207734568 -0.46313500011938619 0 -0.4467190029717853 -0.45478934699519452 0 -0.46411508256092049 -0.46598235294430129 0 -0.47114575579794699 -0.4403844242888923 0 -0.4467190029717853 -0.45478934699519452 0 -0.47114575579794699 -0.4403844242888923 0 -0.4422915115958943 -0.43555510214664611 0 -0.47114575579794699 -0.4403844242888923 0 -0.4422915115958943 -0.43555510214664611 0 -0.46411508256092049 -0.46598235294430129 0 -0.47114575579794699 -0.4403844242888923 0 -0.48354307623736548 -0.45841843211146538 0 -0.4824545428279598 -0.47451624516148783 0 -0.46411508256092049 -0.46598235294430129 0 -0.48354307623736548 -0.45841843211146538 0 -0.4824545428279598 -0.47451624516148783 0 -0.48354307623736548 -0.45841843211146538 0 -0.5 -0.46599539173150673 0 -0.48354307623736548 -0.45841843211146538 0 -0.5 -0.46599539173150673 0 -0.49999999999999972 -0.44521374643113848 0 -0.47114575579794699 -0.4403844242888923 0 -0.49999999999999972 -0.44521374643113848 0 -0.47114575579794699 -0.4403844242888923 0 -0.49999999999999972 -0.44521374643113848 0 -0.48704432221743971 -0.42935617662229603 0 -0.47114575579794699 -0.4403844242888923 0 -0.48354307623736548 -0.45841843211146538 0 -0.49999999999999972 -0.44521374643113848 0 -0.49999999999999972 -0.44521374643113848 0 -0.48704432221743971 -0.42935617662229603 0 -0.5 -0.41591957503128979 0 -0.48704432221743971 -0.42935617662229603 0 -0.5 -0.41591957503128979 0 -0.47703153307181151 -0.41590696073786332 0 -0.5 -0.41591957503128979 0 -0.47703153307181151 -0.41590696073786332 0 -0.48817838912021821 -0.4022119694541284 0 -0.47114575579794699 -0.4403844242888923 0 -0.48704432221743971 -0.42935617662229603 0 -0.47703153307181151 -0.41590696073786332 0 -0.5 -0.38662540363144121 0 -0.47568202340906118 -0.39039593841591919 0 -0.4947615751445838 -0.37332156409002909 0 -0.47568202340906118 -0.39039593841591919 0 -0.4947615751445838 -0.37332156409002909 0 -0.5 -0.38662540363144121 0 -0.48817838912021821 -0.4022119694541284 0 -0.47568202340906118 -0.39039593841591919 0 -0.5 -0.41591957503128979 0 -0.5 -0.38662540363144121 0 -0.48817838912021821 -0.4022119694541284 0 -0.47703153307181151 -0.41590696073786332 0 -0.48817838912021821 -0.4022119694541284 0 -0.47568202340906118 -0.39039593841591919 0 -0.47703153307181151 -0.41590696073786332 0 -0.47568202340906118 -0.39039593841591919 0 -0.45660247167353862 -0.40747031274180939 0 -0.47568202340906118 -0.39039593841591919 0 -0.48030931097003587 -0.37191064435083931 0 -0.46669490250066459 -0.37481721741951951 0 -0.47568202340906118 -0.39039593841591919 0 -0.4947615751445838 -0.37332156409002909 0 -0.48030931097003587 -0.37191064435083931 0 -0.45332061783919553 -0.38729481725706361 0 -0.46669490250066459 -0.37481721741951951 0 -0.45095991715087752 -0.36968037302039969 0 -0.47568202340906118 -0.39039593841591919 0 -0.45332061783919553 -0.38729481725706361 0 -0.46669490250066459 -0.37481721741951951 0 -0.47568202340906118 -0.39039593841591919 0 -0.45660247167353862 -0.40747031274180939 0 -0.47568202340906118 -0.39039593841591919 0 -0.45332061783919553 -0.38729481725706361 0 -0.45660247167353862 -0.40747031274180939 0 -0.44332653075004852 -0.401690115615219 0 -0.44646247228389868 -0.41654464256061052 0 -0.42870657106664078 -0.39987574649354879 0 -0.45332061783919553 -0.38729481725706361 0 -0.44332653075004852 -0.401690115615219 0 -0.43479631603355468 -0.39077639303142497 0 -0.45332061783919553 -0.38729481725706361 0 -0.44332653075004852 -0.401690115615219 0 -0.45660247167353862 -0.40747031274180939 0 -0.45332061783919553 -0.38729481725706361 0 -0.43421362475025049 -0.37527491429266319 0 -0.43479631603355468 -0.39077639303142497 0 -0.45332061783919553 -0.38729481725706361 0 -0.43421362475025049 -0.37527491429266319 0 -0.45095991715087752 -0.36968037302039969 0 -0.47114575579794699 -0.4403844242888923 0 -0.45663439814062529 -0.42533932462455271 0 -0.4422915115958943 -0.43555510214664611 0 -0.47114575579794699 -0.4403844242888923 0 -0.47703153307181151 -0.41590696073786332 0 -0.45663439814062529 -0.42533932462455271 0 -0.45663439814062529 -0.42533932462455271 0 -0.45660247167353862 -0.40747031274180939 0 -0.44646247228389868 -0.41654464256061052 0 -0.47703153307181151 -0.41590696073786332 0 -0.45663439814062529 -0.42533932462455271 0 -0.45660247167353862 -0.40747031274180939 0 -0.44332653075004852 -0.401690115615219 0 -0.45660247167353862 -0.40747031274180939 0 -0.44646247228389868 -0.41654464256061052 0 -0.45660247167353862 -0.40747031274180939 0 -0.44646247228389868 -0.41654464256061052 0 -0.44646247228389868 -0.41654464256061052 0 -0.4375229199380159 -0.42454468706769971 0 -0.45663439814062529 -0.42533932462455271 0 -0.4375229199380159 -0.42454468706769971 0 -0.4422915115958943 -0.43555510214664611 0 -0.45663439814062529 -0.42533932462455271 0 -0.44646247228389868 -0.41654464256061052 0 -0.4375229199380159 -0.42454468706769971 0 -0.4375229199380159 -0.42454468706769971 0 -0.4422915115958943 -0.43555510214664611 0 -0.43077617074680319 -0.43406335077952207 0 -0.43077617074680319 -0.43406335077952207 0 -0.42550232634077589 -0.42345940056268039 0 -0.41950844772475421 -0.43888456563633732 0 -0.4375229199380159 -0.42454468706769971 0 -0.43077617074680319 -0.43406335077952207 0 -0.42550232634077589 -0.42345940056268039 0 -0.44646247228389868 -0.41654464256061052 0 -0.41657232816672918 -0.41306671883907142 0 -0.42870657106664078 -0.39987574649354879 0 -0.44646247228389868 -0.41654464256061052 0 -0.4375229199380159 -0.42454468706769971 0 -0.42550232634077589 -0.42345940056268039 0 -0.44646247228389868 -0.41654464256061052 0 -0.42550232634077589 -0.42345940056268039 0 -0.41657232816672918 -0.41306671883907142 0 -0.44646247228389868 -0.41654464256061052 0 -0.41657232816672918 -0.41306671883907142 0 -0.42550232634077589 -0.42345940056268039 0 -0.41657232816672918 -0.41306671883907142 0 -0.41333489101611293 -0.42699700567040988 0 -0.41657232816672918 -0.41306671883907142 0 -0.41333489101611293 -0.42699700567040988 0 -0.39893236021425188 -0.42931692235905211 0 -0.41333489101611293 -0.42699700567040988 0 -0.39893236021425188 -0.42931692235905211 0 -0.41950844772475421 -0.43888456563633732 0 -0.42550232634077589 -0.42345940056268039 0 -0.41333489101611293 -0.42699700567040988 0 -0.41950844772475421 -0.43888456563633732 0 -0.43421362475025049 -0.37527491429266319 0 -0.42478231784314502 -0.38643128255249681 0 -0.41656514696884139 -0.37636588688318029 0 -0.43421362475025049 -0.37527491429266319 0 -0.42478231784314502 -0.38643128255249681 0 -0.43479631603355468 -0.39077639303142497 0 -0.42478231784314502 -0.38643128255249681 0 -0.43479631603355468 -0.39077639303142497 0 -0.42870657106664078 -0.39987574649354879 0 -0.44332653075004852 -0.401690115615219 0 -0.43479631603355468 -0.39077639303142497 0 -0.42870657106664078 -0.39987574649354879 0 -0.41657232816672918 -0.41306671883907142 0 -0.40962993039643741 -0.3898634720616666 0 -0.3946356370269814 -0.39577424904278191 0 -0.42478231784314502 -0.38643128255249681 0 -0.42870657106664078 -0.39987574649354879 0 -0.40962993039643741 -0.3898634720616666 0 -0.41657232816672918 -0.41306671883907142 0 -0.42870657106664078 -0.39987574649354879 0 -0.40962993039643741 -0.3898634720616666 0 -0.42478231784314502 -0.38643128255249681 0 -0.40962993039643741 -0.3898634720616666 0 -0.41656514696884139 -0.37636588688318029 0 -0.40962993039643741 -0.3898634720616666 0 -0.41656514696884139 -0.37636588688318029 0 -0.40465459864295228 -0.37650109000307358 0 -0.39431275766669582 -0.38061373190328529 0 -0.40465459864295228 -0.37650109000307358 0 -0.3968495855878465 -0.36923685638487008 0 -0.40962993039643741 -0.3898634720616666 0 -0.39431275766669582 -0.38061373190328529 0 -0.40465459864295228 -0.37650109000307358 0 -0.40962993039643741 -0.3898634720616666 0 -0.39431275766669582 -0.38061373190328529 0 -0.3946356370269814 -0.39577424904278191 0 -0.3946356370269814 -0.39577424904278191 0 -0.38704143117499401 -0.40999023144455299 0 -0.37464038230528551 -0.396492613407532 0 -0.3946356370269814 -0.39577424904278191 0 -0.37522403377147279 -0.38060127254172499 0 -0.37464038230528551 -0.396492613407532 0 -0.39431275766669582 -0.38061373190328529 0 -0.3946356370269814 -0.39577424904278191 0 -0.37522403377147279 -0.38060127254172499 0 -0.39431275766669582 -0.38061373190328529 0 -0.37522403377147279 -0.38060127254172499 0 -0.38569326772338258 -0.37053454129240582 0 -0.41657232816672918 -0.41306671883907142 0 -0.39893236021425188 -0.42931692235905211 0 -0.38704143117499401 -0.40999023144455299 0 -0.41657232816672918 -0.41306671883907142 0 -0.3946356370269814 -0.39577424904278191 0 -0.38704143117499401 -0.40999023144455299 0 -0.41657232816672918 -0.41306671883907142 0 -0.38704143117499401 -0.40999023144455299 0 -0.38704143117499401 -0.40999023144455299 0 -0.38131756488089769 -0.42670085612339947 0 -0.36377437909963828 -0.41972983174959272 0 -0.38131756488089769 -0.42670085612339947 0 -0.38339996822118783 -0.44368928783448319 0 -0.36866352395763108 -0.4313760290561211 0 -0.39893236021425188 -0.42931692235905211 0 -0.38131756488089769 -0.42670085612339947 0 -0.38339996822118783 -0.44368928783448319 0 -0.39893236021425188 -0.42931692235905211 0 -0.38704143117499401 -0.40999023144455299 0 -0.38131756488089769 -0.42670085612339947 0 -0.38339996822118783 -0.44368928783448319 0 -0.40446438048225181 -0.45117017211807442 0 -0.3895931593355052 -0.46351353191466821 0 -0.39893236021425188 -0.42931692235905211 0 -0.38339996822118783 -0.44368928783448319 0 -0.40446438048225181 -0.45117017211807442 0 -0.40446438048225181 -0.45117017211807442 0 -0.3895931593355052 -0.46351353191466821 0 -0.40280611050484572 -0.47090640128894168 0 -0.38339996822118783 -0.44368928783448319 0 -0.3895931593355052 -0.46351353191466821 0 -0.37415472949075129 -0.45946062715310632 0 -0.3895931593355052 -0.46351353191466821 0 -0.38039451612360919 -0.47713749807852829 0 -0.37415472949075129 -0.45946062715310632 0 -0.38039451612360919 -0.47713749807852829 0 -0.39198476482648659 -0.49312537606366408 0 -0.39366244928105898 -0.47747566409097131 0 -0.3895931593355052 -0.46351353191466821 0 -0.38039451612360919 -0.47713749807852829 0 -0.39366244928105898 -0.47747566409097131 0 -0.39198476482648659 -0.49312537606366408 0 -0.37055643484088358 -0.49425936316784103 0 -0.39198476482648659 -0.49312537606366408 0 -0.40291763061342539 -0.5 0 -0.37308363097429631 -0.50000000000000244 0 -0.39198476482648659 -0.49312537606366408 0 -0.37055643484088358 -0.49425936316784103 0 -0.37308363097429631 -0.50000000000000244 0 -0.38039451612360919 -0.47713749807852829 0 -0.39198476482648659 -0.49312537606366408 0 -0.37055643484088358 -0.49425936316784103 0 -0.39198476482648659 -0.49312537606366408 0 -0.41341309481208982 -0.49199138895948757 0 -0.39198476482648659 -0.49312537606366408 0 -0.39366244928105898 -0.47747566409097131 0 -0.40353369561484831 -0.48269551310905429 0 -0.39198476482648659 -0.49312537606366408 0 -0.40291763061342539 -0.5 0 -0.41341309481208982 -0.49199138895948757 0 -0.39198476482648659 -0.49312537606366408 0 -0.40353369561484831 -0.48269551310905429 0 -0.41341309481208982 -0.49199138895948757 0 -0.3895931593355052 -0.46351353191466821 0 -0.39366244928105898 -0.47747566409097131 0 -0.40280611050484572 -0.47090640128894168 0 -0.39366244928105898 -0.47747566409097131 0 -0.40353369561484831 -0.48269551310905429 0 -0.40280611050484572 -0.47090640128894168 0 -0.40280611050484572 -0.47090640128894168 0 -0.41792735015940108 -0.47619959015896091 0 -0.41524515795200517 -0.46243146669528151 0 -0.40353369561484831 -0.48269551310905429 0 -0.41792735015940108 -0.47619959015896091 0 -0.41341309481208982 -0.49199138895948757 0 -0.40353369561484831 -0.48269551310905429 0 -0.40280611050484572 -0.47090640128894168 0 -0.41792735015940108 -0.47619959015896091 0 -0.41792735015940108 -0.47619959015896091 0 -0.41341309481208982 -0.49199138895948757 0 -0.42480663413382869 -0.48754747406650911 0 -0.40291763061342539 -0.5 0 -0.41341309481208982 -0.49199138895948757 0 -0.43275163025255442 -0.5 0 -0.41341309481208982 -0.49199138895948757 0 -0.42480663413382869 -0.48754747406650911 0 -0.43275163025255442 -0.5 0 -0.42480663413382869 -0.48754747406650911 0 -0.43275163025255442 -0.5 0 -0.43513446131126993 -0.48199891714758791 0 -0.4457251648104853 -0.47020164095208389 0 -0.43513446131126993 -0.48199891714758791 0 -0.43016578207734568 -0.46313500011938619 0 -0.41792735015940108 -0.47619959015896091 0 -0.43513446131126993 -0.48199891714758791 0 -0.43016578207734568 -0.46313500011938619 0 -0.41792735015940108 -0.47619959015896091 0 -0.42480663413382869 -0.48754747406650911 0 -0.43513446131126993 -0.48199891714758791 0 -0.4467190029717853 -0.45478934699519452 0 -0.43016578207734568 -0.46313500011938619 0 -0.43246707723660932 -0.44794326854796312 0 -0.43016578207734568 -0.46313500011938619 0 -0.42051073979218989 -0.45215097324273301 0 -0.41524515795200517 -0.46243146669528151 0 -0.43016578207734568 -0.46313500011938619 0 -0.43246707723660932 -0.44794326854796312 0 -0.42051073979218989 -0.45215097324273301 0 -0.4422915115958943 -0.43555510214664611 0 -0.43077617074680319 -0.43406335077952207 0 -0.43246707723660932 -0.44794326854796312 0 -0.43077617074680319 -0.43406335077952207 0 -0.43246707723660932 -0.44794326854796312 0 -0.41950844772475421 -0.43888456563633732 0 -0.43246707723660932 -0.44794326854796312 0 -0.42051073979218989 -0.45215097324273301 0 -0.41950844772475421 -0.43888456563633732 0 -0.39893236021425188 -0.42931692235905211 0 -0.40446438048225181 -0.45117017211807442 0 -0.41950844772475421 -0.43888456563633732 0 -0.40446438048225181 -0.45117017211807442 0 -0.42051073979218989 -0.45215097324273301 0 -0.41950844772475421 -0.43888456563633732 0 -0.40446438048225181 -0.45117017211807442 0 -0.42051073979218989 -0.45215097324273301 0 -0.41524515795200517 -0.46243146669528151 0 -0.40446438048225181 -0.45117017211807442 0 -0.40280611050484572 -0.47090640128894168 0 -0.41524515795200517 -0.46243146669528151 0 -0.41792735015940108 -0.47619959015896091 0 -0.43016578207734568 -0.46313500011938619 0 -0.41524515795200517 -0.46243146669528151 0 -0.45018232007011222 -0.256765034028549 0 -0.429874989515865 -0.26165756953837482 0 -0.43598079583492633 -0.24721882136819351 0 -0.45018232007011222 -0.256765034028549 0 -0.43765198640052377 -0.27443700488157741 0 -0.429874989515865 -0.26165756953837482 0 -0.45018232007011222 -0.256765034028549 0 -0.43598079583492633 -0.24721882136819351 0 -0.45139902778349827 -0.24711062934306771 0 -0.45018232007011222 -0.256765034028549 0 -0.43765198640052377 -0.27443700488157741 0 -0.46196722525855399 -0.27174391220054139 0 -0.43765198640052377 -0.27443700488157741 0 -0.46196722525855399 -0.27174391220054139 0 -0.4476129789611048 -0.29283803371489903 0 -0.46196722525855399 -0.27174391220054139 0 -0.48050148842732221 -0.25523221810557922 0 -0.46267023581878858 -0.24817136713935201 0 -0.45018232007011222 -0.256765034028549 0 -0.46196722525855399 -0.27174391220054139 0 -0.46267023581878858 -0.24817136713935201 0 -0.45018232007011222 -0.256765034028549 0 -0.46267023581878858 -0.24817136713935201 0 -0.45139902778349827 -0.24711062934306771 0 -0.48050148842732221 -0.25523221810557922 0 -0.5 -0.26944871803204617 0 -0.5 -0.2401545466321974 0 -0.48050148842732221 -0.25523221810557922 0 -0.5 -0.26944871803204617 0 -0.48245797385404121 -0.28063059353633901 0 -0.46196722525855399 -0.27174391220054139 0 -0.48050148842732221 -0.25523221810557922 0 -0.48245797385404121 -0.28063059353633901 0 -0.46196722525855399 -0.27174391220054139 0 -0.48245797385404121 -0.28063059353633901 0 -0.46937090116945868 -0.29821258941183898 0 -0.48245797385404121 -0.28063059353633901 0 -0.5 -0.29874288943189498 0 -0.46937090116945868 -0.29821258941183898 0 -0.5 -0.26944871803204617 0 -0.48245797385404121 -0.28063059353633901 0 -0.5 -0.29874288943189498 0 -0.5 -0.29874288943189498 0 -0.46937090116945868 -0.29821258941183898 0 -0.47623524987602139 -0.32201367690444971 0 -0.46937090116945868 -0.29821258941183898 0 -0.4476129789611048 -0.29283803371489903 0 -0.45018982867155483 -0.32180400573951162 0 -0.46196722525855399 -0.27174391220054139 0 -0.46937090116945868 -0.29821258941183898 0 -0.4476129789611048 -0.29283803371489903 0 -0.43765198640052377 -0.27443700488157741 0 -0.4476129789611048 -0.29283803371489903 0 -0.43236213870239748 -0.29002705800971151 0 -0.4476129789611048 -0.29283803371489903 0 -0.45018982867155483 -0.32180400573951162 0 -0.4314578060398388 -0.3048790663939604 0 -0.45018982867155483 -0.32180400573951162 0 -0.4314578060398388 -0.3048790663939604 0 -0.45018982867155483 -0.32180400573951162 0 -0.46157657978994598 -0.34139555482026068 0 -0.43521386225128428 -0.33802231259611382 0 -0.46157657978994598 -0.34139555482026068 0 -0.43521386225128428 -0.33802231259611382 0 -0.45018982867155483 -0.32180400573951162 0 -0.46157657978994598 -0.34139555482026068 0 -0.47623524987602139 -0.32201367690444971 0 -0.46937090116945868 -0.29821258941183898 0 -0.45018982867155483 -0.32180400573951162 0 -0.47623524987602139 -0.32201367690444971 0 -0.5 -0.29874288943189498 0 -0.47623524987602139 -0.32201367690444971 0 -0.5 -0.32803706083174372 0 -0.47623524987602139 -0.32201367690444971 0 -0.5 -0.32803706083174372 0 -0.48561656391384522 -0.34384835974822991 0 -0.5 -0.32803706083174372 0 -0.5 -0.35733123223159241 0 -0.48561656391384522 -0.34384835974822991 0 -0.46157657978994598 -0.34139555482026068 0 -0.47623524987602139 -0.32201367690444971 0 -0.48561656391384522 -0.34384835974822991 0 -0.46157657978994598 -0.34139555482026068 0 -0.47568148196104371 -0.35852722048879659 0 -0.48561656391384522 -0.34384835974822991 0 -0.47568148196104371 -0.35852722048879659 0 -0.48561656391384522 -0.34384835974822991 0 -0.48768886795130861 -0.36141736908419309 0 -0.5 -0.35733123223159241 0 -0.48561656391384522 -0.34384835974822991 0 -0.48768886795130861 -0.36141736908419309 0 -0.5 -0.35733123223159241 0 -0.4947615751445838 -0.37332156409002909 0 -0.48768886795130861 -0.36141736908419309 0 -0.5 -0.38662540363144121 0 -0.5 -0.35733123223159241 0 -0.4947615751445838 -0.37332156409002909 0 -0.4947615751445838 -0.37332156409002909 0 -0.48768886795130861 -0.36141736908419309 0 -0.48030931097003587 -0.37191064435083931 0 -0.47568148196104371 -0.35852722048879659 0 -0.48030931097003587 -0.37191064435083931 0 -0.46669490250066459 -0.37481721741951951 0 -0.47568148196104371 -0.35852722048879659 0 -0.48768886795130861 -0.36141736908419309 0 -0.48030931097003587 -0.37191064435083931 0 -0.46669490250066459 -0.37481721741951951 0 -0.45985290530711531 -0.35919053618658509 0 -0.45095991715087752 -0.36968037302039969 0 -0.47568148196104371 -0.35852722048879659 0 -0.46669490250066459 -0.37481721741951951 0 -0.45985290530711531 -0.35919053618658509 0 -0.46157657978994598 -0.34139555482026068 0 -0.47568148196104371 -0.35852722048879659 0 -0.45985290530711531 -0.35919053618658509 0 -0.46157657978994598 -0.34139555482026068 0 -0.45985290530711531 -0.35919053618658509 0 -0.44091292170358748 -0.35617636658334351 0 -0.46157657978994598 -0.34139555482026068 0 -0.44091292170358748 -0.35617636658334351 0 -0.43521386225128428 -0.33802231259611382 0 -0.43421362475025049 -0.37527491429266319 0 -0.44091292170358748 -0.35617636658334351 0 -0.45095991715087752 -0.36968037302039969 0 -0.45985290530711531 -0.35919053618658509 0 -0.44091292170358748 -0.35617636658334351 0 -0.45095991715087752 -0.36968037302039969 0 -0.43421362475025049 -0.37527491429266319 0 -0.41656514696884139 -0.37636588688318029 0 -0.42218579342164808 -0.36334977441807748 0 -0.43421362475025049 -0.37527491429266319 0 -0.44091292170358748 -0.35617636658334351 0 -0.42218579342164808 -0.36334977441807748 0 -0.44091292170358748 -0.35617636658334351 0 -0.42218579342164808 -0.36334977441807748 0 -0.42066840753926321 -0.34864312644900147 0 -0.44091292170358748 -0.35617636658334351 0 -0.42066840753926321 -0.34864312644900147 0 -0.43521386225128428 -0.33802231259611382 0 -0.42218579342164808 -0.36334977441807748 0 -0.42066840753926321 -0.34864312644900147 0 -0.40690054455725883 -0.35815659477868023 0 -0.40690054455725883 -0.35815659477868023 0 -0.40885114471262263 -0.334649070371968 0 -0.42066840753926321 -0.34864312644900147 0 -0.40690054455725883 -0.35815659477868023 0 -0.40885114471262263 -0.334649070371968 0 -0.42218579342164808 -0.36334977441807748 0 -0.40690054455725883 -0.35815659477868023 0 -0.40625971269279348 -0.36587953617857771 0 -0.40690054455725883 -0.35815659477868023 0 -0.40625971269279348 -0.36587953617857771 0 -0.41656514696884139 -0.37636588688318029 0 -0.42218579342164808 -0.36334977441807748 0 -0.40625971269279348 -0.36587953617857771 0 -0.42218579342164808 -0.36334977441807748 0 -0.40690054455725883 -0.35815659477868023 0 -0.41656514696884139 -0.37636588688318029 0 -0.40465459864295228 -0.37650109000307358 0 -0.40625971269279348 -0.36587953617857771 0 -0.40465459864295228 -0.37650109000307358 0 -0.40625971269279348 -0.36587953617857771 0 -0.3968495855878465 -0.36923685638487008 0 -0.40690054455725883 -0.35815659477868023 0 -0.40029228617445223 -0.36350286704594809 0 -0.3911593018599101 -0.36073848084166482 0 -0.40625971269279348 -0.36587953617857771 0 -0.40029228617445223 -0.36350286704594809 0 -0.3968495855878465 -0.36923685638487008 0 -0.40690054455725883 -0.35815659477868023 0 -0.40625971269279348 -0.36587953617857771 0 -0.40029228617445223 -0.36350286704594809 0 -0.3911593018599101 -0.36073848084166482 0 -0.3968495855878465 -0.36923685638487008 0 -0.38569326772338258 -0.37053454129240582 0 -0.40029228617445223 -0.36350286704594809 0 -0.3911593018599101 -0.36073848084166482 0 -0.3968495855878465 -0.36923685638487008 0 -0.39431275766669582 -0.38061373190328529 0 -0.3968495855878465 -0.36923685638487008 0 -0.38569326772338258 -0.37053454129240582 0 -0.3911593018599101 -0.36073848084166482 0 -0.38569326772338258 -0.37053454129240582 0 -0.37568472164775779 -0.36524225821647011 0 -0.37522403377147279 -0.38060127254172499 0 -0.38569326772338258 -0.37053454129240582 0 -0.37568472164775779 -0.36524225821647011 0 -0.3911593018599101 -0.36073848084166482 0 -0.37568472164775779 -0.36524225821647011 0 -0.38024887903539811 -0.3491016629308506 0 -0.40690054455725883 -0.35815659477868023 0 -0.3911593018599101 -0.36073848084166482 0 -0.38024887903539811 -0.3491016629308506 0 -0.40690054455725883 -0.35815659477868023 0 -0.38024887903539811 -0.3491016629308506 0 -0.39533213247953691 -0.34338662223350158 0 -0.40690054455725883 -0.35815659477868023 0 -0.39533213247953691 -0.34338662223350158 0 -0.40885114471262263 -0.334649070371968 0 -0.40690054455725883 -0.35815659477868023 0 -0.38024887903539811 -0.3491016629308506 0 -0.39533213247953691 -0.34338662223350158 0 -0.38532796161286798 -0.33163916085250739 0 -0.40885114471262263 -0.334649070371968 0 -0.38532796161286798 -0.33163916085250739 0 -0.40885114471262263 -0.334649070371968 0 -0.38024887903539811 -0.3491016629308506 0 -0.39533213247953691 -0.34338662223350158 0 -0.38532796161286798 -0.33163916085250739 0 -0.38024887903539811 -0.3491016629308506 0 -0.38532796161286798 -0.33163916085250739 0 -0.37024470816872912 -0.33735420154985679 0 -0.38532796161286798 -0.33163916085250739 0 -0.37601492727600683 -0.3197696392392384 0 -0.39293033406270472 -0.31505081143976649 0 -0.37601492727600683 -0.3197696392392384 0 -0.39293033406270472 -0.31505081143976649 0 -0.37651642550459341 -0.307078797330949 0 -0.38532796161286798 -0.33163916085250739 0 -0.39293033406270472 -0.31505081143976649 0 -0.40885114471262263 -0.334649070371968 0 -0.39293033406270472 -0.31505081143976649 0 -0.40885114471262263 -0.334649070371968 0 -0.41078846406037228 -0.3113015987101887 0 -0.40885114471262263 -0.334649070371968 0 -0.42554877913925399 -0.3223331804902434 0 -0.41078846406037228 -0.3113015987101887 0 -0.40885114471262263 -0.334649070371968 0 -0.41078846406037228 -0.3113015987101887 0 -0.42066840753926321 -0.34864312644900147 0 -0.40885114471262263 -0.334649070371968 0 -0.43521386225128428 -0.33802231259611382 0 -0.40885114471262263 -0.334649070371968 0 -0.43521386225128428 -0.33802231259611382 0 -0.40885114471262263 -0.334649070371968 0 -0.43521386225128428 -0.33802231259611382 0 -0.42554877913925399 -0.3223331804902434 0 -0.42554877913925399 -0.3223331804902434 0 -0.4314578060398388 -0.3048790663939604 0 -0.41078846406037228 -0.3113015987101887 0 -0.45018982867155483 -0.32180400573951162 0 -0.43521386225128428 -0.33802231259611382 0 -0.42554877913925399 -0.3223331804902434 0 -0.45018982867155483 -0.32180400573951162 0 -0.42554877913925399 -0.3223331804902434 0 -0.4314578060398388 -0.3048790663939604 0 -0.4476129789611048 -0.29283803371489903 0 -0.4314578060398388 -0.3048790663939604 0 -0.43236213870239748 -0.29002705800971151 0 -0.4314578060398388 -0.3048790663939604 0 -0.43236213870239748 -0.29002705800971151 0 -0.41272578340812272 -0.2879541270484095 0 -0.4314578060398388 -0.3048790663939604 0 -0.41272578340812272 -0.2879541270484095 0 -0.43765198640052377 -0.27443700488157741 0 -0.43236213870239748 -0.29002705800971151 0 -0.41272578340812272 -0.2879541270484095 0 -0.4314578060398388 -0.3048790663939604 0 -0.41272578340812272 -0.2879541270484095 0 -0.41078846406037228 -0.3113015987101887 0 -0.41272578340812272 -0.2879541270484095 0 -0.41078846406037228 -0.3113015987101887 0 -0.41272578340812272 -0.2879541270484095 0 -0.41078846406037228 -0.3113015987101887 0 -0.39233272698174793 -0.29435547039456872 0 -0.39293033406270472 -0.31505081143976649 0 -0.41078846406037228 -0.3113015987101887 0 -0.39233272698174793 -0.29435547039456872 0 -0.39293033406270472 -0.31505081143976649 0 -0.37651642550459341 -0.307078797330949 0 -0.39233272698174793 -0.29435547039456872 0 -0.39233272698174793 -0.29435547039456872 0 -0.39278725088820249 -0.26993907014966689 0 -0.37040839911066209 -0.28171057629616708 0 -0.37651642550459341 -0.307078797330949 0 -0.39233272698174793 -0.29435547039456872 0 -0.37040839911066209 -0.28171057629616708 0 -0.41272578340812272 -0.2879541270484095 0 -0.39233272698174793 -0.29435547039456872 0 -0.39278725088820249 -0.26993907014966689 0 -0.41272578340812272 -0.2879541270484095 0 -0.39278725088820249 -0.26993907014966689 0 -0.39278725088820249 -0.26993907014966689 0 -0.37040839911066209 -0.28171057629616708 0 -0.39278725088820249 -0.26993907014966689 0 -0.37533687834285862 -0.25417213976024849 0 -0.37040839911066209 -0.28171057629616708 0 -0.39278725088820249 -0.26993907014966689 0 -0.37533687834285862 -0.25417213976024849 0 -0.39826986996263802 -0.25360934065352753 0 -0.39278725088820249 -0.26993907014966689 0 -0.37533687834285862 -0.25417213976024849 0 -0.39278725088820249 -0.26993907014966689 0 -0.39826986996263802 -0.25360934065352753 0 -0.41519883225968468 -0.25815034790020708 0 -0.39278725088820249 -0.26993907014966689 0 -0.41519883225968468 -0.25815034790020708 0 -0.39826986996263802 -0.25360934065352753 0 -0.41519883225968468 -0.25815034790020708 0 -0.41615383063077721 -0.2466412503256647 0 -0.41519883225968468 -0.25815034790020708 0 -0.41615383063077721 -0.2466412503256647 0 -0.41272578340812272 -0.2879541270484095 0 -0.41519883225968468 -0.25815034790020708 0 -0.41272578340812272 -0.2879541270484095 0 -0.41519883225968468 -0.25815034790020708 0 -0.429874989515865 -0.26165756953837482 0 -0.41272578340812272 -0.2879541270484095 0 -0.39278725088820249 -0.26993907014966689 0 -0.41519883225968468 -0.25815034790020708 0 -0.43765198640052377 -0.27443700488157741 0 -0.41272578340812272 -0.2879541270484095 0 -0.429874989515865 -0.26165756953837482 0 -0.41519883225968468 -0.25815034790020708 0 -0.43598079583492633 -0.24721882136819351 0 -0.41519883225968468 -0.25815034790020708 0 -0.429874989515865 -0.26165756953837482 0 -0.43598079583492633 -0.24721882136819351 0 -0.41519883225968468 -0.25815034790020708 0 -0.43598079583492633 -0.24721882136819351 0 -0.41615383063077721 -0.2466412503256647 0 -0.31968345090478489 -0.25798973640781447 0 -0.33623326073948312 -0.25365348176558788 0 -0.32213598881581812 -0.2442700999577708 0 -0.31968345090478489 -0.25798973640781447 0 -0.31319680135340772 -0.27337899374224139 0 -0.30564385326437488 -0.26015983685037081 0 -0.31968345090478489 -0.25798973640781447 0 -0.31319680135340772 -0.27337899374224139 0 -0.33256675641106698 -0.27199424518209242 0 -0.31319680135340772 -0.27337899374224139 0 -0.33256675641106698 -0.27199424518209242 0 -0.3219330120753135 -0.28752383142540722 0 -0.33256675641106698 -0.27199424518209242 0 -0.33623326073948312 -0.25365348176558788 0 -0.35329637777243872 -0.26495799818728782 0 -0.31968345090478489 -0.25798973640781447 0 -0.33256675641106698 -0.27199424518209242 0 -0.33623326073948312 -0.25365348176558788 0 -0.33623326073948312 -0.25365348176558788 0 -0.35329637777243872 -0.26495799818728782 0 -0.35305879752332059 -0.24486073726717009 0 -0.37533687834285862 -0.25417213976024849 0 -0.35329637777243872 -0.26495799818728782 0 -0.35305879752332059 -0.24486073726717009 0 -0.37533687834285862 -0.25417213976024849 0 -0.35329637777243872 -0.26495799818728782 0 -0.37040839911066209 -0.28171057629616708 0 -0.35329637777243872 -0.26495799818728782 0 -0.34802954733312141 -0.29348208244266671 0 -0.37040839911066209 -0.28171057629616708 0 -0.33256675641106698 -0.27199424518209242 0 -0.35329637777243872 -0.26495799818728782 0 -0.34802954733312141 -0.29348208244266671 0 -0.34802954733312141 -0.29348208244266671 0 -0.37040839911066209 -0.28171057629616708 0 -0.37651642550459341 -0.307078797330949 0 -0.37040839911066209 -0.28171057629616708 0 -0.36249180620921062 -0.30132401124355712 0 -0.34802954733312141 -0.29348208244266671 0 -0.37040839911066209 -0.28171057629616708 0 -0.36249180620921062 -0.30132401124355712 0 -0.37651642550459341 -0.307078797330949 0 -0.36249180620921062 -0.30132401124355712 0 -0.36514172279026702 -0.314674684486903 0 -0.36249180620921062 -0.30132401124355712 0 -0.35217384865543538 -0.31302074178168637 0 -0.36514172279026702 -0.314674684486903 0 -0.34802954733312141 -0.29348208244266671 0 -0.33894022777705518 -0.31261958861733652 0 -0.35217384865543538 -0.31302074178168637 0 -0.34802954733312141 -0.29348208244266671 0 -0.36249180620921062 -0.30132401124355712 0 -0.35217384865543538 -0.31302074178168637 0 -0.34802954733312141 -0.29348208244266671 0 -0.32565069555558063 -0.30525358858916618 0 -0.33894022777705518 -0.31261958861733652 0 -0.34802954733312141 -0.29348208244266671 0 -0.32565069555558063 -0.30525358858916618 0 -0.32565069555558063 -0.30525358858916618 0 -0.32940773276489932 -0.31652548782855527 0 -0.33894022777705518 -0.31261958861733652 0 -0.33256675641106698 -0.27199424518209242 0 -0.34802954733312141 -0.29348208244266671 0 -0.3219330120753135 -0.28752383142540722 0 -0.34802954733312141 -0.29348208244266671 0 -0.3219330120753135 -0.28752383142540722 0 -0.32565069555558063 -0.30525358858916618 0 -0.3219330120753135 -0.28752383142540722 0 -0.31228269981280887 -0.29918463989613459 0 -0.30483638085835207 -0.28788342401786787 0 -0.31319680135340772 -0.27337899374224139 0 -0.3219330120753135 -0.28752383142540722 0 -0.30483638085835207 -0.28788342401786787 0 -0.32565069555558063 -0.30525358858916618 0 -0.30327184377803978 -0.31702509473566581 0 -0.31228269981280887 -0.29918463989613459 0 -0.3219330120753135 -0.28752383142540722 0 -0.32565069555558063 -0.30525358858916618 0 -0.31228269981280887 -0.29918463989613459 0 -0.32565069555558063 -0.30525358858916618 0 -0.30327184377803978 -0.31702509473566581 0 -0.31475841231360341 -0.32260943229412947 0 -0.32694554799167658 -0.33099179923519167 0 -0.33828159541335823 -0.32561934181358893 0 -0.32565069555558063 -0.30525358858916618 0 -0.31475841231360341 -0.32260943229412947 0 -0.30327184377803978 -0.31702509473566581 0 -0.31475841231360341 -0.32260943229412947 0 -0.33828159541335823 -0.32561934181358893 0 -0.32940773276489932 -0.31652548782855527 0 -0.32565069555558063 -0.30525358858916618 0 -0.31475841231360341 -0.32260943229412947 0 -0.32940773276489932 -0.31652548782855527 0 -0.31475841231360341 -0.32260943229412947 0 -0.33828159541335823 -0.32561934181358893 0 -0.31475841231360341 -0.32260943229412947 0 -0.31372637242327511 -0.33497634201883658 0 -0.32694554799167658 -0.33099179923519167 0 -0.32694554799167658 -0.33099179923519167 0 -0.32737612656656928 -0.35021722948502532 0 -0.3170311031704231 -0.34491623006635341 0 -0.31372637242327511 -0.33497634201883658 0 -0.32694554799167658 -0.33099179923519167 0 -0.3170311031704231 -0.34491623006635341 0 -0.31372637242327511 -0.33497634201883658 0 -0.3170311031704231 -0.34491623006635341 0 -0.30849554643820359 -0.34481279163420842 0 -0.32694554799167658 -0.33099179923519167 0 -0.33828159541335823 -0.32561934181358893 0 -0.35359721351353718 -0.34004673108302108 0 -0.32694554799167658 -0.33099179923519167 0 -0.35359721351353718 -0.34004673108302108 0 -0.33765025977867152 -0.34480892108230998 0 -0.32694554799167658 -0.33099179923519167 0 -0.35359721351353718 -0.34004673108302108 0 -0.32694554799167658 -0.33099179923519167 0 -0.33765025977867152 -0.34480892108230998 0 -0.32737612656656928 -0.35021722948502532 0 -0.33828159541335823 -0.32561934181358893 0 -0.32940773276489932 -0.31652548782855527 0 -0.33894022777705518 -0.31261958861733652 0 -0.33828159541335823 -0.32561934181358893 0 -0.33894022777705518 -0.31261958861733652 0 -0.35217384865543538 -0.31302074178168637 0 -0.33828159541335823 -0.32561934181358893 0 -0.3618047785131131 -0.32862925133304821 0 -0.33828159541335823 -0.32561934181358893 0 -0.35217384865543538 -0.31302074178168637 0 -0.3618047785131131 -0.32862925133304821 0 -0.38532796161286798 -0.33163916085250739 0 -0.37601492727600683 -0.3197696392392384 0 -0.3618047785131131 -0.32862925133304821 0 -0.35217384865543538 -0.31302074178168637 0 -0.36514172279026702 -0.314674684486903 0 -0.3618047785131131 -0.32862925133304821 0 -0.37601492727600683 -0.3197696392392384 0 -0.36514172279026702 -0.314674684486903 0 -0.3618047785131131 -0.32862925133304821 0 -0.37601492727600683 -0.3197696392392384 0 -0.37651642550459341 -0.307078797330949 0 -0.36514172279026702 -0.314674684486903 0 -0.38532796161286798 -0.33163916085250739 0 -0.37024470816872912 -0.33735420154985679 0 -0.3618047785131131 -0.32862925133304821 0 -0.37024470816872912 -0.33735420154985679 0 -0.3618047785131131 -0.32862925133304821 0 -0.35359721351353718 -0.34004673108302108 0 -0.38532796161286798 -0.33163916085250739 0 -0.3618047785131131 -0.32862925133304821 0 -0.38024887903539811 -0.3491016629308506 0 -0.37024470816872912 -0.33735420154985679 0 -0.35359721351353718 -0.34004673108302108 0 -0.33828159541335823 -0.32561934181358893 0 -0.3618047785131131 -0.32862925133304821 0 -0.35359721351353718 -0.34004673108302108 0 -0.35359721351353718 -0.34004673108302108 0 -0.36247207576052709 -0.35740109745143939 0 -0.34268215104290278 -0.35797992452600158 0 -0.35359721351353718 -0.34004673108302108 0 -0.34268215104290278 -0.35797992452600158 0 -0.33765025977867152 -0.34480892108230998 0 -0.37568472164775779 -0.36524225821647011 0 -0.38024887903539811 -0.3491016629308506 0 -0.36247207576052709 -0.35740109745143939 0 -0.38024887903539811 -0.3491016629308506 0 -0.35359721351353718 -0.34004673108302108 0 -0.36247207576052709 -0.35740109745143939 0 -0.38024887903539811 -0.3491016629308506 0 -0.35359721351353718 -0.34004673108302108 0 -0.37522403377147279 -0.38060127254172499 0 -0.37568472164775779 -0.36524225821647011 0 -0.35964608014779109 -0.37334112637938882 0 -0.37568472164775779 -0.36524225821647011 0 -0.36247207576052709 -0.35740109745143939 0 -0.35964608014779109 -0.37334112637938882 0 -0.36247207576052709 -0.35740109745143939 0 -0.35964608014779109 -0.37334112637938882 0 -0.34268215104290278 -0.35797992452600158 0 -0.35964608014779109 -0.37334112637938882 0 -0.34268215104290278 -0.35797992452600158 0 -0.34254000635277743 -0.38197763020755832 0 -0.34268215104290278 -0.35797992452600158 0 -0.32737612656656928 -0.35021722948502532 0 -0.32270418411731933 -0.37181077970513959 0 -0.34268215104290278 -0.35797992452600158 0 -0.32270418411731933 -0.37181077970513959 0 -0.34254000635277743 -0.38197763020755832 0 -0.34268215104290278 -0.35797992452600158 0 -0.34254000635277743 -0.38197763020755832 0 -0.34268215104290278 -0.35797992452600158 0 -0.33765025977867152 -0.34480892108230998 0 -0.32737612656656928 -0.35021722948502532 0 -0.32737612656656928 -0.35021722948502532 0 -0.31662274924076123 -0.35606216629487569 0 -0.32270418411731933 -0.37181077970513959 0 -0.32737612656656928 -0.35021722948502532 0 -0.3170311031704231 -0.34491623006635341 0 -0.31662274924076123 -0.35606216629487569 0 -0.3170311031704231 -0.34491623006635341 0 -0.31662274924076123 -0.35606216629487569 0 -0.30902027636205309 -0.35243705172998302 0 -0.31662274924076123 -0.35606216629487569 0 -0.32270418411731933 -0.37181077970513959 0 -0.30796050174877349 -0.36016317053514468 0 -0.32270418411731933 -0.37181077970513959 0 -0.29719619905707523 -0.36594012765828582 0 -0.30796050174877349 -0.36016317053514468 0 -0.32270418411731933 -0.37181077970513959 0 -0.29719619905707523 -0.36594012765828582 0 -0.3103864423796594 -0.37828470113645102 0 -0.32270418411731933 -0.37181077970513959 0 -0.29719619905707523 -0.36594012765828582 0 -0.29719619905707523 -0.36594012765828582 0 -0.29943295026653399 -0.35953932364306618 0 -0.30796050174877349 -0.36016317053514468 0 -0.29719619905707523 -0.36594012765828582 0 -0.29584447723995128 -0.37444813956539807 0 -0.3103864423796594 -0.37828470113645102 0 -0.31662274924076123 -0.35606216629487569 0 -0.30796050174877349 -0.36016317053514468 0 -0.30902027636205309 -0.35243705172998302 0 -0.30796050174877349 -0.36016317053514468 0 -0.30902027636205309 -0.35243705172998302 0 -0.30278665144889838 -0.35518957417951802 0 -0.3170311031704231 -0.34491623006635341 0 -0.30902027636205309 -0.35243705172998302 0 -0.30849554643820359 -0.34481279163420842 0 -0.30902027636205309 -0.35243705172998302 0 -0.30849554643820359 -0.34481279163420842 0 -0.30076474035813339 -0.34759465108555682 0 -0.30849554643820359 -0.34481279163420842 0 -0.30076474035813339 -0.34759465108555682 0 -0.30398917998114899 -0.33934800480643368 0 -0.30902027636205309 -0.35243705172998302 0 -0.30076474035813339 -0.34759465108555682 0 -0.30278665144889838 -0.35518957417951802 0 -0.29943295026653399 -0.35953932364306618 0 -0.30796050174877349 -0.36016317053514468 0 -0.30278665144889838 -0.35518957417951802 0 -0.30076474035813339 -0.34759465108555682 0 -0.30278665144889838 -0.35518957417951802 0 -0.29719830368448108 -0.35301728683459582 0 -0.29943295026653399 -0.35953932364306618 0 -0.30278665144889838 -0.35518957417951802 0 -0.29719830368448108 -0.35301728683459582 0 -0.29943295026653399 -0.35953932364306618 0 -0.29719830368448108 -0.35301728683459582 0 -0.29016743694869812 -0.35649807524262711 0 -0.29016743694869812 -0.35649807524262711 0 -0.28284547851944208 -0.35047845284871731 0 -0.27168821399683141 -0.36006947561143121 0 -0.29719830368448108 -0.35301728683459582 0 -0.29016743694869812 -0.35649807524262711 0 -0.2925915294609488 -0.34919256188026188 0 -0.2925915294609488 -0.34919256188026188 0 -0.28611540962297188 -0.3426453659285974 0 -0.29619358151489988 -0.34015641309103278 0 -0.30076474035813339 -0.34759465108555682 0 -0.29719830368448108 -0.35301728683459582 0 -0.2925915294609488 -0.34919256188026188 0 -0.30076474035813339 -0.34759465108555682 0 -0.2925915294609488 -0.34919256188026188 0 -0.29619358151489988 -0.34015641309103278 0 -0.2925915294609488 -0.34919256188026188 0 -0.28284547851944208 -0.35047845284871731 0 -0.28611540962297188 -0.3426453659285974 0 -0.28284547851944208 -0.35047845284871731 0 -0.27676447355633299 -0.3457480812413124 0 -0.28611540962297188 -0.3426453659285974 0 -0.29016743694869812 -0.35649807524262711 0 -0.2925915294609488 -0.34919256188026188 0 -0.28284547851944208 -0.35047845284871731 0 -0.29202770366946113 -0.36668513997228358 0 -0.27168821399683141 -0.36006947561143121 0 -0.28307956849111848 -0.3828068929804474 0 -0.29719619905707523 -0.36594012765828582 0 -0.27168821399683141 -0.36006947561143121 0 -0.29202770366946113 -0.36668513997228358 0 -0.28307956849111848 -0.3828068929804474 0 -0.29202770366946113 -0.36668513997228358 0 -0.29584447723995128 -0.37444813956539807 0 -0.28307956849111848 -0.3828068929804474 0 -0.29719619905707523 -0.36594012765828582 0 -0.29016743694869812 -0.35649807524262711 0 -0.27168821399683141 -0.36006947561143121 0 -0.29719619905707523 -0.36594012765828582 0 -0.29202770366946113 -0.36668513997228358 0 -0.27168821399683141 -0.36006947561143121 0 -0.29719619905707523 -0.36594012765828582 0 -0.29943295026653399 -0.35953932364306618 0 -0.29016743694869812 -0.35649807524262711 0 -0.29719619905707523 -0.36594012765828582 0 -0.29202770366946113 -0.36668513997228358 0 -0.29584447723995128 -0.37444813956539807 0 -0.27168821399683141 -0.36006947561143121 0 -0.28307956849111848 -0.3828068929804474 0 -0.27168821399683141 -0.36006947561143121 0 -0.28307956849111848 -0.3828068929804474 0 -0.26050234447883253 -0.38027693877573482 0 -0.27168821399683141 -0.36006947561143121 0 -0.25721723303835431 -0.36623646057876708 0 -0.26050234447883253 -0.38027693877573482 0 -0.27168821399683141 -0.36006947561143121 0 -0.25721723303835431 -0.36623646057876708 0 -0.24850069890613241 -0.35473287875334369 0 -0.25721723303835431 -0.36623646057876708 0 -0.24817767477162081 -0.36986654917455902 0 -0.24850069890613241 -0.35473287875334369 0 -0.25721723303835431 -0.36623646057876708 0 -0.26050234447883253 -0.38027693877573482 0 -0.24817767477162081 -0.36986654917455902 0 -0.27168821399683141 -0.36006947561143121 0 -0.25445926970156468 -0.34270101061729968 0 -0.24850069890613241 -0.35473287875334369 0 -0.27168821399683141 -0.36006947561143121 0 -0.26120815563270988 -0.3391510272218049 0 -0.25445926970156468 -0.34270101061729968 0 -0.27168821399683141 -0.36006947561143121 0 -0.24850069890613241 -0.35473287875334369 0 -0.27168821399683141 -0.36006947561143121 0 -0.27676447355633299 -0.3457480812413124 0 -0.26120815563270988 -0.3391510272218049 0 -0.27168821399683141 -0.36006947561143121 0 -0.26120815563270988 -0.3391510272218049 0 -0.28284547851944208 -0.35047845284871731 0 -0.27168821399683141 -0.36006947561143121 0 -0.27676447355633299 -0.3457480812413124 0 -0.27676447355633299 -0.3457480812413124 0 -0.27858368134566353 -0.33798527866036399 0 -0.28611540962297188 -0.3426453659285974 0 -0.27676447355633299 -0.3457480812413124 0 -0.27858368134566353 -0.33798527866036399 0 -0.26120815563270988 -0.3391510272218049 0 -0.28089299200049878 -0.32879660088216478 0 -0.26120815563270988 -0.3391510272218049 0 -0.28089299200049878 -0.32879660088216478 0 -0.26120815563270988 -0.3391510272218049 0 -0.26730676106940449 -0.32685643845792262 0 -0.27858368134566353 -0.33798527866036399 0 -0.28089299200049878 -0.32879660088216478 0 -0.26120815563270988 -0.3391510272218049 0 -0.26120815563270988 -0.3391510272218049 0 -0.26057751607960811 -0.32279583566460812 0 -0.26730676106940449 -0.32685643845792262 0 -0.26120815563270988 -0.3391510272218049 0 -0.25273748935779161 -0.32224337373924072 0 -0.26120815563270988 -0.3391510272218049 0 -0.25207330520806498 -0.33378255792528982 0 -0.25273748935779161 -0.32224337373924072 0 -0.26120815563270988 -0.3391510272218049 0 -0.25445926970156468 -0.34270101061729968 0 -0.25207330520806498 -0.33378255792528982 0 -0.25445926970156468 -0.34270101061729968 0 -0.2460450098649074 -0.33743905859998191 0 -0.26120815563270988 -0.3391510272218049 0 -0.25207330520806498 -0.33378255792528982 0 -0.25445926970156468 -0.34270101061729968 0 -0.25273748935779161 -0.32224337373924072 0 -0.26050456352867191 -0.3149367065078193 0 -0.24426682308287331 -0.30533572025667649 0 -0.26120815563270988 -0.3391510272218049 0 -0.25273748935779161 -0.32224337373924072 0 -0.26057751607960811 -0.32279583566460812 0 -0.26057751607960811 -0.32279583566460812 0 -0.26050456352867191 -0.3149367065078193 0 -0.26730676106940449 -0.32685643845792262 0 -0.25273748935779161 -0.32224337373924072 0 -0.26057751607960811 -0.32279583566460812 0 -0.26050456352867191 -0.3149367065078193 0 -0.28089299200049878 -0.32879660088216478 0 -0.26050456352867191 -0.3149367065078193 0 -0.27445713665833338 -0.31633796571173628 0 -0.28089299200049878 -0.32879660088216478 0 -0.26050456352867191 -0.3149367065078193 0 -0.26050456352867191 -0.3149367065078193 0 -0.27445713665833338 -0.31633796571173628 0 -0.26793999894844561 -0.31004618489902153 0 -0.28089299200049878 -0.32879660088216478 0 -0.26050456352867191 -0.3149367065078193 0 -0.26730676106940449 -0.32685643845792262 0 -0.28089299200049878 -0.32879660088216478 0 -0.27445713665833338 -0.31633796571173628 0 -0.28125105682705043 -0.31976055402590231 0 -0.27445713665833338 -0.31633796571173628 0 -0.28252008875028978 -0.31254235777143202 0 -0.28125105682705043 -0.31976055402590231 0 -0.28252008875028978 -0.31254235777143202 0 -0.28823329624350208 -0.31711313423980658 0 -0.29327146190654751 -0.30876504511160502 0 -0.28089299200049878 -0.32879660088216478 0 -0.28823329624350208 -0.31711313423980658 0 -0.30327184377803978 -0.31702509473566581 0 -0.28089299200049878 -0.32879660088216478 0 -0.29457520052377689 -0.33013191680287202 0 -0.30327184377803978 -0.31702509473566581 0 -0.28089299200049878 -0.32879660088216478 0 -0.30327184377803978 -0.31702509473566581 0 -0.28252008875028978 -0.31254235777143202 0 -0.28125105682705043 -0.31976055402590231 0 -0.28823329624350208 -0.31711313423980658 0 -0.28823329624350208 -0.31711313423980658 0 -0.30327184377803978 -0.31702509473566581 0 -0.29327146190654751 -0.30876504511160502 0 -0.28089299200049878 -0.32879660088216478 0 -0.28125105682705043 -0.31976055402590231 0 -0.28823329624350208 -0.31711313423980658 0 -0.28089299200049878 -0.32879660088216478 0 -0.28793737591580382 -0.33358531802794061 0 -0.27858368134566353 -0.33798527866036399 0 -0.28089299200049878 -0.32879660088216478 0 -0.28793737591580382 -0.33358531802794061 0 -0.28089299200049878 -0.32879660088216478 0 -0.28793737591580382 -0.33358531802794061 0 -0.29457520052377689 -0.33013191680287202 0 -0.27858368134566353 -0.33798527866036399 0 -0.28793737591580382 -0.33358531802794061 0 -0.28611540962297188 -0.3426453659285974 0 -0.28793737591580382 -0.33358531802794061 0 -0.28611540962297188 -0.3426453659285974 0 -0.29619358151489988 -0.34015641309103278 0 -0.28793737591580382 -0.33358531802794061 0 -0.29619358151489988 -0.34015641309103278 0 -0.29457520052377689 -0.33013191680287202 0 -0.29619358151489988 -0.34015641309103278 0 -0.29457520052377689 -0.33013191680287202 0 -0.30458020940964259 -0.3310961572775562 0 -0.30076474035813339 -0.34759465108555682 0 -0.29619358151489988 -0.34015641309103278 0 -0.30398917998114899 -0.33934800480643368 0 -0.29619358151489988 -0.34015641309103278 0 -0.30458020940964259 -0.3310961572775562 0 -0.30398917998114899 -0.33934800480643368 0 -0.31372637242327511 -0.33497634201883658 0 -0.30849554643820359 -0.34481279163420842 0 -0.30398917998114899 -0.33934800480643368 0 -0.31475841231360341 -0.32260943229412947 0 -0.31372637242327511 -0.33497634201883658 0 -0.30458020940964259 -0.3310961572775562 0 -0.31372637242327511 -0.33497634201883658 0 -0.30458020940964259 -0.3310961572775562 0 -0.30398917998114899 -0.33934800480643368 0 -0.31475841231360341 -0.32260943229412947 0 -0.30458020940964259 -0.3310961572775562 0 -0.30327184377803978 -0.31702509473566581 0 -0.29457520052377689 -0.33013191680287202 0 -0.30458020940964259 -0.3310961572775562 0 -0.30327184377803978 -0.31702509473566581 0 -0.30327184377803978 -0.31702509473566581 0 -0.30068554560480582 -0.30112982209441241 0 -0.31228269981280887 -0.29918463989613459 0 -0.30327184377803978 -0.31702509473566581 0 -0.30068554560480582 -0.30112982209441241 0 -0.29327146190654751 -0.30876504511160502 0 -0.30068554560480582 -0.30112982209441241 0 -0.30483638085835207 -0.28788342401786787 0 -0.28888361246081401 -0.29493054457851903 0 -0.30068554560480582 -0.30112982209441241 0 -0.31228269981280887 -0.29918463989613459 0 -0.30483638085835207 -0.28788342401786787 0 -0.28888361246081401 -0.29493054457851903 0 -0.28078806465599399 -0.28300047521785149 0 -0.29451735460655398 -0.27472288856989607 0 -0.30483638085835207 -0.28788342401786787 0 -0.28888361246081401 -0.29493054457851903 0 -0.29451735460655398 -0.27472288856989607 0 -0.28888361246081401 -0.29493054457851903 0 -0.28295382644196537 -0.3038897035906043 0 -0.27388309143310768 -0.29511411685975181 0 -0.28888361246081401 -0.29493054457851903 0 -0.28295382644196537 -0.3038897035906043 0 -0.29327146190654751 -0.30876504511160502 0 -0.30068554560480582 -0.30112982209441241 0 -0.28888361246081401 -0.29493054457851903 0 -0.29327146190654751 -0.30876504511160502 0 -0.28252008875028978 -0.31254235777143202 0 -0.28295382644196537 -0.3038897035906043 0 -0.29327146190654751 -0.30876504511160502 0 -0.27445713665833338 -0.31633796571173628 0 -0.28252008875028978 -0.31254235777143202 0 -0.27524002690986649 -0.30828041126704497 0 -0.28252008875028978 -0.31254235777143202 0 -0.28295382644196537 -0.3038897035906043 0 -0.27524002690986649 -0.30828041126704497 0 -0.28295382644196537 -0.3038897035906043 0 -0.27524002690986649 -0.30828041126704497 0 -0.27388309143310768 -0.29511411685975181 0 -0.26808679199009749 -0.30362992927208171 0 -0.26252268864995981 -0.29761987486456531 0 -0.27388309143310768 -0.29511411685975181 0 -0.27524002690986649 -0.30828041126704497 0 -0.26808679199009749 -0.30362992927208171 0 -0.27388309143310768 -0.29511411685975181 0 -0.27445713665833338 -0.31633796571173628 0 -0.27524002690986649 -0.30828041126704497 0 -0.26793999894844561 -0.31004618489902153 0 -0.27524002690986649 -0.30828041126704497 0 -0.26808679199009749 -0.30362992927208171 0 -0.26793999894844561 -0.31004618489902153 0 -0.26808679199009749 -0.30362992927208171 0 -0.26793999894844561 -0.31004618489902153 0 -0.26278193746552841 -0.30551063084933561 0 -0.26050456352867191 -0.3149367065078193 0 -0.25485564421046719 -0.30132045870319019 0 -0.24011613505684479 -0.30107681213347393 0 -0.26050456352867191 -0.3149367065078193 0 -0.24011613505684479 -0.30107681213347393 0 -0.26050456352867191 -0.3149367065078193 0 -0.26278193746552841 -0.30551063084933561 0 -0.25485564421046719 -0.30132045870319019 0 -0.26050456352867191 -0.3149367065078193 0 -0.26793999894844561 -0.31004618489902153 0 -0.26278193746552841 -0.30551063084933561 0 -0.26278193746552841 -0.30551063084933561 0 -0.26252268864995981 -0.29761987486456531 0 -0.25485564421046719 -0.30132045870319019 0 -0.26252268864995981 -0.29761987486456531 0 -0.25485564421046719 -0.30132045870319019 0 -0.2567143935458242 -0.29223768812186002 0 -0.26808679199009749 -0.30362992927208171 0 -0.26278193746552841 -0.30551063084933561 0 -0.26252268864995981 -0.29761987486456531 0 -0.25608276685525683 -0.28295324223861612 0 -0.2567143935458242 -0.29223768812186002 0 -0.24732420154209239 -0.29033586459568173 0 -0.25485564421046719 -0.30132045870319019 0 -0.2567143935458242 -0.29223768812186002 0 -0.24732420154209239 -0.29033586459568173 0 -0.26252268864995981 -0.29761987486456531 0 -0.2567143935458242 -0.29223768812186002 0 -0.26350989061834318 -0.28909490770035701 0 -0.25608276685525683 -0.28295324223861612 0 -0.26350989061834318 -0.28909490770035701 0 -0.26907982973782107 -0.2804670883869903 0 -0.25608276685525683 -0.28295324223861612 0 -0.2567143935458242 -0.29223768812186002 0 -0.26350989061834318 -0.28909490770035701 0 -0.26350989061834318 -0.28909490770035701 0 -0.27388309143310768 -0.29511411685975181 0 -0.26907982973782107 -0.2804670883869903 0 -0.26252268864995981 -0.29761987486456531 0 -0.26350989061834318 -0.28909490770035701 0 -0.27388309143310768 -0.29511411685975181 0 -0.28888361246081401 -0.29493054457851903 0 -0.27388309143310768 -0.29511411685975181 0 -0.28078806465599399 -0.28300047521785149 0 -0.27388309143310768 -0.29511411685975181 0 -0.28078806465599399 -0.28300047521785149 0 -0.26907982973782107 -0.2804670883869903 0 -0.27772768471542669 -0.26767482265106679 0 -0.26907982973782107 -0.2804670883869903 0 -0.25958550566062261 -0.27102626557679149 0 -0.28078806465599399 -0.28300047521785149 0 -0.27772768471542669 -0.26767482265106679 0 -0.26907982973782107 -0.2804670883869903 0 -0.25608276685525683 -0.28295324223861612 0 -0.26907982973782107 -0.2804670883869903 0 -0.25958550566062261 -0.27102626557679149 0 -0.25608276685525683 -0.28295324223861612 0 -0.25958550566062261 -0.27102626557679149 0 -0.2444485511135471 -0.27534046621033159 0 -0.26398002587916253 -0.25656090854441049 0 -0.24465976002352091 -0.25387891845332877 0 -0.25992972331208369 -0.2410680052130979 0 -0.25958550566062261 -0.27102626557679149 0 -0.26398002587916253 -0.25656090854441049 0 -0.24465976002352091 -0.25387891845332877 0 -0.27772768471542669 -0.26767482265106679 0 -0.26398002587916253 -0.25656090854441049 0 -0.27722523139620658 -0.24922189107985179 0 -0.27772768471542669 -0.26767482265106679 0 -0.25958550566062261 -0.27102626557679149 0 -0.26398002587916253 -0.25656090854441049 0 -0.27772768471542669 -0.26767482265106679 0 -0.29131753467172561 -0.25675805269722002 0 -0.27722523139620658 -0.24922189107985179 0 -0.28078806465599399 -0.28300047521785149 0 -0.27772768471542669 -0.26767482265106679 0 -0.29451735460655398 -0.27472288856989607 0 -0.27772768471542669 -0.26767482265106679 0 -0.29131753467172561 -0.25675805269722002 0 -0.29451735460655398 -0.27472288856989607 0 -0.31319680135340772 -0.27337899374224139 0 -0.29451735460655398 -0.27472288856989607 0 -0.30564385326437488 -0.26015983685037081 0 -0.31319680135340772 -0.27337899374224139 0 -0.30483638085835207 -0.28788342401786787 0 -0.29451735460655398 -0.27472288856989607 0 -0.29131753467172561 -0.25675805269722002 0 -0.29451735460655398 -0.27472288856989607 0 -0.30564385326437488 -0.26015983685037081 0 -0.29131753467172561 -0.25675805269722002 0 -0.30564385326437488 -0.26015983685037081 0 -0.30769212114973271 -0.24578220261295139 0 -0.31968345090478489 -0.25798973640781447 0 -0.30564385326437488 -0.26015983685037081 0 -0.30769212114973271 -0.24578220261295139 0 -0.34207866423036198 -0.45986413066326443 0 -0.33141508850449702 -0.45187214799378478 0 -0.32594289259428999 -0.46085836632795257 0 -0.34207866423036198 -0.45986413066326443 0 -0.32594289259428999 -0.46085836632795257 0 -0.33264581849560632 -0.47431014716802089 0 -0.34207866423036198 -0.45986413066326443 0 -0.34225571697252682 -0.42997304157067162 0 -0.34207866423036198 -0.45986413066326443 0 -0.33358626016413989 -0.44229992863572659 0 -0.33141508850449702 -0.45187214799378478 0 -0.34207866423036198 -0.45986413066326443 0 -0.33358626016413989 -0.44229992863572659 0 -0.34225571697252682 -0.42997304157067162 0 -0.33358626016413989 -0.44229992863572659 0 -0.33141508850449702 -0.45187214799378478 0 -0.32300139100864811 -0.44723989508536771 0 -0.33358626016413989 -0.44229992863572659 0 -0.32300139100864811 -0.44723989508536771 0 -0.32413493920603592 -0.43586432580396972 0 -0.32300139100864811 -0.44723989508536771 0 -0.31385630152515048 -0.44199725430357722 0 -0.32413493920603592 -0.43586432580396972 0 -0.32300139100864811 -0.44723989508536771 0 -0.31385630152515048 -0.44199725430357722 0 -0.31044958537109257 -0.45255960714027171 0 -0.32594289259428999 -0.46085836632795257 0 -0.31333683559556219 -0.46686726284272168 0 -0.31044958537109257 -0.45255960714027171 0 -0.32594289259428999 -0.46085836632795257 0 -0.31333683559556219 -0.46686726284272168 0 -0.32224857144892449 -0.47649828689453749 0 -0.32300139100864811 -0.44723989508536771 0 -0.32594289259428999 -0.46085836632795257 0 -0.31044958537109257 -0.45255960714027171 0 -0.33141508850449702 -0.45187214799378478 0 -0.32300139100864811 -0.44723989508536771 0 -0.32594289259428999 -0.46085836632795257 0 -0.31333683559556219 -0.46686726284272168 0 -0.32224857144892449 -0.47649828689453749 0 -0.30503152439861497 -0.48190266549989857 0 -0.32224857144892449 -0.47649828689453749 0 -0.32279626626388608 -0.48781718170045291 0 -0.30503152439861497 -0.48190266549989857 0 -0.32594289259428999 -0.46085836632795257 0 -0.32224857144892449 -0.47649828689453749 0 -0.33264581849560632 -0.47431014716802089 0 -0.32224857144892449 -0.47649828689453749 0 -0.32279626626388608 -0.48781718170045291 0 -0.33105735271625752 -0.4845747321984929 0 -0.32006214434654462 -0.5 0 -0.32279626626388608 -0.48781718170045291 0 -0.30503152439861497 -0.48190266549989857 0 -0.32006214434654462 -0.5 0 -0.32279626626388608 -0.48781718170045291 0 -0.33558173840908911 -0.49611022390933512 0 -0.32006214434654462 -0.5 0 -0.33558173840908911 -0.49611022390933512 0 -0.34657288766042038 -0.5 0 -0.33558173840908911 -0.49611022390933512 0 -0.34190161148819742 -0.48975521975585701 0 -0.35306908662498632 -0.4951847935385878 0 -0.32279626626388608 -0.48781718170045291 0 -0.33558173840908911 -0.49611022390933512 0 -0.33105735271625752 -0.4845747321984929 0 -0.33558173840908911 -0.49611022390933512 0 -0.33105735271625752 -0.4845747321984929 0 -0.34190161148819742 -0.48975521975585701 0 -0.34207866423036198 -0.45986413066326443 0 -0.34190161148819742 -0.48975521975585701 0 -0.34207866423036198 -0.45986413066326443 0 -0.34190161148819742 -0.48975521975585701 0 -0.33264581849560632 -0.47431014716802089 0 -0.33105735271625752 -0.4845747321984929 0 -0.34190161148819742 -0.48975521975585701 0 -0.33264581849560632 -0.47431014716802089 0 -0.32224857144892449 -0.47649828689453749 0 -0.33105735271625752 -0.4845747321984929 0 -0.33264581849560632 -0.47431014716802089 0 -0.34190161148819742 -0.48975521975585701 0 -0.35001641252228072 -0.47142734906239081 0 -0.35328963507943428 -0.48328499015431992 0 -0.34207866423036198 -0.45986413066326443 0 -0.34190161148819742 -0.48975521975585701 0 -0.35001641252228072 -0.47142734906239081 0 -0.35328963507943428 -0.48328499015431992 0 -0.35950950469085041 -0.48638993404071668 0 -0.36112286221809747 -0.47283058930211808 0 -0.35001641252228072 -0.47142734906239081 0 -0.35328963507943428 -0.48328499015431992 0 -0.36112286221809747 -0.47283058930211808 0 -0.33558173840908911 -0.49611022390933512 0 -0.35306908662498632 -0.4951847935385878 0 -0.33558173840908911 -0.49611022390933512 0 -0.34657288766042038 -0.5 0 -0.35306908662498632 -0.4951847935385878 0 -0.34657288766042038 -0.5 0 -0.35306908662498632 -0.4951847935385878 0 -0.37308363097429631 -0.50000000000000244 0 -0.34190161148819742 -0.48975521975585701 0 -0.35328963507943428 -0.48328499015431992 0 -0.35306908662498632 -0.4951847935385878 0 -0.35328963507943428 -0.48328499015431992 0 -0.35306908662498632 -0.4951847935385878 0 -0.35950950469085041 -0.48638993404071668 0 -0.35306908662498632 -0.4951847935385878 0 -0.35950950469085041 -0.48638993404071668 0 -0.37055643484088358 -0.49425936316784103 0 -0.35306908662498632 -0.4951847935385878 0 -0.37055643484088358 -0.49425936316784103 0 -0.35950950469085041 -0.48638993404071668 0 -0.37055643484088358 -0.49425936316784103 0 -0.36112286221809747 -0.47283058930211808 0 -0.35306908662498632 -0.4951847935385878 0 -0.37055643484088358 -0.49425936316784103 0 -0.37308363097429631 -0.50000000000000244 0 -0.37055643484088358 -0.49425936316784103 0 -0.37308363097429631 -0.50000000000000244 0 -0.38039451612360919 -0.47713749807852829 0 -0.37055643484088358 -0.49425936316784103 0 -0.36112286221809747 -0.47283058930211808 0 -0.37055643484088358 -0.49425936316784103 0 -0.36112286221809747 -0.47283058930211808 0 -0.38039451612360919 -0.47713749807852829 0 -0.36112286221809747 -0.47283058930211808 0 -0.37415472949075129 -0.45946062715310632 0 -0.37415472949075129 -0.45946062715310632 0 -0.3629811744391212 -0.45722253899736259 0 -0.36406731613876331 -0.44506275929787698 0 -0.36112286221809747 -0.47283058930211808 0 -0.37415472949075129 -0.45946062715310632 0 -0.3629811744391212 -0.45722253899736259 0 -0.36112286221809747 -0.47283058930211808 0 -0.3629811744391212 -0.45722253899736259 0 -0.35168928959531232 -0.4514018154363949 0 -0.36112286221809747 -0.47283058930211808 0 -0.35168928959531232 -0.4514018154363949 0 -0.35001641252228072 -0.47142734906239081 0 -0.36112286221809747 -0.47283058930211808 0 -0.35168928959531232 -0.4514018154363949 0 -0.34207866423036198 -0.45986413066326443 0 -0.35001641252228072 -0.47142734906239081 0 -0.35168928959531232 -0.4514018154363949 0 -0.35168928959531232 -0.4514018154363949 0 -0.34225571697252682 -0.42997304157067162 0 -0.35168928959531232 -0.4514018154363949 0 -0.36406731613876331 -0.44506275929787698 0 -0.34225571697252682 -0.42997304157067162 0 -0.34207866423036198 -0.45986413066326443 0 -0.35168928959531232 -0.4514018154363949 0 -0.34225571697252682 -0.42997304157067162 0 -0.38339996822118783 -0.44368928783448319 0 -0.36406731613876331 -0.44506275929787698 0 -0.36866352395763108 -0.4313760290561211 0 -0.38339996822118783 -0.44368928783448319 0 -0.37415472949075129 -0.45946062715310632 0 -0.36406731613876331 -0.44506275929787698 0 -0.3629811744391212 -0.45722253899736259 0 -0.35168928959531232 -0.4514018154363949 0 -0.36406731613876331 -0.44506275929787698 0 -0.38131756488089769 -0.42670085612339947 0 -0.36866352395763108 -0.4313760290561211 0 -0.36377437909963828 -0.41972983174959272 0 -0.38704143117499401 -0.40999023144455299 0 -0.3575105341832589 -0.40691374405003478 0 -0.38704143117499401 -0.40999023144455299 0 -0.36377437909963828 -0.41972983174959272 0 -0.3575105341832589 -0.40691374405003478 0 -0.35062038894632092 -0.41624612172537079 0 -0.34239786166265201 -0.40597533588911489 0 -0.34225571697252682 -0.42997304157067162 0 -0.36377437909963828 -0.41972983174959272 0 -0.3575105341832589 -0.40691374405003478 0 -0.35062038894632092 -0.41624612172537079 0 -0.3575105341832589 -0.40691374405003478 0 -0.35062038894632092 -0.41624612172537079 0 -0.34239786166265201 -0.40597533588911489 0 -0.36406731613876331 -0.44506275929787698 0 -0.36866352395763108 -0.4313760290561211 0 -0.34225571697252682 -0.42997304157067162 0 -0.36866352395763108 -0.4313760290561211 0 -0.36377437909963828 -0.41972983174959272 0 -0.34225571697252682 -0.42997304157067162 0 -0.36377437909963828 -0.41972983174959272 0 -0.35062038894632092 -0.41624612172537079 0 -0.34225571697252682 -0.42997304157067162 0 -0.37522403377147279 -0.38060127254172499 0 -0.37464038230528551 -0.396492613407532 0 -0.35879027536972019 -0.3891835699585654 0 -0.37522403377147279 -0.38060127254172499 0 -0.35964608014779109 -0.37334112637938882 0 -0.35879027536972019 -0.3891835699585654 0 -0.38704143117499401 -0.40999023144455299 0 -0.3575105341832589 -0.40691374405003478 0 -0.37464038230528551 -0.396492613407532 0 -0.3575105341832589 -0.40691374405003478 0 -0.37464038230528551 -0.396492613407532 0 -0.35879027536972019 -0.3891835699585654 0 -0.3575105341832589 -0.40691374405003478 0 -0.35030966939210212 -0.39601257002631829 0 -0.35879027536972019 -0.3891835699585654 0 -0.35030966939210212 -0.39601257002631829 0 -0.34254000635277743 -0.38197763020755832 0 -0.34239786166265201 -0.40597533588911489 0 -0.3575105341832589 -0.40691374405003478 0 -0.35030966939210212 -0.39601257002631829 0 -0.34239786166265201 -0.40597533588911489 0 -0.35964608014779109 -0.37334112637938882 0 -0.35879027536972019 -0.3891835699585654 0 -0.34254000635277743 -0.38197763020755832 0 -0.35030966939210212 -0.39601257002631829 0 -0.35879027536972019 -0.3891835699585654 0 -0.34254000635277743 -0.38197763020755832 0 -0.32270418411731933 -0.37181077970513959 0 -0.34254000635277743 -0.38197763020755832 0 -0.32435131947256218 -0.38428518727128619 0 -0.34254000635277743 -0.38197763020755832 0 -0.33211028503505757 -0.39455092735479258 0 -0.32435131947256218 -0.38428518727128619 0 -0.34254000635277743 -0.38197763020755832 0 -0.33211028503505757 -0.39455092735479258 0 -0.34239786166265201 -0.40597533588911489 0 -0.34254000635277743 -0.38197763020755832 0 -0.34239786166265201 -0.40597533588911489 0 -0.33211028503505757 -0.39455092735479258 0 -0.32627218782356721 -0.40254155632103228 0 -0.33325599186729038 -0.40952977136485508 0 -0.33211028503505757 -0.39455092735479258 0 -0.34239786166265201 -0.40597533588911489 0 -0.33325599186729038 -0.40952977136485508 0 -0.32627218782356721 -0.40254155632103228 0 -0.31778611784491262 -0.39429551077659458 0 -0.31836523457261151 -0.40628576827473822 0 -0.31778611784491262 -0.39429551077659458 0 -0.31836523457261151 -0.40628576827473822 0 -0.30856762168503782 -0.40330407176644772 0 -0.33211028503505757 -0.39455092735479258 0 -0.32627218782356721 -0.40254155632103228 0 -0.31778611784491262 -0.39429551077659458 0 -0.33211028503505757 -0.39455092735479258 0 -0.31778611784491262 -0.39429551077659458 0 -0.32435131947256218 -0.38428518727128619 0 -0.31778611784491262 -0.39429551077659458 0 -0.32435131947256218 -0.38428518727128619 0 -0.3103864423796594 -0.37828470113645102 0 -0.32270418411731933 -0.37181077970513959 0 -0.32435131947256218 -0.38428518727128619 0 -0.3103864423796594 -0.37828470113645102 0 -0.34225571697252682 -0.42997304157067162 0 -0.32127707919304882 -0.42450406978857058 0 -0.32413493920603592 -0.43586432580396972 0 -0.33358626016413989 -0.44229992863572659 0 -0.34225571697252682 -0.42997304157067162 0 -0.32413493920603592 -0.43586432580396972 0 -0.34225571697252682 -0.42997304157067162 0 -0.32547848823970138 -0.41505510354763547 0 -0.32127707919304882 -0.42450406978857058 0 -0.34225571697252682 -0.42997304157067162 0 -0.33325599186729038 -0.40952977136485508 0 -0.34239786166265201 -0.40597533588911489 0 -0.34225571697252682 -0.42997304157067162 0 -0.34225571697252682 -0.42997304157067162 0 -0.33325599186729038 -0.40952977136485508 0 -0.32547848823970138 -0.41505510354763547 0 -0.34239786166265201 -0.40597533588911489 0 -0.34225571697252682 -0.42997304157067162 0 -0.33325599186729038 -0.40952977136485508 0 -0.32627218782356721 -0.40254155632103228 0 -0.33325599186729038 -0.40952977136485508 0 -0.32547848823970138 -0.41505510354763547 0 -0.32547848823970138 -0.41505510354763547 0 -0.3149711123139971 -0.41411215899080989 0 -0.32127707919304882 -0.42450406978857058 0 -0.32627218782356721 -0.40254155632103228 0 -0.32547848823970138 -0.41505510354763547 0 -0.31836523457261151 -0.40628576827473822 0 -0.32547848823970138 -0.41505510354763547 0 -0.31836523457261151 -0.40628576827473822 0 -0.3149711123139971 -0.41411215899080989 0 -0.31836523457261151 -0.40628576827473822 0 -0.3149711123139971 -0.41411215899080989 0 -0.30856762168503782 -0.40330407176644772 0 -0.3149711123139971 -0.41411215899080989 0 -0.32127707919304882 -0.42450406978857058 0 -0.31068047406536009 -0.42124040027518911 0 -0.32127707919304882 -0.42450406978857058 0 -0.31073004788055869 -0.43167813375356229 0 -0.31068047406536009 -0.42124040027518911 0 -0.32127707919304882 -0.42450406978857058 0 -0.32413493920603592 -0.43586432580396972 0 -0.31073004788055869 -0.43167813375356229 0 -0.31385630152515048 -0.44199725430357722 0 -0.32413493920603592 -0.43586432580396972 0 -0.31073004788055869 -0.43167813375356229 0 -0.31073004788055869 -0.43167813375356229 0 -0.29829421210859891 -0.43220714453990322 0 -0.30286215921622678 -0.44210958888768459 0 -0.31073004788055869 -0.43167813375356229 0 -0.29829421210859891 -0.43220714453990322 0 -0.30293836312512551 -0.42244552438862548 0 -0.29829421210859891 -0.43220714453990322 0 -0.30293836312512551 -0.42244552438862548 0 -0.29038846928103268 -0.42353273433611682 0 -0.31073004788055869 -0.43167813375356229 0 -0.30293836312512551 -0.42244552438862548 0 -0.31068047406536009 -0.42124040027518911 0 -0.3149711123139971 -0.41411215899080989 0 -0.31068047406536009 -0.42124040027518911 0 -0.30545777612822328 -0.41428354029227837 0 -0.30293836312512551 -0.42244552438862548 0 -0.31068047406536009 -0.42124040027518911 0 -0.30545777612822328 -0.41428354029227837 0 -0.3149711123139971 -0.41411215899080989 0 -0.30545777612822328 -0.41428354029227837 0 -0.30856762168503782 -0.40330407176644772 0 -0.30545777612822328 -0.41428354029227837 0 -0.30856762168503782 -0.40330407176644772 0 -0.30079847364115991 -0.40578130343003371 0 -0.30545777612822328 -0.41428354029227837 0 -0.2987732092282892 -0.41413177709842958 0 -0.30079847364115991 -0.40578130343003371 0 -0.30293836312512551 -0.42244552438862548 0 -0.2987732092282892 -0.41413177709842958 0 -0.29038846928103268 -0.42353273433611682 0 -0.30293836312512551 -0.42244552438862548 0 -0.2987732092282892 -0.41413177709842958 0 -0.30293836312512551 -0.42244552438862548 0 -0.30545777612822328 -0.41428354029227837 0 -0.2987732092282892 -0.41413177709842958 0 -0.30545777612822328 -0.41428354029227837 0 -0.2987732092282892 -0.41413177709842958 0 -0.2987732092282892 -0.41413177709842958 0 -0.29092638885970451 -0.39846933503943821 0 -0.2987732092282892 -0.41413177709842958 0 -0.28243901841779939 -0.41376093348156762 0 -0.29092638885970451 -0.39846933503943821 0 -0.2987732092282892 -0.41413177709842958 0 -0.28243901841779939 -0.41376093348156762 0 -0.29038846928103268 -0.42353273433611682 0 -0.2987732092282892 -0.41413177709842958 0 -0.28243901841779939 -0.41376093348156762 0 -0.28243901841779939 -0.41376093348156762 0 -0.29038846928103268 -0.42353273433611682 0 -0.27500508569675858 -0.42792788340523652 0 -0.29038846928103268 -0.42353273433611682 0 -0.27500508569675858 -0.42792788340523652 0 -0.28620792983366777 -0.44117103379144762 0 -0.29829421210859891 -0.43220714453990322 0 -0.29038846928103268 -0.42353273433611682 0 -0.28620792983366777 -0.44117103379144762 0 -0.31778611784491262 -0.39429551077659458 0 -0.3103864423796594 -0.37828470113645102 0 -0.30424293331838692 -0.39073887816822978 0 -0.29584447723995128 -0.37444813956539807 0 -0.29713407365637251 -0.38186722723828942 0 -0.3103864423796594 -0.37828470113645102 0 -0.29713407365637251 -0.38186722723828942 0 -0.30424293331838692 -0.39073887816822978 0 -0.29406976999373469 -0.38920344929064732 0 -0.29713407365637251 -0.38186722723828942 0 -0.3103864423796594 -0.37828470113645102 0 -0.30424293331838692 -0.39073887816822978 0 -0.29998863005712628 -0.39809616774203599 0 -0.30424293331838692 -0.39073887816822978 0 -0.30856762168503782 -0.40330407176644772 0 -0.29998863005712628 -0.39809616774203599 0 -0.30424293331838692 -0.39073887816822978 0 -0.29406976999373469 -0.38920344929064732 0 -0.31778611784491262 -0.39429551077659458 0 -0.30424293331838692 -0.39073887816822978 0 -0.30856762168503782 -0.40330407176644772 0 -0.29998863005712628 -0.39809616774203599 0 -0.30079847364115991 -0.40578130343003371 0 -0.29092638885970451 -0.39846933503943821 0 -0.29998863005712628 -0.39809616774203599 0 -0.30856762168503782 -0.40330407176644772 0 -0.30079847364115991 -0.40578130343003371 0 -0.2987732092282892 -0.41413177709842958 0 -0.30079847364115991 -0.40578130343003371 0 -0.29092638885970451 -0.39846933503943821 0 -0.29092638885970451 -0.39846933503943821 0 -0.28307956849111848 -0.3828068929804474 0 -0.29092638885970451 -0.39846933503943821 0 -0.28307956849111848 -0.3828068929804474 0 -0.27459219804921331 -0.39809849142257658 0 -0.28243901841779939 -0.41376093348156762 0 -0.29092638885970451 -0.39846933503943821 0 -0.27459219804921331 -0.39809849142257658 0 -0.29998863005712628 -0.39809616774203599 0 -0.29092638885970451 -0.39846933503943821 0 -0.29406976999373469 -0.38920344929064732 0 -0.29092638885970451 -0.39846933503943821 0 -0.29406976999373469 -0.38920344929064732 0 -0.28307956849111848 -0.3828068929804474 0 -0.29713407365637251 -0.38186722723828942 0 -0.29406976999373469 -0.38920344929064732 0 -0.28307956849111848 -0.3828068929804474 0 -0.29584447723995128 -0.37444813956539807 0 -0.29713407365637251 -0.38186722723828942 0 -0.28307956849111848 -0.3828068929804474 0 -0.28307956849111848 -0.3828068929804474 0 -0.27459219804921331 -0.39809849142257658 0 -0.26050234447883253 -0.38027693877573482 0 -0.28307956849111848 -0.3828068929804474 0 -0.27459219804921331 -0.39809849142257658 0 -0.27459219804921331 -0.39809849142257658 0 -0.26610482760730952 -0.4133900898647066 0 -0.27459219804921331 -0.39809849142257658 0 -0.26088670843651829 -0.40068536336094251 0 -0.26610482760730952 -0.4133900898647066 0 -0.26088670843651829 -0.40068536336094251 0 -0.26050234447883253 -0.38027693877573482 0 -0.2487824818667288 -0.3954643368039899 0 -0.27459219804921331 -0.39809849142257658 0 -0.26088670843651829 -0.40068536336094251 0 -0.26050234447883253 -0.38027693877573482 0 -0.26088670843651829 -0.40068536336094251 0 -0.24694430377570939 -0.41295507854145541 0 -0.2487824818667288 -0.3954643368039899 0 -0.27500508569675858 -0.42792788340523652 0 -0.25298523514652932 -0.43702750984159111 0 -0.27028712802556781 -0.44002206955302048 0 -0.27500508569675858 -0.42792788340523652 0 -0.27028712802556781 -0.44002206955302048 0 -0.28620792983366777 -0.44117103379144762 0 -0.28243901841779939 -0.41376093348156762 0 -0.27500508569675858 -0.42792788340523652 0 -0.26610482760730952 -0.4133900898647066 0 -0.28243901841779939 -0.41376093348156762 0 -0.27459219804921331 -0.39809849142257658 0 -0.26610482760730952 -0.4133900898647066 0 -0.28243901841779939 -0.41376093348156762 0 -0.26610482760730952 -0.4133900898647066 0 -0.26610482760730952 -0.4133900898647066 0 -0.24694430377570939 -0.41295507854145541 0 -0.26610482760730952 -0.4133900898647066 0 -0.25298523514652932 -0.43702750984159111 0 -0.24694430377570939 -0.41295507854145541 0 -0.26088670843651829 -0.40068536336094251 0 -0.26610482760730952 -0.4133900898647066 0 -0.24694430377570939 -0.41295507854145541 0 -0.27500508569675858 -0.42792788340523652 0 -0.26610482760730952 -0.4133900898647066 0 -0.25298523514652932 -0.43702750984159111 0 -0.26610482760730952 -0.4133900898647066 0 -0.25298523514652932 -0.43702750984159111 0 -0.25298523514652932 -0.43702750984159111 0 -0.25823473398406083 -0.46259190486934387 0 -0.27139768853026319 -0.45350369328431828 0 -0.25298523514652932 -0.43702750984159111 0 -0.27139768853026319 -0.45350369328431828 0 -0.27028712802556781 -0.44002206955302048 0 -0.25298523514652932 -0.43702750984159111 0 -0.25823473398406083 -0.46259190486934387 0 -0.2398656426857485 -0.46066492981847512 0 -0.27139768853026319 -0.45350369328431828 0 -0.28665438526504589 -0.45880473289459528 0 -0.27499686831673542 -0.4693274569635677 0 -0.25823473398406083 -0.46259190486934387 0 -0.27139768853026319 -0.45350369328431828 0 -0.27499686831673542 -0.4693274569635677 0 -0.27139768853026319 -0.45350369328431828 0 -0.27028712802556781 -0.44002206955302048 0 -0.28620792983366777 -0.44117103379144762 0 -0.28620792983366777 -0.44117103379144762 0 -0.29665932401628559 -0.4519210782245337 0 -0.28665438526504589 -0.45880473289459528 0 -0.28620792983366777 -0.44117103379144762 0 -0.29665932401628559 -0.4519210782245337 0 -0.30286215921622678 -0.44210958888768459 0 -0.27139768853026319 -0.45350369328431828 0 -0.28620792983366777 -0.44117103379144762 0 -0.28665438526504589 -0.45880473289459528 0 -0.29829421210859891 -0.43220714453990322 0 -0.28620792983366777 -0.44117103379144762 0 -0.30286215921622678 -0.44210958888768459 0 -0.28665438526504589 -0.45880473289459528 0 -0.28928475434474438 -0.47221518125428918 0 -0.27499686831673542 -0.4693274569635677 0 -0.28665438526504589 -0.45880473289459528 0 -0.30029558254474148 -0.46389675841394568 0 -0.28928475434474438 -0.47221518125428918 0 -0.29665932401628559 -0.4519210782245337 0 -0.28665438526504589 -0.45880473289459528 0 -0.30029558254474148 -0.46389675841394568 0 -0.29665932401628559 -0.4519210782245337 0 -0.30029558254474148 -0.46389675841394568 0 -0.31044958537109257 -0.45255960714027171 0 -0.31333683559556219 -0.46686726284272168 0 -0.30029558254474148 -0.46389675841394568 0 -0.31044958537109257 -0.45255960714027171 0 -0.31385630152515048 -0.44199725430357722 0 -0.31044958537109257 -0.45255960714027171 0 -0.30286215921622678 -0.44210958888768459 0 -0.31385630152515048 -0.44199725430357722 0 -0.31073004788055869 -0.43167813375356229 0 -0.30286215921622678 -0.44210958888768459 0 -0.29665932401628559 -0.4519210782245337 0 -0.31044958537109257 -0.45255960714027171 0 -0.30286215921622678 -0.44210958888768459 0 -0.32006214434654462 -0.5 0 -0.30503152439861497 -0.48190266549989857 0 -0.29355140103266869 -0.5 0 -0.30029558254474148 -0.46389675841394568 0 -0.30503152439861497 -0.48190266549989857 0 -0.28928475434474438 -0.47221518125428918 0 -0.31333683559556219 -0.46686726284272168 0 -0.30029558254474148 -0.46389675841394568 0 -0.30503152439861497 -0.48190266549989857 0 -0.30503152439861497 -0.48190266549989857 0 -0.28928475434474438 -0.47221518125428918 0 -0.27944541119858413 -0.48714429249943858 0 -0.30503152439861497 -0.48190266549989857 0 -0.29355140103266869 -0.5 0 -0.27944541119858413 -0.48714429249943858 0 -0.26704065771879287 -0.5 0 -0.27944541119858413 -0.48714429249943858 0 -0.26377894750559139 -0.4817410620592058 0 -0.29355140103266869 -0.5 0 -0.26704065771879287 -0.5 0 -0.27944541119858413 -0.48714429249943858 0 -0.27944541119858413 -0.48714429249943858 0 -0.27499686831673542 -0.4693274569635677 0 -0.26377894750559139 -0.4817410620592058 0 -0.28928475434474438 -0.47221518125428918 0 -0.27944541119858413 -0.48714429249943858 0 -0.27499686831673542 -0.4693274569635677 0 -0.25823473398406083 -0.46259190486934387 0 -0.27499686831673542 -0.4693274569635677 0 -0.26377894750559139 -0.4817410620592058 0 -0.25823473398406083 -0.46259190486934387 0 -0.26377894750559139 -0.4817410620592058 0 -0.24769273461092009 -0.47775775457152359 0 -0.26704065771879287 -0.5 0 -0.26377894750559139 -0.4817410620592058 0 -0.24052991440491719 -0.5 0 -0.26377894750559139 -0.4817410620592058 0 -0.24052991440491719 -0.5 0 -0.24769273461092009 -0.47775775457152359 0 -0.24052991440491719 -0.5 0 -0.24769273461092009 -0.47775775457152359 0 -0.2238647917587385 -0.47868470982513422 0 -0.24769273461092009 -0.47775775457152359 0 -0.2238647917587385 -0.47868470982513422 0 -0.2253613830811457 -0.45761053917550981 0 -0.24052991440491719 -0.5 0 -0.2238647917587385 -0.47868470982513422 0 -0.2140191710910414 -0.49999999999999972 0 -0.25298523514652932 -0.43702750984159111 0 -0.23591515519085041 -0.44398209369878189 0 -0.2398656426857485 -0.46066492981847512 0 -0.25298523514652932 -0.43702750984159111 0 -0.2398656426857485 -0.46066492981847512 0 -0.25823473398406083 -0.46259190486934387 0 -0.24769273461092009 -0.47775775457152359 0 -0.2398656426857485 -0.46066492981847512 0 -0.24769273461092009 -0.47775775457152359 0 -0.2398656426857485 -0.46066492981847512 0 -0.2253613830811457 -0.45761053917550981 0 -0.24769273461092009 -0.47775775457152359 0 -0.2253613830811457 -0.45761053917550981 0 -0.2238647917587385 -0.47868470982513422 0 -0.2253613830811457 -0.45761053917550981 0 -0.20999779143719291 -0.46083672605530768 0 -0.23591515519085041 -0.44398209369878189 0 -0.2398656426857485 -0.46066492981847512 0 -0.2253613830811457 -0.45761053917550981 0 -0.23591515519085041 -0.44398209369878189 0 -0.2253613830811457 -0.45761053917550981 0 -0.22549954629610269 -0.43500765649169948 0 -0.2253613830811457 -0.45761053917550981 0 -0.20999779143719291 -0.46083672605530768 0 -0.2030300315513712 -0.43746332377949593 0 -0.2253613830811457 -0.45761053917550981 0 -0.2030300315513712 -0.43746332377949593 0 -0.20999779143719291 -0.46083672605530768 0 -0.19715634076338631 -0.4518064782969281 0 -0.2030300315513712 -0.43746332377949593 0 -0.2253613830811457 -0.45761053917550981 0 -0.2030300315513712 -0.43746332377949593 0 -0.22549954629610269 -0.43500765649169948 0 -0.20999779143719291 -0.46083672605530768 0 -0.19715634076338631 -0.4518064782969281 0 -0.2055877559272139 -0.47590323914846377 0 -0.19715634076338631 -0.4518064782969281 0 -0.2055877559272139 -0.47590323914846377 0 -0.19179305986328829 -0.46711759196808689 0 -0.19715634076338631 -0.4518064782969281 0 -0.2055877559272139 -0.47590323914846377 0 -0.19179305986328829 -0.46711759196808689 0 -0.19715634076338631 -0.4518064782969281 0 -0.184822707974968 -0.45592422963236362 0 -0.19715634076338631 -0.4518064782969281 0 -0.2030300315513712 -0.43746332377949593 0 -0.18872492559955881 -0.42770971744539221 0 -0.19715634076338631 -0.4518064782969281 0 -0.18872492559955881 -0.42770971744539221 0 -0.19715634076338631 -0.4518064782969281 0 -0.1870173619903012 -0.44414077979923022 0 -0.18872492559955881 -0.42770971744539221 0 -0.19715634076338631 -0.4518064782969281 0 -0.184822707974968 -0.45592422963236362 0 -0.1870173619903012 -0.44414077979923022 0 -0.2140191710910414 -0.49999999999999972 0 -0.2055877559272139 -0.47590323914846377 0 -0.2140191710910414 -0.49999999999999972 0 -0.2055877559272139 -0.47590323914846377 0 -0.1915741566131953 -0.48274482478870012 0 -0.2238647917587385 -0.47868470982513422 0 -0.2140191710910414 -0.49999999999999972 0 -0.2055877559272139 -0.47590323914846377 0 -0.2238647917587385 -0.47868470982513422 0 -0.20999779143719291 -0.46083672605530768 0 -0.2055877559272139 -0.47590323914846377 0 -0.19179305986328829 -0.46711759196808689 0 -0.2055877559272139 -0.47590323914846377 0 -0.1915741566131953 -0.48274482478870012 0 -0.19179305986328829 -0.46711759196808689 0 -0.1915741566131953 -0.48274482478870012 0 -0.17982433803767831 -0.46920918797397909 0 -0.2140191710910414 -0.49999999999999972 0 -0.1915741566131953 -0.48274482478870012 0 -0.1841956238768391 -0.5 0 -0.1915741566131953 -0.48274482478870012 0 -0.1841956238768391 -0.5 0 -0.17247084166804699 -0.48396500267038112 0 -0.1841956238768391 -0.5 0 -0.17247084166804699 -0.48396500267038112 0 -0.15437207666263669 -0.50000000000000022 0 -0.15669106487963419 -0.47716915445828201 0 -0.17247084166804699 -0.48396500267038112 0 -0.15437207666263669 -0.50000000000000022 0 -0.15669106487963419 -0.47716915445828201 0 -0.17247084166804699 -0.48396500267038112 0 -0.1680230602922401 -0.4683158249620154 0 -0.17247084166804699 -0.48396500267038112 0 -0.17982433803767831 -0.46920918797397909 0 -0.1680230602922401 -0.4683158249620154 0 -0.1915741566131953 -0.48274482478870012 0 -0.17247084166804699 -0.48396500267038112 0 -0.17982433803767831 -0.46920918797397909 0 -0.19179305986328829 -0.46711759196808689 0 -0.17982433803767831 -0.46920918797397909 0 -0.184822707974968 -0.45592422963236362 0 -0.17982433803767831 -0.46920918797397909 0 -0.184822707974968 -0.45592422963236362 0 -0.17211900377920919 -0.45689747079087062 0 -0.17982433803767831 -0.46920918797397909 0 -0.17211900377920919 -0.45689747079087062 0 -0.1680230602922401 -0.4683158249620154 0 -0.1870173619903012 -0.44414077979923022 0 -0.17843006300647921 -0.44542980211747812 0 -0.1823118302108766 -0.43680876328769058 0 -0.184822707974968 -0.45592422963236362 0 -0.1870173619903012 -0.44414077979923022 0 -0.17843006300647921 -0.44542980211747812 0 -0.17211900377920919 -0.45689747079087062 0 -0.17843006300647921 -0.44542980211747812 0 -0.16919262628862339 -0.44362555979768409 0 -0.184822707974968 -0.45592422963236362 0 -0.17211900377920919 -0.45689747079087062 0 -0.17843006300647921 -0.44542980211747812 0 -0.17843006300647921 -0.44542980211747812 0 -0.16919262628862339 -0.44362555979768409 0 -0.17507497024716731 -0.42995475378866199 0 -0.1590100530966318 -0.45433830891656402 0 -0.148881704538534 -0.44296791951084241 0 -0.1613290413136293 -0.43150746337484569 0 -0.1590100530966318 -0.45433830891656402 0 -0.1613290413136293 -0.43150746337484569 0 -0.16919262628862339 -0.44362555979768409 0 -0.1590100530966318 -0.45433830891656402 0 -0.1613290413136293 -0.43150746337484569 0 -0.17211900377920919 -0.45689747079087062 0 -0.16919262628862339 -0.44362555979768409 0 -0.1590100530966318 -0.45433830891656402 0 -0.15669106487963419 -0.47716915445828201 0 -0.1680230602922401 -0.4683158249620154 0 -0.1590100530966318 -0.45433830891656402 0 -0.15669106487963419 -0.47716915445828201 0 -0.1590100530966318 -0.45433830891656402 0 -0.17211900377920919 -0.45689747079087062 0 -0.1680230602922401 -0.4683158249620154 0 -0.1590100530966318 -0.45433830891656402 0 -0.15669106487963419 -0.47716915445828201 0 -0.1590100530966318 -0.45433830891656402 0 -0.1472923250818238 -0.46077477567243558 0 -0.1590100530966318 -0.45433830891656402 0 -0.1472923250818238 -0.46077477567243558 0 -0.148881704538534 -0.44296791951084241 0 -0.1472923250818238 -0.46077477567243558 0 -0.148881704538534 -0.44296791951084241 0 -0.13194602454298601 -0.43962244526902572 0 -0.13194602454298601 -0.43962244526902572 0 -0.13077987840644981 -0.46069854066347632 0 -0.11615585050415531 -0.45102464773050138 0 -0.1472923250818238 -0.46077477567243558 0 -0.13194602454298601 -0.43962244526902572 0 -0.1472923250818238 -0.46077477567243558 0 -0.13077987840644981 -0.46069854066347632 0 -0.13742439756140509 -0.48004162281001828 0 -0.1472923250818238 -0.46077477567243558 0 -0.13194602454298601 -0.43962244526902572 0 -0.13077987840644981 -0.46069854066347632 0 -0.13742439756140509 -0.48004162281001828 0 -0.12108079434187891 -0.47202921183540031 0 -0.1206292342060253 -0.48641385964910883 0 -0.13077987840644981 -0.46069854066347632 0 -0.13742439756140509 -0.48004162281001828 0 -0.12108079434187891 -0.47202921183540031 0 -0.13742439756140509 -0.48004162281001828 0 -0.131118449396015 -0.5 0 -0.1206292342060253 -0.48641385964910883 0 -0.15669106487963419 -0.47716915445828201 0 -0.13742439756140509 -0.48004162281001828 0 -0.15437207666263669 -0.50000000000000022 0 -0.15669106487963419 -0.47716915445828201 0 -0.15437207666263669 -0.50000000000000022 0 -0.13742439756140509 -0.48004162281001828 0 -0.131118449396015 -0.5 0 -0.15437207666263669 -0.50000000000000022 0 -0.15669106487963419 -0.47716915445828201 0 -0.1472923250818238 -0.46077477567243558 0 -0.13742439756140509 -0.48004162281001828 0 -0.13678826443221431 -0.39755243580027871 0 -0.14931675495270949 -0.41057852288770358 0 -0.15761740849691311 -0.38818340141201402 0 -0.1369224961495438 -0.38192389563367207 0 -0.13678826443221431 -0.39755243580027871 0 -0.15761740849691311 -0.38818340141201402 0 -0.1369224961495438 -0.38192389563367207 0 -0.15761740849691311 -0.38818340141201402 0 -0.148308101659717 -0.36695316985008092 0 -0.1369224961495438 -0.38192389563367207 0 -0.12526638733901391 -0.39147447277512609 0 -0.13678826443221431 -0.39755243580027871 0 -0.1369224961495438 -0.38192389563367207 0 -0.1303219987982592 -0.3665496015062627 0 -0.12201267174342199 -0.37938718301114999 0 -0.1369224961495438 -0.38192389563367207 0 -0.12526638733901391 -0.39147447277512609 0 -0.12201267174342199 -0.37938718301114999 0 -0.12526638733901391 -0.39147447277512609 0 -0.13678826443221431 -0.39755243580027871 0 -0.12592730430259419 -0.40432488328170318 0 -0.13678826443221431 -0.39755243580027871 0 -0.12592730430259419 -0.40432488328170318 0 -0.1345256340888337 -0.41538851269275129 0 -0.13678826443221431 -0.39755243580027871 0 -0.1345256340888337 -0.41538851269275129 0 -0.14931675495270949 -0.41057852288770358 0 -0.12592730430259419 -0.40432488328170318 0 -0.1345256340888337 -0.41538851269275129 0 -0.1165997240041481 -0.41847011486561592 0 -0.13194602454298601 -0.43962244526902572 0 -0.1345256340888337 -0.41538851269275129 0 -0.14483107865759889 -0.42859660432134139 0 -0.13194602454298601 -0.43962244526902572 0 -0.1345256340888337 -0.41538851269275129 0 -0.1165997240041481 -0.41847011486561592 0 -0.148881704538534 -0.44296791951084241 0 -0.14483107865759889 -0.42859660432134139 0 -0.1613290413136293 -0.43150746337484569 0 -0.148881704538534 -0.44296791951084241 0 -0.13194602454298601 -0.43962244526902572 0 -0.14483107865759889 -0.42859660432134139 0 -0.14483107865759889 -0.42859660432134139 0 -0.14931675495270949 -0.41057852288770358 0 -0.1613290413136293 -0.43150746337484569 0 -0.1345256340888337 -0.41538851269275129 0 -0.14483107865759889 -0.42859660432134139 0 -0.14931675495270949 -0.41057852288770358 0 -0.16364802953062679 -0.40867661783312748 0 -0.1613290413136293 -0.43150746337484569 0 -0.14931675495270949 -0.41057852288770358 0 -0.16364802953062679 -0.40867661783312748 0 -0.1613290413136293 -0.43150746337484569 0 -0.16364802953062679 -0.40867661783312748 0 -0.1613290413136293 -0.43150746337484569 0 -0.17507497024716731 -0.42995475378866199 0 -0.16919262628862339 -0.44362555979768409 0 -0.1613290413136293 -0.43150746337484569 0 -0.17507497024716731 -0.42995475378866199 0 -0.1870173619903012 -0.44414077979923022 0 -0.1823118302108766 -0.43680876328769058 0 -0.18872492559955881 -0.42770971744539221 0 -0.17843006300647921 -0.44542980211747812 0 -0.17507497024716731 -0.42995475378866199 0 -0.1823118302108766 -0.43680876328769058 0 -0.17507497024716731 -0.42995475378866199 0 -0.1806986800215967 -0.4173161083834821 0 -0.18872492559955881 -0.42770971744539221 0 -0.17507497024716731 -0.42995475378866199 0 -0.1823118302108766 -0.43680876328769058 0 -0.18872492559955881 -0.42770971744539221 0 -0.1806986800215967 -0.4173161083834821 0 -0.18228064084688081 -0.39610998094782668 0 -0.19209360216251761 -0.40824625574224149 0 -0.16364802953062679 -0.40867661783312748 0 -0.17507497024716731 -0.42995475378866199 0 -0.1806986800215967 -0.4173161083834821 0 -0.16364802953062679 -0.40867661783312748 0 -0.1806986800215967 -0.4173161083834821 0 -0.18228064084688081 -0.39610998094782668 0 -0.16364802953062679 -0.40867661783312748 0 -0.18228064084688081 -0.39610998094782668 0 -0.15761740849691311 -0.38818340141201402 0 -0.14931675495270949 -0.41057852288770358 0 -0.16364802953062679 -0.40867661783312748 0 -0.15761740849691311 -0.38818340141201402 0 -0.15761740849691311 -0.38818340141201402 0 -0.183603859264966 -0.3766054584014627 0 -0.1661931572416451 -0.36889933283976362 0 -0.18228064084688081 -0.39610998094782668 0 -0.15761740849691311 -0.38818340141201402 0 -0.183603859264966 -0.3766054584014627 0 -0.18228064084688081 -0.39610998094782668 0 -0.183603859264966 -0.3766054584014627 0 -0.20216487974800659 -0.3829991661375407 0 -0.18228064084688081 -0.39610998094782668 0 -0.20343785588976751 -0.39944649130885712 0 -0.19209360216251761 -0.40824625574224149 0 -0.18228064084688081 -0.39610998094782668 0 -0.20216487974800659 -0.3829991661375407 0 -0.20343785588976751 -0.39944649130885712 0 -0.20343785588976751 -0.39944649130885712 0 -0.21350444502423929 -0.40864471589815532 0 -0.22035180610084079 -0.39356726900625483 0 -0.20216487974800659 -0.3829991661375407 0 -0.20343785588976751 -0.39944649130885712 0 -0.22035180610084079 -0.39356726900625483 0 -0.20216487974800659 -0.3829991661375407 0 -0.22035180610084079 -0.39356726900625483 0 -0.219169022554425 -0.37113875127287832 0 -0.1806986800215967 -0.4173161083834821 0 -0.2030300315513712 -0.43746332377949593 0 -0.18872492559955881 -0.42770971744539221 0 -0.1806986800215967 -0.4173161083834821 0 -0.2030300315513712 -0.43746332377949593 0 -0.2030300315513712 -0.43746332377949593 0 -0.19369636752838881 -0.41903658901391427 0 -0.2031687955665597 -0.42354741618771741 0 -0.1806986800215967 -0.4173161083834821 0 -0.2030300315513712 -0.43746332377949593 0 -0.19369636752838881 -0.41903658901391427 0 -0.19369636752838881 -0.41903658901391427 0 -0.20299923128825029 -0.41376529568937459 0 -0.2031687955665597 -0.42354741618771741 0 -0.1806986800215967 -0.4173161083834821 0 -0.19369636752838881 -0.41903658901391427 0 -0.19209360216251761 -0.40824625574224149 0 -0.19369636752838881 -0.41903658901391427 0 -0.19209360216251761 -0.40824625574224149 0 -0.20299923128825029 -0.41376529568937459 0 -0.20343785588976751 -0.39944649130885712 0 -0.19209360216251761 -0.40824625574224149 0 -0.20299923128825029 -0.41376529568937459 0 -0.20343785588976751 -0.39944649130885712 0 -0.20299923128825029 -0.41376529568937459 0 -0.21350444502423929 -0.40864471589815532 0 -0.21350444502423929 -0.40864471589815532 0 -0.21294955189822859 -0.42392445626808489 0 -0.2277837799441092 -0.41252006721820539 0 -0.20299923128825029 -0.41376529568937459 0 -0.2031687955665597 -0.42354741618771741 0 -0.21294955189822859 -0.42392445626808489 0 -0.20299923128825029 -0.41376529568937459 0 -0.21350444502423929 -0.40864471589815532 0 -0.21294955189822859 -0.42392445626808489 0 -0.2030300315513712 -0.43746332377949593 0 -0.21294955189822859 -0.42392445626808489 0 -0.22549954629610269 -0.43500765649169948 0 -0.2030300315513712 -0.43746332377949593 0 -0.2031687955665597 -0.42354741618771741 0 -0.21294955189822859 -0.42392445626808489 0 -0.23591515519085041 -0.44398209369878189 0 -0.22549954629610269 -0.43500765649169948 0 -0.23735783041644329 -0.42609093398936743 0 -0.22549954629610269 -0.43500765649169948 0 -0.2277837799441092 -0.41252006721820539 0 -0.23735783041644329 -0.42609093398936743 0 -0.21294955189822859 -0.42392445626808489 0 -0.22549954629610269 -0.43500765649169948 0 -0.2277837799441092 -0.41252006721820539 0 -0.2277837799441092 -0.41252006721820539 0 -0.24694430377570939 -0.41295507854145541 0 -0.2277837799441092 -0.41252006721820539 0 -0.24694430377570939 -0.41295507854145541 0 -0.23735783041644329 -0.42609093398936743 0 -0.2277837799441092 -0.41252006721820539 0 -0.24694430377570939 -0.41295507854145541 0 -0.2359891007147569 -0.39914414181493052 0 -0.25298523514652932 -0.43702750984159111 0 -0.24694430377570939 -0.41295507854145541 0 -0.23735783041644329 -0.42609093398936743 0 -0.25298523514652932 -0.43702750984159111 0 -0.23591515519085041 -0.44398209369878189 0 -0.23735783041644329 -0.42609093398936743 0 -0.22035180610084079 -0.39356726900625483 0 -0.23802591309349369 -0.38358476956933441 0 -0.219169022554425 -0.37113875127287832 0 -0.22035180610084079 -0.39356726900625483 0 -0.2359891007147569 -0.39914414181493052 0 -0.23802591309349369 -0.38358476956933441 0 -0.21350444502423929 -0.40864471589815532 0 -0.2277837799441092 -0.41252006721820539 0 -0.22035180610084079 -0.39356726900625483 0 -0.2277837799441092 -0.41252006721820539 0 -0.22035180610084079 -0.39356726900625483 0 -0.2359891007147569 -0.39914414181493052 0 -0.2359891007147569 -0.39914414181493052 0 -0.2487824818667288 -0.3954643368039899 0 -0.23802591309349369 -0.38358476956933441 0 -0.24694430377570939 -0.41295507854145541 0 -0.2359891007147569 -0.39914414181493052 0 -0.2487824818667288 -0.3954643368039899 0 -0.26050234447883253 -0.38027693877573482 0 -0.2487824818667288 -0.3954643368039899 0 -0.23802591309349369 -0.38358476956933441 0 -0.26050234447883253 -0.38027693877573482 0 -0.23802591309349369 -0.38358476956933441 0 -0.24817767477162081 -0.36986654917455902 0 -0.23802591309349369 -0.38358476956933441 0 -0.24817767477162081 -0.36986654917455902 0 -0.23583729862822109 -0.36574384613307409 0 -0.24817767477162081 -0.36986654917455902 0 -0.23583729862822109 -0.36574384613307409 0 -0.24850069890613241 -0.35473287875334369 0 -0.23583729862822109 -0.36574384613307409 0 -0.219169022554425 -0.37113875127287832 0 -0.22531318381543361 -0.34939628189525529 0 -0.23802591309349369 -0.38358476956933441 0 -0.23583729862822109 -0.36574384613307409 0 -0.219169022554425 -0.37113875127287832 0 -0.22531318381543361 -0.34939628189525529 0 -0.24850069890613241 -0.35473287875334369 0 -0.24219101746094579 -0.34438554910399921 0 -0.23583729862822109 -0.36574384613307409 0 -0.22531318381543361 -0.34939628189525529 0 -0.24850069890613241 -0.35473287875334369 0 -0.22531318381543361 -0.34939628189525529 0 -0.24850069890613241 -0.35473287875334369 0 -0.25445926970156468 -0.34270101061729968 0 -0.24850069890613241 -0.35473287875334369 0 -0.24219101746094579 -0.34438554910399921 0 -0.25445926970156468 -0.34270101061729968 0 -0.24219101746094579 -0.34438554910399921 0 -0.2460450098649074 -0.33743905859998191 0 -0.25207330520806498 -0.33378255792528982 0 -0.2460450098649074 -0.33743905859998191 0 -0.24306356592407591 -0.32787829483024122 0 -0.2348359590034956 -0.33686915078515089 0 -0.24306356592407591 -0.32787829483024122 0 -0.23163603200856511 -0.32708080208212859 0 -0.2460450098649074 -0.33743905859998191 0 -0.2348359590034956 -0.33686915078515089 0 -0.24306356592407591 -0.32787829483024122 0 -0.24219101746094579 -0.34438554910399921 0 -0.2460450098649074 -0.33743905859998191 0 -0.2348359590034956 -0.33686915078515089 0 -0.25273748935779161 -0.32224337373924072 0 -0.24326482791746179 -0.31394285089519419 0 -0.24426682308287331 -0.30533572025667649 0 -0.25273748935779161 -0.32224337373924072 0 -0.24426682308287331 -0.30533572025667649 0 -0.25273748935779161 -0.32224337373924072 0 -0.24326482791746179 -0.31394285089519419 0 -0.2440208243134171 -0.32058552998791068 0 -0.25273748935779161 -0.32224337373924072 0 -0.24306356592407591 -0.32787829483024122 0 -0.2440208243134171 -0.32058552998791068 0 -0.25207330520806498 -0.33378255792528982 0 -0.25273748935779161 -0.32224337373924072 0 -0.24306356592407591 -0.32787829483024122 0 -0.24306356592407591 -0.32787829483024122 0 -0.2440208243134171 -0.32058552998791068 0 -0.23701741405433899 -0.31827760048696663 0 -0.24306356592407591 -0.32787829483024122 0 -0.23701741405433899 -0.31827760048696663 0 -0.23163603200856511 -0.32708080208212859 0 -0.24326482791746179 -0.31394285089519419 0 -0.23701741405433899 -0.31827760048696663 0 -0.2384772558931193 -0.30928307653082621 0 -0.24326482791746179 -0.31394285089519419 0 -0.2440208243134171 -0.32058552998791068 0 -0.23701741405433899 -0.31827760048696663 0 -0.22244826701882919 -0.32070202864358233 0 -0.22802593536356699 -0.30882837184141948 0 -0.21110805984082151 -0.30983785689108939 0 -0.23701741405433899 -0.31827760048696663 0 -0.22244826701882919 -0.32070202864358233 0 -0.22802593536356699 -0.30882837184141948 0 -0.23701741405433899 -0.31827760048696663 0 -0.23163603200856511 -0.32708080208212859 0 -0.22244826701882919 -0.32070202864358233 0 -0.23163603200856511 -0.32708080208212859 0 -0.22244826701882919 -0.32070202864358233 0 -0.22079431421521131 -0.33353493235345111 0 -0.22531318381543361 -0.34939628189525529 0 -0.2348359590034956 -0.33686915078515089 0 -0.22079431421521131 -0.33353493235345111 0 -0.22531318381543361 -0.34939628189525529 0 -0.24219101746094579 -0.34438554910399921 0 -0.2348359590034956 -0.33686915078515089 0 -0.2348359590034956 -0.33686915078515089 0 -0.23163603200856511 -0.32708080208212859 0 -0.22079431421521131 -0.33353493235345111 0 -0.22079431421521131 -0.33353493235345111 0 -0.20839645480677241 -0.32403064402179738 0 -0.20212566872473489 -0.34405968503716688 0 -0.22531318381543361 -0.34939628189525529 0 -0.22079431421521131 -0.33353493235345111 0 -0.20212566872473489 -0.34405968503716688 0 -0.22244826701882919 -0.32070202864358233 0 -0.20839645480677241 -0.32403064402179738 0 -0.21110805984082151 -0.30983785689108939 0 -0.22244826701882919 -0.32070202864358233 0 -0.22079431421521131 -0.33353493235345111 0 -0.20839645480677241 -0.32403064402179738 0 -0.20839645480677241 -0.32403064402179738 0 -0.19575919956014079 -0.31702437624003538 0 -0.21110805984082151 -0.30983785689108939 0 -0.20839645480677241 -0.32403064402179738 0 -0.19575919956014079 -0.31702437624003538 0 -0.19562896033857519 -0.33020038185646122 0 -0.19575919956014079 -0.31702437624003538 0 -0.19562896033857519 -0.33020038185646122 0 -0.18477851095256179 -0.32477614194451959 0 -0.20212566872473489 -0.34405968503716688 0 -0.1789381536340362 -0.33872308817907848 0 -0.19562896033857519 -0.33020038185646122 0 -0.20212566872473489 -0.34405968503716688 0 -0.1789381536340362 -0.33872308817907848 0 -0.20839645480677241 -0.32403064402179738 0 -0.19562896033857519 -0.33020038185646122 0 -0.20212566872473489 -0.34405968503716688 0 -0.20212566872473489 -0.34405968503716688 0 -0.2037839996862793 -0.36234410805543599 0 -0.1863350517553729 -0.35962674217565882 0 -0.20212566872473489 -0.34405968503716688 0 -0.1863350517553729 -0.35962674217565882 0 -0.1789381536340362 -0.33872308817907848 0 -0.183603859264966 -0.3766054584014627 0 -0.20216487974800659 -0.3829991661375407 0 -0.2037839996862793 -0.36234410805543599 0 -0.183603859264966 -0.3766054584014627 0 -0.2037839996862793 -0.36234410805543599 0 -0.1863350517553729 -0.35962674217565882 0 -0.219169022554425 -0.37113875127287832 0 -0.22531318381543361 -0.34939628189525529 0 -0.2037839996862793 -0.36234410805543599 0 -0.20216487974800659 -0.3829991661375407 0 -0.219169022554425 -0.37113875127287832 0 -0.2037839996862793 -0.36234410805543599 0 -0.22531318381543361 -0.34939628189525529 0 -0.20212566872473489 -0.34405968503716688 0 -0.2037839996862793 -0.36234410805543599 0 -0.22531318381543361 -0.34939628189525529 0 -0.20212566872473489 -0.34405968503716688 0 -0.24465976002352091 -0.25387891845332877 0 -0.23199225124923151 -0.26692477658714647 0 -0.21854221021918649 -0.25236034283526498 0 -0.23199225124923151 -0.26692477658714647 0 -0.21864709985809599 -0.27150291036173302 0 -0.21854221021918649 -0.25236034283526498 0 -0.24465976002352091 -0.25387891845332877 0 -0.2444485511135471 -0.27534046621033159 0 -0.23199225124923151 -0.26692477658714647 0 -0.25958550566062261 -0.27102626557679149 0 -0.24465976002352091 -0.25387891845332877 0 -0.2444485511135471 -0.27534046621033159 0 -0.2444485511135471 -0.27534046621033159 0 -0.23199225124923151 -0.26692477658714647 0 -0.23366363503180709 -0.28154124507507411 0 -0.2197277065850177 -0.2872169177591285 0 -0.23366363503180709 -0.28154124507507411 0 -0.21864709985809599 -0.27150291036173302 0 -0.23199225124923151 -0.26692477658714647 0 -0.23366363503180709 -0.28154124507507411 0 -0.21864709985809599 -0.27150291036173302 0 -0.2197277065850177 -0.2872169177591285 0 -0.23366363503180709 -0.28154124507507411 0 -0.24011613505684479 -0.30107681213347393 0 -0.2197277065850177 -0.2872169177591285 0 -0.24011613505684479 -0.30107681213347393 0 -0.2197277065850177 -0.2872169177591285 0 -0.24011613505684479 -0.30107681213347393 0 -0.2201073871300871 -0.30044142834658671 0 -0.2444485511135471 -0.27534046621033159 0 -0.23366363503180709 -0.28154124507507411 0 -0.24732420154209239 -0.29033586459568173 0 -0.23366363503180709 -0.28154124507507411 0 -0.24732420154209239 -0.29033586459568173 0 -0.24011613505684479 -0.30107681213347393 0 -0.25608276685525683 -0.28295324223861612 0 -0.2444485511135471 -0.27534046621033159 0 -0.24732420154209239 -0.29033586459568173 0 -0.26050456352867191 -0.3149367065078193 0 -0.24011613505684479 -0.30107681213347393 0 -0.24426682308287331 -0.30533572025667649 0 -0.25485564421046719 -0.30132045870319019 0 -0.24732420154209239 -0.29033586459568173 0 -0.24011613505684479 -0.30107681213347393 0 -0.24011613505684479 -0.30107681213347393 0 -0.2384772558931193 -0.30928307653082621 0 -0.22802593536356699 -0.30882837184141948 0 -0.24326482791746179 -0.31394285089519419 0 -0.24426682308287331 -0.30533572025667649 0 -0.2384772558931193 -0.30928307653082621 0 -0.24011613505684479 -0.30107681213347393 0 -0.24426682308287331 -0.30533572025667649 0 -0.2384772558931193 -0.30928307653082621 0 -0.23701741405433899 -0.31827760048696663 0 -0.2384772558931193 -0.30928307653082621 0 -0.22802593536356699 -0.30882837184141948 0 -0.22802593536356699 -0.30882837184141948 0 -0.2201073871300871 -0.30044142834658671 0 -0.21110805984082151 -0.30983785689108939 0 -0.24011613505684479 -0.30107681213347393 0 -0.22802593536356699 -0.30882837184141948 0 -0.2201073871300871 -0.30044142834658671 0 -0.2201073871300871 -0.30044142834658671 0 -0.21110805984082151 -0.30983785689108939 0 -0.20155909880418441 -0.29524718310782239 0 -0.21110805984082151 -0.30983785689108939 0 -0.2000775247532616 -0.30687463122530689 0 -0.20155909880418441 -0.29524718310782239 0 -0.19575919956014079 -0.31702437624003538 0 -0.21110805984082151 -0.30983785689108939 0 -0.2000775247532616 -0.30687463122530689 0 -0.18961770926909149 -0.30481471110084102 0 -0.20155909880418441 -0.29524718310782239 0 -0.1798976030385912 -0.29461474791537873 0 -0.19575919956014079 -0.31702437624003538 0 -0.2000775247532616 -0.30687463122530689 0 -0.18961770926909149 -0.30481471110084102 0 -0.19575919956014079 -0.31702437624003538 0 -0.18961770926909149 -0.30481471110084102 0 -0.1803928959391416 -0.31521744924658562 0 -0.2000775247532616 -0.30687463122530689 0 -0.18961770926909149 -0.30481471110084102 0 -0.20155909880418441 -0.29524718310782239 0 -0.19933927811319041 -0.27335702338478318 0 -0.1798976030385912 -0.29461474791537873 0 -0.20155909880418441 -0.29524718310782239 0 -0.19933927811319041 -0.27335702338478318 0 -0.1798976030385912 -0.29461474791537873 0 -0.2197277065850177 -0.2872169177591285 0 -0.20155909880418441 -0.29524718310782239 0 -0.19933927811319041 -0.27335702338478318 0 -0.2197277065850177 -0.2872169177591285 0 -0.2201073871300871 -0.30044142834658671 0 -0.20155909880418441 -0.29524718310782239 0 -0.21864709985809599 -0.27150291036173302 0 -0.19933927811319041 -0.27335702338478318 0 -0.21854221021918649 -0.25236034283526498 0 -0.2197277065850177 -0.2872169177591285 0 -0.21864709985809599 -0.27150291036173302 0 -0.19933927811319041 -0.27335702338478318 0 -0.2197277065850177 -0.2872169177591285 0 -0.19933927811319041 -0.27335702338478318 0 -0.19672455084482071 -0.27157955221738023 0 -0.19563648814007639 -0.2627950405098789 0 -0.1773613401945949 -0.28300380337564962 0 -0.19672455084482071 -0.27157955221738023 0 -0.19933927811319041 -0.27335702338478318 0 -0.1773613401945949 -0.28300380337564962 0 -0.19672455084482071 -0.27157955221738023 0 -0.19933927811319041 -0.27335702338478318 0 -0.19563648814007639 -0.2627950405098789 0 -0.19672455084482071 -0.27157955221738023 0 -0.19933927811319041 -0.27335702338478318 0 -0.19933927811319041 -0.27335702338478318 0 -0.19563648814007639 -0.2627950405098789 0 -0.2024770003035091 -0.25628481747185139 0 -0.19563648814007639 -0.2627950405098789 0 -0.19160736129165659 -0.25262396586623759 0 -0.18182513936558051 -0.25739227955256888 0 -0.19563648814007639 -0.2627950405098789 0 -0.19160736129165659 -0.25262396586623759 0 -0.2024770003035091 -0.25628481747185139 0 -0.19160736129165659 -0.25262396586623759 0 -0.2024770003035091 -0.25628481747185139 0 -0.19988453840298659 -0.24176205441804 0 -0.19933927811319041 -0.27335702338478318 0 -0.2024770003035091 -0.25628481747185139 0 -0.21854221021918649 -0.25236034283526498 0 -0.2024770003035091 -0.25628481747185139 0 -0.21854221021918649 -0.25236034283526498 0 -0.19988453840298659 -0.24176205441804 0 -0.19933927811319041 -0.27335702338478318 0 -0.21854221021918649 -0.25236034283526498 0 -0.16270034237907721 -0.26451024010365409 0 -0.1689202540561075 -0.25519621835756329 0 -0.15263230708737521 -0.24356194903458239 0 -0.16270034237907721 -0.26451024010365409 0 -0.15585924966824549 -0.27338725763800159 0 -0.15263230708737521 -0.24356194903458239 0 -0.16270034237907721 -0.26451024010365409 0 -0.1689202540561075 -0.25519621835756329 0 -0.17291740387759841 -0.2648938158906885 0 -0.1689202540561075 -0.25519621835756329 0 -0.18182513936558051 -0.25739227955256888 0 -0.1745260775709061 -0.24562280720632229 0 -0.19160736129165659 -0.25262396586623759 0 -0.18182513936558051 -0.25739227955256888 0 -0.1745260775709061 -0.24562280720632229 0 -0.19563648814007639 -0.2627950405098789 0 -0.18182513936558051 -0.25739227955256888 0 -0.18269465011250469 -0.26841637399603913 0 -0.1689202540561075 -0.25519621835756329 0 -0.18182513936558051 -0.25739227955256888 0 -0.17291740387759841 -0.2648938158906885 0 -0.18182513936558051 -0.25739227955256888 0 -0.17291740387759841 -0.2648938158906885 0 -0.18269465011250469 -0.26841637399603913 0 -0.19563648814007639 -0.2627950405098789 0 -0.18269465011250469 -0.26841637399603913 0 -0.1773613401945949 -0.28300380337564962 0 -0.17291740387759841 -0.2648938158906885 0 -0.17526212336935321 -0.27297056277525461 0 -0.1680750992927145 -0.27556825783864097 0 -0.19563648814007639 -0.2627950405098789 0 -0.1773613401945949 -0.28300380337564962 0 -0.17291740387759841 -0.2648938158906885 0 -0.17526212336935321 -0.27297056277525461 0 -0.18269465011250469 -0.26841637399603913 0 -0.17526212336935321 -0.27297056277525461 0 -0.18269465011250469 -0.26841637399603913 0 -0.1773613401945949 -0.28300380337564962 0 -0.17526212336935321 -0.27297056277525461 0 -0.1680750992927145 -0.27556825783864097 0 -0.1773613401945949 -0.28300380337564962 0 -0.1680750992927145 -0.27556825783864097 0 -0.1682011228878135 -0.28257539269247411 0 -0.1773613401945949 -0.28300380337564962 0 -0.1680750992927145 -0.27556825783864097 0 -0.1622412594804854 -0.28273310688964581 0 -0.1682011228878135 -0.28257539269247411 0 -0.16270034237907721 -0.26451024010365409 0 -0.17291740387759841 -0.2648938158906885 0 -0.1680750992927145 -0.27556825783864097 0 -0.16270034237907721 -0.26451024010365409 0 -0.1680750992927145 -0.27556825783864097 0 -0.16179622859894191 -0.27503335760685149 0 -0.16270034237907721 -0.26451024010365409 0 -0.16179622859894191 -0.27503335760685149 0 -0.15585924966824549 -0.27338725763800159 0 -0.16179622859894191 -0.27503335760685149 0 -0.1622412594804854 -0.28273310688964581 0 -0.15585924966824549 -0.27338725763800159 0 -0.1680750992927145 -0.27556825783864097 0 -0.16179622859894191 -0.27503335760685149 0 -0.1622412594804854 -0.28273310688964581 0 -0.1622412594804854 -0.28273310688964581 0 -0.16512679258345911 -0.28899640266596011 0 -0.15908619224911419 -0.30321256624142101 0 -0.1622412594804854 -0.28273310688964581 0 -0.15908619224911419 -0.30321256624142101 0 -0.15585924966824549 -0.27338725763800159 0 -0.15908619224911419 -0.30321256624142101 0 -0.15585924966824549 -0.27338725763800159 0 -0.16512679258345911 -0.28899640266596011 0 -0.1773613401945949 -0.28300380337564962 0 -0.15908619224911419 -0.30321256624142101 0 -0.1773613401945949 -0.28300380337564962 0 -0.15908619224911419 -0.30321256624142101 0 -0.16512679258345911 -0.28899640266596011 0 -0.1682011228878135 -0.28257539269247411 0 -0.1773613401945949 -0.28300380337564962 0 -0.1622412594804854 -0.28273310688964581 0 -0.16512679258345911 -0.28899640266596011 0 -0.1682011228878135 -0.28257539269247411 0 -0.1773613401945949 -0.28300380337564962 0 -0.1798976030385912 -0.29461474791537873 0 -0.15908619224911419 -0.30321256624142101 0 -0.19933927811319041 -0.27335702338478318 0 -0.1773613401945949 -0.28300380337564962 0 -0.1798976030385912 -0.29461474791537873 0 -0.1798976030385912 -0.29461474791537873 0 -0.17759103405270391 -0.30762984517719472 0 -0.16045592796399111 -0.3158724724459735 0 -0.18961770926909149 -0.30481471110084102 0 -0.1798976030385912 -0.29461474791537873 0 -0.17759103405270391 -0.30762984517719472 0 -0.18961770926909149 -0.30481471110084102 0 -0.17759103405270391 -0.30762984517719472 0 -0.1803928959391416 -0.31521744924658562 0 -0.1798976030385912 -0.29461474791537873 0 -0.16045592796399111 -0.3158724724459735 0 -0.1798976030385912 -0.29461474791537873 0 -0.15908619224911419 -0.30321256624142101 0 -0.16045592796399111 -0.3158724724459735 0 -0.15908619224911419 -0.30321256624142101 0 -0.16045592796399111 -0.3158724724459735 0 -0.1471380549162328 -0.30532142906175452 0 -0.14032160831301491 -0.30752887986621158 0 -0.14130665940473261 -0.32287327510069419 0 -0.15908619224911419 -0.30321256624142101 0 -0.1471380549162328 -0.30532142906175452 0 -0.14130665940473261 -0.32287327510069419 0 -0.15908619224911419 -0.30321256624142101 0 -0.1471380549162328 -0.30532142906175452 0 -0.1510678287434867 -0.29559461902651829 0 -0.14390798587081549 -0.29739780507392732 0 -0.1471380549162328 -0.30532142906175452 0 -0.1510678287434867 -0.29559461902651829 0 -0.14390798587081549 -0.29739780507392732 0 -0.1471380549162328 -0.30532142906175452 0 -0.14032160831301491 -0.30752887986621158 0 -0.14032160831301491 -0.30752887986621158 0 -0.13439128381467691 -0.29991683468539793 0 -0.13033731665847181 -0.31286393971371201 0 -0.13439128381467691 -0.29991683468539793 0 -0.13033731665847181 -0.31286393971371201 0 -0.12304085188452731 -0.29931348820209958 0 -0.14390798587081549 -0.29739780507392732 0 -0.14032160831301491 -0.30752887986621158 0 -0.13439128381467691 -0.29991683468539793 0 -0.14390798587081549 -0.29739780507392732 0 -0.13439128381467691 -0.29991683468539793 0 -0.14011095662501261 -0.28947786809128212 0 -0.13439128381467691 -0.29991683468539793 0 -0.14011095662501261 -0.28947786809128212 0 -0.12994370463312691 -0.28995419054763111 0 -0.13439128381467691 -0.29991683468539793 0 -0.12994370463312691 -0.28995419054763111 0 -0.12304085188452731 -0.29931348820209958 0 -0.12994370463312691 -0.28995419054763111 0 -0.13687965345326569 -0.27993872332247433 0 -0.1257911728949061 -0.280427018304516 0 -0.12994370463312691 -0.28995419054763111 0 -0.1257911728949061 -0.280427018304516 0 -0.1194571486541455 -0.28746452468861589 0 -0.14011095662501261 -0.28947786809128212 0 -0.12994370463312691 -0.28995419054763111 0 -0.13687965345326569 -0.27993872332247433 0 -0.15908619224911419 -0.30321256624142101 0 -0.15162645984294551 -0.28670064183700439 0 -0.15585924966824549 -0.27338725763800159 0 -0.14011095662501261 -0.28947786809128212 0 -0.1458827091329962 -0.28225219708249882 0 -0.13687965345326569 -0.27993872332247433 0 -0.15908619224911419 -0.30321256624142101 0 -0.1510678287434867 -0.29559461902651829 0 -0.15162645984294551 -0.28670064183700439 0 -0.1458827091329962 -0.28225219708249882 0 -0.1468811506158991 -0.28912565090950809 0 -0.15162645984294551 -0.28670064183700439 0 -0.14011095662501261 -0.28947786809128212 0 -0.1458827091329962 -0.28225219708249882 0 -0.1468811506158991 -0.28912565090950809 0 -0.14390798587081549 -0.29739780507392732 0 -0.1468811506158991 -0.28912565090950809 0 -0.1510678287434867 -0.29559461902651829 0 -0.14390798587081549 -0.29739780507392732 0 -0.14011095662501261 -0.28947786809128212 0 -0.1468811506158991 -0.28912565090950809 0 -0.1468811506158991 -0.28912565090950809 0 -0.1510678287434867 -0.29559461902651829 0 -0.15162645984294551 -0.28670064183700439 0 -0.1458827091329962 -0.28225219708249882 0 -0.15162645984294551 -0.28670064183700439 0 -0.15098162864793119 -0.27663156012407891 0 -0.15162645984294551 -0.28670064183700439 0 -0.15098162864793119 -0.27663156012407891 0 -0.15585924966824549 -0.27338725763800159 0 -0.15098162864793119 -0.27663156012407891 0 -0.1522527558101047 -0.27366235468835692 0 -0.14903370440966179 -0.27344637702894548 0 -0.15098162864793119 -0.27663156012407891 0 -0.1522527558101047 -0.27366235468835692 0 -0.15585924966824549 -0.27338725763800159 0 -0.14903370440966179 -0.27344637702894548 0 -0.1531364405145805 -0.27118422396240138 0 -0.14385763015454139 -0.26954128824380802 0 -0.1522527558101047 -0.27366235468835692 0 -0.15585924966824549 -0.27338725763800159 0 -0.1531364405145805 -0.27118422396240138 0 -0.1522527558101047 -0.27366235468835692 0 -0.14903370440966179 -0.27344637702894548 0 -0.1531364405145805 -0.27118422396240138 0 -0.14903370440966179 -0.27344637702894548 0 -0.14385763015454139 -0.26954128824380802 0 -0.1442805510697899 -0.27562940435382949 0 -0.14385763015454139 -0.26954128824380802 0 -0.1442805510697899 -0.27562940435382949 0 -0.13835653564694769 -0.27242798417408381 0 -0.1458827091329962 -0.28225219708249882 0 -0.1442805510697899 -0.27562940435382949 0 -0.13687965345326569 -0.27993872332247433 0 -0.15098162864793119 -0.27663156012407891 0 -0.14903370440966179 -0.27344637702894548 0 -0.1442805510697899 -0.27562940435382949 0 -0.1458827091329962 -0.28225219708249882 0 -0.15098162864793119 -0.27663156012407891 0 -0.1442805510697899 -0.27562940435382949 0 -0.13687965345326569 -0.27993872332247433 0 -0.12970248462840331 -0.2717774759070859 0 -0.13835653564694769 -0.27242798417408381 0 -0.1442805510697899 -0.27562940435382949 0 -0.13687965345326569 -0.27993872332247433 0 -0.13835653564694769 -0.27242798417408381 0 -0.13687965345326569 -0.27993872332247433 0 -0.1257911728949061 -0.280427018304516 0 -0.12970248462840331 -0.2717774759070859 0 -0.12970248462840331 -0.2717774759070859 0 -0.13570208279224111 -0.26528350045903498 0 -0.12855037573501921 -0.26115248962005239 0 -0.14385763015454139 -0.26954128824380802 0 -0.13835653564694769 -0.27242798417408381 0 -0.13570208279224111 -0.26528350045903498 0 -0.12970248462840331 -0.2717774759070859 0 -0.13835653564694769 -0.27242798417408381 0 -0.13570208279224111 -0.26528350045903498 0 -0.13570208279224111 -0.26528350045903498 0 -0.12855037573501921 -0.26115248962005239 0 -0.1377523016625678 -0.25581657194563601 0 -0.14385763015454139 -0.26954128824380802 0 -0.13570208279224111 -0.26528350045903498 0 -0.1377523016625678 -0.25581657194563601 0 -0.12855037573501921 -0.26115248962005239 0 -0.1377523016625678 -0.25581657194563601 0 -0.1223681628105569 -0.24044891992886891 0 -0.1531364405145805 -0.27118422396240138 0 -0.1377523016625678 -0.25581657194563601 0 -0.15263230708737521 -0.24356194903458239 0 -0.15585924966824549 -0.27338725763800159 0 -0.1531364405145805 -0.27118422396240138 0 -0.15263230708737521 -0.24356194903458239 0 -0.15585924966824549 -0.27338725763800159 0 -0.15263230708737521 -0.24356194903458239 0 -0.1531364405145805 -0.27118422396240138 0 -0.1377523016625678 -0.25581657194563601 0 -0.1531364405145805 -0.27118422396240138 0 -0.14385763015454139 -0.26954128824380802 0 -0.1377523016625678 -0.25581657194563601 0 -0.1661931572416451 -0.36889933283976362 0 -0.1633245426028184 -0.34238590264286861 0 -0.15433175674287769 -0.35458729317269139 0 -0.1661931572416451 -0.36889933283976362 0 -0.1633245426028184 -0.34238590264286861 0 -0.1661931572416451 -0.36889933283976362 0 -0.17388048196752651 -0.3522733272046466 0 -0.1633245426028184 -0.34238590264286861 0 -0.1661931572416451 -0.36889933283976362 0 -0.15433175674287769 -0.35458729317269139 0 -0.148308101659717 -0.36695316985008092 0 -0.15761740849691311 -0.38818340141201402 0 -0.1661931572416451 -0.36889933283976362 0 -0.148308101659717 -0.36695316985008092 0 -0.183603859264966 -0.3766054584014627 0 -0.1661931572416451 -0.36889933283976362 0 -0.1863350517553729 -0.35962674217565882 0 -0.1661931572416451 -0.36889933283976362 0 -0.1863350517553729 -0.35962674217565882 0 -0.17388048196752651 -0.3522733272046466 0 -0.1863350517553729 -0.35962674217565882 0 -0.17388048196752651 -0.3522733272046466 0 -0.1789381536340362 -0.33872308817907848 0 -0.17388048196752651 -0.3522733272046466 0 -0.1789381536340362 -0.33872308817907848 0 -0.1633245426028184 -0.34238590264286861 0 -0.19562896033857519 -0.33020038185646122 0 -0.1789381536340362 -0.33872308817907848 0 -0.18477851095256179 -0.32477614194451959 0 -0.1789381536340362 -0.33872308817907848 0 -0.18477851095256179 -0.32477614194451959 0 -0.1735479853981102 -0.32728394705986258 0 -0.1789381536340362 -0.33872308817907848 0 -0.1735479853981102 -0.32728394705986258 0 -0.1633245426028184 -0.34238590264286861 0 -0.17759103405270391 -0.30762984517719472 0 -0.1803928959391416 -0.31521744924658562 0 -0.16045592796399111 -0.3158724724459735 0 -0.19575919956014079 -0.31702437624003538 0 -0.1803928959391416 -0.31521744924658562 0 -0.18477851095256179 -0.32477614194451959 0 -0.1803928959391416 -0.31521744924658562 0 -0.18477851095256179 -0.32477614194451959 0 -0.1735479853981102 -0.32728394705986258 0 -0.1803928959391416 -0.31521744924658562 0 -0.1735479853981102 -0.32728394705986258 0 -0.16045592796399111 -0.3158724724459735 0 -0.1735479853981102 -0.32728394705986258 0 -0.16045592796399111 -0.3158724724459735 0 -0.1633245426028184 -0.34238590264286861 0 -0.16045592796399111 -0.3158724724459735 0 -0.1633245426028184 -0.34238590264286861 0 -0.1476770575246594 -0.3298450188736391 0 -0.16045592796399111 -0.3158724724459735 0 -0.1633245426028184 -0.34238590264286861 0 -0.1633245426028184 -0.34238590264286861 0 -0.15030263560259111 -0.34285112818916452 0 -0.1476770575246594 -0.3298450188736391 0 -0.1476770575246594 -0.3298450188736391 0 -0.14130665940473261 -0.32287327510069419 0 -0.13989838249203351 -0.33226752099114382 0 -0.1476770575246594 -0.3298450188736391 0 -0.14096893258994439 -0.33934882548262568 0 -0.13989838249203351 -0.33226752099114382 0 -0.15030263560259111 -0.34285112818916452 0 -0.1476770575246594 -0.3298450188736391 0 -0.14096893258994439 -0.33934882548262568 0 -0.15908619224911419 -0.30321256624142101 0 -0.14130665940473261 -0.32287327510069419 0 -0.16045592796399111 -0.3158724724459735 0 -0.1476770575246594 -0.3298450188736391 0 -0.14130665940473261 -0.32287327510069419 0 -0.15908619224911419 -0.30321256624142101 0 -0.16045592796399111 -0.3158724724459735 0 -0.14130665940473261 -0.32287327510069419 0 -0.16045592796399111 -0.3158724724459735 0 -0.1476770575246594 -0.3298450188736391 0 -0.14130665940473261 -0.32287327510069419 0 -0.12766342535057629 -0.32481504462803062 0 -0.13033731665847181 -0.31286393971371201 0 -0.14032160831301491 -0.30752887986621158 0 -0.14130665940473261 -0.32287327510069419 0 -0.13033731665847181 -0.31286393971371201 0 -0.14130665940473261 -0.32287327510069419 0 -0.12766342535057629 -0.32481504462803062 0 -0.12902917457320359 -0.33644978787578289 0 -0.12766342535057629 -0.32481504462803062 0 -0.12902917457320359 -0.33644978787578289 0 -0.123033176677132 -0.34308019655903149 0 -0.14096893258994439 -0.33934882548262568 0 -0.12902917457320359 -0.33644978787578289 0 -0.13366226850604379 -0.34759248760944123 0 -0.14096893258994439 -0.33934882548262568 0 -0.13989838249203351 -0.33226752099114382 0 -0.12902917457320359 -0.33644978787578289 0 -0.14130665940473261 -0.32287327510069419 0 -0.12902917457320359 -0.33644978787578289 0 -0.14130665940473261 -0.32287327510069419 0 -0.13989838249203351 -0.33226752099114382 0 -0.12902917457320359 -0.33644978787578289 0 -0.12902917457320359 -0.33644978787578289 0 -0.123033176677132 -0.34308019655903149 0 -0.12902917457320359 -0.33644978787578289 0 -0.13366226850604379 -0.34759248760944123 0 -0.123033176677132 -0.34308019655903149 0 -0.13366226850604379 -0.34759248760944123 0 -0.1303219987982592 -0.3665496015062627 0 -0.123033176677132 -0.34308019655903149 0 -0.1303219987982592 -0.3665496015062627 0 -0.123033176677132 -0.34308019655903149 0 -0.13366226850604379 -0.34759248760944123 0 -0.1435303466076166 -0.35184693234157938 0 -0.1303219987982592 -0.3665496015062627 0 -0.14096893258994439 -0.33934882548262568 0 -0.13366226850604379 -0.34759248760944123 0 -0.1435303466076166 -0.35184693234157938 0 -0.15030263560259111 -0.34285112818916452 0 -0.14096893258994439 -0.33934882548262568 0 -0.1435303466076166 -0.35184693234157938 0 -0.1435303466076166 -0.35184693234157938 0 -0.15433175674287769 -0.35458729317269139 0 -0.148308101659717 -0.36695316985008092 0 -0.1633245426028184 -0.34238590264286861 0 -0.15030263560259111 -0.34285112818916452 0 -0.15433175674287769 -0.35458729317269139 0 -0.15030263560259111 -0.34285112818916452 0 -0.1435303466076166 -0.35184693234157938 0 -0.15433175674287769 -0.35458729317269139 0 -0.1435303466076166 -0.35184693234157938 0 -0.148308101659717 -0.36695316985008092 0 -0.1303219987982592 -0.3665496015062627 0 -0.1369224961495438 -0.38192389563367207 0 -0.148308101659717 -0.36695316985008092 0 -0.1303219987982592 -0.3665496015062627 0 -0.1303219987982592 -0.3665496015062627 0 -0.1159926709000937 -0.36685414663024191 0 -0.11895596668836859 -0.34683008488337108 0 -0.1303219987982592 -0.3665496015062627 0 -0.1159926709000937 -0.36685414663024191 0 -0.12201267174342199 -0.37938718301114999 0 -0.1024060606807759 -0.36205135125861898 0 -0.1016559479587178 -0.38500202459504551 0 -0.1159926709000937 -0.36685414663024191 0 -0.1024060606807759 -0.36205135125861898 0 -0.1094440337948836 -0.37923577087639421 0 -0.1024060606807759 -0.36205135125861898 0 -0.1016559479587178 -0.38500202459504551 0 -0.095426438310298192 -0.37780241062099151 0 -0.1024060606807759 -0.36205135125861898 0 -0.090139611558562177 -0.37333304007799939 0 -0.095426438310298192 -0.37780241062099151 0 -0.1024060606807759 -0.36205135125861898 0 -0.093943439343664059 -0.36410026383479388 0 -0.090139611558562177 -0.37333304007799939 0 -0.1024060606807759 -0.36205135125861898 0 -0.093943439343664059 -0.36410026383479388 0 -0.095626283443773746 -0.35612124291623848 0 -0.1024060606807759 -0.36205135125861898 0 -0.090139611558562177 -0.37333304007799939 0 -0.1024060606807759 -0.36205135125861898 0 -0.1029439411344124 -0.34559419992324319 0 -0.1024060606807759 -0.36205135125861898 0 -0.1029439411344124 -0.34559419992324319 0 -0.11895596668836859 -0.34683008488337108 0 -0.1024060606807759 -0.36205135125861898 0 -0.095626283443773746 -0.35612124291623848 0 -0.1029439411344124 -0.34559419992324319 0 -0.095626283443773746 -0.35612124291623848 0 -0.1029439411344124 -0.34559419992324319 0 -0.093212578299404075 -0.34130700998995739 0 -0.1159926709000937 -0.36685414663024191 0 -0.1024060606807759 -0.36205135125861898 0 -0.11895596668836859 -0.34683008488337108 0 -0.1024060606807759 -0.36205135125861898 0 -0.11895596668836859 -0.34683008488337108 0 -0.1303219987982592 -0.3665496015062627 0 -0.11895596668836859 -0.34683008488337108 0 -0.123033176677132 -0.34308019655903149 0 -0.1029439411344124 -0.34559419992324319 0 -0.11895596668836859 -0.34683008488337108 0 -0.123033176677132 -0.34308019655903149 0 -0.11895596668836859 -0.34683008488337108 0 -0.123033176677132 -0.34308019655903149 0 -0.1029439411344124 -0.34559419992324319 0 -0.1137910684918501 -0.33520612369310882 0 -0.123033176677132 -0.34308019655903149 0 -0.123033176677132 -0.34308019655903149 0 -0.1159692764993048 -0.31568518943543378 0 -0.1137910684918501 -0.33520612369310882 0 -0.123033176677132 -0.34308019655903149 0 -0.1159692764993048 -0.31568518943543378 0 -0.12766342535057629 -0.32481504462803062 0 -0.123033176677132 -0.34308019655903149 0 -0.1159692764993048 -0.31568518943543378 0 -0.1137910684918501 -0.33520612369310882 0 -0.1159692764993048 -0.31568518943543378 0 -0.1034818215880495 -0.3291370485878673 0 -0.12766342535057629 -0.32481504462803062 0 -0.13033731665847181 -0.31286393971371201 0 -0.1159692764993048 -0.31568518943543378 0 -0.1159692764993048 -0.31568518943543378 0 -0.10079975883819629 -0.31506063040533638 0 -0.1034818215880495 -0.3291370485878673 0 -0.10079975883819629 -0.31506063040533638 0 -0.093212578299404075 -0.34130700998995739 0 -0.10079975883819629 -0.31506063040533638 0 -0.093212578299404075 -0.34130700998995739 0 -0.087373844159168004 -0.3291061545470132 0 -0.10079975883819629 -0.31506063040533638 0 -0.1034818215880495 -0.3291370485878673 0 -0.093212578299404075 -0.34130700998995739 0 -0.1029439411344124 -0.34559419992324319 0 -0.1034818215880495 -0.3291370485878673 0 -0.1029439411344124 -0.34559419992324319 0 -0.1034818215880495 -0.3291370485878673 0 -0.093212578299404075 -0.34130700998995739 0 -0.1029439411344124 -0.34559419992324319 0 -0.1137910684918501 -0.33520612369310882 0 -0.1034818215880495 -0.3291370485878673 0 -0.093212578299404075 -0.34130700998995739 0 -0.087373844159168004 -0.3291061545470132 0 -0.080908772255243899 -0.33898270124258217 0 -0.087373844159168004 -0.3291061545470132 0 -0.080908772255243899 -0.33898270124258217 0 -0.077490532230771417 -0.32991328235931511 0 -0.093212578299404075 -0.34130700998995739 0 -0.080908772255243899 -0.33898270124258217 0 -0.080378844364046895 -0.35001101873094542 0 -0.10079975883819629 -0.31506063040533638 0 -0.085305929108392881 -0.31951846990187233 0 -0.091873739319295072 -0.31122357941036211 0 -0.10079975883819629 -0.31506063040533638 0 -0.087373844159168004 -0.3291061545470132 0 -0.085305929108392881 -0.31951846990187233 0 -0.085305929108392881 -0.31951846990187233 0 -0.076805788315873161 -0.32077910918615782 0 -0.077490532230771417 -0.32991328235931511 0 -0.087373844159168004 -0.3291061545470132 0 -0.085305929108392881 -0.31951846990187233 0 -0.077490532230771417 -0.32991328235931511 0 -0.085305929108392881 -0.31951846990187233 0 -0.076805788315873161 -0.32077910918615782 0 -0.078544889372492196 -0.31002595631180607 0 -0.085305929108392881 -0.31951846990187233 0 -0.091873739319295072 -0.31122357941036211 0 -0.078544889372492196 -0.31002595631180607 0 -0.066882954587322394 -0.32486941793266988 0 -0.078544889372492196 -0.31002595631180607 0 -0.05424539878688571 -0.319762651601179 0 -0.078544889372492196 -0.31002595631180607 0 -0.05424539878688571 -0.319762651601179 0 -0.076805788315873161 -0.32077910918615782 0 -0.066882954587322394 -0.32486941793266988 0 -0.078544889372492196 -0.31002595631180607 0 -0.076805788315873161 -0.32077910918615782 0 -0.066882954587322394 -0.32486941793266988 0 -0.077490532230771417 -0.32991328235931511 0 -0.066882954587322394 -0.32486941793266988 0 -0.070160141916437824 -0.34098238217286791 0 -0.054527031800802053 -0.34042178362413461 0 -0.066882954587322394 -0.32486941793266988 0 -0.077490532230771417 -0.32991328235931511 0 -0.070160141916437824 -0.34098238217286791 0 -0.080908772255243899 -0.33898270124258217 0 -0.077490532230771417 -0.32991328235931511 0 -0.070160141916437824 -0.34098238217286791 0 -0.080908772255243899 -0.33898270124258217 0 -0.070160141916437824 -0.34098238217286791 0 -0.080378844364046895 -0.35001101873094542 0 -0.070160141916437824 -0.34098238217286791 0 -0.066522813126512412 -0.35680227137673098 0 -0.054527031800802053 -0.34042178362413461 0 -0.070160141916437824 -0.34098238217286791 0 -0.066522813126512412 -0.35680227137673098 0 -0.080378844364046895 -0.35001101873094542 0 -0.066522813126512412 -0.35680227137673098 0 -0.076582500297099523 -0.36039923154202719 0 -0.080378844364046895 -0.35001101873094542 0 -0.066522813126512412 -0.35680227137673098 0 -0.073802945937226916 -0.36723024648585417 0 -0.058387822440418388 -0.36975607908058028 0 -0.073802945937226916 -0.36723024648585417 0 -0.058387822440418388 -0.36975607908058028 0 -0.08170780991661282 -0.38109255286014232 0 -0.066522813126512412 -0.35680227137673098 0 -0.073802945937226916 -0.36723024648585417 0 -0.076582500297099523 -0.36039923154202719 0 -0.073802945937226916 -0.36723024648585417 0 -0.076582500297099523 -0.36039923154202719 0 -0.085625397760611066 -0.36755338957457828 0 -0.085625397760611066 -0.36755338957457828 0 -0.087954911787112483 -0.37534235041220648 0 -0.08170780991661282 -0.38109255286014232 0 -0.073802945937226916 -0.36723024648585417 0 -0.085625397760611066 -0.36755338957457828 0 -0.08170780991661282 -0.38109255286014232 0 -0.085625397760611066 -0.36755338957457828 0 -0.08170780991661282 -0.38109255286014232 0 -0.093943439343664059 -0.36410026383479388 0 -0.085625397760611066 -0.36755338957457828 0 -0.090139611558562177 -0.37333304007799939 0 -0.093943439343664059 -0.36410026383479388 0 -0.090139611558562177 -0.37333304007799939 0 -0.085625397760611066 -0.36755338957457828 0 -0.090139611558562177 -0.37333304007799939 0 -0.087954911787112483 -0.37534235041220648 0 -0.085625397760611066 -0.36755338957457828 0 -0.087954911787112483 -0.37534235041220648 0 -0.090139611558562177 -0.37333304007799939 0 -0.087954911787112483 -0.37534235041220648 0 -0.093943439343664059 -0.36410026383479388 0 -0.095626283443773746 -0.35612124291623848 0 -0.085625397760611066 -0.36755338957457828 0 -0.093212578299404075 -0.34130700998995739 0 -0.085625397760611066 -0.36755338957457828 0 -0.076582500297099523 -0.36039923154202719 0 -0.085625397760611066 -0.36755338957457828 0 -0.080378844364046895 -0.35001101873094542 0 -0.093212578299404075 -0.34130700998995739 0 -0.085625397760611066 -0.36755338957457828 0 -0.080378844364046895 -0.35001101873094542 0 -0.085625397760611066 -0.36755338957457828 0 -0.080378844364046895 -0.35001101873094542 0 -0.095626283443773746 -0.35612124291623848 0 -0.093212578299404075 -0.34130700998995739 0 -0.085625397760611066 -0.36755338957457828 0 -0.10474757541744149 -0.26087495970427582 0 -0.090174700483665673 -0.26498018187443112 0 -0.1005321994236209 -0.2431127607729493 0 -0.10474757541744149 -0.26087495970427582 0 -0.11757885349586771 -0.25701660664448461 0 -0.1005321994236209 -0.2431127607729493 0 -0.12855037573501921 -0.26115248962005239 0 -0.11757885349586771 -0.25701660664448461 0 -0.1127895441811773 -0.27358429336009982 0 -0.12855037573501921 -0.26115248962005239 0 -0.11757885349586771 -0.25701660664448461 0 -0.1223681628105569 -0.24044891992886891 0 -0.10474757541744149 -0.26087495970427582 0 -0.11757885349586771 -0.25701660664448461 0 -0.1127895441811773 -0.27358429336009982 0 -0.11757885349586771 -0.25701660664448461 0 -0.1127895441811773 -0.27358429336009982 0 -0.1257911728949061 -0.280427018304516 0 -0.12970248462840331 -0.2717774759070859 0 -0.1127895441811773 -0.27358429336009982 0 -0.12855037573501921 -0.26115248962005239 0 -0.1127895441811773 -0.27358429336009982 0 -0.12970248462840331 -0.2717774759070859 0 -0.12855037573501921 -0.26115248962005239 0 -0.1127895441811773 -0.27358429336009982 0 -0.1257911728949061 -0.280427018304516 0 -0.1127895441811773 -0.27358429336009982 0 -0.1194571486541455 -0.28746452468861589 0 -0.1127895441811773 -0.27358429336009982 0 -0.1083869393769897 -0.28881425082071571 0 -0.1127895441811773 -0.27358429336009982 0 -0.093274829049746905 -0.28897707944045958 0 -0.090174700483665673 -0.26498018187443112 0 -0.10474757541744149 -0.26087495970427582 0 -0.1127895441811773 -0.27358429336009982 0 -0.090174700483665673 -0.26498018187443112 0 -0.1127895441811773 -0.27358429336009982 0 -0.1067008731150054 -0.28283902414649681 0 -0.093274829049746905 -0.28897707944045958 0 -0.1127895441811773 -0.27358429336009982 0 -0.093274829049746905 -0.28897707944045958 0 -0.1083869393769897 -0.28881425082071571 0 -0.102844379958099 -0.30028926102243358 0 -0.093274829049746905 -0.28897707944045958 0 -0.1127895441811773 -0.27358429336009982 0 -0.1083869393769897 -0.28881425082071571 0 -0.1067008731150054 -0.28283902414649681 0 -0.1083869393769897 -0.28881425082071571 0 -0.1067008731150054 -0.28283902414649681 0 -0.1083869393769897 -0.28881425082071571 0 -0.1067008731150054 -0.28283902414649681 0 -0.093274829049746905 -0.28897707944045958 0 -0.1127895441811773 -0.27358429336009982 0 -0.1083869393769897 -0.28881425082071571 0 -0.1194571486541455 -0.28746452468861589 0 -0.12994370463312691 -0.28995419054763111 0 -0.1194571486541455 -0.28746452468861589 0 -0.12304085188452731 -0.29931348820209958 0 -0.1083869393769897 -0.28881425082071571 0 -0.1194571486541455 -0.28746452468861589 0 -0.12304085188452731 -0.29931348820209958 0 -0.1159692764993048 -0.31568518943543378 0 -0.1083869393769897 -0.28881425082071571 0 -0.12304085188452731 -0.29931348820209958 0 -0.1159692764993048 -0.31568518943543378 0 -0.1083869393769897 -0.28881425082071571 0 -0.13033731665847181 -0.31286393971371201 0 -0.1159692764993048 -0.31568518943543378 0 -0.12304085188452731 -0.29931348820209958 0 -0.1159692764993048 -0.31568518943543378 0 -0.10079975883819629 -0.31506063040533638 0 -0.1083869393769897 -0.28881425082071571 0 -0.10079975883819629 -0.31506063040533638 0 -0.1083869393769897 -0.28881425082071571 0 -0.10079975883819629 -0.31506063040533638 0 -0.1083869393769897 -0.28881425082071571 0 -0.102844379958099 -0.30028926102243358 0 -0.10079975883819629 -0.31506063040533638 0 -0.102844379958099 -0.30028926102243358 0 -0.091873739319295072 -0.31122357941036211 0 -0.078544889372492196 -0.31002595631180607 0 -0.073760113918316481 -0.30436986552081963 0 -0.093274829049746905 -0.28897707944045958 0 -0.102844379958099 -0.30028926102243358 0 -0.078544889372492196 -0.31002595631180607 0 -0.093274829049746905 -0.28897707944045958 0 -0.102844379958099 -0.30028926102243358 0 -0.091873739319295072 -0.31122357941036211 0 -0.078544889372492196 -0.31002595631180607 0 -0.102844379958099 -0.30028926102243358 0 -0.078544889372492196 -0.31002595631180607 0 -0.078544889372492196 -0.31002595631180607 0 -0.073760113918316481 -0.30436986552081963 0 -0.05424539878688571 -0.319762651601179 0 -0.073760113918316481 -0.30436986552081963 0 -0.05424539878688571 -0.319762651601179 0 -0.073760113918316481 -0.30436986552081963 0 -0.071188273097670243 -0.28513602236808322 0 -0.055748641784298267 -0.30178875706485681 0 -0.073760113918316481 -0.30436986552081963 0 -0.071188273097670243 -0.28513602236808322 0 -0.093274829049746905 -0.28897707944045958 0 -0.073760113918316481 -0.30436986552081963 0 -0.093274829049746905 -0.28897707944045958 0 -0.071188273097670243 -0.28513602236808322 0 -0.093274829049746905 -0.28897707944045958 0 -0.090174700483665673 -0.26498018187443112 0 -0.071188273097670243 -0.28513602236808322 0 -0.063484538676239377 -0.26413124226689111 0 -0.090174700483665673 -0.26498018187443112 0 -0.063484538676239377 -0.26413124226689111 0 -0.076282262678724011 -0.24169347649274159 0 -0.063484538676239377 -0.26413124226689111 0 -0.090174700483665673 -0.26498018187443112 0 -0.076282262678724011 -0.24169347649274159 0 -0.036942597034766073 -0.27265489088473938 0 -0.050686814673754729 -0.28656900804104057 0 -0.0185119813334658 -0.28327625011988139 0 -0.038581934025118947 -0.25114857380685968 0 -0.038334603868346327 -0.2604973367990705 0 -0.03064478186574425 -0.25326356670072259 0 -0.038334603868346327 -0.2604973367990705 0 -0.029413390480137139 -0.26518294325465769 0 -0.03064478186574425 -0.25326356670072259 0 -0.038334603868346327 -0.2604973367990705 0 -0.046517308340487992 -0.25474718453952289 0 -0.048289188575406587 -0.26955092917192058 0 -0.038581934025118947 -0.25114857380685968 0 -0.038334603868346327 -0.2604973367990705 0 -0.046517308340487992 -0.25474718453952289 0 -0.063484538676239377 -0.26413124226689111 0 -0.046517308340487992 -0.25474718453952289 0 -0.0567919256119837 -0.24387644547435741 0 -0.063484538676239377 -0.26413124226689111 0 -0.046517308340487992 -0.25474718453952289 0 -0.048289188575406587 -0.26955092917192058 0 -0.063484538676239377 -0.26413124226689111 0 -0.050686814673754729 -0.28656900804104057 0 -0.071188273097670243 -0.28513602236808322 0 -0.063484538676239377 -0.26413124226689111 0 -0.050686814673754729 -0.28656900804104057 0 -0.063484538676239377 -0.26413124226689111 0 -0.048289188575406587 -0.26955092917192058 0 -0.050686814673754729 -0.28656900804104057 0 -0.048289188575406587 -0.26955092917192058 0 -0.036942597034766073 -0.27265489088473938 0 -0.050686814673754729 -0.28656900804104057 0 -0.038334603868346327 -0.2604973367990705 0 -0.048289188575406587 -0.26955092917192058 0 -0.036942597034766073 -0.27265489088473938 0 -0.038334603868346327 -0.2604973367990705 0 -0.036942597034766073 -0.27265489088473938 0 -0.029413390480137139 -0.26518294325465769 0 -0.050686814673754729 -0.28656900804104057 0 -0.037889090671270123 -0.30900677381518998 0 -0.0185119813334658 -0.28327625011988139 0 -0.071188273097670243 -0.28513602236808322 0 -0.050686814673754729 -0.28656900804104057 0 -0.055748641784298267 -0.30178875706485681 0 -0.073760113918316481 -0.30436986552081963 0 -0.055748641784298267 -0.30178875706485681 0 -0.05424539878688571 -0.319762651601179 0 -0.055748641784298267 -0.30178875706485681 0 -0.037889090671270123 -0.30900677381518998 0 -0.05424539878688571 -0.319762651601179 0 -0.050686814673754729 -0.28656900804104057 0 -0.055748641784298267 -0.30178875706485681 0 -0.037889090671270123 -0.30900677381518998 0 -0.050686814673754729 -0.28656900804104057 0 -0.037889090671270123 -0.30900677381518998 0 -0.037889090671270123 -0.30900677381518998 0 -0.014390974368570029 -0.31032982847088841 0 -0.0185119813334658 -0.28327625011988139 0 -0.014390974368570029 -0.31032982847088841 0 0.001904989571353899 -0.32214434476741449 0 0.0019518825097332619 -0.30029273945570772 0 -0.014390974368570029 -0.31032982847088841 0 -0.0185119813334658 -0.28327625011988139 0 0.0019518825097332619 -0.30029273945570772 0 -0.0185119813334658 -0.28327625011988139 0 -0.0020851015340006161 -0.28052611142458661 0 0.0019518825097332619 -0.30029273945570772 0 -0.014390974368570029 -0.31032982847088841 0 -0.0185119813334658 -0.28327625011988139 0 -0.036942597034766073 -0.27265489088473938 0 -0.0185119813334658 -0.28327625011988139 0 -0.029413390480137139 -0.26518294325465769 0 -0.0185119813334658 -0.28327625011988139 0 -0.02263298829836323 -0.25622267176887481 0 -0.029413390480137139 -0.26518294325465769 0 -0.0185119813334658 -0.28327625011988139 0 -0.02263298829836323 -0.25622267176887481 0 -0.0185119813334658 -0.28327625011988139 0 -0.0093077836028632385 -0.27105033158696179 0 -0.02263298829836323 -0.25622267176887481 0 -0.0185119813334658 -0.28327625011988139 0 -0.0020851015340006161 -0.28052611142458661 0 -0.0093077836028632385 -0.27105033158696179 0 -0.0020851015340006161 -0.28052611142458661 0 -0.0093077836028632385 -0.27105033158696179 0 0.0055944649301708496 -0.26664830233551728 0 -0.014059514610042069 -0.25416210053859828 0 -0.02263298829836323 -0.25622267176887481 0 0.0055944649301708496 -0.26664830233551728 0 -0.0093077836028632385 -0.27105033158696179 0 -0.02263298829836323 -0.25622267176887481 0 0.0055944649301708496 -0.26664830233551728 0 -0.02263298829836323 -0.25622267176887481 0 0.0055944649301708496 -0.26664830233551728 0 -0.014059514610042069 -0.25416210053859828 0 -0.0080727856436109482 -0.2481099565327444 0 0.0055944649301708496 -0.26664830233551728 0 -0.014059514610042069 -0.25416210053859828 0 -0.01887874476148543 -0.24814250919209771 0 -0.0080727856436109482 -0.2481099565327444 0 -0.014059514610042069 -0.25416210053859828 0 -0.02263298829836323 -0.25622267176887481 0 -0.02285766608625657 -0.25474770747244752 0 -0.014059514610042069 -0.25416210053859828 0 -0.02285766608625657 -0.25474770747244752 0 -0.01887874476148543 -0.24814250919209771 0 -0.02285766608625657 -0.25474770747244752 0 -0.026067501294639708 -0.24850247980592871 0 -0.01887874476148543 -0.24814250919209771 0 -0.02263298829836323 -0.25622267176887481 0 -0.02285766608625657 -0.25474770747244752 0 -0.02263298829836323 -0.25622267176887481 0 -0.029413390480137139 -0.26518294325465769 0 -0.03064478186574425 -0.25326356670072259 0 -0.02263298829836323 -0.25622267176887481 0 -0.03064478186574425 -0.25326356670072259 0 -0.02263298829836323 -0.25622267176887481 0 -0.02285766608625657 -0.25474770747244752 0 -0.03064478186574425 -0.25326356670072259 0 -0.02285766608625657 -0.25474770747244752 0 -0.03064478186574425 -0.25326356670072259 0 -0.026067501294639708 -0.24850247980592871 0 -0.040780788735907937 -0.34809370153295588 0 -0.035070660285960877 -0.35841379707961513 0 -0.051335308585544609 -0.35442186843706669 0 -0.040780788735907937 -0.34809370153295588 0 -0.033802973987086503 -0.33588719504380232 0 -0.029167969020145641 -0.35132386348016093 0 -0.040780788735907937 -0.34809370153295588 0 -0.035070660285960877 -0.35841379707961513 0 -0.029167969020145641 -0.35132386348016093 0 -0.035070660285960877 -0.35841379707961513 0 -0.040000350022935588 -0.37213681664196291 0 -0.021437446366364531 -0.36359117576668931 0 -0.035070660285960877 -0.35841379707961513 0 -0.058387822440418388 -0.36975607908058028 0 -0.035070660285960877 -0.35841379707961513 0 -0.040000350022935588 -0.37213681664196291 0 -0.058387822440418388 -0.36975607908058028 0 -0.040000350022935588 -0.37213681664196291 0 -0.058387822440418388 -0.36975607908058028 0 -0.058563253679506787 -0.38068245751723601 0 -0.035070660285960877 -0.35841379707961513 0 -0.058387822440418388 -0.36975607908058028 0 -0.051335308585544609 -0.35442186843706669 0 -0.066522813126512412 -0.35680227137673098 0 -0.058387822440418388 -0.36975607908058028 0 -0.051335308585544609 -0.35442186843706669 0 -0.066522813126512412 -0.35680227137673098 0 -0.051335308585544609 -0.35442186843706669 0 -0.054527031800802053 -0.34042178362413461 0 -0.040780788735907937 -0.34809370153295588 0 -0.051335308585544609 -0.35442186843706669 0 -0.054527031800802053 -0.34042178362413461 0 -0.066882954587322394 -0.32486941793266988 0 -0.054527031800802053 -0.34042178362413461 0 -0.05424539878688571 -0.319762651601179 0 -0.054527031800802053 -0.34042178362413461 0 -0.05424539878688571 -0.319762651601179 0 -0.033802973987086503 -0.33588719504380232 0 -0.05424539878688571 -0.319762651601179 0 -0.039668382727836717 -0.32560359559526031 0 -0.05424539878688571 -0.319762651601179 0 -0.033802973987086503 -0.33588719504380232 0 -0.037889090671270123 -0.30900677381518998 0 -0.025091366668787349 -0.3314445395893405 0 -0.05424539878688571 -0.319762651601179 0 -0.039668382727836717 -0.32560359559526031 0 -0.033802973987086503 -0.33588719504380232 0 -0.037889090671270123 -0.30900677381518998 0 -0.05424539878688571 -0.319762651601179 0 -0.039668382727836717 -0.32560359559526031 0 -0.037889090671270123 -0.30900677381518998 0 -0.039668382727836717 -0.32560359559526031 0 -0.025091366668787349 -0.3314445395893405 0 -0.040780788735907937 -0.34809370153295588 0 -0.054527031800802053 -0.34042178362413461 0 -0.033802973987086503 -0.33588719504380232 0 -0.039668382727836717 -0.32560359559526031 0 -0.025091366668787349 -0.3314445395893405 0 -0.039668382727836717 -0.32560359559526031 0 -0.033802973987086503 -0.33588719504380232 0 -0.025091366668787349 -0.3314445395893405 0 -0.025091366668787349 -0.3314445395893405 0 -0.01336054918728761 -0.35201173848642592 0 -0.033802973987086503 -0.33588719504380232 0 -0.025091366668787349 -0.3314445395893405 0 -0.01336054918728761 -0.35201173848642592 0 -0.025091366668787349 -0.3314445395893405 0 -0.01532372128421448 -0.33535839064186268 0 -0.01336054918728761 -0.35201173848642592 0 -0.025091366668787349 -0.3314445395893405 0 -0.022734703789933738 -0.32728556430890232 0 -0.01532372128421448 -0.33535839064186268 0 -0.025091366668787349 -0.3314445395893405 0 -0.01532372128421448 -0.33535839064186268 0 -0.022734703789933738 -0.32728556430890232 0 -0.01532372128421448 -0.33535839064186268 0 -0.037889090671270123 -0.30900677381518998 0 -0.014390974368570029 -0.31032982847088841 0 -0.022734703789933738 -0.32728556430890232 0 -0.037889090671270123 -0.30900677381518998 0 -0.025091366668787349 -0.3314445395893405 0 -0.022734703789933738 -0.32728556430890232 0 -0.014390974368570029 -0.31032982847088841 0 -0.022734703789933738 -0.32728556430890232 0 -0.01532372128421448 -0.33535839064186268 0 -0.014390974368570029 -0.31032982847088841 0 -0.010269967403673339 -0.33738340682189533 0 -0.014390974368570029 -0.31032982847088841 0 -0.010269967403673339 -0.33738340682189533 0 -0.01532372128421448 -0.33535839064186268 0 -0.014390974368570029 -0.31032982847088841 0 -0.010269967403673339 -0.33738340682189533 0 0.001904989571353899 -0.32214434476741449 0 -0.010269967403673339 -0.33738340682189533 0 -0.0096343958099064687 -0.34155580596031437 0 0.0075807645751098419 -0.34453611388615663 0 -0.010269967403673339 -0.33738340682189533 0 0.0075807645751098419 -0.34453611388615663 0 -0.0096343958099064687 -0.34155580596031437 0 -0.01532372128421448 -0.33535839064186268 0 -0.01336054918728761 -0.35201173848642592 0 -0.010269967403673339 -0.33738340682189533 0 -0.0096343958099064687 -0.34155580596031437 0 -0.010269967403673339 -0.33738340682189533 0 -0.0096343958099064687 -0.34155580596031437 0 -0.01532372128421448 -0.33535839064186268 0 -0.0096343958099064687 -0.34155580596031437 0 -0.01532372128421448 -0.33535839064186268 0 -0.010269967403673339 -0.33738340682189533 0 -0.01532372128421448 -0.33535839064186268 0 -0.010269967403673339 -0.33738340682189533 0 0.0034794820758208261 -0.33361449123698089 0 0.001904989571353899 -0.32214434476741449 0 -0.0096343958099064687 -0.34155580596031437 0 -0.0070150904897389628 -0.35875101633193152 0 -0.0096343958099064687 -0.34155580596031437 0 -0.0070150904897389628 -0.35875101633193152 0 -0.01336054918728761 -0.35201173848642592 0 -0.0096343958099064687 -0.34155580596031437 0 -0.0070150904897389628 -0.35875101633193152 0 0.0099352179383349771 -0.36287309999936251 0 -0.033802973987086503 -0.33588719504380232 0 -0.01336054918728761 -0.35201173848642592 0 -0.029167969020145641 -0.35132386348016093 0 -0.01336054918728761 -0.35201173848642592 0 -0.029167969020145641 -0.35132386348016093 0 -0.021437446366364531 -0.36359117576668931 0 -0.033802973987086503 -0.33588719504380232 0 -0.01336054918728761 -0.35201173848642592 0 -0.035070660285960877 -0.35841379707961513 0 -0.029167969020145641 -0.35132386348016093 0 -0.021437446366364531 -0.36359117576668931 0 -0.040000350022935588 -0.37213681664196291 0 -0.021437446366364531 -0.36359117576668931 0 -0.02618172091304426 -0.37743656618445498 0 -0.021437446366364531 -0.36359117576668931 0 -0.002178803782163227 -0.37161627006544062 0 -0.02618172091304426 -0.37743656618445498 0 -0.040000350022935588 -0.37213681664196291 0 -0.021437446366364531 -0.36359117576668931 0 -0.01336054918728761 -0.35201173848642592 0 -0.021437446366364531 -0.36359117576668931 0 -0.002178803782163227 -0.37161627006544062 0 -0.01336054918728761 -0.35201173848642592 0 -0.002178803782163227 -0.37161627006544062 0 -0.0070150904897389628 -0.35875101633193152 0 -0.01336054918728761 -0.35201173848642592 0 -0.002178803782163227 -0.37161627006544062 0 -0.002178803782163227 -0.37161627006544062 0 -0.026336278995230201 -0.38905167830789189 0 -0.002178803782163227 -0.37161627006544062 0 -0.0066930742226519926 -0.39143820132839208 0 -0.026336278995230201 -0.38905167830789189 0 -0.0066930742226519926 -0.39143820132839208 0 -0.001728596279610697 -0.40597762003102339 0 -0.017737199096442072 -0.40073047040120602 0 -0.0066930742226519926 -0.39143820132839208 0 -0.017737199096442072 -0.40073047040120602 0 -0.026336278995230201 -0.38905167830789189 0 -0.017737199096442072 -0.40073047040120602 0 -0.026336278995230201 -0.38905167830789189 0 -0.033287388117186109 -0.40399871831440642 0 -0.002178803782163227 -0.37161627006544062 0 -0.026336278995230201 -0.38905167830789189 0 -0.02618172091304426 -0.37743656618445498 0 -0.026336278995230201 -0.38905167830789189 0 -0.02618172091304426 -0.37743656618445498 0 -0.033482850758781962 -0.383939184607547 0 -0.02618172091304426 -0.37743656618445498 0 -0.042372487296275553 -0.37905951185084519 0 -0.033482850758781962 -0.383939184607547 0 -0.02618172091304426 -0.37743656618445498 0 -0.042372487296275553 -0.37905951185084519 0 -0.040000350022935588 -0.37213681664196291 0 -0.02618172091304426 -0.37743656618445498 0 -0.042372487296275553 -0.37905951185084519 0 -0.042372487296275553 -0.37905951185084519 0 -0.039040915830577852 -0.39020898208699611 0 -0.049048127186911553 -0.38756594990863991 0 -0.042372487296275553 -0.37905951185084519 0 -0.039040915830577852 -0.39020898208699611 0 -0.033482850758781962 -0.383939184607547 0 -0.026336278995230201 -0.38905167830789189 0 -0.039040915830577852 -0.39020898208699611 0 -0.033482850758781962 -0.383939184607547 0 -0.026336278995230201 -0.38905167830789189 0 -0.050493754208297943 -0.40648708655034188 0 -0.039040915830577852 -0.39020898208699611 0 -0.048181286987745188 -0.3967611761759377 0 -0.050493754208297943 -0.40648708655034188 0 -0.026336278995230201 -0.38905167830789189 0 -0.039040915830577852 -0.39020898208699611 0 -0.050493754208297943 -0.40648708655034188 0 -0.026336278995230201 -0.38905167830789189 0 -0.033287388117186109 -0.40399871831440642 0 -0.050493754208297943 -0.40648708655034188 0 -0.039040915830577852 -0.39020898208699611 0 -0.048181286987745188 -0.3967611761759377 0 -0.049048127186911553 -0.38756594990863991 0 -0.048181286987745188 -0.3967611761759377 0 -0.055512870853615448 -0.39455951290216967 0 -0.049048127186911553 -0.38756594990863991 0 -0.055512870853615448 -0.39455951290216967 0 -0.052509649903146327 -0.40794203844841681 0 -0.074281153156084773 -0.38791836881244668 0 -0.048181286987745188 -0.3967611761759377 0 -0.055512870853615448 -0.39455951290216967 0 -0.050493754208297943 -0.40648708655034188 0 -0.055512870853615448 -0.39455951290216967 0 -0.052509649903146327 -0.40794203844841681 0 -0.050493754208297943 -0.40648708655034188 0 -0.048181286987745188 -0.3967611761759377 0 -0.050493754208297943 -0.40648708655034188 0 -0.040000350022935588 -0.37213681664196291 0 -0.042372487296275553 -0.37905951185084519 0 -0.058563253679506787 -0.38068245751723601 0 -0.042372487296275553 -0.37905951185084519 0 -0.058563253679506787 -0.38068245751723601 0 -0.040000350022935588 -0.37213681664196291 0 -0.058563253679506787 -0.38068245751723601 0 -0.042372487296275553 -0.37905951185084519 0 -0.058563253679506787 -0.38068245751723601 0 -0.049048127186911553 -0.38756594990863991 0 -0.055512870853615448 -0.39455951290216967 0 -0.058563253679506787 -0.38068245751723601 0 -0.049048127186911553 -0.38756594990863991 0 -0.055571169944573007 -0.4278419796903028 0 -0.060002998013559863 -0.44648162232419802 0 -0.069408814394604765 -0.42365151461769918 0 -0.055571169944573007 -0.4278419796903028 0 -0.060002998013559863 -0.44648162232419802 0 -0.055571169944573007 -0.4278419796903028 0 -0.04142135733128624 -0.43391233418184683 0 -0.048623679129421588 -0.44273110985945369 0 -0.055571169944573007 -0.4278419796903028 0 -0.059775586818595829 -0.41787661413097049 0 -0.069408814394604765 -0.42365151461769918 0 -0.055571169944573007 -0.4278419796903028 0 -0.059775586818595829 -0.41787661413097049 0 -0.052509649903146327 -0.40794203844841681 0 -0.055571169944573007 -0.4278419796903028 0 -0.052509649903146327 -0.40794203844841681 0 -0.038621424185474637 -0.4207153063468223 0 -0.055571169944573007 -0.4278419796903028 0 -0.052509649903146327 -0.40794203844841681 0 -0.052509649903146327 -0.40794203844841681 0 -0.070248957975066639 -0.42074520084202788 0 -0.059775586818595829 -0.41787661413097049 0 -0.052509649903146327 -0.40794203844841681 0 -0.070248957975066639 -0.42074520084202788 0 -0.052509649903146327 -0.40794203844841681 0 -0.050493754208297943 -0.40648708655034188 0 -0.041470954428671609 -0.41006675355118111 0 -0.052509649903146327 -0.40794203844841681 0 -0.050493754208297943 -0.40648708655034188 0 -0.052509649903146327 -0.40794203844841681 0 -0.038621424185474637 -0.4207153063468223 0 -0.033287388117186109 -0.40399871831440642 0 -0.050493754208297943 -0.40648708655034188 0 -0.041470954428671609 -0.41006675355118111 0 -0.052509649903146327 -0.40794203844841681 0 -0.041470954428671609 -0.41006675355118111 0 -0.038621424185474637 -0.4207153063468223 0 -0.033287388117186109 -0.40399871831440642 0 -0.041470954428671609 -0.41006675355118111 0 -0.027792962261932352 -0.41547375898907968 0 -0.041470954428671609 -0.41006675355118111 0 -0.038621424185474637 -0.4207153063468223 0 -0.027792962261932352 -0.41547375898907968 0 -0.055571169944573007 -0.4278419796903028 0 -0.038621424185474637 -0.4207153063468223 0 -0.04142135733128624 -0.43391233418184683 0 -0.038621424185474637 -0.4207153063468223 0 -0.026103506495360269 -0.43222827563723731 0 -0.038621424185474637 -0.4207153063468223 0 -0.04142135733128624 -0.43391233418184683 0 -0.026103506495360269 -0.43222827563723731 0 -0.04142135733128624 -0.43391233418184683 0 -0.026103506495360269 -0.43222827563723731 0 -0.035662081446574762 -0.44437129177822371 0 -0.026103506495360269 -0.43222827563723731 0 -0.027792962261932352 -0.41547375898907968 0 -0.009537301248459449 -0.42510302968362512 0 -0.026103506495360269 -0.43222827563723731 0 -0.009537301248459449 -0.42510302968362512 0 -0.019709463090837601 -0.44530454005801179 0 -0.038621424185474637 -0.4207153063468223 0 -0.026103506495360269 -0.43222827563723731 0 -0.027792962261932352 -0.41547375898907968 0 -0.017737199096442072 -0.40073047040120602 0 -0.027792962261932352 -0.41547375898907968 0 -0.009537301248459449 -0.42510302968362512 0 -0.017737199096442072 -0.40073047040120602 0 -0.033287388117186109 -0.40399871831440642 0 -0.027792962261932352 -0.41547375898907968 0 -0.001728596279610697 -0.40597762003102339 0 -0.017737199096442072 -0.40073047040120602 0 -0.009537301248459449 -0.42510302968362512 0 -0.017737199096442072 -0.40073047040120602 0 -0.009537301248459449 -0.42510302968362512 0 -0.001728596279610697 -0.40597762003102339 0 -0.009537301248459449 -0.42510302968362512 0 0.0082246319185010179 -0.41465428951275207 0 -0.009537301248459449 -0.42510302968362512 0 -0.0013374034004768371 -0.44947558896604423 0 -0.009537301248459449 -0.42510302968362512 0 -0.0013374034004768371 -0.44947558896604423 0 0.01039378864355619 -0.42848339288335913 0 -0.009537301248459449 -0.42510302968362512 0 -0.0013374034004768371 -0.44947558896604423 0 -0.019709463090837601 -0.44530454005801179 0 -0.0013374034004768371 -0.44947558896604423 0 -0.014612752260004851 -0.46155177919014362 0 -0.019709463090837601 -0.44530454005801179 0 -0.0013374034004768371 -0.44947558896604423 0 -0.014612752260004851 -0.46155177919014362 0 0.0068624944475057766 -0.47384814824846327 0 -0.014612752260004851 -0.46155177919014362 0 -0.028521420705905499 -0.4674310816654948 0 -0.030789477839635839 -0.45543267362212791 0 -0.014612752260004851 -0.46155177919014362 0 -0.030789477839635839 -0.45543267362212791 0 -0.019709463090837601 -0.44530454005801179 0 -0.030789477839635839 -0.45543267362212791 0 -0.019709463090837601 -0.44530454005801179 0 -0.035662081446574762 -0.44437129177822371 0 -0.026103506495360269 -0.43222827563723731 0 -0.019709463090837601 -0.44530454005801179 0 -0.035662081446574762 -0.44437129177822371 0 -0.015217900669161011 -0.5 0 -0.01418124297067914 -0.47781864258071971 0 0.0024053695883212941 -0.48891336768777249 0 -0.01418124297067914 -0.47781864258071971 0 0.0068624944475057766 -0.47384814824846327 0 0.0024053695883212941 -0.48891336768777249 0 -0.014612752260004851 -0.46155177919014362 0 -0.01418124297067914 -0.47781864258071971 0 0.0068624944475057766 -0.47384814824846327 0 -0.014612752260004851 -0.46155177919014362 0 -0.028521420705905499 -0.4674310816654948 0 -0.01418124297067914 -0.47781864258071971 0 -0.028521420705905499 -0.4674310816654948 0 -0.01418124297067914 -0.47781864258071971 0 -0.027752274071966478 -0.47742461628286209 0 -0.015217900669161011 -0.5 0 -0.027752274071966478 -0.47742461628286209 0 -0.038171784631523778 -0.48284131767108018 0 -0.015217900669161011 -0.5 0 -0.01418124297067914 -0.47781864258071971 0 -0.027752274071966478 -0.47742461628286209 0 -0.015217900669161011 -0.5 0 -0.043972809743024373 -0.5 0 -0.038171784631523778 -0.48284131767108018 0 -0.043972809743024373 -0.5 0 -0.038171784631523778 -0.48284131767108018 0 -0.049841179956411519 -0.48183723669954598 0 -0.038171784631523778 -0.48284131767108018 0 -0.048675315621036823 -0.47094071089761919 0 -0.038171784631523778 -0.48284131767108018 0 -0.048675315621036823 -0.47094071089761919 0 -0.049841179956411519 -0.48183723669954598 0 -0.027752274071966478 -0.47742461628286209 0 -0.038171784631523778 -0.48284131767108018 0 -0.038764373548703768 -0.47063519779216179 0 -0.028521420705905499 -0.4674310816654948 0 -0.027752274071966478 -0.47742461628286209 0 -0.038764373548703768 -0.47063519779216179 0 -0.038764373548703768 -0.47063519779216179 0 -0.048675315621036823 -0.47094071089761919 0 -0.045335619097383061 -0.46570514195792412 0 -0.038171784631523778 -0.48284131767108018 0 -0.038764373548703768 -0.47063519779216179 0 -0.048675315621036823 -0.47094071089761919 0 -0.048675315621036823 -0.47094071089761919 0 -0.055120034750126161 -0.47128965669693351 0 -0.049841179956411519 -0.48183723669954598 0 -0.048675315621036823 -0.47094071089761919 0 -0.055120034750126161 -0.47128965669693351 0 -0.057384894248553399 -0.46524593439390849 0 -0.055120034750126161 -0.47128965669693351 0 -0.059149819292987238 -0.47777467248794547 0 -0.064422500494955764 -0.4650694252783244 0 -0.059149819292987238 -0.47777467248794547 0 -0.049841179956411519 -0.48183723669954598 0 -0.058853327493046781 -0.48842932436532971 0 -0.055120034750126161 -0.47128965669693351 0 -0.059149819292987238 -0.47777467248794547 0 -0.049841179956411519 -0.48183723669954598 0 -0.059149819292987238 -0.47777467248794547 0 -0.058853327493046781 -0.48842932436532971 0 -0.068575109655922298 -0.48253471263916042 0 -0.043972809743024373 -0.5 0 -0.058853327493046781 -0.48842932436532971 0 -0.072727718816887776 -0.49999999999999672 0 -0.043972809743024373 -0.5 0 -0.049841179956411519 -0.48183723669954598 0 -0.058853327493046781 -0.48842932436532971 0 -0.045123684251444827 -0.45223268167437758 0 -0.035662081446574762 -0.44437129177822371 0 -0.048623679129421588 -0.44273110985945369 0 -0.04142135733128624 -0.43391233418184683 0 -0.035662081446574762 -0.44437129177822371 0 -0.048623679129421588 -0.44273110985945369 0 -0.030789477839635839 -0.45543267362212791 0 -0.045123684251444827 -0.45223268167437758 0 -0.035662081446574762 -0.44437129177822371 0 -0.030789477839635839 -0.45543267362212791 0 -0.045123684251444827 -0.45223268167437758 0 -0.04007978340352341 -0.46172459869688548 0 -0.028521420705905499 -0.4674310816654948 0 -0.030789477839635839 -0.45543267362212791 0 -0.04007978340352341 -0.46172459869688548 0 -0.028521420705905499 -0.4674310816654948 0 -0.038764373548703768 -0.47063519779216179 0 -0.04007978340352341 -0.46172459869688548 0 -0.038764373548703768 -0.47063519779216179 0 -0.04007978340352341 -0.46172459869688548 0 -0.045335619097383061 -0.46570514195792412 0 -0.04007978340352341 -0.46172459869688548 0 -0.045335619097383061 -0.46570514195792412 0 -0.047248161051959649 -0.4591011094540644 0 -0.045123684251444827 -0.45223268167437758 0 -0.04007978340352341 -0.46172459869688548 0 -0.047248161051959649 -0.4591011094540644 0 -0.045123684251444827 -0.45223268167437758 0 -0.050581796861615229 -0.45333412325219669 0 -0.047248161051959649 -0.4591011094540644 0 -0.050581796861615229 -0.45333412325219669 0 -0.047248161051959649 -0.4591011094540644 0 -0.051910461861691633 -0.46612409294888979 0 -0.051910461861691633 -0.46612409294888979 0 -0.05917884661055 -0.4590401041241583 0 -0.060002998013559863 -0.44648162232419802 0 -0.051910461861691633 -0.46612409294888979 0 -0.060002998013559863 -0.44648162232419802 0 -0.050581796861615229 -0.45333412325219669 0 -0.051910461861691633 -0.46612409294888979 0 -0.060002998013559863 -0.44648162232419802 0 -0.048675315621036823 -0.47094071089761919 0 -0.05917884661055 -0.4590401041241583 0 -0.048675315621036823 -0.47094071089761919 0 -0.051910461861691633 -0.46612409294888979 0 -0.05917884661055 -0.4590401041241583 0 -0.048675315621036823 -0.47094071089761919 0 -0.045335619097383061 -0.46570514195792412 0 -0.051910461861691633 -0.46612409294888979 0 -0.045335619097383061 -0.46570514195792412 0 -0.047248161051959649 -0.4591011094540644 0 -0.051910461861691633 -0.46612409294888979 0 -0.055120034750126161 -0.47128965669693351 0 -0.057384894248553399 -0.46524593439390849 0 -0.064422500494955764 -0.4650694252783244 0 -0.048675315621036823 -0.47094071089761919 0 -0.057384894248553399 -0.46524593439390849 0 -0.05917884661055 -0.4590401041241583 0 -0.057384894248553399 -0.46524593439390849 0 -0.05917884661055 -0.4590401041241583 0 -0.059237257045792073 -0.46090013765886428 0 -0.064422500494955764 -0.4650694252783244 0 -0.057384894248553399 -0.46524593439390849 0 -0.059237257045792073 -0.46090013765886428 0 -0.064422500494955764 -0.4650694252783244 0 -0.057384894248553399 -0.46524593439390849 0 -0.059237257045792073 -0.46090013765886428 0 -0.05917884661055 -0.4590401041241583 0 -0.059237257045792073 -0.46090013765886428 0 -0.062180371227510647 -0.45563934639583059 0 -0.064422500494955764 -0.4650694252783244 0 -0.059237257045792073 -0.46090013765886428 0 -0.05917884661055 -0.4590401041241583 0 -0.062180371227510647 -0.45563934639583059 0 -0.05917884661055 -0.4590401041241583 0 -0.062180371227510647 -0.45563934639583059 0 -0.05917884661055 -0.4590401041241583 0 -0.061269440441321127 -0.45180810022505591 0 -0.05917884661055 -0.4590401041241583 0 -0.062180371227510647 -0.45563934639583059 0 -0.061269440441321127 -0.45180810022505591 0 -0.062180371227510647 -0.45563934639583059 0 -0.061269440441321127 -0.45180810022505591 0 -0.055571169944573007 -0.4278419796903028 0 -0.060002998013559863 -0.44648162232419802 0 -0.048623679129421588 -0.44273110985945369 0 -0.05917884661055 -0.4590401041241583 0 -0.061269440441321127 -0.45180810022505591 0 -0.060002998013559863 -0.44648162232419802 0 -0.061269440441321127 -0.45180810022505591 0 -0.060002998013559863 -0.44648162232419802 0 -0.050581796861615229 -0.45333412325219669 0 -0.060002998013559863 -0.44648162232419802 0 -0.048623679129421588 -0.44273110985945369 0 -0.045123684251444827 -0.45223268167437758 0 -0.050581796861615229 -0.45333412325219669 0 -0.048623679129421588 -0.44273110985945369 0 -0.061269440441321127 -0.45180810022505591 0 -0.069408814394604765 -0.42365151461769918 0 -0.062180371227510647 -0.45563934639583059 0 -0.061269440441321127 -0.45180810022505591 0 -0.077098496045509793 -0.43873696019506903 0 -0.062180371227510647 -0.45563934639583059 0 -0.077098496045509793 -0.43873696019506903 0 -0.073769461018799692 -0.45951707792468061 0 -0.061269440441321127 -0.45180810022505591 0 -0.077098496045509793 -0.43873696019506903 0 -0.069408814394604765 -0.42365151461769918 0 -0.061269440441321127 -0.45180810022505591 0 -0.060002998013559863 -0.44648162232419802 0 -0.069408814394604765 -0.42365151461769918 0 -0.062180371227510647 -0.45563934639583059 0 -0.077098496045509793 -0.43873696019506903 0 -0.062180371227510647 -0.45563934639583059 0 -0.064422500494955764 -0.4650694252783244 0 -0.062180371227510647 -0.45563934639583059 0 -0.064422500494955764 -0.4650694252783244 0 -0.073769461018799692 -0.45951707792468061 0 -0.084521355142842869 -0.45759592347480388 0 -0.086143661312174283 -0.48253471263916248 0 -0.099165393688022629 -0.46120376842987459 0 -0.073769461018799692 -0.45951707792468061 0 -0.084521355142842869 -0.45759592347480388 0 -0.086143661312174283 -0.48253471263916248 0 -0.084521355142842869 -0.45759592347480388 0 -0.089624247433654214 -0.44685599598904568 0 -0.099165393688022629 -0.46120376842987459 0 -0.077098496045509793 -0.43873696019506903 0 -0.084521355142842869 -0.45759592347480388 0 -0.089624247433654214 -0.44685599598904568 0 -0.077098496045509793 -0.43873696019506903 0 -0.073769461018799692 -0.45951707792468061 0 -0.084521355142842869 -0.45759592347480388 0 -0.089624247433654214 -0.44685599598904568 0 -0.099878095611554862 -0.4393977270813314 0 -0.089545628933694749 -0.43673796215895883 0 -0.077098496045509793 -0.43873696019506903 0 -0.089624247433654214 -0.44685599598904568 0 -0.089545628933694749 -0.43673796215895883 0 -0.072727718816887776 -0.49999999999999672 0 -0.068575109655922298 -0.48253471263916042 0 -0.058853327493046781 -0.48842932436532971 0 -0.072727718816887776 -0.49999999999999672 0 -0.068575109655922298 -0.48253471263916042 0 -0.072727718816887776 -0.49999999999999672 0 -0.068575109655922298 -0.48253471263916042 0 -0.086143661312174283 -0.48253471263916248 0 -0.064422500494955764 -0.4650694252783244 0 -0.068575109655922298 -0.48253471263916042 0 -0.059149819292987238 -0.47777467248794547 0 -0.064422500494955764 -0.4650694252783244 0 -0.068575109655922298 -0.48253471263916042 0 -0.064422500494955764 -0.4650694252783244 0 -0.073769461018799692 -0.45951707792468061 0 -0.086143661312174283 -0.48253471263916248 0 -0.064422500494955764 -0.4650694252783244 0 -0.068575109655922298 -0.48253471263916042 0 -0.086143661312174283 -0.48253471263916248 0 -0.064422500494955764 -0.4650694252783244 0 -0.086143661312174283 -0.48253471263916248 0 -0.072727718816887776 -0.49999999999999672 0 -0.086143661312174283 -0.48253471263916248 0 -0.090296270473140428 -0.5 0 -0.086143661312174283 -0.48253471263916248 0 -0.090296270473140428 -0.5 0 -0.10786482212939311 -0.50000000000000011 0 -0.086143661312174283 -0.48253471263916248 0 -0.10786482212939311 -0.50000000000000011 0 -0.086143661312174283 -0.48253471263916248 0 -0.10786482212939311 -0.50000000000000011 0 -0.1056577076014347 -0.47999846360012538 0 -0.086143661312174283 -0.48253471263916248 0 -0.1056577076014347 -0.47999846360012538 0 -0.099165393688022629 -0.46120376842987459 0 -0.1056577076014347 -0.47999846360012538 0 -0.12108079434187891 -0.47202921183540031 0 -0.099165393688022629 -0.46120376842987459 0 -0.1056577076014347 -0.47999846360012538 0 -0.12108079434187891 -0.47202921183540031 0 -0.1206292342060253 -0.48641385964910883 0 -0.131118449396015 -0.5 0 -0.10786482212939311 -0.50000000000000011 0 -0.1206292342060253 -0.48641385964910883 0 -0.10786482212939311 -0.50000000000000011 0 -0.1056577076014347 -0.47999846360012538 0 -0.1206292342060253 -0.48641385964910883 0 -0.099878095611554862 -0.4393977270813314 0 -0.099165393688022629 -0.46120376842987459 0 -0.099878095611554862 -0.4393977270813314 0 -0.099165393688022629 -0.46120376842987459 0 -0.11615585050415531 -0.45102464773050138 0 -0.089624247433654214 -0.44685599598904568 0 -0.099878095611554862 -0.4393977270813314 0 -0.099165393688022629 -0.46120376842987459 0 -0.12108079434187891 -0.47202921183540031 0 -0.099165393688022629 -0.46120376842987459 0 -0.11615585050415531 -0.45102464773050138 0 -0.13077987840644981 -0.46069854066347632 0 -0.12108079434187891 -0.47202921183540031 0 -0.11615585050415531 -0.45102464773050138 0 -0.13194602454298601 -0.43962244526902572 0 -0.11615585050415531 -0.45102464773050138 0 -0.1129403580353462 -0.43280081863281078 0 -0.099878095611554862 -0.4393977270813314 0 -0.11615585050415531 -0.45102464773050138 0 -0.1129403580353462 -0.43280081863281078 0 -0.13194602454298601 -0.43962244526902572 0 -0.1165997240041481 -0.41847011486561592 0 -0.13194602454298601 -0.43962244526902572 0 -0.1129403580353462 -0.43280081863281078 0 -0.1165997240041481 -0.41847011486561592 0 -0.1129403580353462 -0.43280081863281078 0 -0.1079125428112538 -0.41892639524425412 0 -0.1165997240041481 -0.41847011486561592 0 -0.099878095611554862 -0.4393977270813314 0 -0.100590797535087 -0.41759168573278821 0 -0.092016620863508841 -0.4218345739943074 0 -0.099878095611554862 -0.4393977270813314 0 -0.089545628933694749 -0.43673796215895883 0 -0.092016620863508841 -0.4218345739943074 0 -0.099878095611554862 -0.4393977270813314 0 -0.1129403580353462 -0.43280081863281078 0 -0.10283731640903 -0.42510314405888588 0 -0.099878095611554862 -0.4393977270813314 0 -0.100590797535087 -0.41759168573278821 0 -0.099878095611554862 -0.4393977270813314 0 -0.10283731640903 -0.42510314405888588 0 -0.100590797535087 -0.41759168573278821 0 -0.1129403580353462 -0.43280081863281078 0 -0.10283731640903 -0.42510314405888588 0 -0.1079125428112538 -0.41892639524425412 0 -0.100590797535087 -0.41759168573278821 0 -0.1012534234653099 -0.39731778446220639 0 -0.1165997240041481 -0.41847011486561592 0 -0.1012534234653099 -0.39731778446220639 0 -0.100590797535087 -0.41759168573278821 0 -0.094499944748829334 -0.39722631626938482 0 -0.088610052547492879 -0.41006814396079783 0 -0.100590797535087 -0.41759168573278821 0 -0.1079125428112538 -0.41892639524425412 0 -0.1012534234653099 -0.39731778446220639 0 -0.100590797535087 -0.41759168573278821 0 -0.094499944748829334 -0.39722631626938482 0 -0.1079125428112538 -0.41892639524425412 0 -0.1165997240041481 -0.41847011486561592 0 -0.1012534234653099 -0.39731778446220639 0 -0.10283731640903 -0.42510314405888588 0 -0.100590797535087 -0.41759168573278821 0 -0.1079125428112538 -0.41892639524425412 0 -0.10283731640903 -0.42510314405888588 0 -0.100590797535087 -0.41759168573278821 0 -0.12592730430259419 -0.40432488328170318 0 -0.1165997240041481 -0.41847011486561592 0 -0.1152538145686829 -0.39895411709426332 0 -0.1165997240041481 -0.41847011486561592 0 -0.1152538145686829 -0.39895411709426332 0 -0.1012534234653099 -0.39731778446220639 0 -0.12526638733901391 -0.39147447277512609 0 -0.12592730430259419 -0.40432488328170318 0 -0.1152538145686829 -0.39895411709426332 0 -0.12526638733901391 -0.39147447277512609 0 -0.1152538145686829 -0.39895411709426332 0 -0.1147112201852714 -0.38836266809632891 0 -0.1152538145686829 -0.39895411709426332 0 -0.1147112201852714 -0.38836266809632891 0 -0.1077648281157602 -0.39377477908459929 0 -0.12526638733901391 -0.39147447277512609 0 -0.12201267174342199 -0.37938718301114999 0 -0.1147112201852714 -0.38836266809632891 0 -0.1147112201852714 -0.38836266809632891 0 -0.1094440337948836 -0.37923577087639421 0 -0.1073228884697877 -0.3875649225559597 0 -0.1147112201852714 -0.38836266809632891 0 -0.1073228884697877 -0.3875649225559597 0 -0.1077648281157602 -0.39377477908459929 0 -0.12201267174342199 -0.37938718301114999 0 -0.1147112201852714 -0.38836266809632891 0 -0.1094440337948836 -0.37923577087639421 0 -0.1159926709000937 -0.36685414663024191 0 -0.12201267174342199 -0.37938718301114999 0 -0.1094440337948836 -0.37923577087639421 0 -0.1024060606807759 -0.36205135125861898 0 -0.1094440337948836 -0.37923577087639421 0 -0.1016559479587178 -0.38500202459504551 0 -0.1094440337948836 -0.37923577087639421 0 -0.1016559479587178 -0.38500202459504551 0 -0.1073228884697877 -0.3875649225559597 0 -0.1016559479587178 -0.38500202459504551 0 -0.1014693111655476 -0.390712419775258 0 -0.1016559479587178 -0.38500202459504551 0 -0.1073228884697877 -0.3875649225559597 0 -0.1014693111655476 -0.390712419775258 0 -0.1016559479587178 -0.38500202459504551 0 -0.091585827134305964 -0.3839926061052007 0 -0.1016559479587178 -0.38500202459504551 0 -0.1014693111655476 -0.390712419775258 0 -0.093729726096669103 -0.3869476153003294 0 -0.1016559479587178 -0.38500202459504551 0 -0.091585827134305964 -0.3839926061052007 0 -0.093729726096669103 -0.3869476153003294 0 -0.1014693111655476 -0.390712419775258 0 -0.093729726096669103 -0.3869476153003294 0 -0.1016559479587178 -0.38500202459504551 0 -0.095426438310298192 -0.37780241062099151 0 -0.091585827134305964 -0.3839926061052007 0 -0.100590797535087 -0.41759168573278821 0 -0.1012534234653099 -0.39731778446220639 0 -0.099487365185966847 -0.39952233119993291 0 -0.100590797535087 -0.41759168573278821 0 -0.094499944748829334 -0.39722631626938482 0 -0.099487365185966847 -0.39952233119993291 0 -0.1152538145686829 -0.39895411709426332 0 -0.1077648281157602 -0.39377477908459929 0 -0.1012534234653099 -0.39731778446220639 0 -0.1073228884697877 -0.3875649225559597 0 -0.1077648281157602 -0.39377477908459929 0 -0.1014693111655476 -0.390712419775258 0 -0.1077648281157602 -0.39377477908459929 0 -0.1012534234653099 -0.39731778446220639 0 -0.1014693111655476 -0.390712419775258 0 -0.1077648281157602 -0.39377477908459929 0 -0.1014693111655476 -0.390712419775258 0 -0.1012534234653099 -0.39731778446220639 0 -0.094499944748829334 -0.39722631626938482 0 -0.099487365185966847 -0.39952233119993291 0 -0.1012534234653099 -0.39731778446220639 0 -0.094499944748829334 -0.39722631626938482 0 -0.093729726096669103 -0.3869476153003294 0 -0.1012534234653099 -0.39731778446220639 0 -0.1014693111655476 -0.390712419775258 0 -0.093729726096669103 -0.3869476153003294 0 -0.1012534234653099 -0.39731778446220639 0 -0.093729726096669103 -0.3869476153003294 0 -0.1012534234653099 -0.39731778446220639 0 -0.1014693111655476 -0.390712419775258 0 -0.094499944748829334 -0.39722631626938482 0 -0.099487365185966847 -0.39952233119993291 0 -0.094499944748829334 -0.39722631626938482 0 -0.085553154766675646 -0.40134027138503481 0 -0.088610052547492879 -0.41006814396079783 0 -0.094499944748829334 -0.39722631626938482 0 -0.082560309743270749 -0.39172977139542609 0 -0.085553154766675646 -0.40134027138503481 0 -0.094499944748829334 -0.39722631626938482 0 -0.082560309743270749 -0.39172977139542609 0 -0.091033556626635648 -0.38563610430902873 0 -0.094499944748829334 -0.39722631626938482 0 -0.082560309743270749 -0.39172977139542609 0 -0.094499944748829334 -0.39722631626938482 0 -0.091033556626635648 -0.38563610430902873 0 -0.082560309743270749 -0.39172977139542609 0 -0.079097438192195432 -0.39013559964190198 0 -0.074673198083630793 -0.40544040024196493 0 -0.082560309743270749 -0.39172977139542609 0 -0.079097438192195432 -0.39013559964190198 0 -0.082560309743270749 -0.39172977139542609 0 -0.076542312027108539 -0.406336853914531 0 -0.082560309743270749 -0.39172977139542609 0 -0.085553154766675646 -0.40134027138503481 0 -0.076542312027108539 -0.406336853914531 0 -0.085553154766675646 -0.40134027138503481 0 -0.076542312027108539 -0.406336853914531 0 -0.088610052547492879 -0.41006814396079783 0 -0.090139611558562177 -0.37333304007799939 0 -0.088525620654428705 -0.37725057202694517 0 -0.088525620654428705 -0.37725057202694517 0 -0.087954911787112483 -0.37534235041220648 0 -0.08170780991661282 -0.38109255286014232 0 -0.090139611558562177 -0.37333304007799939 0 -0.088525620654428705 -0.37725057202694517 0 -0.087954911787112483 -0.37534235041220648 0 -0.088525620654428705 -0.37725057202694517 0 -0.087954911787112483 -0.37534235041220648 0 -0.090139611558562177 -0.37333304007799939 0 -0.095426438310298192 -0.37780241062099151 0 -0.088525620654428705 -0.37725057202694517 0 -0.088525620654428705 -0.37725057202694517 0 -0.091585827134305964 -0.3839926061052007 0 -0.095426438310298192 -0.37780241062099151 0 -0.088525620654428705 -0.37725057202694517 0 -0.091585827134305964 -0.3839926061052007 0 -0.088525620654428705 -0.37725057202694517 0 -0.086634605294488312 -0.38349630075200858 0 -0.088525620654428705 -0.37725057202694517 0 -0.086634605294488312 -0.38349630075200858 0 -0.091585827134305964 -0.3839926061052007 0 -0.082560309743270749 -0.39172977139542609 0 -0.086634605294488312 -0.38349630075200858 0 -0.091033556626635648 -0.38563610430902873 0 -0.094499944748829334 -0.39722631626938482 0 -0.091033556626635648 -0.38563610430902873 0 -0.093729726096669103 -0.3869476153003294 0 -0.086634605294488312 -0.38349630075200858 0 -0.091585827134305964 -0.3839926061052007 0 -0.086634605294488312 -0.38349630075200858 0 -0.091033556626635648 -0.38563610430902873 0 -0.086634605294488312 -0.38349630075200858 0 -0.091585827134305964 -0.3839926061052007 0 -0.091033556626635648 -0.38563610430902873 0 -0.091585827134305964 -0.3839926061052007 0 -0.091033556626635648 -0.38563610430902873 0 -0.093729726096669103 -0.3869476153003294 0 -0.091033556626635648 -0.38563610430902873 0 -0.093729726096669103 -0.3869476153003294 0 -0.091585827134305964 -0.3839926061052007 0 -0.093729726096669103 -0.3869476153003294 0 -0.091585827134305964 -0.3839926061052007 0 -0.091033556626635648 -0.38563610430902873 0 -0.082560309743270749 -0.39172977139542609 0 -0.086634605294488312 -0.38349630075200858 0 -0.082560309743270749 -0.39172977139542609 0 -0.086634605294488312 -0.38349630075200858 0 -0.081174899406055781 -0.38294902548401538 0 -0.082560309743270749 -0.39172977139542609 0 -0.079097438192195432 -0.39013559964190198 0 -0.081174899406055781 -0.38294902548401538 0 -0.079097438192195432 -0.39013559964190198 0 -0.081174899406055781 -0.38294902548401538 0 -0.074281153156084773 -0.38791836881244668 0 -0.079097438192195432 -0.39013559964190198 0 -0.081174899406055781 -0.38294902548401538 0 -0.086634605294488312 -0.38349630075200858 0 -0.081174899406055781 -0.38294902548401538 0 -0.088525620654428705 -0.37725057202694517 0 -0.086634605294488312 -0.38349630075200858 0 -0.08170780991661282 -0.38109255286014232 0 -0.086634605294488312 -0.38349630075200858 0 -0.081174899406055781 -0.38294902548401538 0 -0.08170780991661282 -0.38109255286014232 0 -0.086634605294488312 -0.38349630075200858 0 -0.08170780991661282 -0.38109255286014232 0 -0.081174899406055781 -0.38294902548401538 0 -0.08170780991661282 -0.38109255286014232 0 -0.087954911787112483 -0.37534235041220648 0 -0.08170780991661282 -0.38109255286014232 0 -0.055512870853615448 -0.39455951290216967 0 -0.058563253679506787 -0.38068245751723601 0 -0.074281153156084773 -0.38791836881244668 0 -0.058563253679506787 -0.38068245751723601 0 -0.074281153156084773 -0.38791836881244668 0 -0.058387822440418388 -0.36975607908058028 0 -0.08170780991661282 -0.38109255286014232 0 -0.058387822440418388 -0.36975607908058028 0 -0.081174899406055781 -0.38294902548401538 0 -0.08170780991661282 -0.38109255286014232 0 -0.058563253679506787 -0.38068245751723601 0 -0.081174899406055781 -0.38294902548401538 0 -0.074281153156084773 -0.38791836881244668 0 -0.058563253679506787 -0.38068245751723601 0 -0.081174899406055781 -0.38294902548401538 0 -0.058387822440418388 -0.36975607908058028 0 -0.058563253679506787 -0.38068245751723601 0 -0.081174899406055781 -0.38294902548401538 0 -0.081174899406055781 -0.38294902548401538 0 -0.074281153156084773 -0.38791836881244668 0 -0.079097438192195432 -0.39013559964190198 0 -0.074281153156084773 -0.38791836881244668 0 -0.079097438192195432 -0.39013559964190198 0 -0.074281153156084773 -0.38791836881244668 0 -0.074673198083630793 -0.40544040024196493 0 -0.052509649903146327 -0.40794203844841681 0 -0.074281153156084773 -0.38791836881244668 0 -0.052509649903146327 -0.40794203844841681 0 -0.074281153156084773 -0.38791836881244668 0 -0.074673198083630793 -0.40544040024196493 0 -0.082560309743270749 -0.39172977139542609 0 -0.074673198083630793 -0.40544040024196493 0 -0.076542312027108539 -0.406336853914531 0 -0.079097438192195432 -0.39013559964190198 0 -0.074673198083630793 -0.40544040024196493 0 -0.052509649903146327 -0.40794203844841681 0 -0.074673198083630793 -0.40544040024196493 0 -0.070248957975066639 -0.42074520084202788 0 -0.076542312027108539 -0.406336853914531 0 -0.070248957975066639 -0.42074520084202788 0 -0.074673198083630793 -0.40544040024196493 0 -0.070248957975066639 -0.42074520084202788 0 -0.074673198083630793 -0.40544040024196493 0 -0.076542312027108539 -0.406336853914531 0 -0.070248957975066639 -0.42074520084202788 0 -0.070248957975066639 -0.42074520084202788 0 -0.077246521605040669 -0.42579562012280953 0 -0.078194253298280558 -0.41865647959270891 0 -0.076542312027108539 -0.406336853914531 0 -0.070248957975066639 -0.42074520084202788 0 -0.078194253298280558 -0.41865647959270891 0 -0.059775586818595829 -0.41787661413097049 0 -0.070248957975066639 -0.42074520084202788 0 -0.069408814394604765 -0.42365151461769918 0 -0.060002998013559863 -0.44648162232419802 0 -0.069408814394604765 -0.42365151461769918 0 -0.070248957975066639 -0.42074520084202788 0 -0.069408814394604765 -0.42365151461769918 0 -0.077098496045509793 -0.43873696019506903 0 -0.069408814394604765 -0.42365151461769918 0 -0.077246521605040669 -0.42579562012280953 0 -0.070248957975066639 -0.42074520084202788 0 -0.069408814394604765 -0.42365151461769918 0 -0.077246521605040669 -0.42579562012280953 0 -0.070248957975066639 -0.42074520084202788 0 -0.077246521605040669 -0.42579562012280953 0 -0.077246521605040669 -0.42579562012280953 0 -0.082943237868067593 -0.4239856173255338 0 -0.078194253298280558 -0.41865647959270891 0 -0.077098496045509793 -0.43873696019506903 0 -0.082943237868067593 -0.4239856173255338 0 -0.092016620863508841 -0.4218345739943074 0 -0.077098496045509793 -0.43873696019506903 0 -0.089545628933694749 -0.43673796215895883 0 -0.092016620863508841 -0.4218345739943074 0 -0.077098496045509793 -0.43873696019506903 0 -0.092016620863508841 -0.4218345739943074 0 -0.077098496045509793 -0.43873696019506903 0 -0.077246521605040669 -0.42579562012280953 0 -0.082943237868067593 -0.4239856173255338 0 -0.100590797535087 -0.41759168573278821 0 -0.092016620863508841 -0.4218345739943074 0 -0.088610052547492879 -0.41006814396079783 0 -0.082943237868067593 -0.4239856173255338 0 -0.092016620863508841 -0.4218345739943074 0 -0.083714880680240453 -0.41622037016703428 0 -0.092016620863508841 -0.4218345739943074 0 -0.088610052547492879 -0.41006814396079783 0 -0.083714880680240453 -0.41622037016703428 0 -0.076542312027108539 -0.406336853914531 0 -0.088610052547492879 -0.41006814396079783 0 -0.083714880680240453 -0.41622037016703428 0 -0.076542312027108539 -0.406336853914531 0 -0.078194253298280558 -0.41865647959270891 0 -0.083714880680240453 -0.41622037016703428 0 -0.082943237868067593 -0.4239856173255338 0 -0.078194253298280558 -0.41865647959270891 0 -0.083714880680240453 -0.41622037016703428 0 -0.081808777729522386 -0.083143660930833002 0 -0.073985000225153141 -0.099795971436559522 0 -0.085935801107842547 -0.09579043756499836 0 -0.081808777729522386 -0.083143660930833002 0 -0.085935801107842547 -0.09579043756499836 0 -0.094306078709463503 -0.087148618235937392 0 -0.081808777729522386 -0.083143660930833002 0 -0.094306078709463503 -0.087148618235937392 0 -0.095869533599057435 -0.074719864200214883 0 -0.081808777729522386 -0.083143660930833002 0 -0.087640100333796281 -0.066301869750421821 0 -0.076351800502585221 -0.068318825045574613 0 -0.081808777729522386 -0.083143660930833002 0 -0.087640100333796281 -0.066301869750421821 0 -0.095869533599057435 -0.074719864200214883 0 -0.087640100333796281 -0.066301869750421821 0 -0.095869533599057435 -0.074719864200214883 0 -0.097041901727127691 -0.062312633498474219 0 -0.087640100333796281 -0.066301869750421821 0 -0.076351800502585221 -0.068318825045574613 0 -0.079773765115028039 -0.057914828426178573 0 -0.081808777729522386 -0.083143660930833002 0 -0.076351800502585221 -0.068318825045574613 0 -0.068001603171865072 -0.074911341683796137 0 -0.068001603171865072 -0.074911341683796137 0 -0.065822825648978775 -0.060485584973140792 0 -0.05753372126900759 -0.073422836261521005 0 -0.076351800502585221 -0.068318825045574613 0 -0.068001603171865072 -0.074911341683796137 0 -0.065822825648978775 -0.060485584973140792 0 -0.068001603171865072 -0.074911341683796137 0 -0.066670257350634976 -0.085780572793309681 0 -0.05753372126900759 -0.073422836261521005 0 -0.081808777729522386 -0.083143660930833002 0 -0.066670257350634976 -0.085780572793309681 0 -0.073985000225153141 -0.099795971436559522 0 -0.081808777729522386 -0.083143660930833002 0 -0.068001603171865072 -0.074911341683796137 0 -0.066670257350634976 -0.085780572793309681 0 -0.066670257350634976 -0.085780572793309681 0 -0.073985000225153141 -0.099795971436559522 0 -0.05982498813170789 -0.10249801488187529 0 -0.073985000225153141 -0.099795971436559522 0 -0.065415314349395459 -0.11473522154729129 0 -0.05982498813170789 -0.10249801488187529 0 -0.073985000225153141 -0.099795971436559522 0 -0.065415314349395459 -0.11473522154729129 0 -0.07727601190464152 -0.1134926659633375 0 -0.065415314349395459 -0.11473522154729129 0 -0.060446148579459319 -0.1303024678998376 0 -0.071674103496310607 -0.1250344835198243 0 -0.07727601190464152 -0.1134926659633375 0 -0.082994471061899833 -0.1234246307735777 0 -0.071674103496310607 -0.1250344835198243 0 -0.065415314349395459 -0.11473522154729129 0 -0.07727601190464152 -0.1134926659633375 0 -0.071674103496310607 -0.1250344835198243 0 -0.07727601190464152 -0.1134926659633375 0 -0.082994471061899833 -0.1234246307735777 0 -0.08680817640523622 -0.1078855820033275 0 -0.082994471061899833 -0.1234246307735777 0 -0.08680817640523622 -0.1078855820033275 0 -0.095277368860953449 -0.1178446661751102 0 -0.082994471061899833 -0.1234246307735777 0 -0.095277368860953449 -0.1178446661751102 0 -0.095971306836852913 -0.13086642389395989 0 -0.085935801107842547 -0.09579043756499836 0 -0.08680817640523622 -0.1078855820033275 0 -0.1020424425883536 -0.1015565670732166 0 -0.073985000225153141 -0.099795971436559522 0 -0.085935801107842547 -0.09579043756499836 0 -0.08680817640523622 -0.1078855820033275 0 -0.073985000225153141 -0.099795971436559522 0 -0.07727601190464152 -0.1134926659633375 0 -0.08680817640523622 -0.1078855820033275 0 -0.085935801107842547 -0.09579043756499836 0 -0.1020424425883536 -0.1015565670732166 0 -0.094306078709463503 -0.087148618235937392 0 -0.08680817640523622 -0.1078855820033275 0 -0.1020424425883536 -0.1015565670732166 0 -0.095277368860953449 -0.1178446661751102 0 -0.1020424425883536 -0.1015565670732166 0 -0.095277368860953449 -0.1178446661751102 0 -0.1085913382140784 -0.11903379143832921 0 -0.095277368860953449 -0.1178446661751102 0 -0.1085913382140784 -0.11903379143832921 0 -0.095971306836852913 -0.13086642389395989 0 -0.1085913382140784 -0.11903379143832921 0 -0.11893842975153809 -0.10446969177473921 0 -0.12736410167423581 -0.1213878944680517 0 -0.1020424425883536 -0.1015565670732166 0 -0.11893842975153809 -0.10446969177473921 0 -0.1189291253072135 -0.086669643832799348 0 -0.1020424425883536 -0.1015565670732166 0 -0.1085913382140784 -0.11903379143832921 0 -0.11893842975153809 -0.10446969177473921 0 -0.1189291253072135 -0.086669643832799348 0 -0.1056068239719813 -0.08097964138995771 0 -0.1139735316209595 -0.069866863539540053 0 -0.1020424425883536 -0.1015565670732166 0 -0.1189291253072135 -0.086669643832799348 0 -0.1056068239719813 -0.08097964138995771 0 -0.1020424425883536 -0.1015565670732166 0 -0.1056068239719813 -0.08097964138995771 0 -0.094306078709463503 -0.087148618235937392 0 -0.1056068239719813 -0.08097964138995771 0 -0.094306078709463503 -0.087148618235937392 0 -0.095869533599057435 -0.074719864200214883 0 -0.095869533599057435 -0.074719864200214883 0 -0.1039382096783972 -0.069282752438140638 0 -0.097041901727127691 -0.062312633498474219 0 -0.1056068239719813 -0.08097964138995771 0 -0.1039382096783972 -0.069282752438140638 0 -0.1139735316209595 -0.069866863539540053 0 -0.1056068239719813 -0.08097964138995771 0 -0.095869533599057435 -0.074719864200214883 0 -0.1039382096783972 -0.069282752438140638 0 -0.1039382096783972 -0.069282752438140638 0 -0.097041901727127691 -0.062312633498474219 0 -0.1071992574728602 -0.058534759562516372 0 -0.1039382096783972 -0.069282752438140638 0 -0.1139735316209595 -0.069866863539540053 0 -0.1071992574728602 -0.058534759562516372 0 -0.1189291253072135 -0.086669643832799348 0 -0.1139735316209595 -0.069866863539540053 0 -0.12930964035960699 -0.069761515268982097 0 -0.1139735316209595 -0.069866863539540053 0 -0.1161384697585349 -0.056806249932135858 0 -0.12930964035960699 -0.069761515268982097 0 -0.1161384697585349 -0.056806249932135858 0 -0.1208541397454049 -0.045822468476665427 0 -0.12930964035960699 -0.069761515268982097 0 -0.1248214427799455 -0.0491876577223027 0 -0.1208541397454049 -0.045822468476665427 0 -0.12930964035960699 -0.069761515268982097 0 -0.1161384697585349 -0.056806249932135858 0 -0.10991932193075039 -0.048940588969216672 0 -0.1071992574728602 -0.058534759562516372 0 -0.1139735316209595 -0.069866863539540053 0 -0.1161384697585349 -0.056806249932135858 0 -0.1071992574728602 -0.058534759562516372 0 -0.1161384697585349 -0.056806249932135858 0 -0.10991932193075039 -0.048940588969216672 0 -0.1149357203506014 -0.047989794102068162 0 -0.1161384697585349 -0.056806249932135858 0 -0.1149357203506014 -0.047989794102068162 0 -0.1208541397454049 -0.045822468476665427 0 -0.1248214427799455 -0.0491876577223027 0 -0.1208541397454049 -0.045822468476665427 0 -0.1246368416492639 -0.024787675353444869 0 -0.1128309499677153 -0.040389869030254703 0 -0.10841128816168021 -0.033720593740292633 0 -0.11239863913120279 -0.021883421684348751 0 -0.1208541397454049 -0.045822468476665427 0 -0.11239863913120279 -0.021883421684348751 0 -0.1208541397454049 -0.045822468476665427 0 -0.1128309499677153 -0.040389869030254703 0 -0.11239863913120279 -0.021883421684348751 0 -0.1248214427799455 -0.0491876577223027 0 -0.1246368416492639 -0.024787675353444869 0 -0.1149357203506014 -0.047989794102068162 0 -0.1208541397454049 -0.045822468476665427 0 -0.1128309499677153 -0.040389869030254703 0 -0.10991932193075039 -0.048940588969216672 0 -0.1149357203506014 -0.047989794102068162 0 -0.1128309499677153 -0.040389869030254703 0 -0.10991932193075039 -0.048940588969216672 0 -0.1128309499677153 -0.040389869030254703 0 -0.1049963107845597 -0.040407454994133042 0 -0.10991932193075039 -0.048940588969216672 0 -0.1049963107845597 -0.040407454994133042 0 -0.1002598709818909 -0.049694841596422852 0 -0.1049963107845597 -0.040407454994133042 0 -0.10841128816168021 -0.033720593740292633 0 -0.1012581714839781 -0.029848849592015819 0 -0.1128309499677153 -0.040389869030254703 0 -0.1049963107845597 -0.040407454994133042 0 -0.10841128816168021 -0.033720593740292633 0 -0.097298262181343159 -0.039849987036595598 0 -0.1012581714839781 -0.029848849592015819 0 -0.091929659262116575 -0.033133953101480262 0 -0.1049963107845597 -0.040407454994133042 0 -0.097298262181343159 -0.039849987036595598 0 -0.1012581714839781 -0.029848849592015819 0 -0.1049963107845597 -0.040407454994133042 0 -0.097298262181343159 -0.039849987036595598 0 -0.1002598709818909 -0.049694841596422852 0 -0.097298262181343159 -0.039849987036595598 0 -0.1002598709818909 -0.049694841596422852 0 -0.087030839425688053 -0.044306376809862227 0 -0.1002598709818909 -0.049694841596422852 0 -0.097041901727127691 -0.062312633498474219 0 -0.1071992574728602 -0.058534759562516372 0 -0.1002598709818909 -0.049694841596422852 0 -0.097041901727127691 -0.062312633498474219 0 -0.090164156554830718 -0.055563028782557922 0 -0.10991932193075039 -0.048940588969216672 0 -0.1002598709818909 -0.049694841596422852 0 -0.1071992574728602 -0.058534759562516372 0 -0.1244522405185825 -0.00038769298458709092 0 -0.11239863913120279 -0.021883421684348751 0 -0.10394313851700079 0.0020556251079679459 0 -0.1244522405185825 -0.00038769298458709092 0 -0.1246368416492639 -0.024787675353444869 0 -0.1244522405185825 -0.00038769298458709092 0 -0.11239863913120279 -0.021883421684348751 0 -0.1246368416492639 -0.024787675353444869 0 -0.1208541397454049 -0.045822468476665427 0 -0.11239863913120279 -0.021883421684348751 0 -0.1246368416492639 -0.024787675353444869 0 -0.10841128816168021 -0.033720593740292633 0 -0.11239863913120279 -0.021883421684348751 0 -0.1012581714839781 -0.029848849592015819 0 -0.1012581714839781 -0.029848849592015819 0 -0.090677970328949406 -0.022917020247476879 0 -0.091929659262116575 -0.033133953101480262 0 -0.1012581714839781 -0.029848849592015819 0 -0.1001126671493681 -0.016491083843961009 0 -0.090677970328949406 -0.022917020247476879 0 -0.1001126671493681 -0.016491083843961009 0 -0.092285416285709382 -0.0098617528039315269 0 -0.090677970328949406 -0.022917020247476879 0 -0.11239863913120279 -0.021883421684348751 0 -0.1012581714839781 -0.029848849592015819 0 -0.1001126671493681 -0.016491083843961009 0 -0.1001126671493681 -0.016491083843961009 0 -0.092285416285709382 -0.0098617528039315269 0 -0.10394313851700079 0.0020556251079679459 0 -0.11239863913120279 -0.021883421684348751 0 -0.1001126671493681 -0.016491083843961009 0 -0.10394313851700079 0.0020556251079679459 0 -0.092285416285709382 -0.0098617528039315269 0 -0.10394313851700079 0.0020556251079679459 0 -0.085958893623968774 0.001514634656162053 0 -0.11239863913120279 -0.021883421684348751 0 -0.10394313851700079 0.0020556251079679459 0 -0.092285416285709382 -0.0098617528039315269 0 -0.077949881484559239 -0.01307625006729682 0 -0.085958893623968774 0.001514634656162053 0 -0.092285416285709382 -0.0098617528039315269 0 -0.090677970328949406 -0.022917020247476879 0 -0.077949881484559239 -0.01307625006729682 0 -0.090677970328949406 -0.022917020247476879 0 -0.073841780976804383 -0.025706854857452392 0 -0.077949881484559239 -0.01307625006729682 0 -0.090677970328949406 -0.022917020247476879 0 -0.073841780976804383 -0.025706854857452392 0 -0.082102255714859004 -0.034759692131612618 0 -0.090677970328949406 -0.022917020247476879 0 -0.091929659262116575 -0.033133953101480262 0 -0.082102255714859004 -0.034759692131612618 0 -0.073841780976804383 -0.025706854857452392 0 -0.077949881484559239 -0.01307625006729682 0 -0.060674527584339763 -0.015412449877807689 0 -0.073841780976804383 -0.025706854857452392 0 -0.060674527584339763 -0.015412449877807689 0 -0.060703590497751453 -0.03101491529774986 0 -0.077949881484559239 -0.01307625006729682 0 -0.085958893623968774 0.001514634656162053 0 -0.065648076432031049 0.00090955339710942099 0 -0.077949881484559239 -0.01307625006729682 0 -0.060674527584339763 -0.015412449877807689 0 -0.065648076432031049 0.00090955339710942099 0 -0.079773765115028039 -0.057914828426178573 0 -0.087030839425688053 -0.044306376809862227 0 -0.074827122987446398 -0.047817820925290022 0 -0.079773765115028039 -0.057914828426178573 0 -0.090164156554830718 -0.055563028782557922 0 -0.087030839425688053 -0.044306376809862227 0 -0.087640100333796281 -0.066301869750421821 0 -0.079773765115028039 -0.057914828426178573 0 -0.090164156554830718 -0.055563028782557922 0 -0.087640100333796281 -0.066301869750421821 0 -0.097041901727127691 -0.062312633498474219 0 -0.090164156554830718 -0.055563028782557922 0 -0.1002598709818909 -0.049694841596422852 0 -0.090164156554830718 -0.055563028782557922 0 -0.087030839425688053 -0.044306376809862227 0 -0.097298262181343159 -0.039849987036595598 0 -0.087030839425688053 -0.044306376809862227 0 -0.091929659262116575 -0.033133953101480262 0 -0.087030839425688053 -0.044306376809862227 0 -0.091929659262116575 -0.033133953101480262 0 -0.082102255714859004 -0.034759692131612618 0 -0.087030839425688053 -0.044306376809862227 0 -0.082102255714859004 -0.034759692131612618 0 -0.074827122987446398 -0.047817820925290022 0 -0.082102255714859004 -0.034759692131612618 0 -0.070942460250367517 -0.03706080152277047 0 -0.074827122987446398 -0.047817820925290022 0 -0.073841780976804383 -0.025706854857452392 0 -0.082102255714859004 -0.034759692131612618 0 -0.070942460250367517 -0.03706080152277047 0 -0.073841780976804383 -0.025706854857452392 0 -0.070942460250367517 -0.03706080152277047 0 -0.060703590497751453 -0.03101491529774986 0 -0.070942460250367517 -0.03706080152277047 0 -0.061850736208416378 -0.044087883634974623 0 -0.060703590497751453 -0.03101491529774986 0 -0.070942460250367517 -0.03706080152277047 0 -0.074827122987446398 -0.047817820925290022 0 -0.061850736208416378 -0.044087883634974623 0 -0.074827122987446398 -0.047817820925290022 0 -0.065822825648978775 -0.060485584973140792 0 -0.061850736208416378 -0.044087883634974623 0 -0.079773765115028039 -0.057914828426178573 0 -0.074827122987446398 -0.047817820925290022 0 -0.065822825648978775 -0.060485584973140792 0 -0.076351800502585221 -0.068318825045574613 0 -0.079773765115028039 -0.057914828426178573 0 -0.065822825648978775 -0.060485584973140792 0 -0.065822825648978775 -0.060485584973140792 0 -0.051906109188989122 -0.051634581827710108 0 -0.055146373663134192 -0.063188587977351315 0 -0.065822825648978775 -0.060485584973140792 0 -0.051906109188989122 -0.051634581827710108 0 -0.061850736208416378 -0.044087883634974623 0 -0.051906109188989122 -0.051634581827710108 0 -0.044968642856814678 -0.064628327886466996 0 -0.055146373663134192 -0.063188587977351315 0 -0.061850736208416378 -0.044087883634974623 0 -0.048286593140243993 -0.039377229684959138 0 -0.060703590497751453 -0.03101491529774986 0 -0.051906109188989122 -0.051634581827710108 0 -0.061850736208416378 -0.044087883634974623 0 -0.048286593140243993 -0.039377229684959138 0 -0.048286593140243993 -0.039377229684959138 0 -0.039642814346724391 -0.052475069278980747 0 -0.030584103036016622 -0.035608219704199993 0 -0.039642814346724391 -0.052475069278980747 0 -0.024435088609687641 -0.049746151716912712 0 -0.030584103036016622 -0.035608219704199993 0 -0.048286593140243993 -0.039377229684959138 0 -0.044331283213942488 -0.020119990811347448 0 -0.030584103036016622 -0.035608219704199993 0 -0.039642814346724391 -0.052475069278980747 0 -0.03034189778213453 -0.060014988360291517 0 -0.024435088609687641 -0.049746151716912712 0 -0.039642814346724391 -0.052475069278980747 0 -0.03034189778213453 -0.060014988360291517 0 -0.044968642856814678 -0.064628327886466996 0 -0.051906109188989122 -0.051634581827710108 0 -0.039642814346724391 -0.052475069278980747 0 -0.044968642856814678 -0.064628327886466996 0 -0.051906109188989122 -0.051634581827710108 0 -0.048286593140243993 -0.039377229684959138 0 -0.039642814346724391 -0.052475069278980747 0 -0.060674527584339763 -0.015412449877807689 0 -0.044331283213942488 -0.020119990811347448 0 -0.045118160941850949 -0.00049033847668307538 0 -0.060674527584339763 -0.015412449877807689 0 -0.045118160941850949 -0.00049033847668307538 0 -0.065648076432031049 0.00090955339710942099 0 -0.048286593140243993 -0.039377229684959138 0 -0.060703590497751453 -0.03101491529774986 0 -0.044331283213942488 -0.020119990811347448 0 -0.060674527584339763 -0.015412449877807689 0 -0.060703590497751453 -0.03101491529774986 0 -0.044331283213942488 -0.020119990811347448 0 -0.044331283213942488 -0.020119990811347448 0 -0.027025641752002061 -0.0079319500279313396 0 -0.030584103036016622 -0.035608219704199993 0 -0.044331283213942488 -0.020119990811347448 0 -0.045118160941850949 -0.00049033847668307538 0 -0.027025641752002061 -0.0079319500279313396 0 -0.027025641752002061 -0.0079319500279313396 0 -0.0118242871531395 -0.020545428430059291 0 -0.0091716063734174208 -0.003332990253060792 0 -0.027025641752002061 -0.0079319500279313396 0 -0.0091716063734174208 -0.003332990253060792 0 -0.01566814095190756 0.010235570601176981 0 -0.027025641752002061 -0.0079319500279313396 0 -0.0118242871531395 -0.020545428430059291 0 -0.030584103036016622 -0.035608219704199993 0 -0.0118242871531395 -0.020545428430059291 0 -0.030584103036016622 -0.035608219704199993 0 -0.0118242871531395 -0.020545428430059291 0 0.006935528729737548 -0.0054826371559186567 0 0.0027408304473846411 -0.028176541972939319 0 -0.0118242871531395 -0.020545428430059291 0 -0.01026660782967455 -0.041229232136501717 0 0.0027408304473846411 -0.028176541972939319 0 -0.0118242871531395 -0.020545428430059291 0 -0.0091716063734174208 -0.003332990253060792 0 0.006935528729737548 -0.0054826371559186567 0 -0.0118242871531395 -0.020545428430059291 0 0.006935528729737548 -0.0054826371559186567 0 -0.024435088609687641 -0.049746151716912712 0 -0.01026660782967455 -0.041229232136501717 0 -0.01499476028908407 -0.06055090283160456 0 -0.03034189778213453 -0.060014988360291517 0 -0.01499476028908407 -0.06055090283160456 0 -0.03034189778213453 -0.060014988360291517 0 -0.024435088609687641 -0.049746151716912712 0 -0.01499476028908407 -0.06055090283160456 0 -0.024435088609687641 -0.049746151716912712 0 -0.030584103036016622 -0.035608219704199993 0 -0.01026660782967455 -0.041229232136501717 0 -0.0118242871531395 -0.020545428430059291 0 -0.030584103036016622 -0.035608219704199993 0 -0.01026660782967455 -0.041229232136501717 0 -0.01026660782967455 -0.041229232136501717 0 0.0096258971738255473 -0.043108802377643002 0 0.00035237720396625368 -0.061086817302918282 0 -0.01026660782967455 -0.041229232136501717 0 -0.01499476028908407 -0.06055090283160456 0 0.00035237720396625368 -0.061086817302918282 0 -0.01499476028908407 -0.06055090283160456 0 0.00035237720396625368 -0.061086817302918282 0 -0.011408129540087309 -0.083886203777590068 0 0.0065051428120863272 -0.082127796022149757 0 0.00035237720396625368 -0.061086817302918282 0 -0.011408129540087309 -0.083886203777590068 0 0.00035237720396625368 -0.061086817302918282 0 -0.01499476028908407 -0.06055090283160456 0 -0.011408129540087309 -0.083886203777590068 0 0.00035237720396625368 -0.061086817302918282 0 -0.011408129540087309 -0.083886203777590068 0 0.001856719827670471 -0.098182337095309047 0 0.0065051428120863272 -0.082127796022149757 0 -0.011408129540087309 -0.083886203777590068 0 -0.03053113156520738 -0.089911417014305078 0 -0.02316863628414112 -0.10668559025226169 0 -0.011408129540087309 -0.083886203777590068 0 -0.03053113156520738 -0.089911417014305078 0 -0.026049830403481512 -0.075342802050597457 0 -0.01499476028908407 -0.06055090283160456 0 -0.011408129540087309 -0.083886203777590068 0 -0.026049830403481512 -0.075342802050597457 0 -0.03034189778213453 -0.060014988360291517 0 -0.01499476028908407 -0.06055090283160456 0 -0.026049830403481512 -0.075342802050597457 0 -0.03034189778213453 -0.060014988360291517 0 -0.026049830403481512 -0.075342802050597457 0 -0.041349905228919973 -0.078428718904655664 0 -0.03034189778213453 -0.060014988360291517 0 -0.044968642856814678 -0.064628327886466996 0 -0.041349905228919973 -0.078428718904655664 0 -0.03053113156520738 -0.089911417014305078 0 -0.026049830403481512 -0.075342802050597457 0 -0.041349905228919973 -0.078428718904655664 0 -0.03053113156520738 -0.089911417014305078 0 -0.041349905228919973 -0.078428718904655664 0 -0.047432501145458397 -0.097370211357339573 0 -0.041349905228919973 -0.078428718904655664 0 -0.053879666709155317 -0.08598560359304859 0 -0.05753372126900759 -0.073422836261521005 0 -0.041349905228919973 -0.078428718904655664 0 -0.053879666709155317 -0.08598560359304859 0 -0.047432501145458397 -0.097370211357339573 0 -0.066670257350634976 -0.085780572793309681 0 -0.053879666709155317 -0.08598560359304859 0 -0.05982498813170789 -0.10249801488187529 0 -0.066670257350634976 -0.085780572793309681 0 -0.053879666709155317 -0.08598560359304859 0 -0.05753372126900759 -0.073422836261521005 0 -0.044968642856814678 -0.064628327886466996 0 -0.041349905228919973 -0.078428718904655664 0 -0.05753372126900759 -0.073422836261521005 0 -0.065822825648978775 -0.060485584973140792 0 -0.05753372126900759 -0.073422836261521005 0 -0.055146373663134192 -0.063188587977351315 0 -0.044968642856814678 -0.064628327886466996 0 -0.05753372126900759 -0.073422836261521005 0 -0.055146373663134192 -0.063188587977351315 0 -0.065415314349395459 -0.11473522154729129 0 -0.048239208743362072 -0.1165718691901324 0 -0.05982498813170789 -0.10249801488187529 0 -0.065415314349395459 -0.11473522154729129 0 -0.048239208743362072 -0.1165718691901324 0 -0.060446148579459319 -0.1303024678998376 0 -0.048239208743362072 -0.1165718691901324 0 -0.05982498813170789 -0.10249801488187529 0 -0.047432501145458397 -0.097370211357339573 0 -0.053879666709155317 -0.08598560359304859 0 -0.05982498813170789 -0.10249801488187529 0 -0.047432501145458397 -0.097370211357339573 0 -0.048239208743362072 -0.1165718691901324 0 -0.047432501145458397 -0.097370211357339573 0 -0.02316863628414112 -0.10668559025226169 0 -0.03053113156520738 -0.089911417014305078 0 -0.047432501145458397 -0.097370211357339573 0 -0.02316863628414112 -0.10668559025226169 0 -0.048239208743362072 -0.1165718691901324 0 -0.02316863628414112 -0.10668559025226169 0 -0.029948833034415319 -0.13246817914486481 0 -0.02316863628414112 -0.10668559025226169 0 -0.01250087523651249 -0.12826546419306251 0 -0.029948833034415319 -0.13246817914486481 0 -0.011408129540087309 -0.083886203777590068 0 -0.02316863628414112 -0.10668559025226169 0 -0.02316863628414112 -0.10668559025226169 0 0.0015243557028834459 -0.11711868301268021 0 0.001856719827670471 -0.098182337095309047 0 -0.011408129540087309 -0.083886203777590068 0 -0.02316863628414112 -0.10668559025226169 0 0.001856719827670471 -0.098182337095309047 0 -0.02316863628414112 -0.10668559025226169 0 -0.01250087523651249 -0.12826546419306251 0 0.0015243557028834459 -0.11711868301268021 0 -0.01250087523651249 -0.12826546419306251 0 -0.013317386200938249 -0.14799664519887931 0 0.0088678229424013627 -0.13941235935176011 0 -0.01250087523651249 -0.12826546419306251 0 0.0088678229424013627 -0.13941235935176011 0 0.0015243557028834459 -0.11711868301268021 0 -0.01250087523651249 -0.12826546419306251 0 -0.029948833034415319 -0.13246817914486481 0 -0.013317386200938249 -0.14799664519887931 0 -0.013317386200938249 -0.14799664519887931 0 -0.035502595344277812 -0.15658093104599841 0 -0.029948833034415319 -0.13246817914486481 0 -0.013317386200938249 -0.14799664519887931 0 -0.035502595344277812 -0.15658093104599841 0 -0.013317386200938249 -0.14799664519887931 0 0.0088678229424013627 -0.13941235935176011 0 -0.013317386200938249 -0.14799664519887931 0 0.0027310736070901482 -0.15493719994590471 0 0.0088678229424013627 -0.13941235935176011 0 -0.013317386200938249 -0.14799664519887931 0 -0.0013673002328405961 -0.1767093328090546 0 0.0027310736070901482 -0.15493719994590471 0 -0.013317386200938249 -0.14799664519887931 0 -0.0013673002328405961 -0.1767093328090546 0 -0.029934926785222919 -0.1776443960910804 0 -0.0013673002328405961 -0.1767093328090546 0 -0.0217915143334447 -0.19785215020996011 0 -0.0013673002328405961 -0.1767093328090546 0 -0.029934926785222919 -0.1776443960910804 0 -0.0217915143334447 -0.19785215020996011 0 -0.013317386200938249 -0.14799664519887931 0 -0.029934926785222919 -0.1776443960910804 0 -0.035502595344277812 -0.15658093104599841 0 -0.035502595344277812 -0.15658093104599841 0 -0.057687804487617317 -0.16516521689311761 0 -0.029934926785222919 -0.1776443960910804 0 -0.035502595344277812 -0.15658093104599841 0 -0.057687804487617317 -0.16516521689311761 0 -0.029934926785222919 -0.1776443960910804 0 -0.048583433801033478 -0.18728911877980611 0 -0.034676635542126917 -0.191298641696723 0 -0.029934926785222919 -0.1776443960910804 0 -0.048583433801033478 -0.18728911877980611 0 -0.057687804487617317 -0.16516521689311761 0 -0.048583433801033478 -0.18728911877980611 0 -0.057687804487617317 -0.16516521689311761 0 -0.063770138428779252 -0.18079669395549949 0 -0.035502595344277812 -0.15658093104599841 0 -0.057687804487617317 -0.16516521689311761 0 -0.06059931965736505 -0.14742373122833671 0 -0.035502595344277812 -0.15658093104599841 0 -0.06059931965736505 -0.14742373122833671 0 -0.046947221071775923 -0.13666943570183401 0 -0.048239208743362072 -0.1165718691901324 0 -0.046947221071775923 -0.13666943570183401 0 -0.060446148579459319 -0.1303024678998376 0 -0.06059931965736505 -0.14742373122833671 0 -0.046947221071775923 -0.13666943570183401 0 -0.060446148579459319 -0.1303024678998376 0 -0.048239208743362072 -0.1165718691901324 0 -0.029948833034415319 -0.13246817914486481 0 -0.046947221071775923 -0.13666943570183401 0 -0.029948833034415319 -0.13246817914486481 0 -0.035502595344277812 -0.15658093104599841 0 -0.046947221071775923 -0.13666943570183401 0 -0.03064478186574425 -0.25326356670072259 0 -0.026067501294639708 -0.24850247980592871 0 -0.033387688564450117 -0.24425465961654741 0 -0.026067501294639708 -0.24850247980592871 0 -0.02456862519526215 -0.24210395604782819 0 -0.033387688564450117 -0.24425465961654741 0 -0.02974340118516787 -0.23585106297766359 0 -0.02456862519526215 -0.24210395604782819 0 -0.02062871475200042 -0.2320366992723622 0 -0.02974340118516787 -0.23585106297766359 0 -0.02456862519526215 -0.24210395604782819 0 -0.033387688564450117 -0.24425465961654741 0 -0.02456862519526215 -0.24210395604782819 0 -0.01660477195623393 -0.2403164687020414 0 -0.02062871475200042 -0.2320366992723622 0 -0.02456862519526215 -0.24210395604782819 0 -0.01660477195623393 -0.2403164687020414 0 -0.01887874476148543 -0.24814250919209771 0 -0.026067501294639708 -0.24850247980592871 0 -0.02456862519526215 -0.24210395604782819 0 -0.01887874476148543 -0.24814250919209771 0 -0.01660477195623393 -0.2403164687020414 0 -0.01887874476148543 -0.24814250919209771 0 -0.0080727856436109482 -0.2481099565327444 0 -0.0080727856436109482 -0.2481099565327444 0 -0.0084819670471955304 -0.2367225590632196 0 0.0055632338660241776 -0.24332209518663511 0 -0.01660477195623393 -0.2403164687020414 0 -0.0084819670471955304 -0.2367225590632196 0 -0.02062871475200042 -0.2320366992723622 0 -0.01660477195623393 -0.2403164687020414 0 -0.0080727856436109482 -0.2481099565327444 0 -0.0084819670471955304 -0.2367225590632196 0 -0.0084819670471955304 -0.2367225590632196 0 -0.0075276580997289226 -0.21896018305478171 0 0.0032521440618358652 -0.23009641691855939 0 -0.0084819670471955304 -0.2367225590632196 0 -0.0075276580997289226 -0.21896018305478171 0 -0.02062871475200042 -0.2320366992723622 0 -0.0075276580997289226 -0.21896018305478171 0 -0.02062871475200042 -0.2320366992723622 0 -0.024832472176938718 -0.21885173135413241 0 -0.02974340118516787 -0.23585106297766359 0 -0.02062871475200042 -0.2320366992723622 0 -0.031998745265470661 -0.22641465662269231 0 -0.02062871475200042 -0.2320366992723622 0 -0.024832472176938718 -0.21885173135413241 0 -0.031998745265470661 -0.22641465662269231 0 -0.0075276580997289226 -0.21896018305478171 0 -0.024832472176938718 -0.21885173135413241 0 -0.0217915143334447 -0.19785215020996011 0 -0.024832472176938718 -0.21885173135413241 0 -0.0217915143334447 -0.19785215020996011 0 -0.042215728434048867 -0.21899496761086559 0 -0.0075276580997289226 -0.21896018305478171 0 -0.0217915143334447 -0.19785215020996011 0 0.003555539334036632 -0.19934620758084881 0 -0.0013673002328405961 -0.1767093328090546 0 -0.0217915143334447 -0.19785215020996011 0 0.003555539334036632 -0.19934620758084881 0 -0.029934926785222919 -0.1776443960910804 0 -0.0217915143334447 -0.19785215020996011 0 -0.034676635542126917 -0.191298641696723 0 -0.0217915143334447 -0.19785215020996011 0 -0.034676635542126917 -0.191298641696723 0 -0.04224094911505525 -0.20168175555289891 0 -0.048583433801033478 -0.18728911877980611 0 -0.034676635542126917 -0.191298641696723 0 -0.04224094911505525 -0.20168175555289891 0 -0.048583433801033478 -0.18728911877980611 0 -0.058327232484387218 -0.2013044317948425 0 -0.063770138428779252 -0.18079669395549949 0 -0.048583433801033478 -0.18728911877980611 0 -0.04224094911505525 -0.20168175555289891 0 -0.058327232484387218 -0.2013044317948425 0 -0.058327232484387218 -0.2013044317948425 0 -0.04785115009529034 -0.21335122322519601 0 -0.065984069430329237 -0.21594808513783789 0 -0.04224094911505525 -0.20168175555289891 0 -0.058327232484387218 -0.2013044317948425 0 -0.04785115009529034 -0.21335122322519601 0 -0.04785115009529034 -0.21335122322519601 0 -0.065984069430329237 -0.21594808513783789 0 -0.04785115009529034 -0.21335122322519601 0 -0.050089297127046031 -0.22131182591420251 0 -0.065984069430329237 -0.21594808513783789 0 -0.0217915143334447 -0.19785215020996011 0 -0.042215728434048867 -0.21899496761086559 0 -0.0217915143334447 -0.19785215020996011 0 -0.04224094911505525 -0.20168175555289891 0 -0.042215728434048867 -0.21899496761086559 0 -0.04224094911505525 -0.20168175555289891 0 -0.04785115009529034 -0.21335122322519601 0 -0.042215728434048867 -0.21899496761086559 0 -0.04785115009529034 -0.21335122322519601 0 -0.042215728434048867 -0.21899496761086559 0 -0.050089297127046031 -0.22131182591420251 0 -0.024832472176938718 -0.21885173135413241 0 -0.031998745265470661 -0.22641465662269231 0 -0.042215728434048867 -0.21899496761086559 0 -0.031998745265470661 -0.22641465662269231 0 -0.042215728434048867 -0.21899496761086559 0 -0.041320068815934301 -0.22639292378782619 0 -0.031998745265470661 -0.22641465662269231 0 -0.041320068815934301 -0.22639292378782619 0 -0.038133232148655979 -0.23444534332888789 0 -0.02974340118516787 -0.23585106297766359 0 -0.031998745265470661 -0.22641465662269231 0 -0.038133232148655979 -0.23444534332888789 0 -0.041320068815934301 -0.22639292378782619 0 -0.052151212760384272 -0.22988480121754831 0 -0.038133232148655979 -0.23444534332888789 0 -0.042215728434048867 -0.21899496761086559 0 -0.041320068815934301 -0.22639292378782619 0 -0.050089297127046031 -0.22131182591420251 0 -0.041320068815934301 -0.22639292378782619 0 -0.050089297127046031 -0.22131182591420251 0 -0.052151212760384272 -0.22988480121754831 0 -0.0567919256119837 -0.24387644547435741 0 -0.065984069430329237 -0.21594808513783789 0 -0.050089297127046031 -0.22131182591420251 0 -0.052151212760384272 -0.22988480121754831 0 -0.065984069430329237 -0.21594808513783789 0 -0.052151212760384272 -0.22988480121754831 0 -0.0567919256119837 -0.24387644547435741 0 -0.065984069430329237 -0.21594808513783789 0 -0.052151212760384272 -0.22988480121754831 0 -0.0567919256119837 -0.24387644547435741 0 -0.045207486351244337 -0.24272005325013779 0 -0.046517308340487992 -0.25474718453952289 0 -0.0567919256119837 -0.24387644547435741 0 -0.045207486351244337 -0.24272005325013779 0 -0.038581934025118947 -0.25114857380685968 0 -0.046517308340487992 -0.25474718453952289 0 -0.045207486351244337 -0.24272005325013779 0 -0.052151212760384272 -0.22988480121754831 0 -0.045207486351244337 -0.24272005325013779 0 -0.038133232148655979 -0.23444534332888789 0 -0.02974340118516787 -0.23585106297766359 0 -0.038133232148655979 -0.23444534332888789 0 -0.033387688564450117 -0.24425465961654741 0 -0.045207486351244337 -0.24272005325013779 0 -0.038133232148655979 -0.23444534332888789 0 -0.033387688564450117 -0.24425465961654741 0 -0.038581934025118947 -0.25114857380685968 0 -0.03064478186574425 -0.25326356670072259 0 -0.033387688564450117 -0.24425465961654741 0 -0.038581934025118947 -0.25114857380685968 0 -0.045207486351244337 -0.24272005325013779 0 -0.033387688564450117 -0.24425465961654741 0 -0.076282262678724011 -0.24169347649274159 0 -0.094544528280961701 -0.23130979592197831 0 -0.1005321994236209 -0.2431127607729493 0 -0.090174700483665673 -0.26498018187443112 0 -0.076282262678724011 -0.24169347649274159 0 -0.1005321994236209 -0.2431127607729493 0 -0.063484538676239377 -0.26413124226689111 0 -0.0567919256119837 -0.24387644547435741 0 -0.076282262678724011 -0.24169347649274159 0 -0.0567919256119837 -0.24387644547435741 0 -0.076282262678724011 -0.24169347649274159 0 -0.076216545617433393 -0.2267874217425101 0 -0.0567919256119837 -0.24387644547435741 0 -0.076216545617433393 -0.2267874217425101 0 -0.065984069430329237 -0.21594808513783789 0 -0.076216545617433393 -0.2267874217425101 0 -0.089079986681209755 -0.21925571071859279 0 -0.065984069430329237 -0.21594808513783789 0 -0.076282262678724011 -0.24169347649274159 0 -0.076216545617433393 -0.2267874217425101 0 -0.089079986681209755 -0.21925571071859279 0 -0.076282262678724011 -0.24169347649274159 0 -0.089079986681209755 -0.21925571071859279 0 -0.076282262678724011 -0.24169347649274159 0 -0.089079986681209755 -0.21925571071859279 0 -0.094544528280961701 -0.23130979592197831 0 -0.089079986681209755 -0.21925571071859279 0 -0.087982693832912948 -0.20610030108417279 0 -0.065984069430329237 -0.21594808513783789 0 -0.089079986681209755 -0.21925571071859279 0 -0.091681034097487346 -0.21469539259619891 0 -0.087982693832912948 -0.20610030108417279 0 -0.089079986681209755 -0.21925571071859279 0 -0.091681034097487346 -0.21469539259619891 0 -0.089079986681209755 -0.21925571071859279 0 -0.065984069430329237 -0.21594808513783789 0 -0.058327232484387218 -0.2013044317948425 0 -0.065984069430329237 -0.21594808513783789 0 -0.072928541530643487 -0.1948487939390374 0 -0.065984069430329237 -0.21594808513783789 0 -0.072928541530643487 -0.1948487939390374 0 -0.087982693832912948 -0.20610030108417279 0 -0.065984069430329237 -0.21594808513783789 0 -0.072928541530643487 -0.1948487939390374 0 -0.058327232484387218 -0.2013044317948425 0 -0.072928541530643487 -0.1948487939390374 0 -0.063770138428779252 -0.18079669395549949 0 -0.087982693832912948 -0.20610030108417279 0 -0.072928541530643487 -0.1948487939390374 0 -0.088647710124579282 -0.1895137930351245 0 -0.087982693832912948 -0.20610030108417279 0 -0.088647710124579282 -0.1895137930351245 0 -0.098413722631135098 -0.19641739989264009 0 -0.088647710124579282 -0.1895137930351245 0 -0.098413722631135098 -0.19641739989264009 0 -0.1039428787252024 -0.18306303235069041 0 -0.087982693832912948 -0.20610030108417279 0 -0.098413722631135098 -0.19641739989264009 0 -0.1018219586260966 -0.2062222809526808 0 -0.098413722631135098 -0.19641739989264009 0 -0.10967337184688419 -0.19718759204053191 0 -0.1018219586260966 -0.2062222809526808 0 -0.098413722631135098 -0.19641739989264009 0 -0.10967337184688419 -0.19718759204053191 0 -0.1039428787252024 -0.18306303235069041 0 -0.1039428787252024 -0.18306303235069041 0 -0.1280127438194481 -0.19237656196114411 0 -0.10967337184688419 -0.19718759204053191 0 -0.1178174188303993 -0.20556040013348681 0 -0.1280127438194481 -0.19237656196114411 0 -0.10967337184688419 -0.19718759204053191 0 -0.1039428787252024 -0.18306303235069041 0 -0.1280127438194481 -0.19237656196114411 0 -0.10967337184688419 -0.19718759204053191 0 -0.10961342770230489 -0.21003706569406461 0 -0.1178174188303993 -0.20556040013348681 0 -0.1178174188303993 -0.20556040013348681 0 -0.1109550451866443 -0.21888036136960631 0 -0.13246178853905299 -0.20873151589840269 0 -0.1109550451866443 -0.21888036136960631 0 -0.13246178853905299 -0.20873151589840269 0 -0.1109550451866443 -0.21888036136960631 0 -0.12407830270498089 -0.22426790937284519 0 -0.13246178853905299 -0.20873151589840269 0 -0.10961342770230489 -0.21003706569406461 0 -0.1178174188303993 -0.20556040013348681 0 -0.1109550451866443 -0.21888036136960631 0 -0.10961342770230489 -0.21003706569406461 0 -0.103172625086798 -0.22127395363072039 0 -0.1109550451866443 -0.21888036136960631 0 -0.10961342770230489 -0.21003706569406461 0 -0.1018219586260966 -0.2062222809526808 0 -0.103172625086798 -0.22127395363072039 0 -0.10967337184688419 -0.19718759204053191 0 -0.10961342770230489 -0.21003706569406461 0 -0.1018219586260966 -0.2062222809526808 0 -0.091681034097487346 -0.21469539259619891 0 -0.087982693832912948 -0.20610030108417279 0 -0.103172625086798 -0.22127395363072039 0 -0.089079986681209755 -0.21925571071859279 0 -0.091681034097487346 -0.21469539259619891 0 -0.103172625086798 -0.22127395363072039 0 -0.087982693832912948 -0.20610030108417279 0 -0.103172625086798 -0.22127395363072039 0 -0.087982693832912948 -0.20610030108417279 0 -0.1018219586260966 -0.2062222809526808 0 -0.103172625086798 -0.22127395363072039 0 -0.094544528280961701 -0.23130979592197831 0 -0.103172625086798 -0.22127395363072039 0 -0.1005321994236209 -0.2431127607729493 0 -0.089079986681209755 -0.21925571071859279 0 -0.103172625086798 -0.22127395363072039 0 -0.089079986681209755 -0.21925571071859279 0 -0.094544528280961701 -0.23130979592197831 0 -0.103172625086798 -0.22127395363072039 0 -0.103172625086798 -0.22127395363072039 0 -0.1223681628105569 -0.24044891992886891 0 -0.103172625086798 -0.22127395363072039 0 -0.12407830270498089 -0.22426790937284519 0 -0.1238233973506119 -0.23541481827178831 0 -0.103172625086798 -0.22127395363072039 0 -0.1223681628105569 -0.24044891992886891 0 -0.1238233973506119 -0.23541481827178831 0 -0.103172625086798 -0.22127395363072039 0 -0.12407830270498089 -0.22426790937284519 0 -0.103172625086798 -0.22127395363072039 0 -0.1109550451866443 -0.21888036136960631 0 -0.12407830270498089 -0.22426790937284519 0 -0.11757885349586771 -0.25701660664448461 0 -0.1223681628105569 -0.24044891992886891 0 -0.1005321994236209 -0.2431127607729493 0 -0.11757885349586771 -0.25701660664448461 0 -0.1223681628105569 -0.24044891992886891 0 -0.1223681628105569 -0.24044891992886891 0 -0.1238233973506119 -0.23541481827178831 0 -0.103172625086798 -0.22127395363072039 0 -0.1223681628105569 -0.24044891992886891 0 -0.1005321994236209 -0.2431127607729493 0 -0.088441251280713618 -0.1477167476767523 0 -0.085474651021334253 -0.13655174303235951 0 -0.077236065216807342 -0.1460130695171887 0 -0.088441251280713618 -0.1477167476767523 0 -0.077236065216807342 -0.1460130695171887 0 -0.072985053953480025 -0.15595005707556001 0 -0.088441251280713618 -0.1477167476767523 0 -0.093538562727787294 -0.15940564464812701 0 -0.098894310772838973 -0.14952020789867901 0 -0.088441251280713618 -0.1477167476767523 0 -0.085474651021334253 -0.13655174303235951 0 -0.095252038160572317 -0.1406191133899993 0 -0.085474651021334253 -0.13655174303235951 0 -0.095971306836852913 -0.13086642389395989 0 -0.095252038160572317 -0.1406191133899993 0 -0.082994471061899833 -0.1234246307735777 0 -0.085474651021334253 -0.13655174303235951 0 -0.095971306836852913 -0.13086642389395989 0 -0.082994471061899833 -0.1234246307735777 0 -0.085474651021334253 -0.13655174303235951 0 -0.073596501371478315 -0.1364787996572045 0 -0.085474651021334253 -0.13655174303235951 0 -0.073596501371478315 -0.1364787996572045 0 -0.077236065216807342 -0.1460130695171887 0 -0.06059931965736505 -0.14742373122833671 0 -0.060446148579459319 -0.1303024678998376 0 -0.073596501371478315 -0.1364787996572045 0 -0.082994471061899833 -0.1234246307735777 0 -0.073596501371478315 -0.1364787996572045 0 -0.071674103496310607 -0.1250344835198243 0 -0.060446148579459319 -0.1303024678998376 0 -0.073596501371478315 -0.1364787996572045 0 -0.071674103496310607 -0.1250344835198243 0 -0.06059931965736505 -0.14742373122833671 0 -0.073596501371478315 -0.1364787996572045 0 -0.077236065216807342 -0.1460130695171887 0 -0.057687804487617317 -0.16516521689311761 0 -0.06059931965736505 -0.14742373122833671 0 -0.072985053953480025 -0.15595005707556001 0 -0.06059931965736505 -0.14742373122833671 0 -0.077236065216807342 -0.1460130695171887 0 -0.072985053953480025 -0.15595005707556001 0 -0.057687804487617317 -0.16516521689311761 0 -0.079873013630956835 -0.17374950274023659 0 -0.057687804487617317 -0.16516521689311761 0 -0.072985053953480025 -0.15595005707556001 0 -0.079873013630956835 -0.17374950274023659 0 -0.072928541530643487 -0.1948487939390374 0 -0.079873013630956835 -0.17374950274023659 0 -0.057687804487617317 -0.16516521689311761 0 -0.063770138428779252 -0.18079669395549949 0 -0.079873013630956835 -0.17374950274023659 0 -0.072928541530643487 -0.1948487939390374 0 -0.063770138428779252 -0.18079669395549949 0 -0.079873013630956835 -0.17374950274023659 0 -0.072928541530643487 -0.1948487939390374 0 -0.088647710124579282 -0.1895137930351245 0 -0.079873013630956835 -0.17374950274023659 0 -0.079873013630956835 -0.17374950274023659 0 -0.1039428787252024 -0.18306303235069041 0 -0.088647710124579282 -0.1895137930351245 0 -0.079873013630956835 -0.17374950274023659 0 -0.1039428787252024 -0.18306303235069041 0 -0.088441251280713618 -0.1477167476767523 0 -0.079873013630956835 -0.17374950274023659 0 -0.079873013630956835 -0.17374950274023659 0 -0.093538562727787294 -0.15940564464812701 0 -0.098088850166783578 -0.16700629557107341 0 -0.088441251280713618 -0.1477167476767523 0 -0.079873013630956835 -0.17374950274023659 0 -0.093538562727787294 -0.15940564464812701 0 -0.088441251280713618 -0.1477167476767523 0 -0.072985053953480025 -0.15595005707556001 0 -0.079873013630956835 -0.17374950274023659 0 -0.093538562727787294 -0.15940564464812701 0 -0.098088850166783578 -0.16700629557107341 0 -0.1023953877876435 -0.15903546935389351 0 -0.098088850166783578 -0.16700629557107341 0 -0.1039428787252024 -0.18306303235069041 0 -0.1119878388851908 -0.16231915977259129 0 -0.098088850166783578 -0.16700629557107341 0 -0.1023953877876435 -0.15903546935389351 0 -0.1119878388851908 -0.16231915977259129 0 -0.079873013630956835 -0.17374950274023659 0 -0.098088850166783578 -0.16700629557107341 0 -0.1039428787252024 -0.18306303235069041 0 -0.1039428787252024 -0.18306303235069041 0 -0.11859204859796291 -0.17560578940816099 0 -0.1119878388851908 -0.16231915977259129 0 -0.1039428787252024 -0.18306303235069041 0 -0.11859204859796291 -0.17560578940816099 0 -0.1280127438194481 -0.19237656196114411 0 -0.1023953877876435 -0.15903546935389351 0 -0.1119878388851908 -0.16231915977259129 0 -0.1169630623746598 -0.14907522687480429 0 -0.11859204859796291 -0.17560578940816099 0 -0.1119878388851908 -0.16231915977259129 0 -0.12588679133122799 -0.1624874708491951 0 -0.1119878388851908 -0.16231915977259129 0 -0.1169630623746598 -0.14907522687480429 0 -0.12588679133122799 -0.1624874708491951 0 -0.1119878388851908 -0.16231915977259129 0 -0.1169630623746598 -0.14907522687480429 0 -0.1023953877876435 -0.15903546935389351 0 -0.1169630623746598 -0.14907522687480429 0 -0.098894310772838973 -0.14952020789867901 0 -0.1169630623746598 -0.14907522687480429 0 -0.098894310772838973 -0.14952020789867901 0 -0.1169630623746598 -0.14907522687480429 0 -0.098894310772838973 -0.14952020789867901 0 -0.1074786708911218 -0.1384404444482458 0 -0.088441251280713618 -0.1477167476767523 0 -0.098894310772838973 -0.14952020789867901 0 -0.095252038160572317 -0.1406191133899993 0 -0.098894310772838973 -0.14952020789867901 0 -0.095252038160572317 -0.1406191133899993 0 -0.1074786708911218 -0.1384404444482458 0 -0.093538562727787294 -0.15940564464812701 0 -0.1023953877876435 -0.15903546935389351 0 -0.098894310772838973 -0.14952020789867901 0 -0.1085913382140784 -0.11903379143832921 0 -0.095971306836852913 -0.13086642389395989 0 -0.1074786708911218 -0.1384404444482458 0 -0.095971306836852913 -0.13086642389395989 0 -0.095252038160572317 -0.1406191133899993 0 -0.1074786708911218 -0.1384404444482458 0 -0.1085913382140784 -0.11903379143832921 0 -0.1074786708911218 -0.1384404444482458 0 -0.12736410167423581 -0.1213878944680517 0 -0.1169630623746598 -0.14907522687480429 0 -0.1074786708911218 -0.1384404444482458 0 -0.12736410167423581 -0.1213878944680517 0 -0.1169630623746598 -0.14907522687480429 0 -0.12736410167423581 -0.1213878944680517 0 -0.13746664940214659 -0.13470709103134659 0 -0.12736410167423581 -0.1213878944680517 0 -0.14737054533773081 -0.1208951937003558 0 -0.1169630623746598 -0.14907522687480429 0 -0.13746664940214659 -0.13470709103134659 0 -0.12736410167423581 -0.1213878944680517 0 -0.1569759497016511 -0.14808982533941309 0 -0.14737054533773081 -0.1208951937003558 0 -0.13746664940214659 -0.13470709103134659 0 -0.1569759497016511 -0.14808982533941309 0 -0.14737054533773081 -0.1208951937003558 0 -0.1369695060381555 -0.1485825261071109 0 -0.1526603788815559 -0.1573596194762775 0 -0.1569759497016511 -0.14808982533941309 0 -0.13746664940214659 -0.13470709103134659 0 -0.1369695060381555 -0.1485825261071109 0 -0.1569759497016511 -0.14808982533941309 0 -0.1369695060381555 -0.1485825261071109 0 -0.1569759497016511 -0.14808982533941309 0 -0.1169630623746598 -0.14907522687480429 0 -0.1369695060381555 -0.1485825261071109 0 -0.1169630623746598 -0.14907522687480429 0 -0.1369695060381555 -0.1485825261071109 0 -0.12588679133122799 -0.1624874708491951 0 -0.1169630623746598 -0.14907522687480429 0 -0.13746664940214659 -0.13470709103134659 0 -0.1369695060381555 -0.1485825261071109 0 -0.11859204859796291 -0.17560578940816099 0 -0.12588679133122799 -0.1624874708491951 0 -0.13147554750711021 -0.17522771154146191 0 -0.12588679133122799 -0.1624874708491951 0 -0.13147554750711021 -0.17522771154146191 0 -0.14107140235061469 -0.16358211752318311 0 -0.13147554750711021 -0.17522771154146191 0 -0.14520517551865919 -0.17294749126987599 0 -0.14107140235061469 -0.16358211752318311 0 -0.1369695060381555 -0.1485825261071109 0 -0.12588679133122799 -0.1624874708491951 0 -0.14107140235061469 -0.16358211752318311 0 -0.11859204859796291 -0.17560578940816099 0 -0.13147554750711021 -0.17522771154146191 0 -0.1280127438194481 -0.19237656196114411 0 -0.13147554750711021 -0.17522771154146191 0 -0.1398254013782112 -0.18365029146927231 0 -0.1280127438194481 -0.19237656196114411 0 -0.13147554750711021 -0.17522771154146191 0 -0.1398254013782112 -0.18365029146927231 0 -0.14520517551865919 -0.17294749126987599 0 -0.1398254013782112 -0.18365029146927231 0 -0.14820117369214661 -0.18035874543477601 0 -0.1498687104188495 -0.18767128888863599 0 -0.1398254013782112 -0.18365029146927231 0 -0.14820117369214661 -0.18035874543477601 0 -0.14520517551865919 -0.17294749126987599 0 -0.14820117369214661 -0.18035874543477601 0 -0.14520517551865919 -0.17294749126987599 0 -0.1568216795970071 -0.17538216601134321 0 -0.14820117369214661 -0.18035874543477601 0 -0.15608754076248521 -0.18190001438557629 0 -0.1568216795970071 -0.17538216601134321 0 -0.14520517551865919 -0.17294749126987599 0 -0.15263532751206779 -0.16758471640843459 0 -0.1568216795970071 -0.17538216601134321 0 -0.14820117369214661 -0.18035874543477601 0 -0.15608754076248521 -0.18190001438557629 0 -0.1498687104188495 -0.18767128888863599 0 -0.15608754076248521 -0.18190001438557629 0 -0.1607184616130248 -0.18728683910860641 0 -0.1498687104188495 -0.18767128888863599 0 -0.1369695060381555 -0.1485825261071109 0 -0.14107140235061469 -0.16358211752318311 0 -0.1526603788815559 -0.1573596194762775 0 -0.14520517551865919 -0.17294749126987599 0 -0.14107140235061469 -0.16358211752318311 0 -0.15263532751206779 -0.16758471640843459 0 -0.15263532751206779 -0.16758471640843459 0 -0.1526603788815559 -0.1573596194762775 0 -0.16142564196989831 -0.16655703171874039 0 -0.14107140235061469 -0.16358211752318311 0 -0.15263532751206779 -0.16758471640843459 0 -0.1526603788815559 -0.1573596194762775 0 -0.1526603788815559 -0.1573596194762775 0 -0.16142564196989831 -0.16655703171874039 0 -0.16326087804426159 -0.16588359066980229 0 -0.16326087804426159 -0.16588359066980229 0 -0.1569759497016511 -0.14808982533941309 0 -0.1526603788815559 -0.1573596194762775 0 -0.16326087804426159 -0.16588359066980229 0 -0.1569759497016511 -0.14808982533941309 0 -0.1594122663447772 -0.17133307891758459 0 -0.16142564196989831 -0.16655703171874039 0 -0.16676641630013581 -0.17580840153182001 0 -0.15263532751206779 -0.16758471640843459 0 -0.1594122663447772 -0.17133307891758459 0 -0.16142564196989831 -0.16655703171874039 0 -0.16142564196989831 -0.16655703171874039 0 -0.16326087804426159 -0.16588359066980229 0 -0.16676641630013581 -0.17580840153182001 0 -0.15263532751206779 -0.16758471640843459 0 -0.1594122663447772 -0.17133307891758459 0 -0.1568216795970071 -0.17538216601134321 0 -0.16142564196989831 -0.16655703171874039 0 -0.16326087804426159 -0.16588359066980229 0 -0.16326087804426159 -0.16588359066980229 0 -0.16676641630013581 -0.17580840153182001 0 -0.1783922457352059 -0.17293489930968209 0 -0.16326087804426159 -0.16588359066980229 0 -0.16676641630013581 -0.17580840153182001 0 -0.15608754076248521 -0.18190001438557629 0 -0.1607184616130248 -0.18728683910860641 0 -0.16676641630013581 -0.17580840153182001 0 -0.15608754076248521 -0.18190001438557629 0 -0.1568216795970071 -0.17538216601134321 0 -0.16676641630013581 -0.17580840153182001 0 -0.1594122663447772 -0.17133307891758459 0 -0.1568216795970071 -0.17538216601134321 0 -0.16676641630013581 -0.17580840153182001 0 -0.1607184616130248 -0.18728683910860641 0 -0.16676641630013581 -0.17580840153182001 0 -0.17547527524387041 -0.1884338249559952 0 -0.17547527524387041 -0.1884338249559952 0 -0.1969820185962792 -0.17828497948479149 0 -0.1783922457352059 -0.17293489930968209 0 -0.17547527524387041 -0.1884338249559952 0 -0.1969820185962792 -0.17828497948479149 0 -0.16676641630013581 -0.17580840153182001 0 -0.1783922457352059 -0.17293489930968209 0 -0.17547527524387041 -0.1884338249559952 0 -0.16326087804426159 -0.16588359066980229 0 -0.18947664049148261 -0.1562636999060015 0 -0.16326087804426159 -0.16588359066980229 0 -0.18633417632017751 -0.14736681724080919 0 -0.18947664049148261 -0.1562636999060015 0 -0.16326087804426159 -0.16588359066980229 0 -0.1783922457352059 -0.17293489930968209 0 -0.18947664049148261 -0.1562636999060015 0 -0.18633417632017751 -0.14736681724080919 0 -0.16621773075288121 -0.1295318635244681 0 -0.18400621351090571 -0.1217110611121094 0 -0.16621773075288121 -0.1295318635244681 0 -0.1569759497016511 -0.14808982533941309 0 -0.14737054533773081 -0.1208951937003558 0 -0.18633417632017751 -0.14736681724080919 0 -0.16621773075288121 -0.1295318635244681 0 -0.1569759497016511 -0.14808982533941309 0 -0.18633417632017751 -0.14736681724080919 0 -0.1569759497016511 -0.14808982533941309 0 -0.16326087804426159 -0.16588359066980229 0 -0.18633417632017751 -0.14736681724080919 0 -0.1569759497016511 -0.14808982533941309 0 -0.1377523016625678 -0.25581657194563601 0 -0.15263230708737521 -0.24356194903458239 0 -0.13476861079800859 -0.2391754021203874 0 -0.15263230708737521 -0.24356194903458239 0 -0.13476861079800859 -0.2391754021203874 0 -0.14055595197029169 -0.22979662500526149 0 -0.1377523016625678 -0.25581657194563601 0 -0.1223681628105569 -0.24044891992886891 0 -0.13476861079800859 -0.2391754021203874 0 -0.1377523016625678 -0.25581657194563601 0 -0.1223681628105569 -0.24044891992886891 0 -0.1238233973506119 -0.23541481827178831 0 -0.13476861079800859 -0.2391754021203874 0 -0.13139441447274411 -0.22962184130071481 0 -0.1223681628105569 -0.24044891992886891 0 -0.1238233973506119 -0.23541481827178831 0 -0.13476861079800859 -0.2391754021203874 0 -0.13476861079800859 -0.2391754021203874 0 -0.14055595197029169 -0.22979662500526149 0 -0.13139441447274411 -0.22962184130071481 0 -0.12407830270498089 -0.22426790937284519 0 -0.1238233973506119 -0.23541481827178831 0 -0.13139441447274411 -0.22962184130071481 0 -0.12407830270498089 -0.22426790937284519 0 -0.13139441447274411 -0.22962184130071481 0 -0.13441394179160859 -0.22010184774946731 0 -0.14055595197029169 -0.22979662500526149 0 -0.13139441447274411 -0.22962184130071481 0 -0.13441394179160859 -0.22010184774946731 0 -0.14055595197029169 -0.22979662500526149 0 -0.13441394179160859 -0.22010184774946731 0 -0.14940536450650499 -0.21373664043116339 0 -0.15263230708737521 -0.24356194903458239 0 -0.14940536450650499 -0.21373664043116339 0 -0.15263230708737521 -0.24356194903458239 0 -0.14940536450650499 -0.21373664043116339 0 -0.16621803193972459 -0.22739125443424221 0 -0.15263230708737521 -0.24356194903458239 0 -0.14055595197029169 -0.22979662500526149 0 -0.14940536450650499 -0.21373664043116339 0 -0.14940536450650499 -0.21373664043116339 0 -0.13246178853905299 -0.20873151589840269 0 -0.1539685318914617 -0.1985826704271989 0 -0.13246178853905299 -0.20873151589840269 0 -0.1539685318914617 -0.1985826704271989 0 -0.13441394179160859 -0.22010184774946731 0 -0.14940536450650499 -0.21373664043116339 0 -0.13246178853905299 -0.20873151589840269 0 -0.12407830270498089 -0.22426790937284519 0 -0.13441394179160859 -0.22010184774946731 0 -0.13246178853905299 -0.20873151589840269 0 -0.1178174188303993 -0.20556040013348681 0 -0.13246178853905299 -0.20873151589840269 0 -0.1280127438194481 -0.19237656196114411 0 -0.13246178853905299 -0.20873151589840269 0 -0.1280127438194481 -0.19237656196114411 0 -0.14041115317576749 -0.19424917250638599 0 -0.1398254013782112 -0.18365029146927231 0 -0.1280127438194481 -0.19237656196114411 0 -0.14041115317576749 -0.19424917250638599 0 -0.13246178853905299 -0.20873151589840269 0 -0.14041115317576749 -0.19424917250638599 0 -0.1539685318914617 -0.1985826704271989 0 -0.14041115317576749 -0.19424917250638599 0 -0.1539685318914617 -0.1985826704271989 0 -0.1498687104188495 -0.18767128888863599 0 -0.1398254013782112 -0.18365029146927231 0 -0.14041115317576749 -0.19424917250638599 0 -0.1498687104188495 -0.18767128888863599 0 -0.1607184616130248 -0.18728683910860641 0 -0.1539685318914617 -0.1985826704271989 0 -0.1498687104188495 -0.18767128888863599 0 -0.1607184616130248 -0.18728683910860641 0 -0.1539685318914617 -0.1985826704271989 0 -0.17547527524387041 -0.1884338249559952 0 -0.1539685318914617 -0.1985826704271989 0 -0.17547527524387041 -0.1884338249559952 0 -0.16825702714884239 -0.20885775366498019 0 -0.1539685318914617 -0.1985826704271989 0 -0.17547527524387041 -0.1884338249559952 0 -0.17547527524387041 -0.1884338249559952 0 -0.18277425339256639 -0.2026996383603622 0 -0.16825702714884239 -0.20885775366498019 0 -0.17547527524387041 -0.1884338249559952 0 -0.18277425339256639 -0.2026996383603622 0 -0.1902080517791363 -0.1917922864575213 0 -0.18277425339256639 -0.2026996383603622 0 -0.16825702714884239 -0.20885775366498019 0 -0.18626938338499441 -0.22517712183416291 0 -0.14940536450650499 -0.21373664043116339 0 -0.1539685318914617 -0.1985826704271989 0 -0.16825702714884239 -0.20885775366498019 0 -0.14940536450650499 -0.21373664043116339 0 -0.16825702714884239 -0.20885775366498019 0 -0.16621803193972459 -0.22739125443424221 0 -0.16825702714884239 -0.20885775366498019 0 -0.16621803193972459 -0.22739125443424221 0 -0.18626938338499441 -0.22517712183416291 0 -0.16621803193972459 -0.22739125443424221 0 -0.18626938338499441 -0.22517712183416291 0 -0.1745260775709061 -0.24562280720632229 0 -0.18626938338499441 -0.22517712183416291 0 -0.1745260775709061 -0.24562280720632229 0 -0.19988453840298659 -0.24176205441804 0 -0.18626938338499441 -0.22517712183416291 0 -0.1745260775709061 -0.24562280720632229 0 -0.15263230708737521 -0.24356194903458239 0 -0.16621803193972459 -0.22739125443424221 0 -0.1745260775709061 -0.24562280720632229 0 -0.1689202540561075 -0.25519621835756329 0 -0.15263230708737521 -0.24356194903458239 0 -0.1745260775709061 -0.24562280720632229 0 -0.21854221021918649 -0.25236034283526498 0 -0.19988453840298659 -0.24176205441804 0 -0.21493562756427159 -0.22243862284749449 0 -0.19160736129165659 -0.25262396586623759 0 -0.1745260775709061 -0.24562280720632229 0 -0.19988453840298659 -0.24176205441804 0 -0.18626938338499441 -0.22517712183416291 0 -0.19988453840298659 -0.24176205441804 0 -0.21493562756427159 -0.22243862284749449 0 -0.21493562756427159 -0.22243862284749449 0 -0.19801268919908249 -0.2047314364620034 0 -0.21541309520260529 -0.20113031717637361 0 -0.18626938338499441 -0.22517712183416291 0 -0.19801268919908249 -0.2047314364620034 0 -0.18277425339256639 -0.2026996383603622 0 -0.18626938338499441 -0.22517712183416291 0 -0.19801268919908249 -0.2047314364620034 0 -0.18626938338499441 -0.22517712183416291 0 -0.21493562756427159 -0.22243862284749449 0 -0.19801268919908249 -0.2047314364620034 0 -0.19801268919908249 -0.2047314364620034 0 -0.1902080517791363 -0.1917922864575213 0 -0.20975599501317069 -0.18428575108984399 0 -0.18277425339256639 -0.2026996383603622 0 -0.19801268919908249 -0.2047314364620034 0 -0.1902080517791363 -0.1917922864575213 0 -0.21541309520260529 -0.20113031717637361 0 -0.20975599501317069 -0.18428575108984399 0 -0.229896455205026 -0.18225842567294781 0 -0.19801268919908249 -0.2047314364620034 0 -0.21541309520260529 -0.20113031717637361 0 -0.20975599501317069 -0.18428575108984399 0 -0.19801268919908249 -0.2047314364620034 0 -0.20975599501317069 -0.18428575108984399 0 -0.21541309520260529 -0.20113031717637361 0 -0.23384346774119599 -0.2034651679104556 0 -0.229896455205026 -0.18225842567294781 0 -0.24262172765942899 -0.19089247064050549 0 -0.25644706280453389 -0.1995927939493197 0 -0.25029992488695979 -0.1782534950292988 0 -0.24262172765942899 -0.19089247064050549 0 -0.23384346774119599 -0.2034651679104556 0 -0.25644706280453389 -0.1995927939493197 0 -0.24262172765942899 -0.19089247064050549 0 -0.23384346774119599 -0.2034651679104556 0 -0.229896455205026 -0.18225842567294781 0 -0.23384346774119599 -0.2034651679104556 0 -0.2377451423251814 -0.23136366228574551 0 -0.25674041691710447 -0.22108212323078871 0 -0.23384346774119599 -0.2034651679104556 0 -0.25674041691710447 -0.22108212323078871 0 -0.25644706280453389 -0.1995927939493197 0 -0.21493562756427159 -0.22243862284749449 0 -0.21541309520260529 -0.20113031717637361 0 -0.23384346774119599 -0.2034651679104556 0 -0.21493562756427159 -0.22243862284749449 0 -0.23384346774119599 -0.2034651679104556 0 -0.2377451423251814 -0.23136366228574551 0 -0.24465976002352091 -0.25387891845332877 0 -0.2377451423251814 -0.23136366228574551 0 -0.25992972331208369 -0.2410680052130979 0 -0.24465976002352091 -0.25387891845332877 0 -0.21854221021918649 -0.25236034283526498 0 -0.2377451423251814 -0.23136366228574551 0 -0.21854221021918649 -0.25236034283526498 0 -0.21493562756427159 -0.22243862284749449 0 -0.2377451423251814 -0.23136366228574551 0 -0.21854221021918649 -0.25236034283526498 0 -0.2377451423251814 -0.23136366228574551 0 -0.21569240293870359 -0.1466438091422006 0 -0.18947664049148261 -0.1562636999060015 0 -0.2105647825198341 -0.15627799774793921 0 -0.2105647825198341 -0.15627799774793921 0 -0.22149930082725899 -0.1638400657176845 0 -0.22047208921520459 -0.14652609931143951 0 -0.21569240293870359 -0.1466438091422006 0 -0.2105647825198341 -0.15627799774793921 0 -0.22047208921520459 -0.14652609931143951 0 -0.21569240293870359 -0.1466438091422006 0 -0.22047208921520459 -0.14652609931143951 0 -0.20228853596836749 -0.13187567246267581 0 -0.2244809527826766 -0.1321180186971766 0 -0.2129261089666101 -0.1196792574727195 0 -0.21569240293870359 -0.1466438091422006 0 -0.20228853596836749 -0.13187567246267581 0 -0.2244809527826766 -0.1321180186971766 0 -0.18633417632017751 -0.14736681724080919 0 -0.20228853596836749 -0.13187567246267581 0 -0.18400621351090571 -0.1217110611121094 0 -0.21569240293870359 -0.1466438091422006 0 -0.18947664049148261 -0.1562636999060015 0 -0.18633417632017751 -0.14736681724080919 0 -0.21569240293870359 -0.1466438091422006 0 -0.18947664049148261 -0.1562636999060015 0 -0.18633417632017751 -0.14736681724080919 0 -0.21569240293870359 -0.1466438091422006 0 -0.18633417632017751 -0.14736681724080919 0 -0.21569240293870359 -0.1466438091422006 0 -0.20228853596836749 -0.13187567246267581 0 -0.1783922457352059 -0.17293489930968209 0 -0.18947664049148261 -0.1562636999060015 0 -0.1969820185962792 -0.17828497948479149 0 -0.18947664049148261 -0.1562636999060015 0 -0.1969820185962792 -0.17828497948479149 0 -0.20568347912652049 -0.16811631466237001 0 -0.18947664049148261 -0.1562636999060015 0 -0.20568347912652049 -0.16811631466237001 0 -0.2105647825198341 -0.15627799774793921 0 -0.1902080517791363 -0.1917922864575213 0 -0.1969820185962792 -0.17828497948479149 0 -0.20975599501317069 -0.18428575108984399 0 -0.17547527524387041 -0.1884338249559952 0 -0.1902080517791363 -0.1917922864575213 0 -0.1969820185962792 -0.17828497948479149 0 -0.20975599501317069 -0.18428575108984399 0 -0.22149930082725899 -0.1638400657176845 0 -0.20975599501317069 -0.18428575108984399 0 -0.20568347912652049 -0.16811631466237001 0 -0.22149930082725899 -0.1638400657176845 0 -0.1969820185962792 -0.17828497948479149 0 -0.20975599501317069 -0.18428575108984399 0 -0.20568347912652049 -0.16811631466237001 0 -0.20568347912652049 -0.16811631466237001 0 -0.2105647825198341 -0.15627799774793921 0 -0.22149930082725899 -0.1638400657176845 0 -0.22149930082725899 -0.1638400657176845 0 -0.2402834514435094 -0.1667894474332684 0 -0.2341322288468432 -0.15422277024092529 0 -0.22149930082725899 -0.1638400657176845 0 -0.229896455205026 -0.18225842567294781 0 -0.2402834514435094 -0.1667894474332684 0 -0.20975599501317069 -0.18428575108984399 0 -0.22149930082725899 -0.1638400657176845 0 -0.229896455205026 -0.18225842567294781 0 -0.229896455205026 -0.18225842567294781 0 -0.2402834514435094 -0.1667894474332684 0 -0.25029992488695979 -0.1782534950292988 0 -0.24262172765942899 -0.19089247064050549 0 -0.229896455205026 -0.18225842567294781 0 -0.25029992488695979 -0.1782534950292988 0 -0.2402834514435094 -0.1667894474332684 0 -0.25029992488695979 -0.1782534950292988 0 -0.25761979100978533 -0.16665415002795461 0 -0.2402834514435094 -0.1667894474332684 0 -0.24825300788518309 -0.1555077779107997 0 -0.25761979100978533 -0.16665415002795461 0 -0.2402834514435094 -0.1667894474332684 0 -0.24825300788518309 -0.1555077779107997 0 -0.2341322288468432 -0.15422277024092529 0 -0.24825300788518309 -0.1555077779107997 0 -0.2405789555143194 -0.1375116727892334 0 -0.25601133851015478 -0.1487044986697981 0 -0.24825300788518309 -0.1555077779107997 0 -0.2341322288468432 -0.15422277024092529 0 -0.2405789555143194 -0.1375116727892334 0 -0.21569240293870359 -0.1466438091422006 0 -0.22047208921520459 -0.14652609931143951 0 -0.2405789555143194 -0.1375116727892334 0 -0.22149930082725899 -0.1638400657176845 0 -0.2341322288468432 -0.15422277024092529 0 -0.22047208921520459 -0.14652609931143951 0 -0.21569240293870359 -0.1466438091422006 0 -0.2405789555143194 -0.1375116727892334 0 -0.2341322288468432 -0.15422277024092529 0 -0.22047208921520459 -0.14652609931143951 0 -0.2405789555143194 -0.1375116727892334 0 -0.21569240293870359 -0.1466438091422006 0 -0.2244809527826766 -0.1321180186971766 0 -0.2405789555143194 -0.1375116727892334 0 -0.2244809527826766 -0.1321180186971766 0 -0.2405789555143194 -0.1375116727892334 0 -0.23651179230599079 -0.1199754775459997 0 -0.2405789555143194 -0.1375116727892334 0 -0.23651179230599079 -0.1199754775459997 0 -0.25054446979338107 -0.12912519928877991 0 -0.23651179230599079 -0.1199754775459997 0 -0.24959534238117709 -0.1078054475449232 0 -0.26009747564537128 -0.1202716976192799 0 -0.23651179230599079 -0.1199754775459997 0 -0.26009747564537128 -0.1202716976192799 0 -0.23651179230599079 -0.1199754775459997 0 -0.26009747564537128 -0.1202716976192799 0 -0.25054446979338107 -0.12912519928877991 0 -0.23651179230599079 -0.1199754775459997 0 -0.24959534238117709 -0.1078054475449232 0 -0.23746734258601571 -0.1067534300414448 0 -0.24098124084432149 -0.095291905336151436 0 -0.23746734258601571 -0.1067534300414448 0 -0.22473934926471251 -0.1042306158888877 0 -0.24959534238117709 -0.1078054475449232 0 -0.24098124084432149 -0.095291905336151436 0 -0.25687551172258971 -0.095275519396915032 0 -0.24959534238117709 -0.1078054475449232 0 -0.24098124084432149 -0.095291905336151436 0 -0.23746734258601571 -0.1067534300414448 0 -0.22473934926471251 -0.1042306158888877 0 -0.22774604229393439 -0.087804120453188278 0 -0.20897213189474381 -0.093424031558921927 0 -0.24098124084432149 -0.095291905336151436 0 -0.22473934926471251 -0.1042306158888877 0 -0.22774604229393439 -0.087804120453188278 0 -0.2244809527826766 -0.1321180186971766 0 -0.23651179230599079 -0.1199754775459997 0 -0.2129261089666101 -0.1196792574727195 0 -0.23651179230599079 -0.1199754775459997 0 -0.2129261089666101 -0.1196792574727195 0 -0.23651179230599079 -0.1199754775459997 0 -0.23746734258601571 -0.1067534300414448 0 -0.22473934926471251 -0.1042306158888877 0 -0.23651179230599079 -0.1199754775459997 0 -0.22473934926471251 -0.1042306158888877 0 -0.2129261089666101 -0.1196792574727195 0 -0.2466384096447127 -0.069214282175018252 0 -0.23144064811545881 -0.071679072189906365 0 -0.24006258296416741 -0.059977364163272567 0 -0.2466384096447127 -0.069214282175018252 0 -0.23867713564867771 -0.0818228939715063 0 -0.25106785873748549 -0.083001848322642804 0 -0.2466384096447127 -0.069214282175018252 0 -0.23867713564867771 -0.0818228939715063 0 -0.23144064811545881 -0.071679072189906365 0 -0.24098124084432149 -0.095291905336151436 0 -0.25106785873748549 -0.083001848322642804 0 -0.25687551172258971 -0.095275519396915032 0 -0.24098124084432149 -0.095291905336151436 0 -0.23867713564867771 -0.0818228939715063 0 -0.25106785873748549 -0.083001848322642804 0 -0.24098124084432149 -0.095291905336151436 0 -0.23867713564867771 -0.0818228939715063 0 -0.22774604229393439 -0.087804120453188278 0 -0.22048160989483939 -0.080833284582646742 0 -0.22774604229393439 -0.087804120453188278 0 -0.23144064811545881 -0.071679072189906365 0 -0.23867713564867771 -0.0818228939715063 0 -0.22774604229393439 -0.087804120453188278 0 -0.23144064811545881 -0.071679072189906365 0 -0.22048160989483939 -0.080833284582646742 0 -0.22774604229393439 -0.087804120453188278 0 -0.20897213189474381 -0.093424031558921927 0 -0.23144064811545881 -0.071679072189906365 0 -0.2137676172752207 -0.070425914128570383 0 -0.21856310265569601 -0.047427796698218422 0 -0.22048160989483939 -0.080833284582646742 0 -0.23144064811545881 -0.071679072189906365 0 -0.2137676172752207 -0.070425914128570383 0 -0.23144064811545881 -0.071679072189906365 0 -0.23092663332862359 -0.057189961691847993 0 -0.24006258296416741 -0.059977364163272567 0 -0.20335705558913081 -0.063140738221072371 0 -0.2137676172752207 -0.070425914128570383 0 -0.20224544779007569 -0.076575791796341275 0 -0.2137676172752207 -0.070425914128570383 0 -0.20897213189474381 -0.093424031558921927 0 -0.20224544779007569 -0.076575791796341275 0 -0.2137676172752207 -0.070425914128570383 0 -0.20897213189474381 -0.093424031558921927 0 -0.22048160989483939 -0.080833284582646742 0 -0.2137676172752207 -0.070425914128570383 0 -0.20897213189474381 -0.093424031558921927 0 -0.20897213189474381 -0.093424031558921927 0 -0.18864483179057751 -0.079783658531738119 0 -0.20224544779007569 -0.076575791796341275 0 -0.20897213189474381 -0.093424031558921927 0 -0.18864483179057751 -0.079783658531738119 0 -0.1843208979706715 -0.098582101900239388 0 -0.20335705558913081 -0.063140738221072371 0 -0.18864483179057751 -0.079783658531738119 0 -0.20224544779007569 -0.076575791796341275 0 -0.20335705558913081 -0.063140738221072371 0 -0.18864483179057751 -0.079783658531738119 0 -0.20335705558913081 -0.063140738221072371 0 -0.18864483179057751 -0.079783658531738119 0 -0.18476368522970901 -0.060313507398174523 0 -0.22473934926471251 -0.1042306158888877 0 -0.2129261089666101 -0.1196792574727195 0 -0.1994025973422491 -0.10829052452779669 0 -0.20228853596836749 -0.13187567246267581 0 -0.2129261089666101 -0.1196792574727195 0 -0.1994025973422491 -0.10829052452779669 0 -0.22473934926471251 -0.1042306158888877 0 -0.20897213189474381 -0.093424031558921927 0 -0.1994025973422491 -0.10829052452779669 0 -0.20897213189474381 -0.093424031558921927 0 -0.1994025973422491 -0.10829052452779669 0 -0.1843208979706715 -0.098582101900239388 0 -0.20228853596836749 -0.13187567246267581 0 -0.1994025973422491 -0.10829052452779669 0 -0.18400621351090571 -0.1217110611121094 0 -0.1994025973422491 -0.10829052452779669 0 -0.18400621351090571 -0.1217110611121094 0 -0.1843208979706715 -0.098582101900239388 0 -0.16621773075288121 -0.1295318635244681 0 -0.18400621351090571 -0.1217110611121094 0 -0.16647442841019139 -0.11035058163789351 0 -0.18400621351090571 -0.1217110611121094 0 -0.16647442841019139 -0.11035058163789351 0 -0.1843208979706715 -0.098582101900239388 0 -0.16621773075288121 -0.1295318635244681 0 -0.16647442841019139 -0.11035058163789351 0 -0.14737054533773081 -0.1208951937003558 0 -0.16647442841019139 -0.11035058163789351 0 -0.16521255597131029 -0.094363556792246006 0 -0.15171862691764881 -0.097019712797942706 0 -0.16647442841019139 -0.11035058163789351 0 -0.16521255597131029 -0.094363556792246006 0 -0.1843208979706715 -0.098582101900239388 0 -0.16521255597131029 -0.094363556792246006 0 -0.1843208979706715 -0.098582101900239388 0 -0.1718657805157274 -0.077566403117392158 0 -0.18864483179057751 -0.079783658531738119 0 -0.1843208979706715 -0.098582101900239388 0 -0.1718657805157274 -0.077566403117392158 0 -0.18864483179057751 -0.079783658531738119 0 -0.1718657805157274 -0.077566403117392158 0 -0.18476368522970901 -0.060313507398174523 0 -0.1718657805157274 -0.077566403117392158 0 -0.16766997596840549 -0.055069670457126463 0 -0.18476368522970901 -0.060313507398174523 0 -0.1718657805157274 -0.077566403117392158 0 -0.1555984100513392 -0.067553704814911478 0 -0.16766997596840549 -0.055069670457126463 0 -0.1718657805157274 -0.077566403117392158 0 -0.15451520526235171 -0.083858215916353424 0 -0.1555984100513392 -0.067553704814911478 0 -0.16521255597131029 -0.094363556792246006 0 -0.1718657805157274 -0.077566403117392158 0 -0.15451520526235171 -0.083858215916353424 0 -0.16521255597131029 -0.094363556792246006 0 -0.15451520526235171 -0.083858215916353424 0 -0.15171862691764881 -0.097019712797942706 0 -0.15451520526235171 -0.083858215916353424 0 -0.14334301715898221 -0.074859018030624863 0 -0.13903100861317999 -0.090330850909877913 0 -0.15451520526235171 -0.083858215916353424 0 -0.13903100861317999 -0.090330850909877913 0 -0.15171862691764881 -0.097019712797942706 0 -0.1377651409738101 -0.093700562061298426 0 -0.13903100861317999 -0.090330850909877913 0 -0.15171862691764881 -0.097019712797942706 0 -0.15451520526235171 -0.083858215916353424 0 -0.1555984100513392 -0.067553704814911478 0 -0.14334301715898221 -0.074859018030624863 0 -0.1555984100513392 -0.067553704814911478 0 -0.14334301715898221 -0.074859018030624863 0 -0.13945189113323761 -0.059806177835795588 0 -0.14334301715898221 -0.074859018030624863 0 -0.12930964035960699 -0.069761515268982097 0 -0.13945189113323761 -0.059806177835795588 0 -0.12930964035960699 -0.069761515268982097 0 -0.1377651409738101 -0.093700562061298426 0 -0.12930964035960699 -0.069761515268982097 0 -0.1377651409738101 -0.093700562061298426 0 -0.13903100861317999 -0.090330850909877913 0 -0.1189291253072135 -0.086669643832799348 0 -0.12930964035960699 -0.069761515268982097 0 -0.1377651409738101 -0.093700562061298426 0 -0.14334301715898221 -0.074859018030624863 0 -0.12930964035960699 -0.069761515268982097 0 -0.13903100861317999 -0.090330850909877913 0 -0.1377651409738101 -0.093700562061298426 0 -0.13903100861317999 -0.090330850909877913 0 -0.11893842975153809 -0.10446969177473921 0 -0.1377651409738101 -0.093700562061298426 0 -0.12736410167423581 -0.1213878944680517 0 -0.1377651409738101 -0.093700562061298426 0 -0.12736410167423581 -0.1213878944680517 0 -0.11893842975153809 -0.10446969177473921 0 -0.1189291253072135 -0.086669643832799348 0 -0.1377651409738101 -0.093700562061298426 0 -0.1377651409738101 -0.093700562061298426 0 -0.12736410167423581 -0.1213878944680517 0 -0.14737054533773081 -0.1208951937003558 0 -0.16647442841019139 -0.11035058163789351 0 -0.14737054533773081 -0.1208951937003558 0 -0.15171862691764881 -0.097019712797942706 0 -0.1377651409738101 -0.093700562061298426 0 -0.14737054533773081 -0.1208951937003558 0 -0.15171862691764881 -0.097019712797942706 0 -0.1377651409738101 -0.093700562061298426 0 -0.14737054533773081 -0.1208951937003558 0 -0.14925834278157041 -0.027771983247297551 0 -0.15381676672243971 -0.0048344028756085976 0 -0.16158573310271521 -0.019122381719964599 0 -0.14925834278157041 -0.027771983247297551 0 -0.15381676672243971 -0.0048344028756085976 0 -0.14925834278157041 -0.027771983247297551 0 -0.13622810944285851 -0.025664644749336048 0 -0.13728148428220571 -0.03631729474545041 0 -0.15381676672243971 -0.0048344028756085976 0 -0.13373576905839379 -0.01378162565115138 0 -0.13796817939809339 -7.5853332940862265e-05 0 -0.14925834278157041 -0.027771983247297551 0 -0.15381676672243971 -0.0048344028756085976 0 -0.13373576905839379 -0.01378162565115138 0 -0.1244522405185825 -0.00038769298458709092 0 -0.1246368416492639 -0.024787675353444869 0 -0.13373576905839379 -0.01378162565115138 0 -0.1244522405185825 -0.00038769298458709092 0 -0.13373576905839379 -0.01378162565115138 0 -0.13796817939809339 -7.5853332940862265e-05 0 -0.1244522405185825 -0.00038769298458709092 0 -0.13373576905839379 -0.01378162565115138 0 -0.1246368416492639 -0.024787675353444869 0 -0.13373576905839379 -0.01378162565115138 0 -0.13622810944285851 -0.025664644749336048 0 -0.14925834278157041 -0.027771983247297551 0 -0.13373576905839379 -0.01378162565115138 0 -0.13622810944285851 -0.025664644749336048 0 -0.1246368416492639 -0.024787675353444869 0 -0.13622810944285851 -0.025664644749336048 0 -0.13728148428220571 -0.03631729474545041 0 -0.1248214427799455 -0.0491876577223027 0 -0.1246368416492639 -0.024787675353444869 0 -0.13067566527459321 -0.039597081228004503 0 -0.1246368416492639 -0.024787675353444869 0 -0.13067566527459321 -0.039597081228004503 0 -0.13728148428220571 -0.03631729474545041 0 -0.1248214427799455 -0.0491876577223027 0 -0.13067566527459321 -0.039597081228004503 0 -0.1359628923869578 -0.048095697090820053 0 -0.13067566527459321 -0.039597081228004503 0 -0.13728148428220571 -0.03631729474545041 0 -0.1359628923869578 -0.048095697090820053 0 -0.13728148428220571 -0.03631729474545041 0 -0.1359628923869578 -0.048095697090820053 0 -0.14767594406259391 -0.049379474087132447 0 -0.1248214427799455 -0.0491876577223027 0 -0.12930964035960699 -0.069761515268982097 0 -0.13945189113323761 -0.059806177835795588 0 -0.1208541397454049 -0.045822468476665427 0 -0.12930964035960699 -0.069761515268982097 0 -0.1248214427799455 -0.0491876577223027 0 -0.1359628923869578 -0.048095697090820053 0 -0.13945189113323761 -0.059806177835795588 0 -0.1555984100513392 -0.067553704814911478 0 -0.13945189113323761 -0.059806177835795588 0 -0.14767594406259391 -0.049379474087132447 0 -0.1359628923869578 -0.048095697090820053 0 -0.13945189113323761 -0.059806177835795588 0 -0.14767594406259391 -0.049379474087132447 0 -0.14925834278157041 -0.027771983247297551 0 -0.14767594406259391 -0.049379474087132447 0 -0.16346190388351911 -0.035477368974388322 0 -0.14925834278157041 -0.027771983247297551 0 -0.13728148428220571 -0.03631729474545041 0 -0.14767594406259391 -0.049379474087132447 0 -0.14767594406259391 -0.049379474087132447 0 -0.16346190388351911 -0.035477368974388322 0 -0.16766997596840549 -0.055069670457126463 0 -0.16346190388351911 -0.035477368974388322 0 -0.16766997596840549 -0.055069670457126463 0 -0.1792130821544009 -0.041655239440509813 0 -0.1555984100513392 -0.067553704814911478 0 -0.14767594406259391 -0.049379474087132447 0 -0.16766997596840549 -0.055069670457126463 0 -0.16766997596840549 -0.055069670457126463 0 -0.18476368522970901 -0.060313507398174523 0 -0.1792130821544009 -0.041655239440509813 0 -0.18476368522970901 -0.060313507398174523 0 -0.1792130821544009 -0.041655239440509813 0 -0.19607578221694649 -0.043845816873478577 0 -0.16346190388351911 -0.035477368974388322 0 -0.1792130821544009 -0.041655239440509813 0 -0.1747539590121796 -0.02148713112583673 0 -0.1792130821544009 -0.041655239440509813 0 -0.1747539590121796 -0.02148713112583673 0 -0.18874747204970219 -0.028974905836781941 0 -0.1747539590121796 -0.02148713112583673 0 -0.18814241231787171 -0.014961103822567131 0 -0.18874747204970219 -0.028974905836781941 0 -0.14925834278157041 -0.027771983247297551 0 -0.16346190388351911 -0.035477368974388322 0 -0.16158573310271521 -0.019122381719964599 0 -0.16346190388351911 -0.035477368974388322 0 -0.1747539590121796 -0.02148713112583673 0 -0.16158573310271521 -0.019122381719964599 0 -0.1747539590121796 -0.02148713112583673 0 -0.16158573310271521 -0.019122381719964599 0 -0.1670666400728934 -0.0075955490013497832 0 -0.15381676672243971 -0.0048344028756085976 0 -0.1670666400728934 -0.0075955490013497832 0 -0.16872927738725291 0.0066655648670224509 0 -0.15381676672243971 -0.0048344028756085976 0 -0.16158573310271521 -0.019122381719964599 0 -0.1670666400728934 -0.0075955490013497832 0 -0.1670666400728934 -0.0075955490013497832 0 -0.1785064095432054 -0.0066611219507198768 0 -0.16872927738725291 0.0066655648670224509 0 -0.1747539590121796 -0.02148713112583673 0 -0.1670666400728934 -0.0075955490013497832 0 -0.1785064095432054 -0.0066611219507198768 0 -0.1747539590121796 -0.02148713112583673 0 -0.1785064095432054 -0.0066611219507198768 0 -0.18814241231787171 -0.014961103822567131 0 -0.1785064095432054 -0.0066611219507198768 0 -0.18814241231787171 -0.014961103822567131 0 -0.193034969706537 0.00064734206737222756 0 -0.20555212454711219 -0.022925237921517471 0 -0.20993853639106591 -0.0035380738047605968 0 -0.193034969706537 0.00064734206737222756 0 -0.18814241231787171 -0.014961103822567131 0 -0.20555212454711219 -0.022925237921517471 0 -0.193034969706537 0.00064734206737222756 0 -0.20555212454711219 -0.022925237921517471 0 -0.193034969706537 0.00064734206737222756 0 -0.20993853639106591 -0.0035380738047605968 0 -0.193034969706537 0.00064734206737222756 0 -0.18814241231787171 -0.014961103822567131 0 -0.18874747204970219 -0.028974905836781941 0 -0.20555212454711219 -0.022925237921517471 0 -0.20555212454711219 -0.022925237921517471 0 -0.21630961893328751 -0.01519709454307171 0 -0.22290571171937651 -0.026601576769118469 0 -0.20993853639106591 -0.0035380738047605968 0 -0.22684210307559549 -0.0077234896768903086 0 -0.21568563774484731 0.0082874278720449449 0 -0.20993853639106591 -0.0035380738047605968 0 -0.21630961893328751 -0.01519709454307171 0 -0.22684210307559549 -0.0077234896768903086 0 -0.20555212454711219 -0.022925237921517471 0 -0.20993853639106591 -0.0035380738047605968 0 -0.21630961893328751 -0.01519709454307171 0 -0.20993853639106591 -0.0035380738047605968 0 -0.22684210307559549 -0.0077234896768903086 0 -0.20335705558913081 -0.063140738221072371 0 -0.18476368522970901 -0.060313507398174523 0 -0.19607578221694649 -0.043845816873478577 0 -0.1792130821544009 -0.041655239440509813 0 -0.18874747204970219 -0.028974905836781941 0 -0.19607578221694649 -0.043845816873478577 0 -0.18874747204970219 -0.028974905836781941 0 -0.20555212454711219 -0.022925237921517471 0 -0.19607578221694649 -0.043845816873478577 0 -0.20555212454711219 -0.022925237921517471 0 -0.21856310265569601 -0.047427796698218422 0 -0.20555212454711219 -0.022925237921517471 0 -0.21856310265569601 -0.047427796698218422 0 -0.21896932036315811 -0.045479663861346789 0 -0.20555212454711219 -0.022925237921517471 0 -0.19607578221694649 -0.043845816873478577 0 -0.21856310265569601 -0.047427796698218422 0 -0.20555212454711219 -0.022925237921517471 0 -0.21896932036315811 -0.045479663861346789 0 -0.22290571171937651 -0.026601576769118469 0 -0.2137676172752207 -0.070425914128570383 0 -0.21856310265569601 -0.047427796698218422 0 -0.20335705558913081 -0.063140738221072371 0 -0.2137676172752207 -0.070425914128570383 0 -0.21856310265569601 -0.047427796698218422 0 -0.20335705558913081 -0.063140738221072371 0 -0.19607578221694649 -0.043845816873478577 0 -0.21856310265569601 -0.047427796698218422 0 -0.20335705558913081 -0.063140738221072371 0 -0.21856310265569601 -0.047427796698218422 0 -0.23144064811545881 -0.071679072189906365 0 -0.21856310265569601 -0.047427796698218422 0 -0.23092663332862359 -0.057189961691847993 0 -0.23144064811545881 -0.071679072189906365 0 -0.21856310265569601 -0.047427796698218422 0 -0.21856310265569601 -0.047427796698218422 0 -0.23092663332862359 -0.057189961691847993 0 -0.22458774444026389 -0.046948698447319907 0 -0.23092663332862359 -0.057189961691847993 0 -0.2320274706224234 -0.04981915803055513 0 -0.23892230415514151 -0.050781370399802413 0 -0.23092663332862359 -0.057189961691847993 0 -0.22458774444026389 -0.046948698447319907 0 -0.2320274706224234 -0.04981915803055513 0 -0.21896932036315811 -0.045479663861346789 0 -0.2306307955349908 -0.032287844280089482 0 -0.22290571171937651 -0.026601576769118469 0 -0.21896932036315811 -0.045479663861346789 0 -0.22290571171937651 -0.026601576769118469 0 -0.22458774444026389 -0.046948698447319907 0 -0.2320274706224234 -0.04981915803055513 0 -0.23529860714157019 -0.041169280456794459 0 -0.22458774444026389 -0.046948698447319907 0 -0.2306307955349908 -0.032287844280089482 0 -0.23529860714157019 -0.041169280456794459 0 -0.22458774444026389 -0.046948698447319907 0 -0.21896932036315811 -0.045479663861346789 0 -0.2306307955349908 -0.032287844280089482 0 -0.21856310265569601 -0.047427796698218422 0 -0.22458774444026389 -0.046948698447319907 0 -0.21896932036315811 -0.045479663861346789 0 -0.21856310265569601 -0.047427796698218422 0 -0.21896932036315811 -0.045479663861346789 0 -0.21896932036315811 -0.045479663861346789 0 -0.2306307955349908 -0.032287844280089482 0 -0.2306307955349908 -0.032287844280089482 0 -0.23529860714157019 -0.041169280456794459 0 -0.241537864008738 -0.030171217790278881 0 -0.24798951326795751 -0.035882587373858313 0 -0.23529860714157019 -0.041169280456794459 0 -0.241537864008738 -0.030171217790278881 0 -0.24798951326795751 -0.035882587373858313 0 -0.24357205858261219 -0.044359355700093257 0 -0.23529860714157019 -0.041169280456794459 0 -0.24798951326795751 -0.035882587373858313 0 -0.24357205858261219 -0.044359355700093257 0 -0.25238491957690051 -0.051022134359787842 0 -0.24357205858261219 -0.044359355700093257 0 -0.23529860714157019 -0.041169280456794459 0 -0.23892230415514151 -0.050781370399802413 0 -0.2466384096447127 -0.069214282175018252 0 -0.24006258296416741 -0.059977364163272567 0 -0.25238491957690051 -0.051022134359787842 0 -0.2320274706224234 -0.04981915803055513 0 -0.23529860714157019 -0.041169280456794459 0 -0.23892230415514151 -0.050781370399802413 0 -0.23892230415514151 -0.050781370399802413 0 -0.24006258296416741 -0.059977364163272567 0 -0.25238491957690051 -0.051022134359787842 0 -0.24357205858261219 -0.044359355700093257 0 -0.23892230415514151 -0.050781370399802413 0 -0.25238491957690051 -0.051022134359787842 0 -0.23092663332862359 -0.057189961691847993 0 -0.23892230415514151 -0.050781370399802413 0 -0.24006258296416741 -0.059977364163272567 0 -0.21630961893328751 -0.01519709454307171 0 -0.22684210307559549 -0.0077234896768903086 0 -0.22290571171937651 -0.026601576769118469 0 -0.22684210307559549 -0.0077234896768903086 0 -0.22290571171937651 -0.026601576769118469 0 -0.23226271327452069 -0.02198020745377605 0 -0.22684210307559549 -0.0077234896768903086 0 -0.22290571171937651 -0.026601576769118469 0 -0.2306307955349908 -0.032287844280089482 0 -0.22290571171937651 -0.026601576769118469 0 -0.23226271327452069 -0.02198020745377605 0 -0.22684210307559549 -0.0077234896768903086 0 -0.23226271327452069 -0.02198020745377605 0 -0.24229227070682269 -0.019096024698831499 0 -0.2306307955349908 -0.032287844280089482 0 -0.241537864008738 -0.030171217790278881 0 -0.24229227070682269 -0.019096024698831499 0 -0.2306307955349908 -0.032287844280089482 0 -0.23226271327452069 -0.02198020745377605 0 -0.24229227070682269 -0.019096024698831499 0 -0.2306307955349908 -0.032287844280089482 0 -0.24229227070682269 -0.019096024698831499 0 -0.24798951326795751 -0.035882587373858313 0 -0.241537864008738 -0.030171217790278881 0 -0.25387676547985721 -0.02452441136234379 0 -0.241537864008738 -0.030171217790278881 0 -0.24229227070682269 -0.019096024698831499 0 -0.25387676547985721 -0.02452441136234379 0 -0.24229227070682269 -0.019096024698831499 0 -0.24826461013585729 -0.013027819984466921 0 -0.25387676547985721 -0.02452441136234379 0 -0.22684210307559549 -0.0077234896768903086 0 -0.24826461013585729 -0.013027819984466921 0 -0.24598119983726671 0.0037338506766126851 0 -0.22684210307559549 -0.0077234896768903086 0 -0.24229227070682269 -0.019096024698831499 0 -0.24826461013585729 -0.013027819984466921 0 -0.22684210307559549 -0.0077234896768903086 0 -0.24826461013585729 -0.013027819984466921 0 -0.24826461013585729 -0.013027819984466921 0 -0.26003022337954462 -0.0038093911555793728 0 -0.24598119983726671 0.0037338506766126851 0 -0.24826461013585729 -0.013027819984466921 0 -0.26003022337954462 -0.0038093911555793728 0 -0.26968711719611937 -0.018332150292041979 0 -0.24826461013585729 -0.013027819984466921 0 -0.26968711719611937 -0.018332150292041979 0 -0.25387676547985721 -0.02452441136234379 0 -0.26968711719611937 -0.018332150292041979 0 -0.26155562347943467 -0.037861138146123199 0 -0.24826461013585729 -0.013027819984466921 0 -0.25387676547985721 -0.02452441136234379 0 -0.26968711719611937 -0.018332150292041979 0 -0.26968711719611937 -0.018332150292041979 0 -0.28953187906397732 -0.034281883787379987 0 -0.27524211720584768 -0.038538427260779863 0 -0.26003022337954462 -0.0038093911555793728 0 -0.26968711719611937 -0.018332150292041979 0 -0.27433688946420332 -0.0007833753365484626 0 -0.26968711719611937 -0.018332150292041979 0 -0.27433688946420332 -0.0007833753365484626 0 -0.28631392786639209 -0.0070506759659385472 0 -0.28631392786639209 -0.0070506759659385472 0 -0.29653674479957171 -0.021015146411400301 0 -0.3025805037907468 -0.0027432771802810229 0 -0.28631392786639209 -0.0070506759659385472 0 -0.3025805037907468 -0.0027432771802810229 0 -0.28842838408131971 0.0076205693905790281 0 -0.27433688946420332 -0.0007833753365484626 0 -0.28631392786639209 -0.0070506759659385472 0 -0.28842838408131971 0.0076205693905790281 0 -0.26968711719611937 -0.018332150292041979 0 -0.28631392786639209 -0.0070506759659385472 0 -0.29653674479957171 -0.021015146411400301 0 -0.26968711719611937 -0.018332150292041979 0 -0.29653674479957171 -0.021015146411400301 0 -0.28953187906397732 -0.034281883787379987 0 -0.29653674479957171 -0.021015146411400301 0 -0.28953187906397732 -0.034281883787379987 0 -0.31718310516035308 -0.038172790333745737 0 -0.29653674479957171 -0.021015146411400301 0 -0.31459326366374579 -0.01532774276474733 0 -0.31718310516035308 -0.038172790333745737 0 -0.29653674479957171 -0.021015146411400301 0 -0.3025805037907468 -0.0027432771802810229 0 -0.31459326366374579 -0.01532774276474733 0 -0.30229462048881822 -0.056161209871372138 0 -0.29850594913894141 -0.055440370537233663 0 -0.30849544073550722 -0.074776909133231664 0 -0.30229462048881822 -0.056161209871372138 0 -0.29366820665513949 -0.048519954280836622 0 -0.31370341578724742 -0.051143824177853653 0 -0.30229462048881822 -0.056161209871372138 0 -0.29850594913894141 -0.055440370537233663 0 -0.29366820665513949 -0.048519954280836622 0 -0.30229462048881822 -0.056161209871372138 0 -0.31629816603535338 -0.060261719535131632 0 -0.30229462048881822 -0.056161209871372138 0 -0.31178497446605258 -0.064623658022855565 0 -0.31629816603535338 -0.060261719535131632 0 -0.30229462048881822 -0.056161209871372138 0 -0.31370341578724742 -0.051143824177853653 0 -0.31629816603535338 -0.060261719535131632 0 -0.29366820665513949 -0.048519954280836622 0 -0.31718310516035308 -0.038172790333745737 0 -0.29366820665513949 -0.048519954280836622 0 -0.31718310516035308 -0.038172790333745737 0 -0.31370341578724742 -0.051143824177853653 0 -0.28953187906397732 -0.034281883787379987 0 -0.29366820665513949 -0.048519954280836622 0 -0.31718310516035308 -0.038172790333745737 0 -0.28953187906397732 -0.034281883787379987 0 -0.29366820665513949 -0.048519954280836622 0 -0.27524211720584768 -0.038538427260779863 0 -0.29366820665513949 -0.048519954280836622 0 -0.27015330814992611 -0.058867118227927437 0 -0.29366820665513949 -0.048519954280836622 0 -0.28660483069534037 -0.061918496488246169 0 -0.27015330814992611 -0.058867118227927437 0 -0.29850594913894141 -0.055440370537233663 0 -0.28660483069534037 -0.061918496488246169 0 -0.29557893925590151 -0.069462416794053169 0 -0.29850594913894141 -0.055440370537233663 0 -0.29366820665513949 -0.048519954280836622 0 -0.28660483069534037 -0.061918496488246169 0 -0.29366820665513949 -0.048519954280836622 0 -0.27015330814992611 -0.058867118227927437 0 -0.27524211720584768 -0.038538427260779863 0 -0.26968711719611937 -0.018332150292041979 0 -0.27524211720584768 -0.038538427260779863 0 -0.26155562347943467 -0.037861138146123199 0 -0.27015330814992611 -0.058867118227927437 0 -0.27524211720584768 -0.038538427260779863 0 -0.26155562347943467 -0.037861138146123199 0 -0.24798951326795751 -0.035882587373858313 0 -0.26155562347943467 -0.037861138146123199 0 -0.25238491957690051 -0.051022134359787842 0 -0.24798951326795751 -0.035882587373858313 0 -0.25387676547985721 -0.02452441136234379 0 -0.26155562347943467 -0.037861138146123199 0 -0.27015330814992611 -0.058867118227927437 0 -0.26155562347943467 -0.037861138146123199 0 -0.25238491957690051 -0.051022134359787842 0 -0.2466384096447127 -0.069214282175018252 0 -0.27015330814992611 -0.058867118227927437 0 -0.25238491957690051 -0.051022134359787842 0 -0.2466384096447127 -0.069214282175018252 0 -0.27015330814992611 -0.058867118227927437 0 -0.26102584033089798 -0.073534373921212107 0 -0.2466384096447127 -0.069214282175018252 0 -0.27015330814992611 -0.058867118227927437 0 -0.2466384096447127 -0.069214282175018252 0 -0.26102584033089798 -0.073534373921212107 0 -0.25106785873748549 -0.083001848322642804 0 -0.25106785873748549 -0.083001848322642804 0 -0.26431637422662529 -0.083961298504163229 0 -0.25687551172258971 -0.095275519396915032 0 -0.26431637422662529 -0.083961298504163229 0 -0.25687551172258971 -0.095275519396915032 0 -0.26922948176741379 -0.094556007429682482 0 -0.26102584033089798 -0.073534373921212107 0 -0.25106785873748549 -0.083001848322642804 0 -0.26431637422662529 -0.083961298504163229 0 -0.26431637422662529 -0.083961298504163229 0 -0.27622487875609619 -0.085738752979791055 0 -0.27411142324960069 -0.07331497732508381 0 -0.26431637422662529 -0.083961298504163229 0 -0.27622487875609619 -0.085738752979791055 0 -0.26922948176741379 -0.094556007429682482 0 -0.27622487875609619 -0.085738752979791055 0 -0.26922948176741379 -0.094556007429682482 0 -0.28208733676033698 -0.099544680508420066 0 -0.27622487875609619 -0.085738752979791055 0 -0.27411142324960069 -0.07331497732508381 0 -0.28634330733871821 -0.075869823829162894 0 -0.28660483069534037 -0.061918496488246169 0 -0.27015330814992611 -0.058867118227927437 0 -0.27411142324960069 -0.07331497732508381 0 -0.27015330814992611 -0.058867118227927437 0 -0.26102584033089798 -0.073534373921212107 0 -0.27411142324960069 -0.07331497732508381 0 -0.26102584033089798 -0.073534373921212107 0 -0.26431637422662529 -0.083961298504163229 0 -0.27411142324960069 -0.07331497732508381 0 -0.24959534238117709 -0.1078054475449232 0 -0.26009747564537128 -0.1202716976192799 0 -0.26511094786836592 -0.1069062435210571 0 -0.24959534238117709 -0.1078054475449232 0 -0.26511094786836592 -0.1069062435210571 0 -0.25687551172258971 -0.095275519396915032 0 -0.26511094786836592 -0.1069062435210571 0 -0.25687551172258971 -0.095275519396915032 0 -0.26922948176741379 -0.094556007429682482 0 -0.26511094786836592 -0.1069062435210571 0 -0.27676276389741278 -0.11052104179975 0 -0.28208733676033698 -0.099544680508420066 0 -0.26511094786836592 -0.1069062435210571 0 -0.26922948176741379 -0.094556007429682482 0 -0.28208733676033698 -0.099544680508420066 0 -0.26511094786836592 -0.1069062435210571 0 -0.28208733676033698 -0.099544680508420066 0 -0.26009747564537128 -0.1202716976192799 0 -0.28368315898475188 -0.1205679176925603 0 -0.26697405985724948 -0.1304210152969853 0 -0.26009747564537128 -0.1202716976192799 0 -0.27676276389741278 -0.11052104179975 0 -0.28368315898475188 -0.1205679176925603 0 -0.26009747564537128 -0.1202716976192799 0 -0.28368315898475188 -0.1205679176925603 0 -0.26009747564537128 -0.1202716976192799 0 -0.26511094786836592 -0.1069062435210571 0 -0.27676276389741278 -0.11052104179975 0 -0.28368315898475188 -0.1205679176925603 0 -0.30807566230962469 -0.12087427087378499 0 -0.28368315898475188 -0.1205679176925603 0 -0.29137344231852969 -0.1063755175941712 0 -0.30807566230962469 -0.12087427087378499 0 -0.27676276389741278 -0.11052104179975 0 -0.28368315898475188 -0.1205679176925603 0 -0.29137344231852969 -0.1063755175941712 0 -0.28368315898475188 -0.1205679176925603 0 -0.29137344231852969 -0.1063755175941712 0 -0.29137344231852969 -0.1063755175941712 0 -0.28208733676033698 -0.099544680508420066 0 -0.29906372565230788 -0.092183117495782341 0 -0.28208733676033698 -0.099544680508420066 0 -0.29906372565230788 -0.092183117495782341 0 -0.27676276389741278 -0.11052104179975 0 -0.29137344231852969 -0.1063755175941712 0 -0.28208733676033698 -0.099544680508420066 0 -0.29137344231852969 -0.1063755175941712 0 -0.29906372565230788 -0.092183117495782341 0 -0.30690970986333499 -0.10413412755240679 0 -0.29906372565230788 -0.092183117495782341 0 -0.31411573014289268 -0.085656035662949492 0 -0.29137344231852969 -0.1063755175941712 0 -0.30690970986333499 -0.10413412755240679 0 -0.29906372565230788 -0.092183117495782341 0 -0.28368315898475188 -0.1205679176925603 0 -0.30807566230962469 -0.12087427087378499 0 -0.30140371581860798 -0.1292511186866305 0 -0.29137344231852969 -0.1063755175941712 0 -0.30690970986333499 -0.10413412755240679 0 -0.30807566230962469 -0.12087427087378499 0 -0.29557893925590151 -0.069462416794053169 0 -0.28634330733871821 -0.075869823829162894 0 -0.29528406594296941 -0.079953964946478426 0 -0.28660483069534037 -0.061918496488246169 0 -0.29557893925590151 -0.069462416794053169 0 -0.28634330733871821 -0.075869823829162894 0 -0.28660483069534037 -0.061918496488246169 0 -0.27411142324960069 -0.07331497732508381 0 -0.28634330733871821 -0.075869823829162894 0 -0.27622487875609619 -0.085738752979791055 0 -0.28634330733871821 -0.075869823829162894 0 -0.28693891673241251 -0.08747755748016231 0 -0.28208733676033698 -0.099544680508420066 0 -0.28693891673241251 -0.08747755748016231 0 -0.29906372565230788 -0.092183117495782341 0 -0.27622487875609619 -0.085738752979791055 0 -0.28208733676033698 -0.099544680508420066 0 -0.28693891673241251 -0.08747755748016231 0 -0.28693891673241251 -0.08747755748016231 0 -0.29528406594296941 -0.079953964946478426 0 -0.29906372565230788 -0.092183117495782341 0 -0.28634330733871821 -0.075869823829162894 0 -0.28693891673241251 -0.08747755748016231 0 -0.29528406594296941 -0.079953964946478426 0 -0.29528406594296941 -0.079953964946478426 0 -0.29906372565230788 -0.092183117495782341 0 -0.30849544073550722 -0.074776909133231664 0 -0.29906372565230788 -0.092183117495782341 0 -0.30849544073550722 -0.074776909133231664 0 -0.29906372565230788 -0.092183117495782341 0 -0.30849544073550722 -0.074776909133231664 0 -0.31411573014289268 -0.085656035662949492 0 -0.29906372565230788 -0.092183117495782341 0 -0.31411573014289268 -0.085656035662949492 0 -0.30849544073550722 -0.074776909133231664 0 -0.31411573014289268 -0.085656035662949492 0 -0.30229462048881822 -0.056161209871372138 0 -0.30849544073550722 -0.074776909133231664 0 -0.31178497446605258 -0.064623658022855565 0 -0.29850594913894141 -0.055440370537233663 0 -0.29557893925590151 -0.069462416794053169 0 -0.30849544073550722 -0.074776909133231664 0 -0.30849544073550722 -0.074776909133231664 0 -0.31286059459191501 -0.066721027791507209 0 -0.29850594913894141 -0.055440370537233663 0 -0.30849544073550722 -0.074776909133231664 0 -0.29557893925590151 -0.069462416794053169 0 -0.29528406594296941 -0.079953964946478426 0 -0.30849544073550722 -0.074776909133231664 0 -0.30849544073550722 -0.074776909133231664 0 -0.31178497446605258 -0.064623658022855565 0 -0.31286059459191501 -0.066721027791507209 0 -0.31178497446605258 -0.064623658022855565 0 -0.31286059459191501 -0.066721027791507209 0 -0.31286059459191501 -0.066721027791507209 0 -0.32103296817657878 -0.082656476452658639 0 -0.31286059459191501 -0.066721027791507209 0 -0.32103296817657878 -0.082656476452658639 0 -0.32352590008436471 -0.062378140209921912 0 -0.31178497446605258 -0.064623658022855565 0 -0.31286059459191501 -0.066721027791507209 0 -0.31629816603535338 -0.060261719535131632 0 -0.30849544073550722 -0.074776909133231664 0 -0.31286059459191501 -0.066721027791507209 0 -0.32103296817657878 -0.082656476452658639 0 -0.31286059459191501 -0.066721027791507209 0 -0.31629816603535338 -0.060261719535131632 0 -0.31286059459191501 -0.066721027791507209 0 -0.31629816603535338 -0.060261719535131632 0 -0.32352590008436471 -0.062378140209921912 0 -0.32103296817657878 -0.082656476452658639 0 -0.33093834944883532 -0.101971145942244 0 -0.30849544073550722 -0.074776909133231664 0 -0.31411573014289268 -0.085656035662949492 0 -0.32103296817657878 -0.082656476452658639 0 -0.31411573014289268 -0.085656035662949492 0 -0.32103296817657878 -0.082656476452658639 0 -0.32329194788869442 -0.1034183298589804 0 -0.31411573014289268 -0.085656035662949492 0 -0.32103296817657878 -0.082656476452658639 0 -0.32103296817657878 -0.082656476452658639 0 -0.33692687914299491 -0.089632102483736459 0 -0.33093834944883532 -0.101971145942244 0 -0.32103296817657878 -0.082656476452658639 0 -0.33692687914299491 -0.089632102483736459 0 -0.3453529791357649 -0.07211045902320197 0 -0.32103296817657878 -0.082656476452658639 0 -0.3453529791357649 -0.07211045902320197 0 -0.32352590008436471 -0.062378140209921912 0 -0.34475717967991132 -0.068595070548471249 0 -0.3453529791357649 -0.07211045902320197 0 -0.32352590008436471 -0.062378140209921912 0 -0.34475717967991132 -0.068595070548471249 0 -0.32352590008436471 -0.062378140209921912 0 -0.32103296817657878 -0.082656476452658639 0 -0.3453529791357649 -0.07211045902320197 0 -0.30807566230962469 -0.12087427087378499 0 -0.32329194788869442 -0.1034183298589804 0 -0.33246816563449738 -0.1211806240550105 0 -0.30807566230962469 -0.12087427087378499 0 -0.33246816563449738 -0.1211806240550105 0 -0.30807566230962469 -0.12087427087378499 0 -0.32007374605487132 -0.12494213909402439 0 -0.33246816563449738 -0.1211806240550105 0 -0.30690970986333499 -0.10413412755240679 0 -0.30807566230962469 -0.12087427087378499 0 -0.32329194788869442 -0.1034183298589804 0 -0.32329194788869442 -0.1034183298589804 0 -0.33246816563449738 -0.1211806240550105 0 -0.32007374605487132 -0.12494213909402439 0 -0.33441303965894859 -0.1249452932850653 0 -0.30690970986333499 -0.10413412755240679 0 -0.31411573014289268 -0.085656035662949492 0 -0.32329194788869442 -0.1034183298589804 0 -0.32103296817657878 -0.082656476452658639 0 -0.32329194788869442 -0.1034183298589804 0 -0.33093834944883532 -0.101971145942244 0 -0.31411573014289268 -0.085656035662949492 0 -0.32329194788869442 -0.1034183298589804 0 -0.32329194788869442 -0.1034183298589804 0 -0.33093834944883532 -0.101971145942244 0 -0.33246816563449738 -0.1211806240550105 0 -0.33692687914299491 -0.089632102483736459 0 -0.33093834944883532 -0.101971145942244 0 -0.35038321981080389 -0.10179032851684799 0 -0.33093834944883532 -0.101971145942244 0 -0.34773438721257438 -0.1121772477149196 0 -0.35038321981080389 -0.10179032851684799 0 -0.33093834944883532 -0.101971145942244 0 -0.3408437307210912 -0.1212858154318297 0 -0.33093834944883532 -0.101971145942244 0 -0.3408437307210912 -0.1212858154318297 0 -0.33246816563449738 -0.1211806240550105 0 -0.33093834944883532 -0.101971145942244 0 -0.3408437307210912 -0.1212858154318297 0 -0.34773438721257438 -0.1121772477149196 0 -0.34272140335036932 -0.124947120862287 0 -0.3408437307210912 -0.1212858154318297 0 -0.33441303965894859 -0.1249452932850653 0 -0.3408437307210912 -0.1212858154318297 0 -0.33246816563449738 -0.1211806240550105 0 -0.34272140335036932 -0.124947120862287 0 -0.33441303965894859 -0.1249452932850653 0 -0.34272140335036932 -0.124947120862287 0 -0.3408437307210912 -0.1212858154318297 0 -0.32007374605487132 -0.12494213909402439 0 -0.33441303965894859 -0.1249452932850653 0 -0.33246816563449738 -0.1211806240550105 0 -0.3408437307210912 -0.1212858154318297 0 -0.33441303965894859 -0.1249452932850653 0 -0.33246816563449738 -0.1211806240550105 0 -0.33441303965894859 -0.1249452932850653 0 -0.33246816563449738 -0.1211806240550105 0 -0.34272140335036932 -0.124947120862287 0 -0.35433435295871402 -0.1214552484327875 0 -0.36893450279197471 -0.1249528869149899 0 -0.34272140335036932 -0.124947120862287 0 -0.36893450279197471 -0.1249528869149899 0 -0.3408437307210912 -0.1212858154318297 0 -0.35433435295871402 -0.1214552484327875 0 -0.3408437307210912 -0.1212858154318297 0 -0.35433435295871402 -0.1214552484327875 0 -0.34773438721257438 -0.1121772477149196 0 -0.34272140335036932 -0.124947120862287 0 -0.3408437307210912 -0.1212858154318297 0 -0.35433435295871402 -0.1214552484327875 0 -0.35433435295871402 -0.1214552484327875 0 -0.34773438721257438 -0.1121772477149196 0 -0.3623387343604032 -0.1125517513480446 0 -0.34773438721257438 -0.1121772477149196 0 -0.35038321981080389 -0.10179032851684799 0 -0.3623387343604032 -0.1125517513480446 0 -0.37380044498630338 -0.100392191664622 0 -0.3623387343604032 -0.1125517513480446 0 -0.3789649235099295 -0.11270856972454819 0 -0.35038321981080389 -0.10179032851684799 0 -0.37380044498630338 -0.100392191664622 0 -0.36747037526515469 -0.088210616938563927 0 -0.35038321981080389 -0.10179032851684799 0 -0.37380044498630338 -0.100392191664622 0 -0.3623387343604032 -0.1125517513480446 0 -0.3623387343604032 -0.1125517513480446 0 -0.36893450279197471 -0.1249528869149899 0 -0.3789649235099295 -0.11270856972454819 0 -0.35433435295871402 -0.1214552484327875 0 -0.3623387343604032 -0.1125517513480446 0 -0.36893450279197471 -0.1249528869149899 0 -0.34995192587724822 -0.070116192960804249 0 -0.35645509357982358 -0.081628608772215283 0 -0.36843110820579178 -0.075527255856609146 0 -0.34995192587724822 -0.070116192960804249 0 -0.36608399240098949 -0.063120758007335118 0 -0.35494834161021771 -0.06194377696909157 0 -0.34995192587724822 -0.070116192960804249 0 -0.36843110820579178 -0.075527255856609146 0 -0.34995192587724822 -0.070116192960804249 0 -0.36608399240098949 -0.063120758007335118 0 -0.34995192587724822 -0.070116192960804249 0 -0.34475717967991132 -0.068595070548471249 0 -0.35494834161021771 -0.06194377696909157 0 -0.34995192587724822 -0.070116192960804249 0 -0.34475717967991132 -0.068595070548471249 0 -0.34995192587724822 -0.070116192960804249 0 -0.34475717967991132 -0.068595070548471249 0 -0.3453529791357649 -0.07211045902320197 0 -0.34995192587724822 -0.070116192960804249 0 -0.3453529791357649 -0.07211045902320197 0 -0.34995192587724822 -0.070116192960804249 0 -0.3453529791357649 -0.07211045902320197 0 -0.35645509357982358 -0.081628608772215283 0 -0.34475717967991132 -0.068595070548471249 0 -0.3453529791357649 -0.07211045902320197 0 -0.35038321981080389 -0.10179032851684799 0 -0.35645509357982358 -0.081628608772215283 0 -0.36747037526515469 -0.088210616938563927 0 -0.35038321981080389 -0.10179032851684799 0 -0.3453529791357649 -0.07211045902320197 0 -0.35645509357982358 -0.081628608772215283 0 -0.33692687914299491 -0.089632102483736459 0 -0.35038321981080389 -0.10179032851684799 0 -0.3453529791357649 -0.07211045902320197 0 -0.35038321981080389 -0.10179032851684799 0 -0.3453529791357649 -0.07211045902320197 0 -0.36747037526515469 -0.088210616938563927 0 -0.36843110820579178 -0.075527255856609146 0 -0.38691029053433551 -0.080938318752413793 0 -0.35645509357982358 -0.081628608772215283 0 -0.36747037526515469 -0.088210616938563927 0 -0.36843110820579178 -0.075527255856609146 0 -0.34995192587724822 -0.070116192960804249 0 -0.36843110820579178 -0.075527255856609146 0 -0.36608399240098949 -0.063120758007335118 0 -0.36843110820579178 -0.075527255856609146 0 -0.36608399240098949 -0.063120758007335118 0 -0.37978412082390189 -0.068029865631836883 0 -0.36608399240098949 -0.063120758007335118 0 -0.37085155020467431 -0.050438611479832557 0 -0.38221605892473098 -0.056125323053866277 0 -0.36608399240098949 -0.063120758007335118 0 -0.38221605892473098 -0.056125323053866277 0 -0.37085155020467431 -0.050438611479832557 0 -0.36177701350261748 -0.054750595911384127 0 -0.36329546327126672 -0.041142767418341691 0 -0.36608399240098949 -0.063120758007335118 0 -0.36177701350261748 -0.054750595911384127 0 -0.35494834161021771 -0.06194377696909157 0 -0.36608399240098949 -0.063120758007335118 0 -0.37085155020467431 -0.050438611479832557 0 -0.36177701350261748 -0.054750595911384127 0 -0.36177701350261748 -0.054750595911384127 0 -0.35494834161021771 -0.06194377696909157 0 -0.35217159659032232 -0.05313626741746251 0 -0.34475717967991132 -0.068595070548471249 0 -0.35217159659032232 -0.05313626741746251 0 -0.34008173660725832 -0.04100860914713586 0 -0.36177701350261748 -0.054750595911384127 0 -0.35217159659032232 -0.05313626741746251 0 -0.36329546327126672 -0.041142767418341691 0 -0.34475717967991132 -0.068595070548471249 0 -0.35494834161021771 -0.06194377696909157 0 -0.35217159659032232 -0.05313626741746251 0 -0.35217159659032232 -0.05313626741746251 0 -0.35233090603521772 -0.034345905606361089 0 -0.36329546327126672 -0.041142767418341691 0 -0.35217159659032232 -0.05313626741746251 0 -0.35233090603521772 -0.034345905606361089 0 -0.34008173660725832 -0.04100860914713586 0 -0.35233090603521772 -0.034345905606361089 0 -0.34677261788783459 -0.022263095799622792 0 -0.34008173660725832 -0.04100860914713586 0 -0.35233090603521772 -0.034345905606361089 0 -0.36329546327126672 -0.041142767418341691 0 -0.36125368123050811 -0.029816691131076791 0 -0.36329546327126672 -0.041142767418341691 0 -0.37015544225173291 -0.03012439130571171 0 -0.36125368123050811 -0.029816691131076791 0 -0.37085155020467431 -0.050438611479832557 0 -0.36329546327126672 -0.041142767418341691 0 -0.37439980638912518 -0.038891661293645137 0 -0.36329546327126672 -0.041142767418341691 0 -0.37439980638912518 -0.038891661293645137 0 -0.37015544225173291 -0.03012439130571171 0 -0.37439980638912518 -0.038891661293645137 0 -0.37015544225173291 -0.03012439130571171 0 -0.37866743010551202 -0.02906954498465647 0 -0.37015544225173291 -0.03012439130571171 0 -0.37402384376206249 -0.023759624541515059 0 -0.37866743010551202 -0.02906954498465647 0 -0.37015544225173291 -0.03012439130571171 0 -0.37402384376206249 -0.023759624541515059 0 -0.36652472594663232 -0.022500501643346649 0 -0.37402384376206249 -0.023759624541515059 0 -0.37465439862472261 -0.016787835852634068 0 -0.36652472594663232 -0.022500501643346649 0 -0.37465439862472261 -0.016787835852634068 0 -0.36652472594663232 -0.022500501643346649 0 -0.3596530522362773 -0.017262546391789129 0 -0.36652472594663232 -0.022500501643346649 0 -0.3596530522362773 -0.017262546391789129 0 -0.35649867437881472 -0.022585523222405649 0 -0.36652472594663232 -0.022500501643346649 0 -0.36125368123050811 -0.029816691131076791 0 -0.35649867437881472 -0.022585523222405649 0 -0.37015544225173291 -0.03012439130571171 0 -0.36652472594663232 -0.022500501643346649 0 -0.36125368123050811 -0.029816691131076791 0 -0.37465439862472261 -0.016787835852634068 0 -0.3596530522362773 -0.017262546391789129 0 -0.34857824671955512 -0.007874197240844389 0 -0.37465439862472261 -0.016787835852634068 0 -0.3597652811465577 -0.0058215117475868012 0 -0.34857824671955512 -0.007874197240844389 0 -0.37465439862472261 -0.016787835852634068 0 -0.34857824671955512 -0.007874197240844389 0 -0.37126952376897032 -0.00085078512189483576 0 -0.36867541047690239 -0.006920070417115203 0 -0.36494834593608783 -0.001298186014321303 0 -0.37126952376897032 -0.00085078512189483576 0 -0.37464851222799189 -0.0076089195940836872 0 -0.37774077980655368 -0.001289555558904682 0 -0.37126952376897032 -0.00085078512189483576 0 -0.37464851222799189 -0.0076089195940836872 0 -0.36867541047690239 -0.006920070417115203 0 -0.37465439862472261 -0.016787835852634068 0 -0.36867541047690239 -0.006920070417115203 0 -0.3597652811465577 -0.0058215117475868012 0 -0.37465439862472261 -0.016787835852634068 0 -0.37464851222799189 -0.0076089195940836872 0 -0.36867541047690239 -0.006920070417115203 0 -0.36867541047690239 -0.006920070417115203 0 -0.3597652811465577 -0.0058215117475868012 0 -0.36494834593608783 -0.001298186014321303 0 -0.3597652811465577 -0.0058215117475868012 0 -0.36494834593608783 -0.001298186014321303 0 -0.35900139338342918 0.0020097317905480609 0 -0.3597652811465577 -0.0058215117475868012 0 -0.35221409618436439 -0.0049109655465913588 0 -0.34857824671955512 -0.007874197240844389 0 -0.3597652811465577 -0.0058215117475868012 0 -0.35509488683577939 -0.0004162838960613095 0 -0.35900139338342918 0.0020097317905480609 0 -0.3597652811465577 -0.0058215117475868012 0 -0.35509488683577939 -0.0004162838960613095 0 -0.35221409618436439 -0.0049109655465913588 0 -0.3596530522362773 -0.017262546391789129 0 -0.34857824671955512 -0.007874197240844389 0 -0.35200921551166209 -0.0165646739997149 0 -0.34857824671955512 -0.007874197240844389 0 -0.34618108527798752 -0.01472783018749277 0 -0.35200921551166209 -0.0165646739997149 0 -0.35233090603521772 -0.034345905606361089 0 -0.36125368123050811 -0.029816691131076791 0 -0.35649867437881472 -0.022585523222405649 0 -0.35233090603521772 -0.034345905606361089 0 -0.35649867437881472 -0.022585523222405649 0 -0.34677261788783459 -0.022263095799622792 0 -0.35649867437881472 -0.022585523222405649 0 -0.35200921551166209 -0.0165646739997149 0 -0.34677261788783459 -0.022263095799622792 0 -0.3596530522362773 -0.017262546391789129 0 -0.35649867437881472 -0.022585523222405649 0 -0.35200921551166209 -0.0165646739997149 0 -0.34618108527798752 -0.01472783018749277 0 -0.35200921551166209 -0.0165646739997149 0 -0.34677261788783459 -0.022263095799622792 0 -0.33540629353460438 -0.01342214774580049 0 -0.31718310516035308 -0.038172790333745737 0 -0.34008173660725832 -0.04100860914713586 0 -0.33540629353460438 -0.01342214774580049 0 -0.34008173660725832 -0.04100860914713586 0 -0.34677261788783459 -0.022263095799622792 0 -0.33540629353460438 -0.01342214774580049 0 -0.34008173660725832 -0.04100860914713586 0 -0.34618108527798752 -0.01472783018749277 0 -0.34677261788783459 -0.022263095799622792 0 -0.33540629353460438 -0.01342214774580049 0 -0.33540629353460438 -0.01342214774580049 0 -0.3204068892458079 -0.0014125807301150939 0 -0.33073085046195078 0.01416431365553468 0 -0.34857824671955512 -0.007874197240844389 0 -0.33540629353460438 -0.01342214774580049 0 -0.33073085046195078 0.01416431365553468 0 -0.34857824671955512 -0.007874197240844389 0 -0.34618108527798752 -0.01472783018749277 0 -0.33540629353460438 -0.01342214774580049 0 -0.3025805037907468 -0.0027432771802810229 0 -0.31459326366374579 -0.01532774276474733 0 -0.3204068892458079 -0.0014125807301150939 0 -0.33540629353460438 -0.01342214774580049 0 -0.31459326366374579 -0.01532774276474733 0 -0.3204068892458079 -0.0014125807301150939 0 -0.33540629353460438 -0.01342214774580049 0 -0.31459326366374579 -0.01532774276474733 0 -0.31718310516035308 -0.038172790333745737 0 -0.31718310516035308 -0.038172790333745737 0 -0.3268834079531176 -0.05023453433316457 0 -0.34008173660725832 -0.04100860914713586 0 -0.31718310516035308 -0.038172790333745737 0 -0.31370341578724742 -0.051143824177853653 0 -0.3268834079531176 -0.05023453433316457 0 -0.31370341578724742 -0.051143824177853653 0 -0.31629816603535338 -0.060261719535131632 0 -0.32352590008436471 -0.062378140209921912 0 -0.31629816603535338 -0.060261719535131632 0 -0.32352590008436471 -0.062378140209921912 0 -0.32352590008436471 -0.062378140209921912 0 -0.3268834079531176 -0.05023453433316457 0 -0.33381205608116321 -0.055554088559673351 0 -0.31370341578724742 -0.051143824177853653 0 -0.32352590008436471 -0.062378140209921912 0 -0.3268834079531176 -0.05023453433316457 0 -0.34475717967991132 -0.068595070548471249 0 -0.32352590008436471 -0.062378140209921912 0 -0.33381205608116321 -0.055554088559673351 0 -0.34475717967991132 -0.068595070548471249 0 -0.33381205608116321 -0.055554088559673351 0 -0.34008173660725832 -0.04100860914713586 0 -0.3268834079531176 -0.05023453433316457 0 -0.33381205608116321 -0.055554088559673351 0 -0.34008173660725832 -0.04100860914713586 0 -0.34475717967991132 -0.068595070548471249 0 -0.34008173660725832 -0.04100860914713586 0 -0.29131753467172561 -0.25675805269722002 0 -0.30769212114973271 -0.24578220261295139 0 -0.29241592956139478 -0.23974284613727589 0 -0.30769212114973271 -0.24578220261295139 0 -0.30829656048542242 -0.23127198481015249 0 -0.29241592956139478 -0.23974284613727589 0 -0.30829656048542242 -0.23127198481015249 0 -0.29279532374442052 -0.2217612167757172 0 -0.3129652712195421 -0.2114706657937139 0 -0.30829656048542242 -0.23127198481015249 0 -0.29279532374442052 -0.2217612167757172 0 -0.29241592956139478 -0.23974284613727589 0 -0.29279532374442052 -0.2217612167757172 0 -0.29241592956139478 -0.23974284613727589 0 -0.27798049023744681 -0.23352671123603991 0 -0.29279532374442052 -0.2217612167757172 0 -0.27798049023744681 -0.23352671123603991 0 -0.27449661508218531 -0.21747639879007349 0 -0.29131753467172561 -0.25675805269722002 0 -0.29241592956139478 -0.23974284613727589 0 -0.27722523139620658 -0.24922189107985179 0 -0.29241592956139478 -0.23974284613727589 0 -0.27722523139620658 -0.24922189107985179 0 -0.27798049023744681 -0.23352671123603991 0 -0.27722523139620658 -0.24922189107985179 0 -0.25992972331208369 -0.2410680052130979 0 -0.27798049023744681 -0.23352671123603991 0 -0.26398002587916253 -0.25656090854441049 0 -0.27722523139620658 -0.24922189107985179 0 -0.25992972331208369 -0.2410680052130979 0 -0.25992972331208369 -0.2410680052130979 0 -0.25674041691710447 -0.22108212323078871 0 -0.27798049023744681 -0.23352671123603991 0 -0.2377451423251814 -0.23136366228574551 0 -0.25992972331208369 -0.2410680052130979 0 -0.25674041691710447 -0.22108212323078871 0 -0.25674041691710447 -0.22108212323078871 0 -0.27798049023744681 -0.23352671123603991 0 -0.27449661508218531 -0.21747639879007349 0 -0.27449661508218531 -0.21747639879007349 0 -0.25644706280453389 -0.1995927939493197 0 -0.27817485521465529 -0.19463925610534399 0 -0.27449661508218531 -0.21747639879007349 0 -0.27817485521465529 -0.19463925610534399 0 -0.25674041691710447 -0.22108212323078871 0 -0.27449661508218531 -0.21747639879007349 0 -0.25644706280453389 -0.1995927939493197 0 -0.25644706280453389 -0.1995927939493197 0 -0.27817485521465529 -0.19463925610534399 0 -0.26629571781906192 -0.18034234132084431 0 -0.27817485521465529 -0.19463925610534399 0 -0.29367807880863189 -0.20345752952089671 0 -0.29386082525749962 -0.1848532680646672 0 -0.27449661508218531 -0.21747639879007349 0 -0.27817485521465529 -0.19463925610534399 0 -0.29367807880863189 -0.20345752952089671 0 -0.29279532374442052 -0.2217612167757172 0 -0.27449661508218531 -0.21747639879007349 0 -0.29367807880863189 -0.20345752952089671 0 -0.29279532374442052 -0.2217612167757172 0 -0.29367807880863189 -0.20345752952089671 0 -0.3129652712195421 -0.2114706657937139 0 -0.29367807880863189 -0.20345752952089671 0 -0.30717411826112789 -0.1920401195635244 0 -0.29386082525749962 -0.1848532680646672 0 -0.29367807880863189 -0.20345752952089671 0 -0.30717411826112789 -0.1920401195635244 0 -0.3129652712195421 -0.2114706657937139 0 -0.30551265723832022 -0.17938492804960809 0 -0.29677214667513702 -0.1677956617280158 0 -0.29386082525749962 -0.1848532680646672 0 -0.30717411826112789 -0.1920401195635244 0 -0.30551265723832022 -0.17938492804960809 0 -0.29386082525749962 -0.1848532680646672 0 -0.30717411826112789 -0.1920401195635244 0 -0.30551265723832022 -0.17938492804960809 0 -0.31489114071409963 -0.18333745750317351 0 -0.30551265723832022 -0.17938492804960809 0 -0.31220508881165993 -0.16846949012138551 0 -0.29677214667513702 -0.1677956617280158 0 -0.30551265723832022 -0.17938492804960809 0 -0.31220508881165993 -0.16846949012138551 0 -0.31489114071409963 -0.18333745750317351 0 -0.31220508881165993 -0.16846949012138551 0 -0.2949530938874384 -0.15245549241185349 0 -0.31498630483336881 -0.15987728715749039 0 -0.31220508881165993 -0.16846949012138551 0 -0.2949530938874384 -0.15245549241185349 0 -0.31220508881165993 -0.16846949012138551 0 -0.29677214667513702 -0.1677956617280158 0 -0.2949530938874384 -0.15245549241185349 0 -0.28185309534712533 -0.17180211342061449 0 -0.28553133547959519 -0.14896497073588499 0 -0.29677214667513702 -0.1677956617280158 0 -0.28185309534712533 -0.17180211342061449 0 -0.2949530938874384 -0.15245549241185349 0 -0.28185309534712533 -0.17180211342061449 0 -0.28553133547959519 -0.14896497073588499 0 -0.2949530938874384 -0.15245549241185349 0 -0.27817485521465529 -0.19463925610534399 0 -0.28185309534712533 -0.17180211342061449 0 -0.29386082525749962 -0.1848532680646672 0 -0.29677214667513702 -0.1677956617280158 0 -0.28185309534712533 -0.17180211342061449 0 -0.29386082525749962 -0.1848532680646672 0 -0.27817485521465529 -0.19463925610534399 0 -0.28185309534712533 -0.17180211342061449 0 -0.27817485521465529 -0.19463925610534399 0 -0.28185309534712533 -0.17180211342061449 0 -0.26629571781906192 -0.18034234132084431 0 -0.26629571781906192 -0.18034234132084431 0 -0.25029992488695979 -0.1782534950292988 0 -0.25761979100978533 -0.16665415002795461 0 -0.25644706280453389 -0.1995927939493197 0 -0.26629571781906192 -0.18034234132084431 0 -0.25029992488695979 -0.1782534950292988 0 -0.26629571781906192 -0.18034234132084431 0 -0.25761979100978533 -0.16665415002795461 0 -0.26933386928146391 -0.16300442301689841 0 -0.24825300788518309 -0.1555077779107997 0 -0.25761979100978533 -0.16665415002795461 0 -0.26108146703715113 -0.15708396540124031 0 -0.25761979100978533 -0.16665415002795461 0 -0.26108146703715113 -0.15708396540124031 0 -0.26933386928146391 -0.16300442301689841 0 -0.28185309534712533 -0.17180211342061449 0 -0.27598770130958522 -0.15333886838191951 0 -0.28553133547959519 -0.14896497073588499 0 -0.28185309534712533 -0.17180211342061449 0 -0.26629571781906192 -0.18034234132084431 0 -0.26933386928146391 -0.16300442301689841 0 -0.26108146703715113 -0.15708396540124031 0 -0.26933386928146391 -0.16300442301689841 0 -0.26726071412102442 -0.15087550168963329 0 -0.28185309534712533 -0.17180211342061449 0 -0.26933386928146391 -0.16300442301689841 0 -0.27598770130958522 -0.15333886838191951 0 -0.27598770130958522 -0.15333886838191951 0 -0.271177428866754 -0.14364721368904659 0 -0.28553133547959519 -0.14896497073588499 0 -0.271177428866754 -0.14364721368904659 0 -0.28662611268527088 -0.1421678116724244 0 -0.28553133547959519 -0.14896497073588499 0 -0.271177428866754 -0.14364721368904659 0 -0.28553133547959519 -0.14896497073588499 0 -0.271177428866754 -0.14364721368904659 0 -0.26726071412102442 -0.15087550168963329 0 -0.25891484533836889 -0.13910423861407881 0 -0.271177428866754 -0.14364721368904659 0 -0.26726071412102442 -0.15087550168963329 0 -0.27598770130958522 -0.15333886838191951 0 -0.271177428866754 -0.14364721368904659 0 -0.26726071412102442 -0.15087550168963329 0 -0.26933386928146391 -0.16300442301689841 0 -0.27598770130958522 -0.15333886838191951 0 -0.26726071412102442 -0.15087550168963329 0 -0.2405789555143194 -0.1375116727892334 0 -0.25601133851015478 -0.1487044986697981 0 -0.25891484533836889 -0.13910423861407881 0 -0.26108146703715113 -0.15708396540124031 0 -0.26726071412102442 -0.15087550168963329 0 -0.25601133851015478 -0.1487044986697981 0 -0.271177428866754 -0.14364721368904659 0 -0.25891484533836889 -0.13910423861407881 0 -0.26726071412102442 -0.15087550168963329 0 -0.25601133851015478 -0.1487044986697981 0 -0.25891484533836889 -0.13910423861407881 0 -0.24825300788518309 -0.1555077779107997 0 -0.26108146703715113 -0.15708396540124031 0 -0.25601133851015478 -0.1487044986697981 0 -0.26009747564537128 -0.1202716976192799 0 -0.25054446979338107 -0.12912519928877991 0 -0.26697405985724948 -0.1304210152969853 0 -0.25054446979338107 -0.12912519928877991 0 -0.25891484533836889 -0.13910423861407881 0 -0.26697405985724948 -0.1304210152969853 0 -0.2405789555143194 -0.1375116727892334 0 -0.25054446979338107 -0.12912519928877991 0 -0.25891484533836889 -0.13910423861407881 0 -0.28368315898475188 -0.1205679176925603 0 -0.271177428866754 -0.14364721368904659 0 -0.26697405985724948 -0.1304210152969853 0 -0.28368315898475188 -0.1205679176925603 0 -0.271177428866754 -0.14364721368904659 0 -0.28514813781506088 -0.1345929107172644 0 -0.28368315898475188 -0.1205679176925603 0 -0.271177428866754 -0.14364721368904659 0 -0.271177428866754 -0.14364721368904659 0 -0.25891484533836889 -0.13910423861407881 0 -0.26697405985724948 -0.1304210152969853 0 -0.271177428866754 -0.14364721368904659 0 -0.28514813781506088 -0.1345929107172644 0 -0.28662611268527088 -0.1421678116724244 0 -0.28368315898475188 -0.1205679176925603 0 -0.29492821592448881 -0.13453805291007029 0 -0.28514813781506088 -0.1345929107172644 0 -0.28368315898475188 -0.1205679176925603 0 -0.29492821592448881 -0.13453805291007029 0 -0.30140371581860798 -0.1292511186866305 0 -0.29492821592448881 -0.13453805291007029 0 -0.2912775948780732 -0.1389862943003273 0 -0.28514813781506088 -0.1345929107172644 0 -0.29657756063899582 -0.140013172184488 0 -0.29492821592448881 -0.13453805291007029 0 -0.2912775948780732 -0.1389862943003273 0 -0.2912775948780732 -0.1389862943003273 0 -0.28514813781506088 -0.1345929107172644 0 -0.28662611268527088 -0.1421678116724244 0 -0.28662611268527088 -0.1421678116724244 0 -0.28553133547959519 -0.14896497073588499 0 -0.28662611268527088 -0.1421678116724244 0 -0.28553133547959519 -0.14896497073588499 0 -0.28937009998544028 -0.14621975116982991 0 -0.28553133547959519 -0.14896497073588499 0 -0.2922536480049423 -0.1499497578362777 0 -0.28937009998544028 -0.14621975116982991 0 -0.28553133547959519 -0.14896497073588499 0 -0.2922536480049423 -0.1499497578362777 0 -0.2949530938874384 -0.15245549241185349 0 -0.28553133547959519 -0.14896497073588499 0 -0.2949530938874384 -0.15245549241185349 0 -0.2922536480049423 -0.1499497578362777 0 -0.2949530938874384 -0.15245549241185349 0 -0.29617843115691228 -0.14802272380236281 0 -0.2922536480049423 -0.1499497578362777 0 -0.2949530938874384 -0.15245549241185349 0 -0.2912775948780732 -0.1389862943003273 0 -0.28662611268527088 -0.1421678116724244 0 -0.29310794732654949 -0.1436195240173895 0 -0.28662611268527088 -0.1421678116724244 0 -0.28937009998544028 -0.14621975116982991 0 -0.29310794732654949 -0.1436195240173895 0 -0.2922536480049423 -0.1499497578362777 0 -0.28937009998544028 -0.14621975116982991 0 -0.29310794732654949 -0.1436195240173895 0 -0.29617843115691228 -0.14802272380236281 0 -0.29310794732654949 -0.1436195240173895 0 -0.29956135480037449 -0.14472193576336759 0 -0.2922536480049423 -0.1499497578362777 0 -0.29617843115691228 -0.14802272380236281 0 -0.29310794732654949 -0.1436195240173895 0 -0.29657756063899582 -0.140013172184488 0 -0.2912775948780732 -0.1389862943003273 0 -0.29310794732654949 -0.1436195240173895 0 -0.29657756063899582 -0.140013172184488 0 -0.29310794732654949 -0.1436195240173895 0 -0.29956135480037449 -0.14472193576336759 0 -0.29956135480037449 -0.14472193576336759 0 -0.30554397810907652 -0.146919348525368 0 -0.30456114821214081 -0.13888567554976469 0 -0.2949530938874384 -0.15245549241185349 0 -0.30620642865757891 -0.15285211384445899 0 -0.31498630483336881 -0.15987728715749039 0 -0.2949530938874384 -0.15245549241185349 0 -0.31498630483336881 -0.15987728715749039 0 -0.29657756063899582 -0.140013172184488 0 -0.29956135480037449 -0.14472193576336759 0 -0.30456114821214081 -0.13888567554976469 0 -0.29617843115691228 -0.14802272380236281 0 -0.29956135480037449 -0.14472193576336759 0 -0.30052761464898298 -0.14908162957255741 0 -0.29956135480037449 -0.14472193576336759 0 -0.30052761464898298 -0.14908162957255741 0 -0.30554397810907652 -0.146919348525368 0 -0.2949530938874384 -0.15245549241185349 0 -0.30052761464898298 -0.14908162957255741 0 -0.30620642865757891 -0.15285211384445899 0 -0.2949530938874384 -0.15245549241185349 0 -0.29617843115691228 -0.14802272380236281 0 -0.30052761464898298 -0.14908162957255741 0 -0.30052761464898298 -0.14908162957255741 0 -0.30620642865757891 -0.15285211384445899 0 -0.30554397810907652 -0.146919348525368 0 -0.30620642865757891 -0.15285211384445899 0 -0.31211863317072019 -0.1538765410016501 0 -0.31498630483336881 -0.15987728715749039 0 -0.30620642865757891 -0.15285211384445899 0 -0.31071230574427161 -0.15022116190891349 0 -0.30554397810907652 -0.146919348525368 0 -0.30620642865757891 -0.15285211384445899 0 -0.31071230574427161 -0.15022116190891349 0 -0.31211863317072019 -0.1538765410016501 0 -0.31246836027323899 -0.14497521722301901 0 -0.31246708178415561 -0.13872402753426441 0 -0.30456114821214081 -0.13888567554976469 0 -0.30554397810907652 -0.146919348525368 0 -0.31246836027323899 -0.14497521722301901 0 -0.30456114821214081 -0.13888567554976469 0 -0.31071230574427161 -0.15022116190891349 0 -0.30554397810907652 -0.146919348525368 0 -0.31246836027323899 -0.14497521722301901 0 -0.30140371581860798 -0.1292511186866305 0 -0.30456114821214081 -0.13888567554976469 0 -0.31280589771709483 -0.13181614145056869 0 -0.31246708178415561 -0.13872402753426441 0 -0.30456114821214081 -0.13888567554976469 0 -0.31280589771709483 -0.13181614145056869 0 -0.30807566230962469 -0.12087427087378499 0 -0.30140371581860798 -0.1292511186866305 0 -0.31280589771709483 -0.13181614145056869 0 -0.29657756063899582 -0.140013172184488 0 -0.29492821592448881 -0.13453805291007029 0 -0.30456114821214081 -0.13888567554976469 0 -0.29492821592448881 -0.13453805291007029 0 -0.30140371581860798 -0.1292511186866305 0 -0.30456114821214081 -0.13888567554976469 0 -0.3226930215385343 -0.13395567837890529 0 -0.31855308997834159 -0.13934265221991729 0 -0.32506280578504959 -0.14064102607364051 0 -0.3226930215385343 -0.13395567837890529 0 -0.32506280578504959 -0.14064102607364051 0 -0.33047387389575927 -0.1369340691945744 0 -0.3226930215385343 -0.13395567837890529 0 -0.32807010768985068 -0.12986880773923029 0 -0.33047387389575927 -0.1369340691945744 0 -0.32007374605487132 -0.12494213909402439 0 -0.33441303965894859 -0.1249452932850653 0 -0.32807010768985068 -0.12986880773923029 0 -0.32007374605487132 -0.12494213909402439 0 -0.3226930215385343 -0.13395567837890529 0 -0.32807010768985068 -0.12986880773923029 0 -0.32007374605487132 -0.12494213909402439 0 -0.3226930215385343 -0.13395567837890529 0 -0.31280589771709483 -0.13181614145056869 0 -0.30807566230962469 -0.12087427087378499 0 -0.32007374605487132 -0.12494213909402439 0 -0.31280589771709483 -0.13181614145056869 0 -0.3226930215385343 -0.13395567837890529 0 -0.31280589771709483 -0.13181614145056869 0 -0.31855308997834159 -0.13934265221991729 0 -0.31246708178415561 -0.13872402753426441 0 -0.31280589771709483 -0.13181614145056869 0 -0.31855308997834159 -0.13934265221991729 0 -0.31246836027323899 -0.14497521722301901 0 -0.31246708178415561 -0.13872402753426441 0 -0.31855308997834159 -0.13934265221991729 0 -0.31246836027323899 -0.14497521722301901 0 -0.31855308997834159 -0.13934265221991729 0 -0.32096396999162452 -0.14503749675666289 0 -0.31246836027323899 -0.14497521722301901 0 -0.31722412851074311 -0.15248258895007169 0 -0.32096396999162452 -0.14503749675666289 0 -0.31211863317072019 -0.1538765410016501 0 -0.31722412851074311 -0.15248258895007169 0 -0.31498630483336881 -0.15987728715749039 0 -0.31071230574427161 -0.15022116190891349 0 -0.31246836027323899 -0.14497521722301901 0 -0.31722412851074311 -0.15248258895007169 0 -0.31071230574427161 -0.15022116190891349 0 -0.31211863317072019 -0.1538765410016501 0 -0.31722412851074311 -0.15248258895007169 0 -0.32096396999162452 -0.14503749675666289 0 -0.32506280578504959 -0.14064102607364051 0 -0.33039285730051032 -0.1475567648151897 0 -0.31722412851074311 -0.15248258895007169 0 -0.32096396999162452 -0.14503749675666289 0 -0.33039285730051032 -0.1475567648151897 0 -0.31855308997834159 -0.13934265221991729 0 -0.32096396999162452 -0.14503749675666289 0 -0.32506280578504959 -0.14064102607364051 0 -0.33039285730051032 -0.1475567648151897 0 -0.33813688440009898 -0.15615522653291031 0 -0.34198145815712638 -0.1395953898376964 0 -0.32506280578504959 -0.14064102607364051 0 -0.33039285730051032 -0.1475567648151897 0 -0.33047387389575927 -0.1369340691945744 0 -0.31722412851074311 -0.15248258895007169 0 -0.33039285730051032 -0.1475567648151897 0 -0.33813688440009898 -0.15615522653291031 0 -0.33039285730051032 -0.1475567648151897 0 -0.34198145815712638 -0.1395953898376964 0 -0.33047387389575927 -0.1369340691945744 0 -0.33813688440009898 -0.15615522653291031 0 -0.34198145815712638 -0.1395953898376964 0 -0.34954987665533299 -0.15424548639031271 0 -0.34198145815712638 -0.1395953898376964 0 -0.3337346198504213 -0.1328358900141379 0 -0.33047387389575927 -0.1369340691945744 0 -0.32807010768985068 -0.12986880773923029 0 -0.3337346198504213 -0.1328358900141379 0 -0.33047387389575927 -0.1369340691945744 0 -0.33441303965894859 -0.1249452932850653 0 -0.32807010768985068 -0.12986880773923029 0 -0.3337346198504213 -0.1328358900141379 0 -0.33441303965894859 -0.1249452932850653 0 -0.34198145815712638 -0.1395953898376964 0 -0.34272140335036932 -0.124947120862287 0 -0.33441303965894859 -0.1249452932850653 0 -0.34198145815712638 -0.1395953898376964 0 -0.33441303965894859 -0.1249452932850653 0 -0.34198145815712638 -0.1395953898376964 0 -0.3337346198504213 -0.1328358900141379 0 -0.34272140335036932 -0.124947120862287 0 -0.35413341494744088 -0.14719959415449421 0 -0.34272140335036932 -0.124947120862287 0 -0.35599685079288468 -0.13305792836185981 0 -0.35413341494744088 -0.14719959415449421 0 -0.34272140335036932 -0.124947120862287 0 -0.34198145815712638 -0.1395953898376964 0 -0.35413341494744088 -0.14719959415449421 0 -0.34272140335036932 -0.124947120862287 0 -0.36893450279197471 -0.1249528869149899 0 -0.35599685079288468 -0.13305792836185981 0 -0.35599685079288468 -0.13305792836185981 0 -0.36484224068191412 -0.14157370685753851 0 -0.35413341494744088 -0.14719959415449421 0 -0.36893450279197471 -0.1249528869149899 0 -0.35599685079288468 -0.13305792836185981 0 -0.36484224068191412 -0.14157370685753851 0 -0.36893450279197471 -0.1249528869149899 0 -0.36484224068191412 -0.14157370685753851 0 -0.3777566452334315 -0.14913711856379011 0 -0.3679743334396014 -0.15408772885571331 0 -0.37696591512674532 -0.1609827341034305 0 -0.3777566452334315 -0.14913711856379011 0 -0.3679743334396014 -0.15408772885571331 0 -0.36484224068191412 -0.14157370685753851 0 -0.3777566452334315 -0.14913711856379011 0 -0.3679743334396014 -0.15408772885571331 0 -0.36484224068191412 -0.14157370685753851 0 -0.35413341494744088 -0.14719959415449421 0 -0.35413341494744088 -0.14719959415449421 0 -0.34954987665533299 -0.15424548639031271 0 -0.35445721343992059 -0.1619675590177023 0 -0.34198145815712638 -0.1395953898376964 0 -0.34954987665533299 -0.15424548639031271 0 -0.34198145815712638 -0.1395953898376964 0 -0.35413341494744088 -0.14719959415449421 0 -0.34954987665533299 -0.15424548639031271 0 -0.33813688440009898 -0.15615522653291031 0 -0.34954987665533299 -0.15424548639031271 0 -0.34648545334868369 -0.16311147615285329 0 -0.34648545334868369 -0.16311147615285329 0 -0.35788001493839611 -0.17576831496813999 0 -0.33501951577929873 -0.16729908190312789 0 -0.34954987665533299 -0.15424548639031271 0 -0.34648545334868369 -0.16311147615285329 0 -0.35445721343992059 -0.1619675590177023 0 -0.35413341494744088 -0.14719959415449421 0 -0.35445721343992059 -0.1619675590177023 0 -0.36554542654456429 -0.16945206744667471 0 -0.35788001493839611 -0.17576831496813999 0 -0.33501951577929873 -0.16729908190312789 0 -0.34648545334868369 -0.16311147615285329 0 -0.35445721343992059 -0.1619675590177023 0 -0.35788001493839611 -0.17576831496813999 0 -0.35445721343992059 -0.1619675590177023 0 -0.36554542654456429 -0.16945206744667471 0 -0.35788001493839611 -0.17576831496813999 0 -0.35413341494744088 -0.14719959415449421 0 -0.36554542654456429 -0.16945206744667471 0 -0.3679743334396014 -0.15408772885571331 0 -0.35413341494744088 -0.14719959415449421 0 -0.36554542654456429 -0.16945206744667471 0 -0.3679743334396014 -0.15408772885571331 0 -0.36554542654456429 -0.16945206744667471 0 -0.37696591512674532 -0.1609827341034305 0 -0.37016556171889331 -0.18126023377528719 0 -0.3536864721015115 -0.18284124587119119 0 -0.37235342842372432 -0.19838340983925429 0 -0.36554542654456429 -0.16945206744667471 0 -0.37016556171889331 -0.18126023377528719 0 -0.38426477739238413 -0.17192867897072969 0 -0.37016556171889331 -0.18126023377528719 0 -0.3536864721015115 -0.18284124587119119 0 -0.35788001493839611 -0.17576831496813999 0 -0.36554542654456429 -0.16945206744667471 0 -0.37016556171889331 -0.18126023377528719 0 -0.35788001493839611 -0.17576831496813999 0 -0.3536864721015115 -0.18284124587119119 0 -0.33501951577929873 -0.16729908190312789 0 -0.3536864721015115 -0.18284124587119119 0 -0.35788001493839611 -0.17576831496813999 0 -0.33501951577929873 -0.16729908190312789 0 -0.3536864721015115 -0.18284124587119119 0 -0.32945708373588178 -0.18448348783091689 0 -0.33501951577929873 -0.16729908190312789 0 -0.31722412851074311 -0.15248258895007169 0 -0.33813688440009898 -0.15615522653291031 0 -0.33501951577929873 -0.16729908190312789 0 -0.33813688440009898 -0.15615522653291031 0 -0.34648545334868369 -0.16311147615285329 0 -0.33501951577929873 -0.16729908190312789 0 -0.31722412851074311 -0.15248258895007169 0 -0.33501951577929873 -0.16729908190312789 0 -0.31722412851074311 -0.15248258895007169 0 -0.33501951577929873 -0.16729908190312789 0 -0.31498630483336881 -0.15987728715749039 0 -0.31220508881165993 -0.16846949012138551 0 -0.33501951577929873 -0.16729908190312789 0 -0.31498630483336881 -0.15987728715749039 0 -0.33501951577929873 -0.16729908190312789 0 -0.31498630483336881 -0.15987728715749039 0 -0.31220508881165993 -0.16846949012138551 0 -0.32945708373588178 -0.18448348783091689 0 -0.31489114071409963 -0.18333745750317351 0 -0.31220508881165993 -0.16846949012138551 0 -0.32945708373588178 -0.18448348783091689 0 -0.31220508881165993 -0.16846949012138551 0 -0.32945708373588178 -0.18448348783091689 0 -0.33501951577929873 -0.16729908190312789 0 -0.32945708373588178 -0.18448348783091689 0 -0.31489114071409963 -0.18333745750317351 0 -0.32010675552350842 -0.19230926195043291 0 -0.30717411826112789 -0.1920401195635244 0 -0.32010675552350842 -0.19230926195043291 0 -0.3129652712195421 -0.2114706657937139 0 -0.32945708373588178 -0.18448348783091689 0 -0.32010675552350842 -0.19230926195043291 0 -0.32566449460190838 -0.20326261146105551 0 -0.32010675552350842 -0.19230926195043291 0 -0.3129652712195421 -0.2114706657937139 0 -0.32566449460190838 -0.20326261146105551 0 -0.30717411826112789 -0.1920401195635244 0 -0.31489114071409963 -0.18333745750317351 0 -0.32010675552350842 -0.19230926195043291 0 -0.3129652712195421 -0.2114706657937139 0 -0.32566449460190838 -0.20326261146105551 0 -0.33208474862113468 -0.21873250337862821 0 -0.33208474862113468 -0.21873250337862821 0 -0.34670907866010381 -0.20049748554044841 0 -0.34896881396179619 -0.22434135344573131 0 -0.32566449460190838 -0.20326261146105551 0 -0.33208474862113468 -0.21873250337862821 0 -0.34670907866010381 -0.20049748554044841 0 -0.3536864721015115 -0.18284124587119119 0 -0.32945708373588178 -0.18448348783091689 0 -0.34670907866010381 -0.20049748554044841 0 -0.32945708373588178 -0.18448348783091689 0 -0.32566449460190838 -0.20326261146105551 0 -0.34670907866010381 -0.20049748554044841 0 -0.32945708373588178 -0.18448348783091689 0 -0.34670907866010381 -0.20049748554044841 0 -0.3536864721015115 -0.18284124587119119 0 -0.35917751319241631 -0.19955840612521841 0 -0.34670907866010381 -0.20049748554044841 0 -0.3536864721015115 -0.18284124587119119 0 -0.37235342842372432 -0.19838340983925429 0 -0.3536864721015115 -0.18284124587119119 0 -0.35917751319241631 -0.19955840612521841 0 -0.37235342842372432 -0.19838340983925429 0 -0.37235342842372432 -0.19838340983925429 0 -0.36396107358432572 -0.21651148324997979 0 -0.37772562505684643 -0.22219038377974651 0 -0.35917751319241631 -0.19955840612521841 0 -0.37235342842372432 -0.19838340983925429 0 -0.36396107358432572 -0.21651148324997979 0 -0.34670907866010381 -0.20049748554044841 0 -0.36396107358432572 -0.21651148324997979 0 -0.34896881396179619 -0.22434135344573131 0 -0.34670907866010381 -0.20049748554044841 0 -0.36396107358432572 -0.21651148324997979 0 -0.35917751319241631 -0.19955840612521841 0 -0.34670907866010381 -0.20049748554044841 0 -0.36396107358432572 -0.21651148324997979 0 -0.34896881396179619 -0.22434135344573131 0 -0.36764811873304098 -0.23322730847002751 0 -0.35305879752332059 -0.24486073726717009 0 -0.36396107358432572 -0.21651148324997979 0 -0.36764811873304098 -0.23322730847002751 0 -0.37772562505684643 -0.22219038377974651 0 -0.36396107358432572 -0.21651148324997979 0 -0.34896881396179619 -0.22434135344573131 0 -0.36764811873304098 -0.23322730847002751 0 -0.37533687834285862 -0.25417213976024849 0 -0.36764811873304098 -0.23322730847002751 0 -0.35305879752332059 -0.24486073726717009 0 -0.34896881396179619 -0.22434135344573131 0 -0.35305879752332059 -0.24486073726717009 0 -0.33568364413539042 -0.23615154195274179 0 -0.33623326073948312 -0.25365348176558788 0 -0.33568364413539042 -0.23615154195274179 0 -0.32213598881581812 -0.2442700999577708 0 -0.33623326073948312 -0.25365348176558788 0 -0.35305879752332059 -0.24486073726717009 0 -0.33568364413539042 -0.23615154195274179 0 -0.33208474862113468 -0.21873250337862821 0 -0.33568364413539042 -0.23615154195274179 0 -0.32219037366776621 -0.22897372759534659 0 -0.33208474862113468 -0.21873250337862821 0 -0.34896881396179619 -0.22434135344573131 0 -0.33568364413539042 -0.23615154195274179 0 -0.30829656048542242 -0.23127198481015249 0 -0.3129652712195421 -0.2114706657937139 0 -0.32219037366776621 -0.22897372759534659 0 -0.3129652712195421 -0.2114706657937139 0 -0.33208474862113468 -0.21873250337862821 0 -0.32219037366776621 -0.22897372759534659 0 -0.30769212114973271 -0.24578220261295139 0 -0.30829656048542242 -0.23127198481015249 0 -0.32213598881581812 -0.2442700999577708 0 -0.30829656048542242 -0.23127198481015249 0 -0.32219037366776621 -0.22897372759534659 0 -0.32213598881581812 -0.2442700999577708 0 -0.31968345090478489 -0.25798973640781447 0 -0.30769212114973271 -0.24578220261295139 0 -0.32213598881581812 -0.2442700999577708 0 -0.33568364413539042 -0.23615154195274179 0 -0.32219037366776621 -0.22897372759534659 0 -0.32213598881581812 -0.2442700999577708 0 -0.43598079583492633 -0.24721882136819351 0 -0.42311134176242837 -0.2304528026464861 0 -0.41615383063077721 -0.2466412503256647 0 -0.43598079583492633 -0.24721882136819351 0 -0.42311134176242837 -0.2304528026464861 0 -0.43908324849522451 -0.2287046610080686 0 -0.42311134176242837 -0.2304528026464861 0 -0.41411505562058892 -0.2091502018577929 0 -0.42948217154750851 -0.21815887616964899 0 -0.42311134176242837 -0.2304528026464861 0 -0.42948217154750851 -0.21815887616964899 0 -0.43908324849522451 -0.2287046610080686 0 -0.42948217154750851 -0.21815887616964899 0 -0.43955036875351089 -0.21658504913102711 0 -0.43908324849522451 -0.2287046610080686 0 -0.40619246279161347 -0.2313797712556602 0 -0.41411505562058892 -0.2091502018577929 0 -0.42311134176242837 -0.2304528026464861 0 -0.40619246279161347 -0.2313797712556602 0 -0.41411505562058892 -0.2091502018577929 0 -0.39826986996263802 -0.25360934065352753 0 -0.41615383063077721 -0.2466412503256647 0 -0.40619246279161347 -0.2313797712556602 0 -0.42311134176242837 -0.2304528026464861 0 -0.41615383063077721 -0.2466412503256647 0 -0.40619246279161347 -0.2313797712556602 0 -0.39826986996263802 -0.25360934065352753 0 -0.38632210934187061 -0.2364082567837591 0 -0.40619246279161347 -0.2313797712556602 0 -0.39826986996263802 -0.25360934065352753 0 -0.40619246279161347 -0.2313797712556602 0 -0.37533687834285862 -0.25417213976024849 0 -0.36764811873304098 -0.23322730847002751 0 -0.38632210934187061 -0.2364082567837591 0 -0.37533687834285862 -0.25417213976024849 0 -0.39826986996263802 -0.25360934065352753 0 -0.38632210934187061 -0.2364082567837591 0 -0.36764811873304098 -0.23322730847002751 0 -0.38632210934187061 -0.2364082567837591 0 -0.37772562505684643 -0.22219038377974651 0 -0.38632210934187061 -0.2364082567837591 0 -0.37772562505684643 -0.22219038377974651 0 -0.39102038474593709 -0.2139255738073175 0 -0.38632210934187061 -0.2364082567837591 0 -0.40619246279161347 -0.2313797712556602 0 -0.39102038474593709 -0.2139255738073175 0 -0.39102038474593709 -0.2139255738073175 0 -0.40351751052996843 -0.1957217498792192 0 -0.41411505562058892 -0.2091502018577929 0 -0.40619246279161347 -0.2313797712556602 0 -0.39102038474593709 -0.2139255738073175 0 -0.41411505562058892 -0.2091502018577929 0 -0.37235342842372432 -0.19838340983925429 0 -0.39102038474593709 -0.2139255738073175 0 -0.37235342842372432 -0.19838340983925429 0 -0.37772562505684643 -0.22219038377974651 0 -0.39102038474593709 -0.2139255738073175 0 -0.37016556171889331 -0.18126023377528719 0 -0.37235342842372432 -0.19838340983925429 0 -0.38726325091278008 -0.18918768555573329 0 -0.37235342842372432 -0.19838340983925429 0 -0.39102038474593709 -0.2139255738073175 0 -0.38726325091278008 -0.18918768555573329 0 -0.38726325091278008 -0.18918768555573329 0 -0.40351751052996843 -0.1957217498792192 0 -0.40315121292097328 -0.17942465571532731 0 -0.39102038474593709 -0.2139255738073175 0 -0.38726325091278008 -0.18918768555573329 0 -0.40351751052996843 -0.1957217498792192 0 -0.41411505562058892 -0.2091502018577929 0 -0.42203764844956237 -0.18692063245992491 0 -0.40351751052996843 -0.1957217498792192 0 -0.41411505562058892 -0.2091502018577929 0 -0.42203764844956237 -0.18692063245992491 0 -0.41411505562058892 -0.2091502018577929 0 -0.42948217154750851 -0.21815887616964899 0 -0.43155084310578928 -0.2059016662048701 0 -0.42948217154750851 -0.21815887616964899 0 -0.43155084310578928 -0.2059016662048701 0 -0.43955036875351089 -0.21658504913102711 0 -0.42203764844956237 -0.18692063245992491 0 -0.44484374680150301 -0.19597231310248839 0 -0.41411505562058892 -0.2091502018577929 0 -0.43155084310578928 -0.2059016662048701 0 -0.42203764844956237 -0.18692063245992491 0 -0.43155084310578928 -0.2059016662048701 0 -0.42203764844956237 -0.18692063245992491 0 -0.44484374680150301 -0.19597231310248839 0 -0.42203764844956237 -0.18692063245992491 0 -0.44134853753678083 -0.18159229851429221 0 -0.44484374680150301 -0.19597231310248839 0 -0.42203764844956237 -0.18692063245992491 0 -0.42880774722037651 -0.1679247830322266 0 -0.42203764844956237 -0.18692063245992491 0 -0.42880774722037651 -0.1679247830322266 0 -0.44134853753678083 -0.18159229851429221 0 -0.42880774722037651 -0.1679247830322266 0 -0.43557784599118871 -0.14892893360452769 0 -0.44631139980808621 -0.1631836851414229 0 -0.42880774722037651 -0.1679247830322266 0 -0.43557784599118871 -0.14892893360452769 0 -0.42880774722037651 -0.1679247830322266 0 -0.41236960909879722 -0.16540507401591409 0 -0.42079860369606048 -0.15043713941075901 0 -0.42203764844956237 -0.18692063245992491 0 -0.42880774722037651 -0.1679247830322266 0 -0.41236960909879722 -0.16540507401591409 0 -0.40351751052996843 -0.1957217498792192 0 -0.42203764844956237 -0.18692063245992491 0 -0.40315121292097328 -0.17942465571532731 0 -0.42203764844956237 -0.18692063245992491 0 -0.40315121292097328 -0.17942465571532731 0 -0.42203764844956237 -0.18692063245992491 0 -0.41236960909879722 -0.16540507401591409 0 -0.40315121292097328 -0.17942465571532731 0 -0.38726325091278008 -0.18918768555573329 0 -0.40315121292097328 -0.17942465571532731 0 -0.38426477739238413 -0.17192867897072969 0 -0.40315121292097328 -0.17942465571532731 0 -0.38426477739238413 -0.17192867897072969 0 -0.37016556171889331 -0.18126023377528719 0 -0.38726325091278008 -0.18918768555573329 0 -0.38426477739238413 -0.17192867897072969 0 -0.36554542654456429 -0.16945206744667471 0 -0.38426477739238413 -0.17192867897072969 0 -0.37696591512674532 -0.1609827341034305 0 -0.38426477739238413 -0.17192867897072969 0 -0.37696591512674532 -0.1609827341034305 0 -0.39230106084837368 -0.15838844905994759 0 -0.40315121292097328 -0.17942465571532731 0 -0.38426477739238413 -0.17192867897072969 0 -0.39230106084837368 -0.15838844905994759 0 -0.41236960909879722 -0.16540507401591409 0 -0.39230106084837368 -0.15838844905994759 0 -0.40587711449475489 -0.1449624873806776 0 -0.41236960909879722 -0.16540507401591409 0 -0.40315121292097328 -0.17942465571532731 0 -0.39230106084837368 -0.15838844905994759 0 -0.39230106084837368 -0.15838844905994759 0 -0.39162863389564362 -0.14105630786861159 0 -0.40587711449475489 -0.1449624873806776 0 -0.39230106084837368 -0.15838844905994759 0 -0.39162863389564362 -0.14105630786861159 0 -0.3777566452334315 -0.14913711856379011 0 -0.37696591512674532 -0.1609827341034305 0 -0.39230106084837368 -0.15838844905994759 0 -0.3777566452334315 -0.14913711856379011 0 -0.36893450279197471 -0.1249528869149899 0 -0.39162863389564362 -0.14105630786861159 0 -0.3777566452334315 -0.14913711856379011 0 -0.36893450279197471 -0.1249528869149899 0 -0.39162863389564362 -0.14105630786861159 0 -0.39514760223357998 -0.1249586529677193 0 -0.39162863389564362 -0.14105630786861159 0 -0.40587711449475489 -0.1449624873806776 0 -0.39514760223357998 -0.1249586529677193 0 -0.40587711449475489 -0.1449624873806776 0 -0.39514760223357998 -0.1249586529677193 0 -0.42136070167518519 -0.1249644190204488 0 -0.40587711449475489 -0.1449624873806776 0 -0.42079860369606048 -0.15043713941075901 0 -0.42136070167518519 -0.1249644190204488 0 -0.41236960909879722 -0.16540507401591409 0 -0.40587711449475489 -0.1449624873806776 0 -0.42079860369606048 -0.15043713941075901 0 -0.42079860369606048 -0.15043713941075901 0 -0.43557784599118871 -0.14892893360452769 0 -0.42136070167518519 -0.1249644190204488 0 -0.42880774722037651 -0.1679247830322266 0 -0.42079860369606048 -0.15043713941075901 0 -0.43557784599118871 -0.14892893360452769 0 -0.43557784599118871 -0.14892893360452769 0 -0.42136070167518519 -0.1249644190204488 0 -0.44757380111679052 -0.12497018507317829 0 -0.43557784599118871 -0.14892893360452769 0 -0.45596445488588 -0.14427568033770541 0 -0.44757380111679052 -0.12497018507317829 0 -0.43557784599118871 -0.14892893360452769 0 -0.45596445488588 -0.14427568033770541 0 -0.44631139980808621 -0.1631836851414229 0 -0.45596445488588 -0.14427568033770541 0 -0.46278066629215481 -0.1610158872753634 0 -0.44631139980808621 -0.1631836851414229 0 -0.45596445488588 -0.14427568033770541 0 -0.47930750267908417 -0.1480635854121114 0 -0.46278066629215481 -0.1610158872753634 0 -0.45596445488588 -0.14427568033770541 0 -0.44757380111679052 -0.12497018507317829 0 -0.47378690055839578 -0.1249759511259078 0 -0.48827360080937021 -0.13531742911399189 0 -0.47930750267908417 -0.1480635854121114 0 -0.47378690055839578 -0.1249759511259078 0 -0.45596445488588 -0.14427568033770541 0 -0.47930750267908417 -0.1480635854121114 0 -0.47378690055839578 -0.1249759511259078 0 -0.48827360080937021 -0.13531742911399189 0 -0.5 -0.14324846273931111 0 -0.50000000000000111 -0.12498171717863731 0 -0.48827360080937021 -0.13531742911399189 0 -0.47378690055839578 -0.1249759511259078 0 -0.50000000000000111 -0.12498171717863731 0 -0.5 -0.14324846273931111 0 -0.47930750267908417 -0.1480635854121114 0 -0.49999999999999961 -0.161515208299985 0 -0.48827360080937021 -0.13531742911399189 0 -0.5 -0.14324846273931111 0 -0.47930750267908417 -0.1480635854121114 0 -0.47930750267908417 -0.1480635854121114 0 -0.47738728335761421 -0.1682509267597351 0 -0.46278066629215481 -0.1610158872753634 0 -0.47738728335761421 -0.1682509267597351 0 -0.49999999999999961 -0.161515208299985 0 -0.48839409620634278 -0.18039624849769001 0 -0.49999999999999961 -0.161515208299985 0 -0.48839409620634278 -0.18039624849769001 0 -0.47930750267908417 -0.1480635854121114 0 -0.47738728335761421 -0.1682509267597351 0 -0.49999999999999961 -0.161515208299985 0 -0.49999999999999961 -0.161515208299985 0 -0.5 -0.18618779176616679 0 -0.48839409620634278 -0.18039624849769001 0 -0.5 -0.18618779176616679 0 -0.48839409620634278 -0.18039624849769001 0 -0.48957789370491162 -0.19386933705848941 0 -0.47738728335761421 -0.1682509267597351 0 -0.48839409620634278 -0.18039624849769001 0 -0.47328693949397721 -0.18411760774338479 0 -0.47738728335761421 -0.1682509267597351 0 -0.47328693949397721 -0.18411760774338479 0 -0.45860677246597031 -0.17520894370368309 0 -0.47328693949397721 -0.18411760774338479 0 -0.45860677246597031 -0.17520894370368309 0 -0.45906836497473352 -0.19043479360484361 0 -0.47738728335761421 -0.1682509267597351 0 -0.45860677246597031 -0.17520894370368309 0 -0.46278066629215481 -0.1610158872753634 0 -0.45860677246597031 -0.17520894370368309 0 -0.46278066629215481 -0.1610158872753634 0 -0.44631139980808621 -0.1631836851414229 0 -0.42880774722037651 -0.1679247830322266 0 -0.44631139980808621 -0.1631836851414229 0 -0.44134853753678083 -0.18159229851429221 0 -0.45860677246597031 -0.17520894370368309 0 -0.44631139980808621 -0.1631836851414229 0 -0.44134853753678083 -0.18159229851429221 0 -0.45860677246597031 -0.17520894370368309 0 -0.44134853753678083 -0.18159229851429221 0 -0.45906836497473352 -0.19043479360484361 0 -0.44134853753678083 -0.18159229851429221 0 -0.45906836497473352 -0.19043479360484361 0 -0.44134853753678083 -0.18159229851429221 0 -0.44484374680150301 -0.19597231310248839 0 -0.45906836497473352 -0.19043479360484361 0 -0.43155084310578928 -0.2059016662048701 0 -0.44484374680150301 -0.19597231310248839 0 -0.44343463088850471 -0.20721188330797369 0 -0.43155084310578928 -0.2059016662048701 0 -0.44343463088850471 -0.20721188330797369 0 -0.43955036875351089 -0.21658504913102711 0 -0.44343463088850471 -0.20721188330797369 0 -0.43955036875351089 -0.21658504913102711 0 -0.44966782191270221 -0.21345696714665749 0 -0.44966782191270221 -0.21345696714665749 0 -0.45691127413918359 -0.218140336649912 0 -0.44903912237987481 -0.22310222333220869 0 -0.43955036875351089 -0.21658504913102711 0 -0.44966782191270221 -0.21345696714665749 0 -0.44903912237987481 -0.22310222333220869 0 -0.44484374680150301 -0.19597231310248839 0 -0.44343463088850471 -0.20721188330797369 0 -0.45285363365211462 -0.2065344908709397 0 -0.44343463088850471 -0.20721188330797369 0 -0.44966782191270221 -0.21345696714665749 0 -0.45285363365211462 -0.2065344908709397 0 -0.45285363365211462 -0.2065344908709397 0 -0.4586721235044201 -0.2110072970525271 0 -0.46764984515344349 -0.20502399374505181 0 -0.44966782191270221 -0.21345696714665749 0 -0.45285363365211462 -0.2065344908709397 0 -0.4586721235044201 -0.2110072970525271 0 -0.44966782191270221 -0.21345696714665749 0 -0.4586721235044201 -0.2110072970525271 0 -0.45691127413918359 -0.218140336649912 0 -0.4586721235044201 -0.2110072970525271 0 -0.45691127413918359 -0.218140336649912 0 -0.46757130244775341 -0.21427176676618889 0 -0.4586721235044201 -0.2110072970525271 0 -0.46757130244775341 -0.21427176676618889 0 -0.46764984515344349 -0.20502399374505181 0 -0.44484374680150301 -0.19597231310248839 0 -0.46764984515344349 -0.20502399374505181 0 -0.45906836497473352 -0.19043479360484361 0 -0.44484374680150301 -0.19597231310248839 0 -0.45285363365211462 -0.2065344908709397 0 -0.46764984515344349 -0.20502399374505181 0 -0.45906836497473352 -0.19043479360484361 0 -0.47678819241268611 -0.1992772886953951 0 -0.44484374680150301 -0.19597231310248839 0 -0.46764984515344349 -0.20502399374505181 0 -0.46764984515344349 -0.20502399374505181 0 -0.45906836497473352 -0.19043479360484361 0 -0.47678819241268611 -0.1992772886953951 0 -0.47328693949397721 -0.18411760774338479 0 -0.45906836497473352 -0.19043479360484361 0 -0.47678819241268611 -0.1992772886953951 0 -0.48839409620634278 -0.18039624849769001 0 -0.47328693949397721 -0.18411760774338479 0 -0.47678819241268611 -0.1992772886953951 0 -0.48839409620634278 -0.18039624849769001 0 -0.47678819241268611 -0.1992772886953951 0 -0.47678819241268611 -0.1992772886953951 0 -0.48957789370491162 -0.19386933705848941 0 -0.50000000000000222 -0.21086037523234849 0 -0.48839409620634278 -0.18039624849769001 0 -0.47678819241268611 -0.1992772886953951 0 -0.48957789370491162 -0.19386933705848941 0 -0.5 -0.18618779176616679 0 -0.48957789370491162 -0.19386933705848941 0 -0.50000000000000222 -0.21086037523234849 0 -0.50000000000000222 -0.21086037523234849 0 -0.48101414991814051 -0.21220490785157131 0 -0.4775447229854059 -0.22535576830415929 0 -0.47678819241268611 -0.1992772886953951 0 -0.50000000000000222 -0.21086037523234849 0 -0.47678819241268611 -0.1992772886953951 0 -0.50000000000000222 -0.21086037523234849 0 -0.48101414991814051 -0.21220490785157131 0 -0.46757130244775341 -0.21427176676618889 0 -0.47678819241268611 -0.1992772886953951 0 -0.48101414991814051 -0.21220490785157131 0 -0.46757130244775341 -0.21427176676618889 0 -0.47678819241268611 -0.1992772886953951 0 -0.46757130244775341 -0.21427176676618889 0 -0.46764984515344349 -0.20502399374505181 0 -0.47678819241268611 -0.1992772886953951 0 -0.46757130244775341 -0.21427176676618889 0 -0.48101414991814051 -0.21220490785157131 0 -0.4775447229854059 -0.22535576830415929 0 -0.46757130244775341 -0.21427176676618889 0 -0.4775447229854059 -0.22535576830415929 0 -0.46571952953094348 -0.22577651025912229 0 -0.4775447229854059 -0.22535576830415929 0 -0.4726071657750785 -0.240360200228666 0 -0.45676275941016609 -0.23628729483617639 0 -0.50000000000000222 -0.21086037523234849 0 -0.4775447229854059 -0.22535576830415929 0 -0.48548116721245049 -0.23774912910784329 0 -0.50000000000000222 -0.21086037523234849 0 -0.5 -0.2401545466321974 0 -0.48548116721245049 -0.23774912910784329 0 -0.48050148842732221 -0.25523221810557922 0 -0.5 -0.2401545466321974 0 -0.48548116721245049 -0.23774912910784329 0 -0.48050148842732221 -0.25523221810557922 0 -0.4726071657750785 -0.240360200228666 0 -0.46267023581878858 -0.24817136713935201 0 -0.48050148842732221 -0.25523221810557922 0 -0.48548116721245049 -0.23774912910784329 0 -0.4726071657750785 -0.240360200228666 0 -0.4775447229854059 -0.22535576830415929 0 -0.48548116721245049 -0.23774912910784329 0 -0.4726071657750785 -0.240360200228666 0 -0.4726071657750785 -0.240360200228666 0 -0.46267023581878858 -0.24817136713935201 0 -0.45676275941016609 -0.23628729483617639 0 -0.46267023581878858 -0.24817136713935201 0 -0.45676275941016609 -0.23628729483617639 0 -0.45139902778349827 -0.24711062934306771 0 -0.4775447229854059 -0.22535576830415929 0 -0.45676275941016609 -0.23628729483617639 0 -0.46571952953094348 -0.22577651025912229 0 -0.4775447229854059 -0.22535576830415929 0 -0.45676275941016609 -0.23628729483617639 0 -0.46757130244775341 -0.21427176676618889 0 -0.45835441248282049 -0.22926624483698249 0 -0.45691127413918359 -0.218140336649912 0 -0.46757130244775341 -0.21427176676618889 0 -0.45835441248282049 -0.22926624483698249 0 -0.46757130244775341 -0.21427176676618889 0 -0.46571952953094348 -0.22577651025912229 0 -0.45835441248282049 -0.22926624483698249 0 -0.45691127413918359 -0.218140336649912 0 -0.45835441248282049 -0.22926624483698249 0 -0.44903912237987481 -0.22310222333220869 0 -0.45676275941016609 -0.23628729483617639 0 -0.46571952953094348 -0.22577651025912229 0 -0.45835441248282049 -0.22926624483698249 0 -0.45676275941016609 -0.23628729483617639 0 -0.45835441248282049 -0.22926624483698249 0 -0.44784406772060242 -0.23291584907632601 0 -0.45835441248282049 -0.22926624483698249 0 -0.44784406772060242 -0.23291584907632601 0 -0.44903912237987481 -0.22310222333220869 0 -0.44784406772060242 -0.23291584907632601 0 -0.44903912237987481 -0.22310222333220869 0 -0.43908324849522451 -0.2287046610080686 0 -0.43955036875351089 -0.21658504913102711 0 -0.44903912237987481 -0.22310222333220869 0 -0.43908324849522451 -0.2287046610080686 0 -0.43598079583492633 -0.24721882136819351 0 -0.44784406772060242 -0.23291584907632601 0 -0.43908324849522451 -0.2287046610080686 0 -0.43598079583492633 -0.24721882136819351 0 -0.45676275941016609 -0.23628729483617639 0 -0.45139902778349827 -0.24711062934306771 0 -0.43598079583492633 -0.24721882136819351 0 -0.45676275941016609 -0.23628729483617639 0 -0.44784406772060242 -0.23291584907632601 0 -0.43598079583492633 -0.24721882136819351 0 -0.45676275941016609 -0.23628729483617639 0 -0.41513049604948221 -0.033942569896895612 0 -0.42680670243505803 -0.034615113076212713 0 -0.40073055052989021 -0.025701474464423758 0 -0.41513049604948221 -0.033942569896895612 0 -0.42462943043776058 -0.041038039404546971 0 -0.40237332615973681 -0.030676944162886681 0 -0.42462943043776058 -0.041038039404546971 0 -0.40237332615973681 -0.030676944162886681 0 -0.41105872637709778 -0.041104419315527559 0 -0.42462943043776058 -0.041038039404546971 0 -0.40237332615973681 -0.030676944162886681 0 -0.41795689190558921 -0.046390941043723911 0 -0.41105872637709778 -0.041104419315527559 0 -0.42462943043776058 -0.041038039404546971 0 -0.41513049604948221 -0.033942569896895612 0 -0.42462943043776058 -0.041038039404546971 0 -0.4243569293735685 -0.037306081984415762 0 -0.41105872637709778 -0.041104419315527559 0 -0.4050251302254127 -0.045922345921936697 0 -0.40306291723554027 -0.039039715031688543 0 -0.41795689190558921 -0.046390941043723911 0 -0.41105872637709778 -0.041104419315527559 0 -0.41174405323292163 -0.047949206462353358 0 -0.41105872637709778 -0.041104419315527559 0 -0.41174405323292163 -0.047949206462353358 0 -0.4050251302254127 -0.045922345921936697 0 -0.41174405323292163 -0.047949206462353358 0 -0.4050251302254127 -0.045922345921936697 0 -0.40603099279739802 -0.054788986838451827 0 -0.41174405323292163 -0.047949206462353358 0 -0.4187470457232762 -0.053937065845881961 0 -0.40603099279739802 -0.054788986838451827 0 -0.4187470457232762 -0.053937065845881961 0 -0.40603099279739802 -0.054788986838451827 0 -0.41284572228237681 -0.064006668923108523 0 -0.4187470457232762 -0.053937065845881961 0 -0.41284572228237681 -0.064006668923108523 0 -0.42746868386642678 -0.066478460468227696 0 -0.41795689190558921 -0.046390941043723911 0 -0.41174405323292163 -0.047949206462353358 0 -0.4187470457232762 -0.053937065845881961 0 -0.41795689190558921 -0.046390941043723911 0 -0.4187470457232762 -0.053937065845881961 0 -0.42320145590089769 -0.048540393412862697 0 -0.42320145590089769 -0.048540393412862697 0 -0.43147245553696489 -0.05279552735729795 0 -0.42462943043776058 -0.041038039404546971 0 -0.4187470457232762 -0.053937065845881961 0 -0.42320145590089769 -0.048540393412862697 0 -0.43147245553696489 -0.05279552735729795 0 -0.43147245553696489 -0.05279552735729795 0 -0.42462943043776058 -0.041038039404546971 0 -0.44688553471578463 -0.051399134646207288 0 -0.4187470457232762 -0.053937065845881961 0 -0.43147245553696489 -0.05279552735729795 0 -0.42746868386642678 -0.066478460468227696 0 -0.43147245553696489 -0.05279552735729795 0 -0.42746868386642678 -0.066478460468227696 0 -0.43950717444435422 -0.063784996514660589 0 -0.42818951741271921 -0.038310772776573528 0 -0.43628267576141971 -0.035329403205585218 0 -0.44688553471578463 -0.051399134646207288 0 -0.42462943043776058 -0.041038039404546971 0 -0.42818951741271921 -0.038310772776573528 0 -0.44688553471578463 -0.051399134646207288 0 -0.42462943043776058 -0.041038039404546971 0 -0.44688553471578463 -0.051399134646207288 0 -0.41795689190558921 -0.046390941043723911 0 -0.42320145590089769 -0.048540393412862697 0 -0.42462943043776058 -0.041038039404546971 0 -0.41513049604948221 -0.033942569896895612 0 -0.4243569293735685 -0.037306081984415762 0 -0.42680670243505803 -0.034615113076212713 0 -0.42462943043776058 -0.041038039404546971 0 -0.4243569293735685 -0.037306081984415762 0 -0.42818951741271921 -0.038310772776573528 0 -0.42818951741271921 -0.038310772776573528 0 -0.42680670243505803 -0.034615113076212713 0 -0.4243569293735685 -0.037306081984415762 0 -0.42818951741271921 -0.038310772776573528 0 -0.42680670243505803 -0.034615113076212713 0 -0.42818951741271921 -0.038310772776573528 0 -0.42680670243505803 -0.034615113076212713 0 -0.42995577540377822 -0.032900560567165532 0 -0.42818951741271921 -0.038310772776573528 0 -0.42995577540377822 -0.032900560567165532 0 -0.43628267576141971 -0.035329403205585218 0 -0.42995577540377822 -0.032900560567165532 0 -0.43628267576141971 -0.035329403205585218 0 -0.4327931004709421 -0.029092843067932112 0 -0.42680670243505803 -0.034615113076212713 0 -0.4285090787839364 -0.025262373234060161 0 -0.41794895562780338 -0.01094222954485795 0 -0.42680670243505803 -0.034615113076212713 0 -0.41794895562780338 -0.01094222954485795 0 -0.43628267576141971 -0.035329403205585218 0 -0.4327931004709421 -0.029092843067932112 0 -0.43710875721387199 -0.026668229939385779 0 -0.42995577540377822 -0.032900560567165532 0 -0.4327931004709421 -0.029092843067932112 0 -0.4285090787839364 -0.025262373234060161 0 -0.43210921519170409 -0.025303648393463829 0 -0.43710875721387199 -0.026668229939385779 0 -0.43108579893039811 -0.01948839847471974 0 -0.4327931004709421 -0.029092843067932112 0 -0.43210921519170409 -0.025303648393463829 0 -0.4285090787839364 -0.025262373234060161 0 -0.4327931004709421 -0.029092843067932112 0 -0.43210921519170409 -0.025303648393463829 0 -0.43710875721387199 -0.026668229939385779 0 -0.43108579893039811 -0.01948839847471974 0 -0.43397544616601241 -0.014244232554068349 0 -0.43928417642389239 -0.017661557407765791 0 -0.43710875721387199 -0.026668229939385779 0 -0.43108579893039811 -0.01948839847471974 0 -0.43928417642389239 -0.017661557407765791 0 -0.43210921519170409 -0.025303648393463829 0 -0.43108579893039811 -0.01948839847471974 0 -0.4285090787839364 -0.025262373234060161 0 -0.43108579893039811 -0.01948839847471974 0 -0.4285090787839364 -0.025262373234060161 0 -0.41794895562780338 -0.01094222954485795 0 -0.42680670243505803 -0.034615113076212713 0 -0.42995577540377822 -0.032900560567165532 0 -0.4285090787839364 -0.025262373234060161 0 -0.43591977417237449 -0.008065469867085449 0 -0.42907061680018699 -0.010664914002041091 0 -0.42583279771702431 0.00046528033667210148 0 -0.43108579893039811 -0.01948839847471974 0 -0.43397544616601241 -0.014244232554068349 0 -0.42907061680018699 -0.010664914002041091 0 -0.43591977417237449 -0.008065469867085449 0 -0.43397544616601241 -0.014244232554068349 0 -0.43928417642389239 -0.017661557407765791 0 -0.43591977417237449 -0.008065469867085449 0 -0.43397544616601241 -0.014244232554068349 0 -0.42907061680018699 -0.010664914002041091 0 -0.43108579893039811 -0.01948839847471974 0 -0.42907061680018699 -0.010664914002041091 0 -0.41794895562780338 -0.01094222954485795 0 -0.42907061680018699 -0.010664914002041091 0 -0.41794895562780338 -0.01094222954485795 0 -0.42583279771702431 0.00046528033667210148 0 -0.41794895562780338 -0.01094222954485795 0 -0.4102220184461346 -0.019351118920435541 0 -0.40021295305484711 -0.013852611056198059 0 -0.41794895562780338 -0.01094222954485795 0 -0.40352261506359649 -0.001038070178381474 0 -0.40021295305484711 -0.013852611056198059 0 -0.42680670243505803 -0.034615113076212713 0 -0.41794895562780338 -0.01094222954485795 0 -0.4102220184461346 -0.019351118920435541 0 -0.42680670243505803 -0.034615113076212713 0 -0.4102220184461346 -0.019351118920435541 0 -0.40073055052989021 -0.025701474464423758 0 -0.42680670243505803 -0.034615113076212713 0 -0.40073055052989021 -0.025701474464423758 0 -0.41513049604948221 -0.033942569896895612 0 -0.40073055052989021 -0.025701474464423758 0 -0.40237332615973681 -0.030676944162886681 0 -0.40073055052989021 -0.025701474464423758 0 -0.40237332615973681 -0.030676944162886681 0 -0.38011722188171299 -0.020315848921226409 0 -0.40237332615973681 -0.030676944162886681 0 -0.38011722188171299 -0.020315848921226409 0 -0.4102220184461346 -0.019351118920435541 0 -0.40073055052989021 -0.025701474464423758 0 -0.40021295305484711 -0.013852611056198059 0 -0.40073055052989021 -0.025701474464423758 0 -0.40021295305484711 -0.013852611056198059 0 -0.38745402304870558 -0.01483805838738575 0 -0.40352261506359649 -0.001038070178381474 0 -0.40021295305484711 -0.013852611056198059 0 -0.39408165103759368 -0.0019794594859314238 0 -0.40021295305484711 -0.013852611056198059 0 -0.39408165103759368 -0.0019794594859314238 0 -0.39005949432245718 -0.0085411321607220259 0 -0.40021295305484711 -0.013852611056198059 0 -0.39005949432245718 -0.0085411321607220259 0 -0.38745402304870558 -0.01483805838738575 0 -0.39408165103759368 -0.0019794594859314238 0 -0.3848191179490616 -0.0027051675553946518 0 -0.39005949432245718 -0.0085411321607220259 0 -0.3848191179490616 -0.0027051675553946518 0 -0.38372972652207787 -0.0093303643187002475 0 -0.39005949432245718 -0.0085411321607220259 0 -0.38372972652207787 -0.0093303643187002475 0 -0.38745402304870558 -0.01483805838738575 0 -0.3791207175096093 -0.01135650732177081 0 -0.38372972652207787 -0.0093303643187002475 0 -0.39005949432245718 -0.0085411321607220259 0 -0.38745402304870558 -0.01483805838738575 0 -0.37465439862472261 -0.016787835852634068 0 -0.37464851222799189 -0.0076089195940836872 0 -0.3791207175096093 -0.01135650732177081 0 -0.37465439862472261 -0.016787835852634068 0 -0.38745402304870558 -0.01483805838738575 0 -0.3791207175096093 -0.01135650732177081 0 -0.37464851222799189 -0.0076089195940836872 0 -0.3791207175096093 -0.01135650732177081 0 -0.37960876280762101 -0.0064231604720931881 0 -0.38372972652207787 -0.0093303643187002475 0 -0.3791207175096093 -0.01135650732177081 0 -0.37960876280762101 -0.0064231604720931881 0 -0.3848191179490616 -0.0027051675553946518 0 -0.38372972652207787 -0.0093303643187002475 0 -0.37960876280762101 -0.0064231604720931881 0 -0.37464851222799189 -0.0076089195940836872 0 -0.37960876280762101 -0.0064231604720931881 0 -0.37774077980655368 -0.001289555558904682 0 -0.3848191179490616 -0.0027051675553946518 0 -0.37960876280762101 -0.0064231604720931881 0 -0.37774077980655368 -0.001289555558904682 0 -0.37465439862472261 -0.016787835852634068 0 -0.40073055052989021 -0.025701474464423758 0 -0.38745402304870558 -0.01483805838738575 0 -0.40237332615973681 -0.030676944162886681 0 -0.38781453024876661 -0.02996800237218563 0 -0.38011722188171299 -0.020315848921226409 0 -0.37465439862472261 -0.016787835852634068 0 -0.40073055052989021 -0.025701474464423758 0 -0.38011722188171299 -0.020315848921226409 0 -0.37465439862472261 -0.016787835852634068 0 -0.40073055052989021 -0.025701474464423758 0 -0.37402384376206249 -0.023759624541515059 0 -0.37465439862472261 -0.016787835852634068 0 -0.38011722188171299 -0.020315848921226409 0 -0.37402384376206249 -0.023759624541515059 0 -0.38011722188171299 -0.020315848921226409 0 -0.37866743010551202 -0.02906954498465647 0 -0.38781453024876661 -0.02996800237218563 0 -0.38011722188171299 -0.020315848921226409 0 -0.37866743010551202 -0.02906954498465647 0 -0.37439980638912518 -0.038891661293645137 0 -0.37866743010551202 -0.02906954498465647 0 -0.38394575501216083 -0.036535335565972972 0 -0.37439980638912518 -0.038891661293645137 0 -0.37993408630244868 -0.045501240077299353 0 -0.38394575501216083 -0.036535335565972972 0 -0.37085155020467431 -0.050438611479832557 0 -0.37439980638912518 -0.038891661293645137 0 -0.37993408630244868 -0.045501240077299353 0 -0.37993408630244868 -0.045501240077299353 0 -0.38895054345211377 -0.045335196083553769 0 -0.38394575501216083 -0.036535335565972972 0 -0.38895054345211377 -0.045335196083553769 0 -0.38394575501216083 -0.036535335565972972 0 -0.39396365166307989 -0.03445798481758762 0 -0.38781453024876661 -0.02996800237218563 0 -0.38394575501216083 -0.036535335565972972 0 -0.39396365166307989 -0.03445798481758762 0 -0.38781453024876661 -0.02996800237218563 0 -0.37866743010551202 -0.02906954498465647 0 -0.38394575501216083 -0.036535335565972972 0 -0.40237332615973681 -0.030676944162886681 0 -0.38781453024876661 -0.02996800237218563 0 -0.39396365166307989 -0.03445798481758762 0 -0.39396365166307989 -0.03445798481758762 0 -0.39750411751227832 -0.042292212187568533 0 -0.39928834571923882 -0.035924112998793431 0 -0.38895054345211377 -0.045335196083553769 0 -0.39396365166307989 -0.03445798481758762 0 -0.39750411751227832 -0.042292212187568533 0 -0.39750411751227832 -0.042292212187568533 0 -0.4050251302254127 -0.045922345921936697 0 -0.40306291723554027 -0.039039715031688543 0 -0.39750411751227832 -0.042292212187568533 0 -0.40306291723554027 -0.039039715031688543 0 -0.39928834571923882 -0.035924112998793431 0 -0.40237332615973681 -0.030676944162886681 0 -0.39396365166307989 -0.03445798481758762 0 -0.39928834571923882 -0.035924112998793431 0 -0.41105872637709778 -0.041104419315527559 0 -0.40237332615973681 -0.030676944162886681 0 -0.40306291723554027 -0.039039715031688543 0 -0.40237332615973681 -0.030676944162886681 0 -0.40306291723554027 -0.039039715031688543 0 -0.39928834571923882 -0.035924112998793431 0 -0.40603099279739802 -0.054788986838451827 0 -0.39527915405366182 -0.064437672488960096 0 -0.41284572228237681 -0.064006668923108523 0 -0.40603099279739802 -0.054788986838451827 0 -0.39443592701229091 -0.053019652188425637 0 -0.39527915405366182 -0.064437672488960096 0 -0.4050251302254127 -0.045922345921936697 0 -0.40603099279739802 -0.054788986838451827 0 -0.39443592701229091 -0.053019652188425637 0 -0.39750411751227832 -0.042292212187568533 0 -0.4050251302254127 -0.045922345921936697 0 -0.39443592701229091 -0.053019652188425637 0 -0.38895054345211377 -0.045335196083553769 0 -0.39750411751227832 -0.042292212187568533 0 -0.39443592701229091 -0.053019652188425637 0 -0.39443592701229091 -0.053019652188425637 0 -0.38221605892473098 -0.056125323053866277 0 -0.39527915405366182 -0.064437672488960096 0 -0.36608399240098949 -0.063120758007335118 0 -0.38221605892473098 -0.056125323053866277 0 -0.37978412082390189 -0.068029865631836883 0 -0.38895054345211377 -0.045335196083553769 0 -0.39443592701229091 -0.053019652188425637 0 -0.38221605892473098 -0.056125323053866277 0 -0.37993408630244868 -0.045501240077299353 0 -0.38895054345211377 -0.045335196083553769 0 -0.38221605892473098 -0.056125323053866277 0 -0.37085155020467431 -0.050438611479832557 0 -0.37993408630244868 -0.045501240077299353 0 -0.38221605892473098 -0.056125323053866277 0 -0.36843110820579178 -0.075527255856609146 0 -0.37978412082390189 -0.068029865631836883 0 -0.38691029053433551 -0.080938318752413793 0 -0.37978412082390189 -0.068029865631836883 0 -0.38691029053433551 -0.080938318752413793 0 -0.39527915405366182 -0.064437672488960096 0 -0.38221605892473098 -0.056125323053866277 0 -0.37978412082390189 -0.068029865631836883 0 -0.39527915405366182 -0.064437672488960096 0 -0.37380044498630338 -0.100392191664622 0 -0.36747037526515469 -0.088210616938563927 0 -0.38691029053433551 -0.080938318752413793 0 -0.36843110820579178 -0.075527255856609146 0 -0.38691029053433551 -0.080938318752413793 0 -0.40007542381043809 -0.086939242353532731 0 -0.39460333317738627 -0.1006873657273652 0 -0.41352047356827321 -0.0909948847898496 0 -0.38691029053433551 -0.080938318752413793 0 -0.40007542381043809 -0.086939242353532731 0 -0.40767355229219521 -0.074626636544090755 0 -0.38691029053433551 -0.080938318752413793 0 -0.40007542381043809 -0.086939242353532731 0 -0.39460333317738627 -0.1006873657273652 0 -0.38691029053433551 -0.080938318752413793 0 -0.39527915405366182 -0.064437672488960096 0 -0.40767355229219521 -0.074626636544090755 0 -0.39527915405366182 -0.064437672488960096 0 -0.41284572228237681 -0.064006668923108523 0 -0.40767355229219521 -0.074626636544090755 0 -0.36893450279197471 -0.1249528869149899 0 -0.3789649235099295 -0.11270856972454819 0 -0.39514760223357998 -0.1249586529677193 0 -0.36893450279197471 -0.1249528869149899 0 -0.39514760223357998 -0.1249586529677193 0 -0.3789649235099295 -0.11270856972454819 0 -0.39460333317738627 -0.1006873657273652 0 -0.39514760223357998 -0.1249586529677193 0 -0.37380044498630338 -0.100392191664622 0 -0.38691029053433551 -0.080938318752413793 0 -0.39460333317738627 -0.1006873657273652 0 -0.37380044498630338 -0.100392191664622 0 -0.3789649235099295 -0.11270856972454819 0 -0.39460333317738627 -0.1006873657273652 0 -0.39460333317738627 -0.1006873657273652 0 -0.39514760223357998 -0.1249586529677193 0 -0.4114708495464785 -0.1093321351213095 0 -0.42136070167518519 -0.1249644190204488 0 -0.4114708495464785 -0.1093321351213095 0 -0.43272213707796769 -0.1050553531011644 0 -0.39514760223357998 -0.1249586529677193 0 -0.42136070167518519 -0.1249644190204488 0 -0.39514760223357998 -0.1249586529677193 0 -0.42136070167518519 -0.1249644190204488 0 -0.4114708495464785 -0.1093321351213095 0 -0.39460333317738627 -0.1006873657273652 0 -0.4114708495464785 -0.1093321351213095 0 -0.41352047356827321 -0.0909948847898496 0 -0.4114708495464785 -0.1093321351213095 0 -0.43272213707796769 -0.1050553531011644 0 -0.41352047356827321 -0.0909948847898496 0 -0.42136070167518519 -0.1249644190204488 0 -0.43272213707796769 -0.1050553531011644 0 -0.44757380111679052 -0.12497018507317829 0 -0.42136070167518519 -0.1249644190204488 0 -0.44757380111679052 -0.12497018507317829 0 -0.42023793718526542 -0.076451056482049876 0 -0.41284572228237681 -0.064006668923108523 0 -0.42746868386642678 -0.066478460468227696 0 -0.42023793718526542 -0.076451056482049876 0 -0.41284572228237681 -0.064006668923108523 0 -0.40767355229219521 -0.074626636544090755 0 -0.42023793718526542 -0.076451056482049876 0 -0.40767355229219521 -0.074626636544090755 0 -0.41352047356827321 -0.0909948847898496 0 -0.40007542381043809 -0.086939242353532731 0 -0.40767355229219521 -0.074626636544090755 0 -0.41352047356827321 -0.0909948847898496 0 -0.42023793718526542 -0.076451056482049876 0 -0.41352047356827321 -0.0909948847898496 0 -0.43051036701793649 -0.083964229305721505 0 -0.43272213707796769 -0.1050553531011644 0 -0.41352047356827321 -0.0909948847898496 0 -0.43051036701793649 -0.083964229305721505 0 -0.43272213707796769 -0.1050553531011644 0 -0.43051036701793649 -0.083964229305721505 0 -0.44869793539396702 -0.090613631575090198 0 -0.43051036701793649 -0.083964229305721505 0 -0.42746868386642678 -0.066478460468227696 0 -0.43938561630945938 -0.075374003134316428 0 -0.42023793718526542 -0.076451056482049876 0 -0.43051036701793649 -0.083964229305721505 0 -0.42746868386642678 -0.066478460468227696 0 -0.42746868386642678 -0.066478460468227696 0 -0.43950717444435422 -0.063784996514660589 0 -0.43938561630945938 -0.075374003134316428 0 -0.43950717444435422 -0.063784996514660589 0 -0.45074392082461212 -0.072028697807882153 0 -0.43938561630945938 -0.075374003134316428 0 -0.43051036701793649 -0.083964229305721505 0 -0.43938561630945938 -0.075374003134316428 0 -0.44869793539396702 -0.090613631575090198 0 -0.45074392082461212 -0.072028697807882153 0 -0.43938561630945938 -0.075374003134316428 0 -0.44869793539396702 -0.090613631575090198 0 -0.45074392082461212 -0.072028697807882153 0 -0.44869793539396702 -0.090613631575090198 0 -0.4647336852437608 -0.080388630180202481 0 -0.44869793539396702 -0.090613631575090198 0 -0.4647336852437608 -0.080388630180202481 0 -0.47380622041468068 -0.096022360055862885 0 -0.4647336852437608 -0.080388630180202481 0 -0.46264955769922828 -0.069236149835977229 0 -0.47254815090776853 -0.069469283055039688 0 -0.45074392082461212 -0.072028697807882153 0 -0.46264955769922828 -0.069236149835977229 0 -0.44688553471578463 -0.051399134646207288 0 -0.46264955769922828 -0.069236149835977229 0 -0.47254815090776853 -0.069469283055039688 0 -0.46914163899380801 -0.061760229887868598 0 -0.45074392082461212 -0.072028697807882153 0 -0.4647336852437608 -0.080388630180202481 0 -0.46264955769922828 -0.069236149835977229 0 -0.43272213707796769 -0.1050553531011644 0 -0.44757380111679052 -0.12497018507317829 0 -0.46022938895027038 -0.10869066194517669 0 -0.43272213707796769 -0.1050553531011644 0 -0.44869793539396702 -0.090613631575090198 0 -0.46022938895027038 -0.10869066194517669 0 -0.44869793539396702 -0.090613631575090198 0 -0.46022938895027038 -0.10869066194517669 0 -0.47380622041468068 -0.096022360055862885 0 -0.44757380111679052 -0.12497018507317829 0 -0.47378690055839578 -0.1249759511259078 0 -0.44757380111679052 -0.12497018507317829 0 -0.46022938895027038 -0.10869066194517669 0 -0.47378690055839578 -0.1249759511259078 0 -0.46022938895027038 -0.10869066194517669 0 -0.47378690055839578 -0.1249759511259078 0 -0.48374478807960558 -0.1092121363906397 0 -0.46022938895027038 -0.10869066194517669 0 -0.48374478807960558 -0.1092121363906397 0 -0.47380622041468068 -0.096022360055862885 0 -0.48374478807960558 -0.1092121363906397 0 -0.47380622041468068 -0.096022360055862885 0 -0.48832582805197727 -0.092109142267116931 0 -0.48374478807960558 -0.1092121363906397 0 -0.5 -0.10055386622176241 0 -0.48832582805197727 -0.092109142267116931 0 -0.47378690055839578 -0.1249759511259078 0 -0.48374478807960558 -0.1092121363906397 0 -0.50000000000000111 -0.12498171717863731 0 -0.48374478807960558 -0.1092121363906397 0 -0.5 -0.10055386622176241 0 -0.50000000000000111 -0.12498171717863731 0 -0.47378690055839578 -0.1249759511259078 0 -0.50000000000000111 -0.12498171717863731 0 -0.47254815090776853 -0.069469283055039688 0 -0.47913967023945842 -0.082463322467565006 0 -0.48457081949690362 -0.068943122576377761 0 -0.47913967023945842 -0.082463322467565006 0 -0.48808502354595151 -0.080031310268457945 0 -0.48457081949690362 -0.068943122576377761 0 -0.48457081949690362 -0.068943122576377761 0 -0.46914163899380801 -0.061760229887868598 0 -0.48457081949690362 -0.068943122576377761 0 -0.48230491698392047 -0.057318093012348498 0 -0.46914163899380801 -0.061760229887868598 0 -0.47254815090776853 -0.069469283055039688 0 -0.48457081949690362 -0.068943122576377761 0 -0.46914163899380801 -0.061760229887868598 0 -0.47254815090776853 -0.069469283055039688 0 -0.46914163899380801 -0.061760229887868598 0 -0.4647336852437608 -0.080388630180202481 0 -0.47254815090776853 -0.069469283055039688 0 -0.47913967023945842 -0.082463322467565006 0 -0.4647336852437608 -0.080388630180202481 0 -0.47380622041468068 -0.096022360055862885 0 -0.47913967023945842 -0.082463322467565006 0 -0.47380622041468068 -0.096022360055862885 0 -0.47913967023945842 -0.082463322467565006 0 -0.48832582805197727 -0.092109142267116931 0 -0.5 -0.10055386622176241 0 -0.48832582805197727 -0.092109142267116931 0 -0.499999999999999 -0.07612601526488752 0 -0.48808502354595151 -0.080031310268457945 0 -0.48832582805197727 -0.092109142267116931 0 -0.499999999999999 -0.07612601526488752 0 -0.47913967023945842 -0.082463322467565006 0 -0.48808502354595151 -0.080031310268457945 0 -0.48832582805197727 -0.092109142267116931 0 -0.499999999999999 -0.07612601526488752 0 -0.48457081949690362 -0.068943122576377761 0 -0.499999999999999 -0.07612601526488752 0 -0.48457081949690362 -0.068943122576377761 0 -0.5 -0.055081012739928707 0 -0.48808502354595151 -0.080031310268457945 0 -0.499999999999999 -0.07612601526488752 0 -0.48457081949690362 -0.068943122576377761 0 -0.48457081949690362 -0.068943122576377761 0 -0.5 -0.055081012739928707 0 -0.48230491698392047 -0.057318093012348498 0 -0.5 -0.055081012739928707 0 -0.48157039955536241 -0.044558511477442143 0 -0.48230491698392047 -0.057318093012348498 0 -0.5 -0.055081012739928707 0 -0.500000000000004 -0.034036010214970061 0 -0.48157039955536241 -0.044558511477442143 0 -0.500000000000004 -0.034036010214970061 0 -0.48157039955536241 -0.044558511477442143 0 -0.48148290990478199 -0.029591545163434652 0 -0.48157039955536241 -0.044558511477442143 0 -0.45768975774058179 -0.035844230274481748 0 -0.48148290990478199 -0.029591545163434652 0 -0.48157039955536241 -0.044558511477442143 0 -0.46914163899380801 -0.061760229887868598 0 -0.45768975774058179 -0.035844230274481748 0 -0.48157039955536241 -0.044558511477442143 0 -0.48230491698392047 -0.057318093012348498 0 -0.46914163899380801 -0.061760229887868598 0 -0.46914163899380801 -0.061760229887868598 0 -0.45768975774058179 -0.035844230274481748 0 -0.44688553471578463 -0.051399134646207288 0 -0.46914163899380801 -0.061760229887868598 0 -0.45768975774058179 -0.035844230274481748 0 -0.46264955769922828 -0.069236149835977229 0 -0.46914163899380801 -0.061760229887868598 0 -0.44688553471578463 -0.051399134646207288 0 -0.46914163899380801 -0.061760229887868598 0 -0.44688553471578463 -0.051399134646207288 0 -0.43628267576141971 -0.035329403205585218 0 -0.44354830351403418 -0.034418653902415733 0 -0.44688553471578463 -0.051399134646207288 0 -0.45768975774058179 -0.035844230274481748 0 -0.44354830351403418 -0.034418653902415733 0 -0.44688553471578463 -0.051399134646207288 0 -0.45768975774058179 -0.035844230274481748 0 -0.44354830351403418 -0.034418653902415733 0 -0.44312252706978628 -0.024928407146411868 0 -0.43628267576141971 -0.035329403205585218 0 -0.43710875721387199 -0.026668229939385779 0 -0.44354830351403418 -0.034418653902415733 0 -0.43950717444435422 -0.063784996514660589 0 -0.45074392082461212 -0.072028697807882153 0 -0.44688553471578463 -0.051399134646207288 0 -0.43147245553696489 -0.05279552735729795 0 -0.43950717444435422 -0.063784996514660589 0 -0.44688553471578463 -0.051399134646207288 0 -0.43591977417237449 -0.008065469867085449 0 -0.44623787648735791 -0.0099282306610938807 0 -0.43740981058492812 0.01004998492246997 0 -0.43591977417237449 -0.008065469867085449 0 -0.44623787648735791 -0.0099282306610938807 0 -0.43928417642389239 -0.017661557407765791 0 -0.43591977417237449 -0.008065469867085449 0 -0.44623787648735791 -0.0099282306610938807 0 -0.43710875721387199 -0.026668229939385779 0 -0.43928417642389239 -0.017661557407765791 0 -0.44312252706978628 -0.024928407146411868 0 -0.45768975774058179 -0.035844230274481748 0 -0.44623787648735791 -0.0099282306610938807 0 -0.44312252706978628 -0.024928407146411868 0 -0.45768975774058179 -0.035844230274481748 0 -0.44623787648735791 -0.0099282306610938807 0 -0.44623787648735791 -0.0099282306610938807 0 -0.43928417642389239 -0.017661557407765791 0 -0.44312252706978628 -0.024928407146411868 0 -0.43710875721387199 -0.026668229939385779 0 -0.44354830351403418 -0.034418653902415733 0 -0.44312252706978628 -0.024928407146411868 0 -0.45768975774058179 -0.035844230274481748 0 -0.44623787648735791 -0.0099282306610938807 0 -0.47146408957177099 -0.01448240150379307 0 -0.44623787648735791 -0.0099282306610938807 0 -0.47146408957177099 -0.01448240150379307 0 -0.44623787648735791 -0.0099282306610938807 0 -0.47146408957177099 -0.01448240150379307 0 -0.46048772545436639 0.0043098071123656434 0 -0.47146408957177099 -0.01448240150379307 0 -0.47882554305316488 -0.0018417715126103191 0 -0.46048772545436639 0.0043098071123656434 0 -0.47146408957177099 -0.01448240150379307 0 -0.47882554305316488 -0.0018417715126103191 0 -0.49669030265618502 -0.01903657234648758 0 -0.47146408957177099 -0.01448240150379307 0 -0.49669030265618502 -0.01903657234648758 0 -0.47146408957177099 -0.01448240150379307 0 -0.48148290990478199 -0.029591545163434652 0 -0.49669030265618502 -0.01903657234648758 0 -0.45768975774058179 -0.035844230274481748 0 -0.47146408957177099 -0.01448240150379307 0 -0.48148290990478199 -0.029591545163434652 0 -0.500000000000004 -0.034036010214970061 0 -0.48148290990478199 -0.029591545163434652 0 -0.49669030265618502 -0.01903657234648758 0 -0.49669030265618502 -0.01903657234648758 0 -0.50000000000000056 -0.019634082844440681 0 -0.500000000000004 -0.034036010214970061 0 -0.49669030265618502 -0.01903657234648758 0 -0.500000000000004 -0.034036010214970061 0 -0.49669030265618502 -0.01903657234648758 0 -0.50000000000000056 -0.019634082844440681 0 -0.47882554305316488 -0.0018417715126103191 0 -0.49669030265618502 -0.01903657234648758 0 -0.49160980924365538 0.0039880541876541054 0 -0.49669030265618502 -0.01903657234648758 0 -0.49160980924365538 0.0039880541876541054 0 -0.49669030265618502 -0.01903657234648758 0 -0.50000000000000056 -0.019634082844440681 0 -0.49160980924365538 0.0039880541876541054 0 -0.50000000000000056 -0.019634082844440681 0 -0.49160980924365538 0.0039880541876541054 0 -0.50000000000000033 0.009303662189531537 0 -0.49160980924365538 0.0039880541876541054 0 -0.48652931583112352 0.027012680721795381 0 -0.49160980924365538 0.0039880541876541054 0 -0.50000000000000033 0.009303662189531537 0 -0.48652931583112352 0.027012680721795381 0 -0.50000000000000033 0.009303662189531537 0 -0.5 0.03611151152349279 0 -0.49175907743105379 0.031398254416965428 0 -0.50000000000000033 0.009303662189531537 0 -0.49175907743105379 0.031398254416965428 0 -0.50000000000000033 0.009303662189531537 0 -0.48652931583112352 0.027012680721795381 0 -0.49175907743105379 0.031398254416965428 0 -0.48652931583112352 0.027012680721795381 0 -0.47387578833984401 0.016012254987208822 0 -0.46815351836101687 0.031449839152918539 0 -0.49160980924365538 0.0039880541876541054 0 -0.48652931583112352 0.027012680721795381 0 -0.47387578833984401 0.016012254987208822 0 -0.47882554305316488 -0.0018417715126103191 0 -0.49160980924365538 0.0039880541876541054 0 -0.47387578833984401 0.016012254987208822 0 -0.47882554305316488 -0.0018417715126103191 0 -0.47387578833984401 0.016012254987208822 0 -0.46048772545436639 0.0043098071123656434 0 -0.49282352307895688 0.045257754500502748 0 -0.5 0.03611151152349279 0 -0.5 0.062919360857453976 0 -0.49282352307895688 0.045257754500502748 0 -0.48351815486210709 0.053492846644399093 0 -0.5 0.062919360857453976 0 -0.49175907743105379 0.031398254416965428 0 -0.48144882241859149 0.050037307255936581 0 -0.48351815486210709 0.053492846644399093 0 -0.48652931583112352 0.027012680721795381 0 -0.49175907743105379 0.031398254416965428 0 -0.48144882241859149 0.050037307255936581 0 -0.49175907743105379 0.031398254416965428 0 -0.48351815486210709 0.053492846644399093 0 -0.49282352307895688 0.045257754500502748 0 -0.49175907743105379 0.031398254416965428 0 -0.48351815486210709 0.053492846644399093 0 -0.49282352307895688 0.045257754500502748 0 -0.5 0.03611151152349279 0 -0.49175907743105379 0.031398254416965428 0 -0.48144882241859149 0.050037307255936581 0 -0.4639696453013944 0.043374392403556838 0 -0.46815351836101687 0.031449839152918539 0 -0.48652931583112352 0.027012680721795381 0 -0.48144882241859149 0.050037307255936581 0 -0.48652931583112352 0.027012680721795381 0 -0.48144882241859149 0.050037307255936581 0 -0.46815351836101687 0.031449839152918539 0 -0.48144882241859149 0.050037307255936581 0 -0.45709786057011947 0.055708105081253657 0 -0.47636832900606041 0.073061933790077832 0 -0.48144882241859149 0.050037307255936581 0 -0.48351815486210709 0.053492846644399093 0 -0.47636832900606041 0.073061933790077832 0 -0.48144882241859149 0.050037307255936581 0 -0.47636832900606041 0.073061933790077832 0 -0.48144882241859149 0.050037307255936581 0 -0.45709786057011947 0.055708105081253657 0 -0.4639696453013944 0.043374392403556838 0 -0.45709786057011947 0.055708105081253657 0 -0.4639696453013944 0.043374392403556838 0 -0.45299045524759751 0.034902057762674861 0 -0.4639696453013944 0.043374392403556838 0 -0.46815351836101687 0.031449839152918539 0 -0.45299045524759751 0.034902057762674861 0 -0.46815351836101687 0.031449839152918539 0 -0.45299045524759751 0.034902057762674861 0 -0.45709786057011947 0.055708105081253657 0 -0.45299045524759751 0.034902057762674861 0 -0.43782739213417787 0.038354276372430232 0 -0.45299045524759751 0.034902057762674861 0 -0.43782739213417787 0.038354276372430232 0 -0.45299045524759751 0.034902057762674861 0 -0.43782739213417787 0.038354276372430232 0 -0.44297011017848281 0.02707887027054981 0 -0.45709786057011947 0.055708105081253657 0 -0.43782739213417787 0.038354276372430232 0 -0.43187248081207541 0.055496176207803817 0 -0.45709786057011947 0.055708105081253657 0 -0.43782739213417787 0.038354276372430232 0 -0.45709786057011947 0.055708105081253657 0 -0.43187248081207541 0.055496176207803817 0 -0.43763284036668942 0.072255399145110422 0 -0.47387578833984401 0.016012254987208822 0 -0.46048772545436639 0.0043098071123656434 0 -0.45598123469437257 0.020633802368031268 0 -0.47387578833984401 0.016012254987208822 0 -0.46815351836101687 0.031449839152918539 0 -0.45598123469437257 0.020633802368031268 0 -0.46815351836101687 0.031449839152918539 0 -0.45299045524759751 0.034902057762674861 0 -0.45598123469437257 0.020633802368031268 0 -0.45598123469437257 0.020633802368031268 0 -0.44297011017848281 0.02707887027054981 0 -0.43740981058492812 0.01004998492246997 0 -0.45299045524759751 0.034902057762674861 0 -0.45598123469437257 0.020633802368031268 0 -0.44297011017848281 0.02707887027054981 0 -0.46048772545436639 0.0043098071123656434 0 -0.45598123469437257 0.020633802368031268 0 -0.43740981058492812 0.01004998492246997 0 -0.44623787648735791 -0.0099282306610938807 0 -0.46048772545436639 0.0043098071123656434 0 -0.43740981058492812 0.01004998492246997 0 -0.44623787648735791 -0.0099282306610938807 0 -0.43740981058492812 0.01004998492246997 0 -0.43591977417237449 -0.008065469867085449 0 -0.43740981058492812 0.01004998492246997 0 -0.42583279771702431 0.00046528033667210148 0 -0.43740981058492812 0.01004998492246997 0 -0.42292027786463471 0.01349413118407828 0 -0.42583279771702431 0.00046528033667210148 0 -0.41794895562780338 -0.01094222954485795 0 -0.40909120882054839 0.01273065398649661 0 -0.41794895562780338 -0.01094222954485795 0 -0.40352261506359649 -0.001038070178381474 0 -0.40909120882054839 0.01273065398649661 0 -0.42292027786463471 0.01349413118407828 0 -0.42583279771702431 0.00046528033667210148 0 -0.40909120882054839 0.01273065398649661 0 -0.41794895562780338 -0.01094222954485795 0 -0.42583279771702431 0.00046528033667210148 0 -0.40909120882054839 0.01273065398649661 0 -0.40909120882054839 0.01273065398649661 0 -0.41494363987246979 0.023236645495722939 0 -0.40023346201329341 0.036403537517851137 0 -0.41494363987246979 0.023236645495722939 0 -0.41436175989852531 0.033604495869393458 0 -0.40023346201329341 0.036403537517851137 0 -0.42292027786463471 0.01349413118407828 0 -0.41494363987246979 0.023236645495722939 0 -0.424969395700869 0.026775135554755129 0 -0.42292027786463471 0.01349413118407828 0 -0.40909120882054839 0.01273065398649661 0 -0.41494363987246979 0.023236645495722939 0 -0.41494363987246979 0.023236645495722939 0 -0.41896391809246269 0.029132761591660509 0 -0.41436175989852531 0.033604495869393458 0 -0.41494363987246979 0.023236645495722939 0 -0.41896391809246269 0.029132761591660509 0 -0.424969395700869 0.026775135554755129 0 -0.41896391809246269 0.029132761591660509 0 -0.424969395700869 0.026775135554755129 0 -0.42158087689798668 0.032914769446770492 0 -0.424969395700869 0.026775135554755129 0 -0.42858174468249838 0.030028200506033911 0 -0.42158087689798668 0.032914769446770492 0 -0.44297011017848281 0.02707887027054981 0 -0.43740981058492812 0.01004998492246997 0 -0.42858174468249838 0.030028200506033911 0 -0.43740981058492812 0.01004998492246997 0 -0.42292027786463471 0.01349413118407828 0 -0.424969395700869 0.026775135554755129 0 -0.43740981058492812 0.01004998492246997 0 -0.42858174468249838 0.030028200506033911 0 -0.43740981058492812 0.01004998492246997 0 -0.424969395700869 0.026775135554755129 0 -0.42858174468249838 0.030028200506033911 0 -0.424969395700869 0.026775135554755129 0 -0.42858174468249838 0.030028200506033911 0 -0.43782739213417787 0.038354276372430232 0 -0.44297011017848281 0.02707887027054981 0 -0.42858174468249838 0.030028200506033911 0 -0.43782739213417787 0.038354276372430232 0 -0.42858174468249838 0.030028200506033911 0 -0.42345682706553001 0.041626064651069543 0 -0.43782739213417787 0.038354276372430232 0 -0.42345682706553001 0.041626064651069543 0 -0.43187248081207541 0.055496176207803817 0 -0.43782739213417787 0.038354276372430232 0 -0.42858174468249838 0.030028200506033911 0 -0.43782739213417787 0.038354276372430232 0 -0.42345682706553001 0.041626064651069543 0 -0.42858174468249838 0.030028200506033911 0 -0.42345682706553001 0.041626064651069543 0 -0.42158087689798668 0.032914769446770492 0 -0.42858174468249838 0.030028200506033911 0 -0.42345682706553001 0.041626064651069543 0 -0.42345682706553001 0.041626064651069543 0 -0.43187248081207541 0.055496176207803817 0 -0.4177568865966339 0.054525225210098782 0 -0.43187248081207541 0.055496176207803817 0 -0.4177568865966339 0.054525225210098782 0 -0.41753301535116211 0.067129086497859855 0 -0.42345682706553001 0.041626064651069543 0 -0.4177568865966339 0.054525225210098782 0 -0.40276573021624068 0.046336866753853997 0 -0.4177568865966339 0.054525225210098782 0 -0.40750332447406851 0.057375884956624552 0 -0.41753301535116211 0.067129086497859855 0 -0.42345682706553001 0.041626064651069543 0 -0.4177568865966339 0.054525225210098782 0 -0.4177568865966339 0.054525225210098782 0 -0.40750332447406851 0.057375884956624552 0 -0.40276573021624068 0.046336866753853997 0 -0.42345682706553001 0.041626064651069543 0 -0.40276573021624068 0.046336866753853997 0 -0.42345682706553001 0.041626064651069543 0 -0.41020444479839763 0.039492741198042178 0 -0.40276573021624068 0.046336866753853997 0 -0.42345682706553001 0.041626064651069543 0 -0.41436175989852531 0.033604495869393458 0 -0.42158087689798668 0.032914769446770492 0 -0.42345682706553001 0.041626064651069543 0 -0.41436175989852531 0.033604495869393458 0 -0.41020444479839763 0.039492741198042178 0 -0.41896391809246269 0.029132761591660509 0 -0.41436175989852531 0.033604495869393458 0 -0.42158087689798668 0.032914769446770492 0 -0.41436175989852531 0.033604495869393458 0 -0.41020444479839763 0.039492741198042178 0 -0.40023346201329341 0.036403537517851137 0 -0.40276573021624068 0.046336866753853997 0 -0.38207463336695202 0.051047668856640811 0 -0.38772007791329738 0.03985096685417347 0 -0.41020444479839763 0.039492741198042178 0 -0.40023346201329341 0.036403537517851137 0 -0.40276573021624068 0.046336866753853997 0 -0.40023346201329341 0.036403537517851137 0 -0.40276573021624068 0.046336866753853997 0 -0.38772007791329738 0.03985096685417347 0 -0.40023346201329341 0.036403537517851137 0 -0.38772007791329738 0.03985096685417347 0 -0.38925836826538629 0.030805614435688099 0 -0.40276573021624068 0.046336866753853997 0 -0.38207463336695202 0.051047668856640811 0 -0.40276573021624068 0.046336866753853997 0 -0.39689466156197101 0.057407184083191301 0 -0.38207463336695202 0.051047668856640811 0 -0.40750332447406851 0.057375884956624552 0 -0.39689466156197101 0.057407184083191301 0 -0.40210564328563447 0.066115584712721373 0 -0.40750332447406851 0.057375884956624552 0 -0.40276573021624068 0.046336866753853997 0 -0.39689466156197101 0.057407184083191301 0 -0.38207463336695202 0.051047668856640811 0 -0.38848633305814179 0.065600711414542545 0 -0.36891219827968119 0.060077996683558232 0 -0.39689466156197101 0.057407184083191301 0 -0.38207463336695202 0.051047668856640811 0 -0.38848633305814179 0.065600711414542545 0 -0.38772007791329738 0.03985096685417347 0 -0.37937813184432773 0.031366277704107569 0 -0.38925836826538629 0.030805614435688099 0 -0.38207463336695202 0.051047668856640811 0 -0.38772007791329738 0.03985096685417347 0 -0.37261014177358448 0.043145835856899219 0 -0.38772007791329738 0.03985096685417347 0 -0.37937813184432773 0.031366277704107569 0 -0.37261014177358448 0.043145835856899219 0 -0.37937813184432773 0.031366277704107569 0 -0.38391758338059062 0.022870450659759161 0 -0.37479293228070759 0.022502646493578662 0 -0.37937813184432773 0.031366277704107569 0 -0.38925836826538629 0.030805614435688099 0 -0.38391758338059062 0.022870450659759161 0 -0.38925836826538629 0.030805614435688099 0 -0.38391758338059062 0.022870450659759161 0 -0.3946160130735708 0.021551959563878339 0 -0.38391758338059062 0.022870450659759161 0 -0.38667067902898572 0.013842153393714489 0 -0.3946160130735708 0.021551959563878339 0 -0.38391758338059062 0.022870450659759161 0 -0.3778438638662554 0.014761087644765769 0 -0.38667067902898572 0.013842153393714489 0 -0.38391758338059062 0.022870450659759161 0 -0.3778438638662554 0.014761087644765769 0 -0.37479293228070759 0.022502646493578662 0 -0.3778438638662554 0.014761087644765769 0 -0.38165634421242611 0.0056742618597281089 0 -0.38667067902898572 0.013842153393714489 0 -0.3778438638662554 0.014761087644765769 0 -0.38165634421242611 0.0056742618597281089 0 -0.37464316483836829 0.0066416053135349984 0 -0.37774077980655368 -0.001289555558904682 0 -0.38165634421242611 0.0056742618597281089 0 -0.37464316483836829 0.0066416053135349984 0 -0.3848191179490616 -0.0027051675553946518 0 -0.37774077980655368 -0.001289555558904682 0 -0.38165634421242611 0.0056742618597281089 0 -0.3848191179490616 -0.0027051675553946518 0 -0.38165634421242611 0.0056742618597281089 0 -0.38845980705381639 0.0057813395070211177 0 -0.39408165103759368 -0.0019794594859314238 0 -0.3848191179490616 -0.0027051675553946518 0 -0.38845980705381639 0.0057813395070211177 0 -0.38845980705381639 0.0057813395070211177 0 -0.38667067902898572 0.013842153393714489 0 -0.39627830677719 0.008853295208583448 0 -0.38165634421242611 0.0056742618597281089 0 -0.38845980705381639 0.0057813395070211177 0 -0.38667067902898572 0.013842153393714489 0 -0.38667067902898572 0.013842153393714489 0 -0.39627830677719 0.008853295208583448 0 -0.3946160130735708 0.021551959563878339 0 -0.39408165103759368 -0.0019794594859314238 0 -0.38845980705381639 0.0057813395070211177 0 -0.39627830677719 0.008853295208583448 0 -0.40352261506359649 -0.001038070178381474 0 -0.39408165103759368 -0.0019794594859314238 0 -0.39627830677719 0.008853295208583448 0 -0.40352261506359649 -0.001038070178381474 0 -0.40909120882054839 0.01273065398649661 0 -0.39627830677719 0.008853295208583448 0 -0.40909120882054839 0.01273065398649661 0 -0.39627830677719 0.008853295208583448 0 -0.3946160130735708 0.021551959563878339 0 -0.40909120882054839 0.01273065398649661 0 -0.40023346201329341 0.036403537517851137 0 -0.3946160130735708 0.021551959563878339 0 -0.40909120882054839 0.01273065398649661 0 -0.40023346201329341 0.036403537517851137 0 -0.40023346201329341 0.036403537517851137 0 -0.38925836826538629 0.030805614435688099 0 -0.3946160130735708 0.021551959563878339 0 -0.38696142946532958 0.1003701901717608 0 -0.40164011277457379 0.081352107660276216 0 -0.40864304721671202 0.1107171055473533 0 -0.38750957741872682 0.11885909540365321 0 -0.40864304721671202 0.1107171055473533 0 -0.39401402549175851 0.1361747599337243 0 -0.38750957741872682 0.11885909540365321 0 -0.38696142946532958 0.1003701901717608 0 -0.40864304721671202 0.1107171055473533 0 -0.38750957741872682 0.11885909540365321 0 -0.38696142946532958 0.1003701901717608 0 -0.36904533532088801 0.1177582563576956 0 -0.38696142946532958 0.1003701901717608 0 -0.37090825683648998 0.098456277756480637 0 -0.36904533532088801 0.1177582563576956 0 -0.37929074908003868 0.077603726490867345 0 -0.40164011277457379 0.081352107660276216 0 -0.38696142946532958 0.1003701901717608 0 -0.37929074908003868 0.077603726490867345 0 -0.40164011277457379 0.081352107660276216 0 -0.38696142946532958 0.1003701901717608 0 -0.37929074908003868 0.077603726490867345 0 -0.37090825683648998 0.098456277756480637 0 -0.37929074908003868 0.077603726490867345 0 -0.38848633305814179 0.065600711414542545 0 -0.36891219827968119 0.060077996683558232 0 -0.37929074908003868 0.077603726490867345 0 -0.38848633305814179 0.065600711414542545 0 -0.40164011277457379 0.081352107660276216 0 -0.38848633305814179 0.065600711414542545 0 -0.40210564328563447 0.066115584712721373 0 -0.40164011277457379 0.081352107660276216 0 -0.39689466156197101 0.057407184083191301 0 -0.38848633305814179 0.065600711414542545 0 -0.40210564328563447 0.066115584712721373 0 -0.40164011277457379 0.081352107660276216 0 -0.42398947646910912 0.085100488829685086 0 -0.40164011277457379 0.081352107660276216 0 -0.42398947646910912 0.085100488829685086 0 -0.40864304721671202 0.1107171055473533 0 -0.40210564328563447 0.066115584712721373 0 -0.40164011277457379 0.081352107660276216 0 -0.41753301535116211 0.067129086497859855 0 -0.40164011277457379 0.081352107660276216 0 -0.41753301535116211 0.067129086497859855 0 -0.42398947646910912 0.085100488829685086 0 -0.40750332447406851 0.057375884956624552 0 -0.40210564328563447 0.066115584712721373 0 -0.41753301535116211 0.067129086497859855 0 -0.41753301535116211 0.067129086497859855 0 -0.42398947646910912 0.085100488829685086 0 -0.43763284036668942 0.072255399145110422 0 -0.43187248081207541 0.055496176207803817 0 -0.41753301535116211 0.067129086497859855 0 -0.43763284036668942 0.072255399145110422 0 -0.42398947646910912 0.085100488829685086 0 -0.44633884016364428 0.088848869999093971 0 -0.42398947646910912 0.085100488829685086 0 -0.43763284036668942 0.072255399145110422 0 -0.44633884016364428 0.088848869999093971 0 -0.42398947646910912 0.085100488829685086 0 -0.42906186480059683 0.10519001099972999 0 -0.44633884016364428 0.088848869999093971 0 -0.42398947646910912 0.085100488829685086 0 -0.42906186480059683 0.10519001099972999 0 -0.40864304721671202 0.1107171055473533 0 -0.40864304721671202 0.1107171055473533 0 -0.43267942878230348 0.12559175737704789 0 -0.42906186480059683 0.10519001099972999 0 -0.40864304721671202 0.1107171055473533 0 -0.43267942878230348 0.12559175737704789 0 -0.42906186480059683 0.10519001099972999 0 -0.4489383204882843 0.11104189391905871 0 -0.43267942878230348 0.12559175737704789 0 -0.4489383204882843 0.11104189391905871 0 -0.45289828098281221 0.1241297055338681 0 -0.43267942878230348 0.12559175737704789 0 -0.4489383204882843 0.11104189391905871 0 -0.43267942878230348 0.12559175737704789 0 -0.42906186480059683 0.10519001099972999 0 -0.4489383204882843 0.11104189391905871 0 -0.44633884016364428 0.088848869999093971 0 -0.4489383204882843 0.11104189391905871 0 -0.44633884016364428 0.088848869999093971 0 -0.47121921728662652 0.096397536200283296 0 -0.46607010556719342 0.11973313861048911 0 -0.47121921728662652 0.096397536200283296 0 -0.4489383204882843 0.11104189391905871 0 -0.46607010556719342 0.11973313861048911 0 -0.47121921728662652 0.096397536200283296 0 -0.4489383204882843 0.11104189391905871 0 -0.45289828098281221 0.1241297055338681 0 -0.46607010556719342 0.11973313861048911 0 -0.45709786057011947 0.055708105081253657 0 -0.43763284036668942 0.072255399145110422 0 -0.45544766770060358 0.07348919590478746 0 -0.43763284036668942 0.072255399145110422 0 -0.44633884016364428 0.088848869999093971 0 -0.45544766770060358 0.07348919590478746 0 -0.44633884016364428 0.088848869999093971 0 -0.45544766770060358 0.07348919590478746 0 -0.47121921728662652 0.096397536200283296 0 -0.45544766770060358 0.07348919590478746 0 -0.47636832900606041 0.073061933790077832 0 -0.47121921728662652 0.096397536200283296 0 -0.45709786057011947 0.055708105081253657 0 -0.47636832900606041 0.073061933790077832 0 -0.45709786057011947 0.055708105081253657 0 -0.45544766770060358 0.07348919590478746 0 -0.47636832900606041 0.073061933790077832 0 -0.48351815486210709 0.053492846644399093 0 -0.47636832900606041 0.073061933790077832 0 -0.49140909277123612 0.074197219851226057 0 -0.47636832900606041 0.073061933790077832 0 -0.48274454235378189 0.091705374172880549 0 -0.47121921728662652 0.096397536200283296 0 -0.47636832900606041 0.073061933790077832 0 -0.47121921728662652 0.096397536200283296 0 -0.47636832900606041 0.073061933790077832 0 -0.49715897998801373 0.091784747772784503 0 -0.5 0.089727210191415163 0 -0.49715897998801373 0.091784747772784503 0 -0.49140909277123612 0.074197219851226057 0 -0.47636832900606041 0.073061933790077832 0 -0.48274454235378189 0.091705374172880549 0 -0.49715897998801373 0.091784747772784503 0 -0.47636832900606041 0.073061933790077832 0 -0.49715897998801373 0.091784747772784503 0 -0.49140909277123612 0.074197219851226057 0 -0.5 0.089727210191415163 0 -0.5 0.062919360857453976 0 -0.49140909277123612 0.074197219851226057 0 -0.48351815486210709 0.053492846644399093 0 -0.5 0.062919360857453976 0 -0.49140909277123612 0.074197219851226057 0 -0.46607010556719342 0.11973313861048911 0 -0.48623164313442779 0.1055772789283768 0 -0.48453668432005692 0.123143207324586 0 -0.46607010556719342 0.11973313861048911 0 -0.47121921728662652 0.096397536200283296 0 -0.48623164313442779 0.1055772789283768 0 -0.48274454235378189 0.091705374172880549 0 -0.47121921728662652 0.096397536200283296 0 -0.48623164313442779 0.1055772789283768 0 -0.5 0.089727210191415163 0 -0.49715897998801373 0.091784747772784503 0 -0.5 0.1165350595253765 0 -0.49715897998801373 0.091784747772784503 0 -0.48623164313442779 0.1055772789283768 0 -0.5 0.1165350595253765 0 -0.48274454235378189 0.091705374172880549 0 -0.49715897998801373 0.091784747772784503 0 -0.48623164313442779 0.1055772789283768 0 -0.48623164313442779 0.1055772789283768 0 -0.5 0.1165350595253765 0 -0.48453668432005692 0.123143207324586 0 -0.5 0.1165350595253765 0 -0.48453668432005692 0.123143207324586 0 -0.5 0.1433429088593379 0 -0.48453668432005692 0.123143207324586 0 -0.48049738108946538 0.1379484740379 0 -0.5 0.1433429088593379 0 -0.46607010556719342 0.11973313861048911 0 -0.48453668432005692 0.123143207324586 0 -0.48049738108946538 0.1379484740379 0 -0.46607010556719342 0.11973313861048911 0 -0.48049738108946538 0.1379484740379 0 -0.46092099384776192 0.14306874102069511 0 -0.48464943840857888 0.15775282940309851 0 -0.46990863904630059 0.1670362475492525 0 -0.46092099384776192 0.14306874102069511 0 -0.48464943840857888 0.15775282940309851 0 -0.46092099384776192 0.14306874102069511 0 -0.48049738108946538 0.1379484740379 0 -0.48464943840857888 0.15775282940309851 0 -0.46092099384776192 0.14306874102069511 0 -0.48049738108946538 0.1379484740379 0 -0.5 0.1433429088593379 0 -0.48464943840857888 0.15775282940309851 0 -0.48464943840857888 0.15775282940309851 0 -0.5 0.17015075819329931 0 -0.4898809761324775 0.17912292006808481 0 -0.5 0.1433429088593379 0 -0.48464943840857888 0.15775282940309851 0 -0.5 0.17015075819329931 0 -0.48464943840857888 0.15775282940309851 0 -0.4898809761324775 0.17912292006808481 0 -0.47865635922375932 0.17909963177513319 0 -0.5 0.17015075819329931 0 -0.4898809761324775 0.17912292006808481 0 -0.5 0.19695860752726069 0 -0.4898809761324775 0.17912292006808481 0 -0.47865635922375932 0.17909963177513319 0 -0.48609908303004917 0.1916527734416324 0 -0.47865635922375932 0.17909963177513319 0 -0.47279817792341111 0.1948006201282925 0 -0.47865635922375932 0.17909963177513319 0 -0.46589335310649882 0.18744802338852329 0 -0.47279817792341111 0.1948006201282925 0 -0.47865635922375932 0.17909963177513319 0 -0.46927870962167312 0.17493875400548389 0 -0.46990863904630059 0.1670362475492525 0 -0.47865635922375932 0.17909963177513319 0 -0.46927870962167312 0.17493875400548389 0 -0.46555461593459269 0.18128722400797501 0 -0.47865635922375932 0.17909963177513319 0 -0.46589335310649882 0.18744802338852329 0 -0.46555461593459269 0.18128722400797501 0 -0.48464943840857888 0.15775282940309851 0 -0.47865635922375932 0.17909963177513319 0 -0.46990863904630059 0.1670362475492525 0 -0.45742932361540911 0.15889287394486271 0 -0.45393765338305497 0.17471700686903011 0 -0.46990863904630059 0.1670362475492525 0 -0.45742932361540911 0.15889287394486271 0 -0.46092099384776192 0.14306874102069511 0 -0.45742932361540911 0.15889287394486271 0 -0.46299522428203971 0.17233191268957501 0 -0.45393765338305497 0.17471700686903011 0 -0.46927870962167312 0.17493875400548389 0 -0.46990863904630059 0.1670362475492525 0 -0.46299522428203971 0.17233191268957501 0 -0.46990863904630059 0.1670362475492525 0 -0.45742932361540911 0.15889287394486271 0 -0.46299522428203971 0.17233191268957501 0 -0.46589335310649882 0.18744802338852329 0 -0.46555461593459269 0.18128722400797501 0 -0.45393765338305497 0.17471700686903011 0 -0.46589335310649882 0.18744802338852329 0 -0.46555461593459269 0.18128722400797501 0 -0.46927870962167312 0.17493875400548389 0 -0.46555461593459269 0.18128722400797501 0 -0.46299522428203971 0.17233191268957501 0 -0.46555461593459269 0.18128722400797501 0 -0.46299522428203971 0.17233191268957501 0 -0.45393765338305497 0.17471700686903011 0 -0.46589335310649882 0.18744802338852329 0 -0.45393765338305497 0.17471700686903011 0 -0.45393765338305497 0.17471700686903011 0 -0.44047241453070329 0.18324079402305421 0 -0.44820564853932793 0.20069426145875721 0 -0.45393765338305497 0.17471700686903011 0 -0.44047241453070329 0.18324079402305421 0 -0.44174290600336708 0.16173144065936321 0 -0.45742932361540911 0.15889287394486271 0 -0.44174290600336708 0.16173144065936321 0 -0.44616928685712581 0.1494742970518641 0 -0.45742932361540911 0.15889287394486271 0 -0.45393765338305497 0.17471700686903011 0 -0.44174290600336708 0.16173144065936321 0 -0.45393765338305497 0.17471700686903011 0 -0.44174290600336708 0.16173144065936321 0 -0.44174290600336708 0.16173144065936321 0 -0.44616928685712581 0.1494742970518641 0 -0.43187713239064979 0.1573343508491826 0 -0.44616928685712581 0.1494742970518641 0 -0.43700896048386301 0.14249666109927989 0 -0.43187713239064979 0.1573343508491826 0 -0.44616928685712581 0.1494742970518641 0 -0.44680021131503311 0.13433024919887079 0 -0.46092099384776192 0.14306874102069511 0 -0.44616928685712581 0.1494742970518641 0 -0.44680021131503311 0.13433024919887079 0 -0.43700896048386301 0.14249666109927989 0 -0.45289828098281221 0.1241297055338681 0 -0.44680021131503311 0.13433024919887079 0 -0.43267942878230348 0.12559175737704789 0 -0.44680021131503311 0.13433024919887079 0 -0.43267942878230348 0.12559175737704789 0 -0.43700896048386301 0.14249666109927989 0 -0.44680021131503311 0.13433024919887079 0 -0.43267942878230348 0.12559175737704789 0 -0.45289828098281221 0.1241297055338681 0 -0.44680021131503311 0.13433024919887079 0 -0.46092099384776192 0.14306874102069511 0 -0.46607010556719342 0.11973313861048911 0 -0.46092099384776192 0.14306874102069511 0 -0.45289828098281221 0.1241297055338681 0 -0.46607010556719342 0.11973313861048911 0 -0.46092099384776192 0.14306874102069511 0 -0.44680021131503311 0.13433024919887079 0 -0.46092099384776192 0.14306874102069511 0 -0.45742932361540911 0.15889287394486271 0 -0.46092099384776192 0.14306874102069511 0 -0.45742932361540911 0.15889287394486271 0 -0.44616928685712581 0.1494742970518641 0 -0.46092099384776192 0.14306874102069511 0 -0.46853242371352971 0.23544625301742969 0 -0.46993231893463527 0.26090691788180947 0 -0.48177750529808522 0.24619974485466931 0 -0.46853242371352971 0.23544625301742969 0 -0.46993231893463527 0.26090691788180947 0 -0.48177750529808522 0.24619974485466931 0 -0.48375626182904402 0.22755154475287301 0 -0.46853242371352971 0.23544625301742969 0 -0.48177750529808522 0.24619974485466931 0 -0.5 0.2461359573144368 0 -0.48375626182904402 0.22755154475287301 0 -0.5 0.2461359573144368 0 -0.48375626182904402 0.22755154475287301 0 -0.49999999999999978 0.22376645686122221 0 -0.48375626182904402 0.22755154475287301 0 -0.48639908896170481 0.20928353849475789 0 -0.5 0.2461359573144368 0 -0.49999999999999978 0.22376645686122221 0 -0.48375626182904402 0.22755154475287301 0 -0.47173343442327142 0.22048762952866541 0 -0.46713252849242448 0.20998558815304991 0 -0.46853242371352971 0.23544625301742969 0 -0.48375626182904402 0.22755154475287301 0 -0.47173343442327142 0.22048762952866541 0 -0.4670472636537164 0.20843482960316059 0 -0.48375626182904402 0.22755154475287301 0 -0.47173343442327142 0.22048762952866541 0 -0.46853242371352971 0.23544625301742969 0 -0.48375626182904402 0.22755154475287301 0 -0.4670472636537164 0.20843482960316059 0 -0.48639908896170481 0.20928353849475789 0 -0.47279817792341111 0.1948006201282925 0 -0.4670472636537164 0.20843482960316059 0 -0.48375626182904402 0.22755154475287301 0 -0.48639908896170481 0.20928353849475789 0 -0.4670472636537164 0.20843482960316059 0 -0.49999999999999978 0.22376645686122221 0 -0.48639908896170481 0.20928353849475789 0 -0.5 0.19695860752726069 0 -0.49999999999999978 0.22376645686122221 0 -0.48639908896170481 0.20928353849475789 0 -0.48639908896170481 0.20928353849475789 0 -0.5 0.19695860752726069 0 -0.48609908303004917 0.1916527734416324 0 -0.4898809761324775 0.17912292006808481 0 -0.5 0.19695860752726069 0 -0.48609908303004917 0.1916527734416324 0 -0.48639908896170481 0.20928353849475789 0 -0.48609908303004917 0.1916527734416324 0 -0.47279817792341111 0.1948006201282925 0 -0.47865635922375932 0.17909963177513319 0 -0.48609908303004917 0.1916527734416324 0 -0.47279817792341111 0.1948006201282925 0 -0.48639908896170481 0.20928353849475789 0 -0.47279817792341111 0.1948006201282925 0 -0.47279817792341111 0.1948006201282925 0 -0.4670472636537164 0.20843482960316059 0 -0.46589335310649882 0.18744802338852329 0 -0.47279817792341111 0.1948006201282925 0 -0.46589335310649882 0.18744802338852329 0 -0.4603250720810298 0.20074399020462361 0 -0.4670472636537164 0.20843482960316059 0 -0.46589335310649882 0.18744802338852329 0 -0.45393765338305497 0.17471700686903011 0 -0.44820564853932793 0.20069426145875721 0 -0.46589335310649882 0.18744802338852329 0 -0.4603250720810298 0.20074399020462361 0 -0.44820564853932793 0.20069426145875721 0 -0.46589335310649882 0.18744802338852329 0 -0.47279817792341111 0.1948006201282925 0 -0.4670472636537164 0.20843482960316059 0 -0.46589335310649882 0.18744802338852329 0 -0.4670472636537164 0.20843482960316059 0 -0.45393765338305497 0.17471700686903011 0 -0.44820564853932793 0.20069426145875721 0 -0.44820564853932793 0.20069426145875721 0 -0.45427794118362658 0.21265328965042851 0 -0.44247364369559788 0.22667151604848371 0 -0.44820564853932793 0.20069426145875721 0 -0.44247364369559788 0.22667151604848371 0 -0.44820564853932793 0.20069426145875721 0 -0.44247364369559788 0.22667151604848371 0 -0.42336320141575168 0.21609666274764849 0 -0.45880341375183131 0.2186303689721085 0 -0.45427794118362658 0.21265328965042851 0 -0.46188137931700068 0.21002659871962689 0 -0.45880341375183131 0.2186303689721085 0 -0.45427794118362658 0.21265328965042851 0 -0.4536201791639074 0.2236252940046442 0 -0.4603250720810298 0.20074399020462361 0 -0.45427794118362658 0.21265328965042851 0 -0.46188137931700068 0.21002659871962689 0 -0.4603250720810298 0.20074399020462361 0 -0.44820564853932793 0.20069426145875721 0 -0.45427794118362658 0.21265328965042851 0 -0.4603250720810298 0.20074399020462361 0 -0.46188137931700068 0.21002659871962689 0 -0.4670472636537164 0.20843482960316059 0 -0.4603250720810298 0.20074399020462361 0 -0.4670472636537164 0.20843482960316059 0 -0.46188137931700068 0.21002659871962689 0 -0.4670472636537164 0.20843482960316059 0 -0.46713252849242448 0.20998558815304991 0 -0.4670472636537164 0.20843482960316059 0 -0.46713252849242448 0.20998558815304991 0 -0.47173343442327142 0.22048762952866541 0 -0.4670472636537164 0.20843482960316059 0 -0.46713252849242448 0.20998558815304991 0 -0.45880341375183131 0.2186303689721085 0 -0.46188137931700068 0.21002659871962689 0 -0.46713252849242448 0.20998558815304991 0 -0.46713252849242448 0.20998558815304991 0 -0.45710504060219709 0.23686107433279269 0 -0.46713252849242448 0.20998558815304991 0 -0.45710504060219709 0.23686107433279269 0 -0.46853242371352971 0.23544625301742969 0 -0.45880341375183131 0.2186303689721085 0 -0.46713252849242448 0.20998558815304991 0 -0.45710504060219709 0.23686107433279269 0 -0.45880341375183131 0.2186303689721085 0 -0.4536201791639074 0.2236252940046442 0 -0.45710504060219709 0.23686107433279269 0 -0.46713252849242448 0.20998558815304991 0 -0.46853242371352971 0.23544625301742969 0 -0.45427794118362658 0.21265328965042851 0 -0.4536201791639074 0.2236252940046442 0 -0.44247364369559788 0.22667151604848371 0 -0.4536201791639074 0.2236252940046442 0 -0.44247364369559788 0.22667151604848371 0 -0.45710504060219709 0.23686107433279269 0 -0.44247364369559788 0.22667151604848371 0 -0.4367416388518679 0.25264877063821017 0 -0.44247364369559788 0.22667151604848371 0 -0.45710504060219709 0.23686107433279269 0 -0.4367416388518679 0.25264877063821017 0 -0.45710504060219709 0.23686107433279269 0 -0.46853242371352971 0.23544625301742969 0 -0.46993231893463527 0.26090691788180947 0 -0.41931835140954682 0.23739665832436521 0 -0.40367044579520373 0.24132688110038639 0 -0.41175872593851298 0.2549478601346914 0 -0.41931835140954682 0.23739665832436521 0 -0.40790513800462019 0.22799805468035339 0 -0.40367044579520373 0.24132688110038639 0 -0.41931835140954682 0.23739665832436521 0 -0.4367416388518679 0.25264877063821017 0 -0.41175872593851298 0.2549478601346914 0 -0.44247364369559788 0.22667151604848371 0 -0.41931835140954682 0.23739665832436521 0 -0.4367416388518679 0.25264877063821017 0 -0.44247364369559788 0.22667151604848371 0 -0.41931835140954682 0.23739665832436521 0 -0.42336320141575168 0.21609666274764849 0 -0.41931835140954682 0.23739665832436521 0 -0.40790513800462019 0.22799805468035339 0 -0.42336320141575168 0.21609666274764849 0 -0.40790513800462019 0.22799805468035339 0 -0.42336320141575168 0.21609666274764849 0 -0.40538393777915788 0.2123952851453417 0 -0.42336320141575168 0.21609666274764849 0 -0.42071240458675369 0.1920614743917832 0 -0.40538393777915788 0.2123952851453417 0 -0.44820564853932793 0.20069426145875721 0 -0.42336320141575168 0.21609666274764849 0 -0.42071240458675369 0.1920614743917832 0 -0.44047241453070329 0.18324079402305421 0 -0.44820564853932793 0.20069426145875721 0 -0.42071240458675369 0.1920614743917832 0 -0.42071240458675369 0.1920614743917832 0 -0.40538393777915788 0.2123952851453417 0 -0.42071240458675369 0.1920614743917832 0 -0.4022878927449296 0.1970928012265635 0 -0.40298680868332198 0.18508216307238631 0 -0.42071240458675369 0.1920614743917832 0 -0.4022878927449296 0.1970928012265635 0 -0.40538393777915788 0.2123952851453417 0 -0.4022878927449296 0.1970928012265635 0 -0.39286614404695941 0.1920732104686422 0 -0.40298680868332198 0.18508216307238631 0 -0.4022878927449296 0.1970928012265635 0 -0.39286614404695941 0.1920732104686422 0 -0.39380007669083689 0.206464460861051 0 -0.38422654444444693 0.2008322729754812 0 -0.38088029112643113 0.1825210369279657 0 -0.38422654444444693 0.2008322729754812 0 -0.38088029112643113 0.1825210369279657 0 -0.36802074197771562 0.19700904511440151 0 -0.38422654444444693 0.2008322729754812 0 -0.37368745339656201 0.20924711939208951 0 -0.36802074197771562 0.19700904511440151 0 -0.39286614404695941 0.1920732104686422 0 -0.38422654444444693 0.2008322729754812 0 -0.38088029112643113 0.1825210369279657 0 -0.39286614404695941 0.1920732104686422 0 -0.38422654444444693 0.2008322729754812 0 -0.39380007669083689 0.206464460861051 0 -0.38422654444444693 0.2008322729754812 0 -0.38757279776246373 0.21914350902299659 0 -0.38757279776246373 0.21914350902299659 0 -0.36800338097472479 0.22147713987588341 0 -0.37368745339656201 0.20924711939208951 0 -0.38422654444444693 0.2008322729754812 0 -0.39380007669083689 0.206464460861051 0 -0.38757279776246373 0.21914350902299659 0 -0.38422654444444693 0.2008322729754812 0 -0.38757279776246373 0.21914350902299659 0 -0.37368745339656201 0.20924711939208951 0 -0.39141353052387118 0.2186855059784025 0 -0.39380007669083689 0.206464460861051 0 -0.38757279776246373 0.21914350902299659 0 -0.39141353052387118 0.2186855059784025 0 -0.39380007669083689 0.206464460861051 0 -0.40538393777915788 0.2123952851453417 0 -0.4022878927449296 0.1970928012265635 0 -0.39380007669083689 0.206464460861051 0 -0.40538393777915788 0.2123952851453417 0 -0.40790513800462019 0.22799805468035339 0 -0.39005547097156312 0.23272909589890109 0 -0.40367044579520373 0.24132688110038639 0 -0.39141353052387118 0.2186855059784025 0 -0.40538393777915788 0.2123952851453417 0 -0.39005547097156312 0.23272909589890109 0 -0.40790513800462019 0.22799805468035339 0 -0.40538393777915788 0.2123952851453417 0 -0.39005547097156312 0.23272909589890109 0 -0.40538393777915788 0.2123952851453417 0 -0.39005547097156312 0.23272909589890109 0 -0.38757279776246373 0.21914350902299659 0 -0.39005547097156312 0.23272909589890109 0 -0.38757279776246373 0.21914350902299659 0 -0.36800338097472479 0.22147713987588341 0 -0.39141353052387118 0.2186855059784025 0 -0.38757279776246373 0.21914350902299659 0 -0.39005547097156312 0.23272909589890109 0 -0.38757279776246373 0.21914350902299659 0 -0.37939186114838758 0.22424627805714001 0 -0.36800338097472479 0.22147713987588341 0 -0.38757279776246373 0.21914350902299659 0 -0.37939186114838758 0.22424627805714001 0 -0.39005547097156312 0.23272909589890109 0 -0.39141353052387118 0.2186855059784025 0 -0.38757279776246373 0.21914350902299659 0 -0.37939186114838758 0.22424627805714001 0 -0.37477717689163992 0.25299635056682518 0 -0.39005547097156312 0.23272909589890109 0 -0.39384597734802013 0.25347135609337229 0 -0.37477717689163992 0.25299635056682518 0 -0.37939186114838758 0.22424627805714001 0 -0.39005547097156312 0.23272909589890109 0 -0.37477717689163992 0.25299635056682518 0 -0.39005547097156312 0.23272909589890109 0 -0.37477717689163992 0.25299635056682518 0 -0.40367044579520373 0.24132688110038639 0 -0.41175872593851298 0.2549478601346914 0 -0.39384597734802013 0.25347135609337229 0 -0.39005547097156312 0.23272909589890109 0 -0.39384597734802013 0.25347135609337229 0 -0.39005547097156312 0.23272909589890109 0 -0.40367044579520373 0.24132688110038639 0 -0.39384597734802013 0.25347135609337229 0 -0.41485942150404181 0.14153864215909739 0 -0.41553858058260518 0.15317901213210369 0 -0.42574561826610652 0.14613969243370301 0 -0.41553858058260518 0.15317901213210369 0 -0.42574561826610652 0.14613969243370301 0 -0.42127399236650492 0.15770626544657529 0 -0.41485942150404181 0.14153864215909739 0 -0.41553858058260518 0.15317901213210369 0 -0.4044664398419977 0.15594807455379561 0 -0.40864304721671202 0.1107171055473533 0 -0.41485942150404181 0.14153864215909739 0 -0.43267942878230348 0.12559175737704789 0 -0.41485942150404181 0.14153864215909739 0 -0.43267942878230348 0.12559175737704789 0 -0.42574561826610652 0.14613969243370301 0 -0.43267942878230348 0.12559175737704789 0 -0.43700896048386301 0.14249666109927989 0 -0.42574561826610652 0.14613969243370301 0 -0.41485942150404181 0.14153864215909739 0 -0.43267942878230348 0.12559175737704789 0 -0.42574561826610652 0.14613969243370301 0 -0.43187713239064979 0.1573343508491826 0 -0.42127399236650492 0.15770626544657529 0 -0.43700896048386301 0.14249666109927989 0 -0.42574561826610652 0.14613969243370301 0 -0.43187713239064979 0.1573343508491826 0 -0.43187713239064979 0.1573343508491826 0 -0.42946357341586749 0.17496324995209989 0 -0.4216380035134229 0.16659483191912641 0 -0.44174290600336708 0.16173144065936321 0 -0.43187713239064979 0.1573343508491826 0 -0.42946357341586749 0.17496324995209989 0 -0.43187713239064979 0.1573343508491826 0 -0.42127399236650492 0.15770626544657529 0 -0.4216380035134229 0.16659483191912641 0 -0.44047241453070329 0.18324079402305421 0 -0.44174290600336708 0.16173144065936321 0 -0.42946357341586749 0.17496324995209989 0 -0.44047241453070329 0.18324079402305421 0 -0.42071240458675369 0.1920614743917832 0 -0.42946357341586749 0.17496324995209989 0 -0.42071240458675369 0.1920614743917832 0 -0.42946357341586749 0.17496324995209989 0 -0.41235879422937732 0.17543682721938669 0 -0.42071240458675369 0.1920614743917832 0 -0.41235879422937732 0.17543682721938669 0 -0.40298680868332198 0.18508216307238631 0 -0.42946357341586749 0.17496324995209989 0 -0.41235879422937732 0.17543682721938669 0 -0.4216380035134229 0.16659483191912641 0 -0.41553858058260518 0.15317901213210369 0 -0.42127399236650492 0.15770626544657529 0 -0.41302135350813218 0.1630654313638546 0 -0.42127399236650492 0.15770626544657529 0 -0.4216380035134229 0.16659483191912641 0 -0.41302135350813218 0.1630654313638546 0 -0.41235879422937732 0.17543682721938669 0 -0.4216380035134229 0.16659483191912641 0 -0.41302135350813218 0.1630654313638546 0 -0.41235879422937732 0.17543682721938669 0 -0.41302135350813218 0.1630654313638546 0 -0.40449990094882532 0.16792382984329149 0 -0.41302135350813218 0.1630654313638546 0 -0.40449990094882532 0.16792382984329149 0 -0.4044664398419977 0.15594807455379561 0 -0.41553858058260518 0.15317901213210369 0 -0.41302135350813218 0.1630654313638546 0 -0.4044664398419977 0.15594807455379561 0 -0.3926733654842145 0.1692345557408807 0 -0.4044664398419977 0.15594807455379561 0 -0.40449990094882532 0.16792382984329149 0 -0.3926733654842145 0.1692345557408807 0 -0.40078474618547688 0.17571320347163299 0 -0.40449990094882532 0.16792382984329149 0 -0.3926733654842145 0.1692345557408807 0 -0.4044664398419977 0.15594807455379561 0 -0.3926733654842145 0.1692345557408807 0 -0.39703941422577987 0.15748552694114659 0 -0.4044664398419977 0.15594807455379561 0 -0.40298680868332198 0.18508216307238631 0 -0.40078474618547688 0.17571320347163299 0 -0.39301525059178999 0.18044652774840561 0 -0.41235879422937732 0.17543682721938669 0 -0.40298680868332198 0.18508216307238631 0 -0.40078474618547688 0.17571320347163299 0 -0.41235879422937732 0.17543682721938669 0 -0.40449990094882532 0.16792382984329149 0 -0.40078474618547688 0.17571320347163299 0 -0.3926733654842145 0.1692345557408807 0 -0.40078474618547688 0.17571320347163299 0 -0.39301525059178999 0.18044652774840561 0 -0.39286614404695941 0.1920732104686422 0 -0.40298680868332198 0.18508216307238631 0 -0.39301525059178999 0.18044652774840561 0 -0.39286614404695941 0.1920732104686422 0 -0.39301525059178999 0.18044652774840561 0 -0.38088029112643113 0.1825210369279657 0 -0.3926733654842145 0.1692345557408807 0 -0.38088029112643113 0.1825210369279657 0 -0.3926733654842145 0.1692345557408807 0 -0.39301525059178999 0.18044652774840561 0 -0.38088029112643113 0.1825210369279657 0 -0.3926733654842145 0.1692345557408807 0 -0.37921940694751782 0.17343241172319571 0 -0.38088029112643113 0.1825210369279657 0 -0.37921940694751782 0.17343241172319571 0 -0.38088029112643113 0.1825210369279657 0 -0.37921940694751782 0.17343241172319571 0 -0.38088029112643113 0.1825210369279657 0 -0.37283571032282492 0.1791450959532255 0 -0.3784015845151173 0.16895715591276281 0 -0.37283571032282492 0.1791450959532255 0 -0.37921940694751782 0.17343241172319571 0 -0.3784015845151173 0.16895715591276281 0 -0.37283571032282492 0.1791450959532255 0 -0.37921940694751782 0.17343241172319571 0 -0.37283571032282492 0.1791450959532255 0 -0.39703941422577987 0.15748552694114659 0 -0.37921940694751782 0.17343241172319571 0 -0.38193020105096481 0.16249827228531991 0 -0.3784015845151173 0.16895715591276281 0 -0.38193020105096481 0.16249827228531991 0 -0.37372345991800282 0.14335770613522919 0 -0.39703941422577987 0.15748552694114659 0 -0.37921940694751782 0.17343241172319571 0 -0.3926733654842145 0.1692345557408807 0 -0.39703941422577987 0.15748552694114659 0 -0.37921940694751782 0.17343241172319571 0 -0.39703941422577987 0.15748552694114659 0 -0.38193020105096481 0.16249827228531991 0 -0.38598126975628672 0.1494316781992327 0 -0.37921940694751782 0.17343241172319571 0 -0.3784015845151173 0.16895715591276281 0 -0.38193020105096481 0.16249827228531991 0 -0.3784015845151173 0.16895715591276281 0 -0.38193020105096481 0.16249827228531991 0 -0.37921940694751782 0.17343241172319571 0 -0.3784015845151173 0.16895715591276281 0 -0.38598126975628672 0.1494316781992327 0 -0.39401402549175851 0.1361747599337243 0 -0.37372345991800282 0.14335770613522919 0 -0.38193020105096481 0.16249827228531991 0 -0.38598126975628672 0.1494316781992327 0 -0.37372345991800282 0.14335770613522919 0 -0.3784015845151173 0.16895715591276281 0 -0.37372345991800282 0.14335770613522919 0 -0.39703941422577987 0.15748552694114659 0 -0.38598126975628672 0.1494316781992327 0 -0.39401402549175851 0.1361747599337243 0 -0.41485942150404181 0.14153864215909739 0 -0.39703941422577987 0.15748552694114659 0 -0.39401402549175851 0.1361747599337243 0 -0.41485942150404181 0.14153864215909739 0 -0.39703941422577987 0.15748552694114659 0 -0.4044664398419977 0.15594807455379561 0 -0.41485942150404181 0.14153864215909739 0 -0.39703941422577987 0.15748552694114659 0 -0.40864304721671202 0.1107171055473533 0 -0.41485942150404181 0.14153864215909739 0 -0.39401402549175851 0.1361747599337243 0 -0.38750957741872682 0.11885909540365321 0 -0.37372345991800282 0.14335770613522919 0 -0.36904533532088801 0.1177582563576956 0 -0.38750957741872682 0.11885909540365321 0 -0.39401402549175851 0.1361747599337243 0 -0.37372345991800282 0.14335770613522919 0 -0.35823941519022368 0.13573745574644491 0 -0.37372345991800282 0.14335770613522919 0 -0.36904533532088801 0.1177582563576956 0 -0.37372345991800282 0.14335770613522919 0 -0.36904533532088801 0.1177582563576956 0 -0.35823941519022368 0.13573745574644491 0 -0.34455851703438989 0.13305210298766909 0 -0.35158166360451942 0.11704707172714621 0 -0.35823941519022368 0.13573745574644491 0 -0.34455851703438989 0.13305210298766909 0 -0.34873147585397152 0.15030858297792049 0 -0.35823941519022368 0.13573745574644491 0 -0.34873147585397152 0.15030858297792049 0 -0.36179603940957061 0.15290101429300901 0 -0.34873147585397152 0.15030858297792049 0 -0.34720568730415252 0.1616956217090188 0 -0.33647431770126862 0.14798842126345041 0 -0.34873147585397152 0.15030858297792049 0 -0.36179603940957061 0.15290101429300901 0 -0.35552330674067661 0.16014073544654131 0 -0.35823941519022368 0.13573745574644491 0 -0.36179603940957061 0.15290101429300901 0 -0.37372345991800282 0.14335770613522919 0 -0.3784015845151173 0.16895715591276281 0 -0.36179603940957061 0.15290101429300901 0 -0.37372345991800282 0.14335770613522919 0 -0.3784015845151173 0.16895715591276281 0 -0.36179603940957061 0.15290101429300901 0 -0.3628088848288224 0.16705289795690309 0 -0.3784015845151173 0.16895715591276281 0 -0.3628088848288224 0.16705289795690309 0 -0.36959790597703868 0.17377317275203899 0 -0.36179603940957061 0.15290101429300901 0 -0.3628088848288224 0.16705289795690309 0 -0.35552330674067661 0.16014073544654131 0 -0.38088029112643113 0.1825210369279657 0 -0.37283571032282492 0.1791450959532255 0 -0.36802074197771562 0.19700904511440151 0 -0.37283571032282492 0.1791450959532255 0 -0.36399845157591232 0.19532107462703119 0 -0.37283571032282492 0.1791450959532255 0 -0.36261880381503758 0.18828806813974089 0 -0.3784015845151173 0.16895715591276281 0 -0.36959790597703868 0.17377317275203899 0 -0.37283571032282492 0.1791450959532255 0 -0.36959790597703868 0.17377317275203899 0 -0.37283571032282492 0.1791450959532255 0 -0.36409588864576692 0.17933358541092431 0 -0.3628088848288224 0.16705289795690309 0 -0.36959790597703868 0.17377317275203899 0 -0.36409588864576692 0.17933358541092431 0 -0.3628088848288224 0.16705289795690309 0 -0.36409588864576692 0.17933358541092431 0 -0.35614161380151321 0.17761165346375071 0 -0.36409588864576692 0.17933358541092431 0 -0.35797279878738592 0.18411861580098379 0 -0.35614161380151321 0.17761165346375071 0 -0.36409588864576692 0.17933358541092431 0 -0.35797279878738592 0.18411861580098379 0 -0.36261880381503758 0.18828806813974089 0 -0.37283571032282492 0.1791450959532255 0 -0.36409588864576692 0.17933358541092431 0 -0.36261880381503758 0.18828806813974089 0 -0.35797279878738592 0.18411861580098379 0 -0.35614161380151321 0.17761165346375071 0 -0.35065229879255438 0.18593262723135329 0 -0.35797279878738592 0.18411861580098379 0 -0.35065229879255438 0.18593262723135329 0 -0.35645772166264922 0.19211102842263869 0 -0.35614161380151321 0.17761165346375071 0 -0.34811061985946878 0.17434540014992381 0 -0.35436851446084039 0.1683048517912053 0 -0.35614161380151321 0.17761165346375071 0 -0.34811061985946878 0.17434540014992381 0 -0.35065229879255438 0.18593262723135329 0 -0.35065229879255438 0.18593262723135329 0 -0.34227569468909552 0.1811403169530669 0 -0.33993633525554889 0.19055096072852831 0 -0.34811061985946878 0.17434540014992381 0 -0.35065229879255438 0.18593262723135329 0 -0.34227569468909552 0.1811403169530669 0 -0.35552330674067661 0.16014073544654131 0 -0.35436851446084039 0.1683048517912053 0 -0.34720568730415252 0.1616956217090188 0 -0.3628088848288224 0.16705289795690309 0 -0.35614161380151321 0.17761165346375071 0 -0.35436851446084039 0.1683048517912053 0 -0.3628088848288224 0.16705289795690309 0 -0.35552330674067661 0.16014073544654131 0 -0.35436851446084039 0.1683048517912053 0 -0.34811061985946878 0.17434540014992381 0 -0.34720568730415252 0.1616956217090188 0 -0.33801991010865667 0.17138732975114751 0 -0.34811061985946878 0.17434540014992381 0 -0.35436851446084039 0.1683048517912053 0 -0.34720568730415252 0.1616956217090188 0 -0.34873147585397152 0.15030858297792049 0 -0.35552330674067661 0.16014073544654131 0 -0.34720568730415252 0.1616956217090188 0 -0.34720568730415252 0.1616956217090188 0 -0.33801991010865667 0.17138732975114751 0 -0.33092539158612982 0.1609515407851054 0 -0.34720568730415252 0.1616956217090188 0 -0.33092539158612982 0.1609515407851054 0 -0.33647431770126862 0.14798842126345041 0 -0.33801991010865667 0.17138732975114751 0 -0.33092539158612982 0.1609515407851054 0 -0.3265778886375873 0.17202186172735501 0 -0.34227569468909552 0.1811403169530669 0 -0.33183788287013261 0.1831818366374682 0 -0.33993633525554889 0.19055096072852831 0 -0.34811061985946878 0.17434540014992381 0 -0.33801991010865667 0.17138732975114751 0 -0.34227569468909552 0.1811403169530669 0 -0.33801991010865667 0.17138732975114751 0 -0.34227569468909552 0.1811403169530669 0 -0.33183788287013261 0.1831818366374682 0 -0.33801991010865667 0.17138732975114751 0 -0.33183788287013261 0.1831818366374682 0 -0.3265778886375873 0.17202186172735501 0 -0.3265778886375873 0.17202186172735501 0 -0.31632076704925127 0.18575639557221951 0 -0.3167678101826048 0.16359462978275929 0 -0.33183788287013261 0.1831818366374682 0 -0.3265778886375873 0.17202186172735501 0 -0.31632076704925127 0.18575639557221951 0 -0.33092539158612982 0.1609515407851054 0 -0.3167678101826048 0.16359462978275929 0 -0.32050673558250908 0.1490213804769015 0 -0.33092539158612982 0.1609515407851054 0 -0.3265778886375873 0.17202186172735501 0 -0.3167678101826048 0.16359462978275929 0 -0.32050673558250908 0.1490213804769015 0 -0.30739524272803709 0.15185112365938391 0 -0.31211500736378339 0.1240031522641292 0 -0.3167678101826048 0.16359462978275929 0 -0.32050673558250908 0.1490213804769015 0 -0.30739524272803709 0.15185112365938391 0 -0.32050673558250908 0.1490213804769015 0 -0.30739524272803709 0.15185112365938391 0 -0.32919359534549508 0.13424827028365749 0 -0.31211500736378339 0.1240031522641292 0 -0.33231339904552459 0.1171762944261375 0 -0.32050673558250908 0.1490213804769015 0 -0.32919359534549508 0.13424827028365749 0 -0.31211500736378339 0.1240031522641292 0 -0.34455851703438989 0.13305210298766909 0 -0.32919359534549508 0.13424827028365749 0 -0.33231339904552459 0.1171762944261375 0 -0.34455851703438989 0.13305210298766909 0 -0.32919359534549508 0.13424827028365749 0 -0.33647431770126862 0.14798842126345041 0 -0.32050673558250908 0.1490213804769015 0 -0.32919359534549508 0.13424827028365749 0 -0.33647431770126862 0.14798842126345041 0 -0.33092539158612982 0.1609515407851054 0 -0.32050673558250908 0.1490213804769015 0 -0.33647431770126862 0.14798842126345041 0 -0.34455851703438989 0.13305210298766909 0 -0.34873147585397152 0.15030858297792049 0 -0.33647431770126862 0.14798842126345041 0 -0.35416421148584648 0.23888623464626721 0 -0.34843396418698602 0.22381077072877051 0 -0.33845336435013867 0.242079554605789 0 -0.35416421148584648 0.23888623464626721 0 -0.33845336435013867 0.242079554605789 0 -0.35464358931248319 0.25491115920099722 0 -0.37939186114838758 0.22424627805714001 0 -0.37013679196984273 0.23750613219799629 0 -0.37477717689163992 0.25299635056682518 0 -0.37013679196984273 0.23750613219799629 0 -0.35464358931248319 0.25491115920099722 0 -0.37477717689163992 0.25299635056682518 0 -0.35416421148584648 0.23888623464626721 0 -0.37013679196984273 0.23750613219799629 0 -0.35464358931248319 0.25491115920099722 0 -0.35416421148584648 0.23888623464626721 0 -0.37013679196984273 0.23750613219799629 0 -0.36148561266771267 0.2305011068434443 0 -0.36148561266771267 0.2305011068434443 0 -0.36975441169016687 0.228432664243616 0 -0.36800338097472479 0.22147713987588341 0 -0.37013679196984273 0.23750613219799629 0 -0.36148561266771267 0.2305011068434443 0 -0.36975441169016687 0.228432664243616 0 -0.37939186114838758 0.22424627805714001 0 -0.37013679196984273 0.23750613219799629 0 -0.36975441169016687 0.228432664243616 0 -0.37939186114838758 0.22424627805714001 0 -0.36975441169016687 0.228432664243616 0 -0.36800338097472479 0.22147713987588341 0 -0.36800338097472479 0.22147713987588341 0 -0.34843396418698602 0.22381077072877051 0 -0.35516119282899983 0.21149705330083701 0 -0.36148561266771267 0.2305011068434443 0 -0.36800338097472479 0.22147713987588341 0 -0.34843396418698602 0.22381077072877051 0 -0.36800338097472479 0.22147713987588341 0 -0.34843396418698602 0.22381077072877051 0 -0.35416421148584648 0.23888623464626721 0 -0.36148561266771267 0.2305011068434443 0 -0.34843396418698602 0.22381077072877051 0 -0.34843396418698602 0.22381077072877051 0 -0.34802604401402371 0.21953575615482759 0 -0.33982416592956399 0.21665757569738961 0 -0.34802604401402371 0.21953575615482759 0 -0.34581283434165899 0.20861347152532789 0 -0.33982416592956399 0.21665757569738961 0 -0.34802604401402371 0.21953575615482759 0 -0.34581283434165899 0.20861347152532789 0 -0.35516119282899983 0.21149705330083701 0 -0.34843396418698602 0.22381077072877051 0 -0.34802604401402371 0.21953575615482759 0 -0.35516119282899983 0.21149705330083701 0 -0.34581283434165899 0.20861347152532789 0 -0.35516119282899983 0.21149705330083701 0 -0.35389383475621161 0.20092716755479181 0 -0.34802604401402371 0.21953575615482759 0 -0.35516119282899983 0.21149705330083701 0 -0.34843396418698602 0.22381077072877051 0 -0.35516119282899983 0.21149705330083701 0 -0.36800338097472479 0.22147713987588341 0 -0.35516119282899983 0.21149705330083701 0 -0.37368745339656201 0.20924711939208951 0 -0.35516119282899983 0.21149705330083701 0 -0.37368745339656201 0.20924711939208951 0 -0.36802074197771562 0.19700904511440151 0 -0.35516119282899983 0.21149705330083701 0 -0.36399845157591232 0.19532107462703119 0 -0.35516119282899983 0.21149705330083701 0 -0.36802074197771562 0.19700904511440151 0 -0.37283571032282492 0.1791450959532255 0 -0.36399845157591232 0.19532107462703119 0 -0.36261880381503758 0.18828806813974089 0 -0.37283571032282492 0.1791450959532255 0 -0.36399845157591232 0.19532107462703119 0 -0.36802074197771562 0.19700904511440151 0 -0.35516119282899983 0.21149705330083701 0 -0.36399845157591232 0.19532107462703119 0 -0.36802074197771562 0.19700904511440151 0 -0.38088029112643113 0.1825210369279657 0 -0.36802074197771562 0.19700904511440151 0 -0.36399845157591232 0.19532107462703119 0 -0.36261880381503758 0.18828806813974089 0 -0.35645772166264922 0.19211102842263869 0 -0.35797279878738592 0.18411861580098379 0 -0.36261880381503758 0.18828806813974089 0 -0.35645772166264922 0.19211102842263869 0 -0.35065229879255438 0.18593262723135329 0 -0.35645772166264922 0.19211102842263869 0 -0.34803897337183792 0.19709320989812409 0 -0.35516119282899983 0.21149705330083701 0 -0.36399845157591232 0.19532107462703119 0 -0.35389383475621161 0.20092716755479181 0 -0.35645772166264922 0.19211102842263869 0 -0.35389383475621161 0.20092716755479181 0 -0.34803897337183792 0.19709320989812409 0 -0.36399845157591232 0.19532107462703119 0 -0.35645772166264922 0.19211102842263869 0 -0.35389383475621161 0.20092716755479181 0 -0.34581283434165899 0.20861347152532789 0 -0.35389383475621161 0.20092716755479181 0 -0.34803897337183792 0.19709320989812409 0 -0.34581283434165899 0.20861347152532789 0 -0.34803897337183792 0.19709320989812409 0 -0.33933674095816863 0.19971543786353729 0 -0.35065229879255438 0.18593262723135329 0 -0.34803897337183792 0.19709320989812409 0 -0.33993633525554889 0.19055096072852831 0 -0.33993633525554889 0.19055096072852831 0 -0.33933674095816863 0.19971543786353729 0 -0.33069942903629101 0.19625725860753851 0 -0.34803897337183792 0.19709320989812409 0 -0.33993633525554889 0.19055096072852831 0 -0.33933674095816863 0.19971543786353729 0 -0.33933674095816863 0.19971543786353729 0 -0.33069942903629101 0.19625725860753851 0 -0.33422481296465362 0.2080963853910347 0 -0.33183788287013261 0.1831818366374682 0 -0.33993633525554889 0.19055096072852831 0 -0.33069942903629101 0.19625725860753851 0 -0.31632076704925127 0.18575639557221951 0 -0.33069942903629101 0.19625725860753851 0 -0.32036655352850157 0.2095523693350691 0 -0.33183788287013261 0.1831818366374682 0 -0.31632076704925127 0.18575639557221951 0 -0.33069942903629101 0.19625725860753851 0 -0.32036655352850157 0.2095523693350691 0 -0.32458589997660492 0.2266546254550818 0 -0.30779163400160159 0.21927945841494459 0 -0.32036655352850157 0.2095523693350691 0 -0.32934906837639222 0.21536895119528529 0 -0.32458589997660492 0.2266546254550818 0 -0.32036655352850157 0.2095523693350691 0 -0.32934906837639222 0.21536895119528529 0 -0.33422481296465362 0.2080963853910347 0 -0.32934906837639222 0.21536895119528529 0 -0.33422481296465362 0.2080963853910347 0 -0.33982416592956399 0.21665757569738961 0 -0.33069942903629101 0.19625725860753851 0 -0.32036655352850157 0.2095523693350691 0 -0.33422481296465362 0.2080963853910347 0 -0.34581283434165899 0.20861347152532789 0 -0.33933674095816863 0.19971543786353729 0 -0.33422481296465362 0.2080963853910347 0 -0.34581283434165899 0.20861347152532789 0 -0.33422481296465362 0.2080963853910347 0 -0.33982416592956399 0.21665757569738961 0 -0.34843396418698602 0.22381077072877051 0 -0.33982416592956399 0.21665757569738961 0 -0.32458589997660492 0.2266546254550818 0 -0.34843396418698602 0.22381077072877051 0 -0.32458589997660492 0.2266546254550818 0 -0.34843396418698602 0.22381077072877051 0 -0.32458589997660492 0.2266546254550818 0 -0.33845336435013867 0.242079554605789 0 -0.34843396418698602 0.22381077072877051 0 -0.33845336435013867 0.242079554605789 0 -0.32934906837639222 0.21536895119528529 0 -0.33982416592956399 0.21665757569738961 0 -0.32458589997660492 0.2266546254550818 0 -0.32458589997660492 0.2266546254550818 0 -0.30073783576622393 0.22949848018139329 0 -0.32458589997660492 0.2266546254550818 0 -0.32455092720978362 0.24357057421839101 0 -0.31122576982003303 0.23714335435801151 0 -0.32455092720978362 0.24357057421839101 0 -0.311575650220281 0.24878047680599949 0 -0.31122576982003303 0.23714335435801151 0 -0.32458589997660492 0.2266546254550818 0 -0.32455092720978362 0.24357057421839101 0 -0.33845336435013867 0.242079554605789 0 -0.32455092720978362 0.24357057421839101 0 -0.33845336435013867 0.242079554605789 0 -0.32847276451329022 0.26034833848280681 0 -0.29310990672191722 0.23613872254877591 0 -0.29467853592727078 0.23721261512919359 0 -0.28985028671148488 0.25537141990030859 0 -0.29310990672191722 0.23613872254877591 0 -0.27131573767068418 0.22826101281380451 0 -0.28058301219108422 0.24181621635705669 0 -0.29310990672191722 0.23613872254877591 0 -0.28985028671148488 0.25537141990030859 0 -0.29310990672191722 0.23613872254877591 0 -0.28058301219108422 0.24181621635705669 0 -0.28985028671148488 0.25537141990030859 0 -0.28058301219108422 0.24181621635705669 0 -0.28985028671148488 0.25537141990030859 0 -0.29310990672191722 0.23613872254877591 0 -0.29467853592727078 0.23721261512919359 0 -0.29467853592727078 0.23721261512919359 0 -0.31122576982003303 0.23714335435801151 0 -0.30073783576622393 0.22949848018139329 0 -0.29467853592727078 0.23721261512919359 0 -0.311575650220281 0.24878047680599949 0 -0.31122576982003303 0.23714335435801151 0 -0.29467853592727078 0.23721261512919359 0 -0.311575650220281 0.24878047680599949 0 -0.29467853592727078 0.23721261512919359 0 -0.311575650220281 0.24878047680599949 0 -0.29523766041035199 0.26325150879709891 0 -0.32458589997660492 0.2266546254550818 0 -0.30073783576622393 0.22949848018139329 0 -0.30779163400160159 0.21927945841494459 0 -0.32458589997660492 0.2266546254550818 0 -0.31122576982003303 0.23714335435801151 0 -0.30073783576622393 0.22949848018139329 0 -0.30073783576622393 0.22949848018139329 0 -0.30779163400160159 0.21927945841494459 0 -0.29448167989639912 0.22804486553003031 0 -0.29310990672191722 0.23613872254877591 0 -0.29448167989639912 0.22804486553003031 0 -0.27369133376421262 0.22284465576077489 0 -0.29448167989639912 0.22804486553003031 0 -0.2838712618875629 0.21479465795795599 0 -0.27369133376421262 0.22284465576077489 0 -0.29448167989639912 0.22804486553003031 0 -0.29413635243235581 0.21196267741475219 0 -0.29310990672191722 0.23613872254877591 0 -0.27369133376421262 0.22284465576077489 0 -0.29467853592727078 0.23721261512919359 0 -0.30073783576622393 0.22949848018139329 0 -0.29448167989639912 0.22804486553003031 0 -0.29310990672191722 0.23613872254877591 0 -0.29467853592727078 0.23721261512919359 0 -0.29448167989639912 0.22804486553003031 0 -0.29467853592727078 0.23721261512919359 0 -0.29448167989639912 0.22804486553003031 0 -0.29310990672191722 0.23613872254877591 0 -0.29448167989639912 0.22804486553003031 0 -0.29413635243235581 0.21196267741475219 0 -0.29878620084027852 0.20264695157314819 0 -0.29379102496831272 0.19588048929947419 0 -0.29448167989639912 0.22804486553003031 0 -0.29413635243235581 0.21196267741475219 0 -0.29878620084027852 0.20264695157314819 0 -0.29448167989639912 0.22804486553003031 0 -0.29878620084027852 0.20264695157314819 0 -0.29413635243235581 0.21196267741475219 0 -0.29379102496831272 0.19588048929947419 0 -0.28522308967114912 0.20452327137286261 0 -0.29413635243235581 0.21196267741475219 0 -0.29379102496831272 0.19588048929947419 0 -0.29448167989639912 0.22804486553003031 0 -0.2838712618875629 0.21479465795795599 0 -0.29413635243235581 0.21196267741475219 0 -0.2838712618875629 0.21479465795795599 0 -0.28522308967114912 0.20452327137286261 0 -0.29413635243235581 0.21196267741475219 0 -0.32036655352850157 0.2095523693350691 0 -0.30779163400160159 0.21927945841494459 0 -0.29878620084027852 0.20264695157314819 0 -0.30779163400160159 0.21927945841494459 0 -0.29448167989639912 0.22804486553003031 0 -0.29878620084027852 0.20264695157314819 0 -0.29878620084027852 0.20264695157314819 0 -0.29379102496831272 0.19588048929947419 0 -0.30309072178415769 0.17724903761626601 0 -0.31632076704925127 0.18575639557221951 0 -0.29878620084027852 0.20264695157314819 0 -0.30309072178415769 0.17724903761626601 0 -0.31632076704925127 0.18575639557221951 0 -0.32036655352850157 0.2095523693350691 0 -0.29878620084027852 0.20264695157314819 0 -0.29878620084027852 0.20264695157314819 0 -0.30309072178415769 0.17724903761626601 0 -0.28522308967114912 0.20452327137286261 0 -0.29379102496831272 0.19588048929947419 0 -0.28124953787461371 0.1935735916895788 0 -0.29379102496831272 0.19588048929947419 0 -0.28124953787461371 0.1935735916895788 0 -0.28752446549241689 0.1832489647230989 0 -0.28124953787461371 0.1935735916895788 0 -0.2659766044530758 0.19238405035351089 0 -0.27494974420821611 0.1793112011395637 0 -0.28522308967114912 0.20452327137286261 0 -0.28124953787461371 0.1935735916895788 0 -0.27431068871210279 0.20621206129374381 0 -0.28124953787461371 0.1935735916895788 0 -0.2659766044530758 0.19238405035351089 0 -0.27431068871210279 0.20621206129374381 0 -0.25427276080650663 0.20955058897277601 0 -0.24947341468037071 0.1874691479585941 0 -0.2659766044530758 0.19238405035351089 0 -0.25427276080650663 0.20955058897277601 0 -0.24947341468037071 0.1874691479585941 0 -0.2659766044530758 0.19238405035351089 0 -0.25427276080650663 0.20955058897277601 0 -0.27431068871210279 0.20621206129374381 0 -0.25427276080650663 0.20955058897277601 0 -0.27369133376421262 0.22284465576077489 0 -0.25427276080650663 0.20955058897277601 0 -0.25977281016601761 0.2185578892770178 0 -0.27369133376421262 0.22284465576077489 0 -0.25427276080650663 0.20955058897277601 0 -0.25561524088587501 0.21572724177218369 0 -0.25977281016601761 0.2185578892770178 0 -0.25427276080650663 0.20955058897277601 0 -0.25561524088587501 0.21572724177218369 0 -0.24333230173327219 0.21221501244476959 0 -0.25427276080650663 0.20955058897277601 0 -0.25561524088587501 0.21572724177218369 0 -0.25427276080650663 0.20955058897277601 0 -0.27431068871210279 0.20621206129374381 0 -0.27369133376421262 0.22284465576077489 0 -0.2838712618875629 0.21479465795795599 0 -0.27431068871210279 0.20621206129374381 0 -0.27369133376421262 0.22284465576077489 0 -0.2838712618875629 0.21479465795795599 0 -0.28522308967114912 0.20452327137286261 0 -0.27431068871210279 0.20621206129374381 0 -0.29310990672191722 0.23613872254877591 0 -0.27369133376421262 0.22284465576077489 0 -0.27131573767068418 0.22826101281380451 0 -0.27131573767068418 0.22826101281380451 0 -0.26439065681250729 0.2289784260688752 0 -0.26819560602517328 0.23507842756581021 0 -0.27131573767068418 0.22826101281380451 0 -0.26675876456119929 0.22568570462696191 0 -0.26439065681250729 0.2289784260688752 0 -0.27369133376421262 0.22284465576077489 0 -0.26675876456119929 0.22568570462696191 0 -0.26371349664181459 0.22286429712754721 0 -0.25977281016601761 0.2185578892770178 0 -0.27369133376421262 0.22284465576077489 0 -0.26371349664181459 0.22286429712754721 0 -0.27369133376421262 0.22284465576077489 0 -0.27131573767068418 0.22826101281380451 0 -0.26675876456119929 0.22568570462696191 0 -0.26675876456119929 0.22568570462696191 0 -0.26371349664181459 0.22286429712754721 0 -0.26068259791677789 0.22548013136380779 0 -0.26068259791677789 0.22548013136380779 0 -0.25678634991227811 0.22260498734460241 0 -0.2574101570832959 0.22971939663687391 0 -0.26371349664181459 0.22286429712754721 0 -0.26068259791677789 0.22548013136380779 0 -0.25678634991227811 0.22260498734460241 0 -0.25977281016601761 0.2185578892770178 0 -0.26371349664181459 0.22286429712754721 0 -0.25678634991227811 0.22260498734460241 0 -0.25561524088587501 0.21572724177218369 0 -0.25977281016601761 0.2185578892770178 0 -0.25678634991227811 0.22260498734460241 0 -0.25678634991227811 0.22260498734460241 0 -0.249817319625419 0.2274340479663062 0 -0.24904636230289101 0.22050689045355901 0 -0.25561524088587501 0.21572724177218369 0 -0.25678634991227811 0.22260498734460241 0 -0.24904636230289101 0.22050689045355901 0 -0.25109603964961891 0.234366577265785 0 -0.2574101570832959 0.22971939663687391 0 -0.249817319625419 0.2274340479663062 0 -0.25678634991227811 0.22260498734460241 0 -0.2574101570832959 0.22971939663687391 0 -0.249817319625419 0.2274340479663062 0 -0.2574101570832959 0.22971939663687391 0 -0.26439065681250729 0.2289784260688752 0 -0.26193406046231932 0.2344272911270443 0 -0.26068259791677789 0.22548013136380779 0 -0.2574101570832959 0.22971939663687391 0 -0.26439065681250729 0.2289784260688752 0 -0.26675876456119929 0.22568570462696191 0 -0.26068259791677789 0.22548013136380779 0 -0.26439065681250729 0.2289784260688752 0 -0.26439065681250729 0.2289784260688752 0 -0.26193406046231932 0.2344272911270443 0 -0.26819560602517328 0.23507842756581021 0 -0.26193406046231932 0.2344272911270443 0 -0.26614348890836192 0.24293385421211869 0 -0.26819560602517328 0.23507842756581021 0 -0.2574101570832959 0.22971939663687391 0 -0.26193406046231932 0.2344272911270443 0 -0.25699538715464082 0.23905233796863981 0 -0.26193406046231932 0.2344272911270443 0 -0.25699538715464082 0.23905233796863981 0 -0.26614348890836192 0.24293385421211869 0 -0.25109603964961891 0.234366577265785 0 -0.25699538715464082 0.23905233796863981 0 -0.2470081454867771 0.2422065880623451 0 -0.25109603964961891 0.234366577265785 0 -0.2574101570832959 0.22971939663687391 0 -0.25699538715464082 0.23905233796863981 0 -0.25699538715464082 0.23905233796863981 0 -0.25693865295534157 0.25278860643768353 0 -0.2470081454867771 0.2422065880623451 0 -0.25699538715464082 0.23905233796863981 0 -0.26614348890836192 0.24293385421211869 0 -0.25693865295534157 0.25278860643768353 0 -0.26614348890836192 0.24293385421211869 0 -0.2724296921133022 0.25217156250687062 0 -0.25693865295534157 0.25278860643768353 0 -0.26614348890836192 0.24293385421211869 0 -0.28058301219108422 0.24181621635705669 0 -0.2724296921133022 0.25217156250687062 0 -0.28058301219108422 0.24181621635705669 0 -0.28985028671148488 0.25537141990030859 0 -0.2724296921133022 0.25217156250687062 0 -0.26614348890836192 0.24293385421211869 0 -0.26819560602517328 0.23507842756581021 0 -0.28058301219108422 0.24181621635705669 0 -0.27131573767068418 0.22826101281380451 0 -0.26819560602517328 0.23507842756581021 0 -0.28058301219108422 0.24181621635705669 0 -0.27131573767068418 0.22826101281380451 0 -0.28058301219108422 0.24181621635705669 0 -0.29326612220823411 0.13512644163735801 0 -0.28648818467010168 0.15636331808772699 0 -0.27141175194646833 0.1445184244171912 0 -0.29326612220823411 0.13512644163735801 0 -0.30739524272803709 0.15185112365938391 0 -0.28648818467010168 0.15636331808772699 0 -0.30739524272803709 0.15185112365938391 0 -0.31211500736378339 0.1240031522641292 0 -0.29326612220823411 0.13512644163735801 0 -0.30739524272803709 0.15185112365938391 0 -0.31211500736378339 0.1240031522641292 0 -0.30739524272803709 0.15185112365938391 0 -0.28648818467010168 0.15636331808772699 0 -0.30739524272803709 0.15185112365938391 0 -0.30309072178415769 0.17724903761626601 0 -0.3167678101826048 0.16359462978275929 0 -0.30739524272803709 0.15185112365938391 0 -0.30309072178415769 0.17724903761626601 0 -0.30739524272803709 0.15185112365938391 0 -0.30309072178415769 0.17724903761626601 0 -0.28648818467010168 0.15636331808772699 0 -0.31632076704925127 0.18575639557221951 0 -0.3167678101826048 0.16359462978275929 0 -0.30309072178415769 0.17724903761626601 0 -0.30309072178415769 0.17724903761626601 0 -0.28752446549241689 0.1832489647230989 0 -0.28381669143151822 0.17107272026056419 0 -0.29379102496831272 0.19588048929947419 0 -0.30309072178415769 0.17724903761626601 0 -0.28752446549241689 0.1832489647230989 0 -0.28752446549241689 0.1832489647230989 0 -0.28381669143151822 0.17107272026056419 0 -0.27494974420821611 0.1793112011395637 0 -0.30309072178415769 0.17724903761626601 0 -0.28648818467010168 0.15636331808772699 0 -0.28381669143151822 0.17107272026056419 0 -0.28648818467010168 0.15636331808772699 0 -0.28381669143151822 0.17107272026056419 0 -0.26558112661216632 0.16087551251606999 0 -0.28381669143151822 0.17107272026056419 0 -0.27494974420821611 0.1793112011395637 0 -0.26558112661216632 0.16087551251606999 0 -0.28648818467010168 0.15636331808772699 0 -0.26558112661216632 0.16087551251606999 0 -0.27494974420821611 0.1793112011395637 0 -0.26084394980388648 0.17618123618614701 0 -0.26558112661216632 0.16087551251606999 0 -0.2659766044530758 0.19238405035351089 0 -0.27494974420821611 0.1793112011395637 0 -0.26084394980388648 0.17618123618614701 0 -0.28124953787461371 0.1935735916895788 0 -0.28752446549241689 0.1832489647230989 0 -0.27494974420821611 0.1793112011395637 0 -0.2659766044530758 0.19238405035351089 0 -0.26084394980388648 0.17618123618614701 0 -0.24947341468037071 0.1874691479585941 0 -0.26084394980388648 0.17618123618614701 0 -0.24467406855423091 0.1653877069444131 0 -0.24947341468037071 0.1874691479585941 0 -0.26558112661216632 0.16087551251606999 0 -0.24467406855423091 0.1653877069444131 0 -0.26558112661216632 0.16087551251606999 0 -0.2543915534089356 0.15018751405662761 0 -0.24467406855423091 0.1653877069444131 0 -0.26084394980388648 0.17618123618614701 0 -0.26558112661216632 0.16087551251606999 0 -0.24467406855423091 0.1653877069444131 0 -0.26558112661216632 0.16087551251606999 0 -0.2543915534089356 0.15018751405662761 0 -0.27141175194646833 0.1445184244171912 0 -0.2543915534089356 0.15018751405662761 0 -0.27141175194646833 0.1445184244171912 0 -0.25477231595188199 0.13792181725732239 0 -0.28648818467010168 0.15636331808772699 0 -0.26558112661216632 0.16087551251606999 0 -0.27141175194646833 0.1445184244171912 0 -0.29326612220823411 0.13512644163735801 0 -0.27141175194646833 0.1445184244171912 0 -0.27545980130109921 0.1239996051278405 0 -0.27141175194646833 0.1445184244171912 0 -0.25477231595188199 0.13792181725732239 0 -0.27545980130109921 0.1239996051278405 0 -0.25477231595188199 0.13792181725732239 0 -0.27545980130109921 0.1239996051278405 0 -0.25477231595188199 0.13792181725732239 0 -0.27545980130109921 0.1239996051278405 0 -0.2495823492922267 0.12121763785839371 0 -0.25610310449345419 0.1041046972302731 0 -0.27545980130109921 0.1239996051278405 0 -0.2495823492922267 0.12121763785839371 0 -0.25610310449345419 0.1041046972302731 0 -0.25413031243694739 0.089521027236778197 0 -0.2427234934652894 0.090762762990284518 0 -0.25610310449345419 0.1041046972302731 0 -0.26471001572300679 0.091779207982481292 0 -0.25413031243694739 0.089521027236778197 0 -0.25610310449345419 0.1041046972302731 0 -0.27632390472144541 0.10600366135062909 0 -0.26471001572300679 0.091779207982481292 0 -0.27632390472144541 0.10600366135062909 0 -0.27815219556391091 0.091433986845849968 0 -0.26471001572300679 0.091779207982481292 0 -0.27632390472144541 0.10600366135062909 0 -0.28783094919658059 0.096999283795453681 0 -0.27815219556391091 0.091433986845849968 0 -0.25610310449345419 0.1041046972302731 0 -0.27632390472144541 0.10600366135062909 0 -0.27545980130109921 0.1239996051278405 0 -0.27545980130109921 0.1239996051278405 0 -0.29614728665031642 0.1100773929983587 0 -0.29326612220823411 0.13512644163735801 0 -0.27545980130109921 0.1239996051278405 0 -0.29614728665031642 0.1100773929983587 0 -0.27632390472144541 0.10600366135062909 0 -0.27545980130109921 0.1239996051278405 0 -0.29614728665031642 0.1100773929983587 0 -0.27632390472144541 0.10600366135062909 0 -0.29614728665031642 0.1100773929983587 0 -0.28783094919658059 0.096999283795453681 0 -0.29614728665031642 0.1100773929983587 0 -0.28783094919658059 0.096999283795453681 0 -0.29903425758953422 0.090155638130954882 0 -0.29614728665031642 0.1100773929983587 0 -0.29903425758953422 0.090155638130954882 0 -0.31683477199953253 0.096155180868875256 0 -0.29614728665031642 0.1100773929983587 0 -0.31683477199953253 0.096155180868875256 0 -0.29614728665031642 0.1100773929983587 0 -0.31211500736378339 0.1240031522641292 0 -0.31683477199953253 0.096155180868875256 0 -0.29326612220823411 0.13512644163735801 0 -0.29614728665031642 0.1100773929983587 0 -0.31211500736378339 0.1240031522641292 0 -0.30635830999651792 0.07761242167179265 0 -0.30189037325813839 0.060543452134012458 0 -0.32146679815367007 0.068824891797761426 0 -0.30635830999651792 0.07761242167179265 0 -0.29256534898171721 0.072382945427359638 0 -0.30189037325813839 0.060543452134012458 0 -0.30635830999651792 0.07761242167179265 0 -0.29903425758953422 0.090155638130954882 0 -0.29256534898171721 0.072382945427359638 0 -0.30635830999651792 0.07761242167179265 0 -0.29903425758953422 0.090155638130954882 0 -0.31683477199953253 0.096155180868875256 0 -0.29903425758953422 0.090155638130954882 0 -0.28572263353681682 0.08337299634339973 0 -0.29256534898171721 0.072382945427359638 0 -0.28783094919658059 0.096999283795453681 0 -0.29903425758953422 0.090155638130954882 0 -0.28572263353681682 0.08337299634339973 0 -0.28783094919658059 0.096999283795453681 0 -0.28572263353681682 0.08337299634339973 0 -0.27815219556391091 0.091433986845849968 0 -0.28572263353681682 0.08337299634339973 0 -0.29256534898171721 0.072382945427359638 0 -0.28059357561043269 0.073644623599786935 0 -0.29256534898171721 0.072382945427359638 0 -0.29088471103165969 0.062671374321780771 0 -0.30189037325813839 0.060543452134012458 0 -0.29256534898171721 0.072382945427359638 0 -0.29088471103165969 0.062671374321780771 0 -0.28261649390190829 0.064291953838756216 0 -0.29256534898171721 0.072382945427359638 0 -0.28261649390190829 0.064291953838756216 0 -0.28059357561043269 0.073644623599786935 0 -0.28261649390190829 0.064291953838756216 0 -0.27678196032587499 0.069585006034529676 0 -0.27195195811963518 0.06635492754641531 0 -0.26855373331756138 0.063547936276670339 0 -0.27195195811963518 0.06635492754641531 0 -0.25743728825439521 0.07924270920583569 0 -0.28261649390190829 0.064291953838756216 0 -0.27678196032587499 0.069585006034529676 0 -0.28059357561043269 0.073644623599786935 0 -0.27678196032587499 0.069585006034529676 0 -0.27196581367152378 0.074048519153160283 0 -0.27195195811963518 0.06635492754641531 0 -0.27678196032587499 0.069585006034529676 0 -0.28059357561043269 0.073644623599786935 0 -0.27196581367152378 0.074048519153160283 0 -0.28059357561043269 0.073644623599786935 0 -0.27196581367152378 0.074048519153160283 0 -0.27303575277029413 0.081855029780232597 0 -0.27196581367152378 0.074048519153160283 0 -0.27195195811963518 0.06635492754641531 0 -0.25743728825439521 0.07924270920583569 0 -0.28572263353681682 0.08337299634339973 0 -0.27815219556391091 0.091433986845849968 0 -0.27303575277029413 0.081855029780232597 0 -0.28572263353681682 0.08337299634339973 0 -0.28059357561043269 0.073644623599786935 0 -0.27303575277029413 0.081855029780232597 0 -0.27196581367152378 0.074048519153160283 0 -0.27303575277029413 0.081855029780232597 0 -0.25743728825439521 0.07924270920583569 0 -0.27815219556391091 0.091433986845849968 0 -0.27303575277029413 0.081855029780232597 0 -0.26471001572300679 0.091779207982481292 0 -0.26471001572300679 0.091779207982481292 0 -0.25743728825439521 0.07924270920583569 0 -0.25413031243694739 0.089521027236778197 0 -0.27303575277029413 0.081855029780232597 0 -0.26471001572300679 0.091779207982481292 0 -0.25743728825439521 0.07924270920583569 0 -0.25743728825439521 0.07924270920583569 0 -0.25064083865024739 0.073628726666345984 0 -0.24857020570659841 0.081659589420377987 0 -0.25743728825439521 0.07924270920583569 0 -0.25413031243694739 0.089521027236778197 0 -0.24857020570659841 0.081659589420377987 0 -0.26855373331756138 0.063547936276670339 0 -0.25743728825439521 0.07924270920583569 0 -0.25064083865024739 0.073628726666345984 0 -0.26855373331756138 0.063547936276670339 0 -0.25064083865024739 0.073628726666345984 0 -0.2562734301216873 0.062061687155910393 0 -0.26855373331756138 0.063547936276670339 0 -0.25064083865024739 0.073628726666345984 0 -0.27195195811963518 0.06635492754641531 0 -0.25743728825439521 0.07924270920583569 0 -0.25064083865024739 0.073628726666345984 0 -0.2562734301216873 0.062061687155910393 0 -0.24829977196364941 0.065213336215906109 0 -0.2623477931936597 0.053657636987073307 0 -0.25116276906762952 0.054241108780248931 0 -0.26153642505613889 0.036367366133998442 0 -0.2562734301216873 0.062061687155910393 0 -0.2623477931936597 0.053657636987073307 0 -0.25116276906762952 0.054241108780248931 0 -0.2562734301216873 0.062061687155910393 0 -0.25116276906762952 0.054241108780248931 0 -0.24829977196364941 0.065213336215906109 0 -0.26855373331756138 0.063547936276670339 0 -0.2562734301216873 0.062061687155910393 0 -0.2623477931936597 0.053657636987073307 0 -0.25116276906762952 0.054241108780248931 0 -0.26153642505613889 0.036367366133998442 0 -0.239388393447095 0.04766651035075449 0 -0.2623477931936597 0.053657636987073307 0 -0.26153642505613889 0.036367366133998442 0 -0.27323710809808138 0.049716314049096537 0 -0.26153642505613889 0.036367366133998442 0 -0.28732673365434691 0.040933413293477772 0 -0.26153642505613889 0.036367366133998442 0 -0.2825074511423824 0.030310297232740709 0 -0.28732673365434691 0.040933413293477772 0 -0.26153642505613889 0.036367366133998442 0 -0.27323710809808138 0.049716314049096537 0 -0.28732673365434691 0.040933413293477772 0 -0.26855373331756138 0.063547936276670339 0 -0.27195195811963518 0.06635492754641531 0 -0.28646662798487532 0.053467145886994819 0 -0.26855373331756138 0.063547936276670339 0 -0.28646662798487532 0.053467145886994819 0 -0.26855373331756138 0.063547936276670339 0 -0.27323710809808138 0.049716314049096537 0 -0.28646662798487532 0.053467145886994819 0 -0.27195195811963518 0.06635492754641531 0 -0.28646662798487532 0.053467145886994819 0 -0.28261649390190829 0.064291953838756216 0 -0.27195195811963518 0.06635492754641531 0 -0.28646662798487532 0.053467145886994819 0 -0.26855373331756138 0.063547936276670339 0 -0.2623477931936597 0.053657636987073307 0 -0.27323710809808138 0.049716314049096537 0 -0.26176261374782622 0.0098260211376069873 0 -0.24854849079604721 0.020569936005881421 0 -0.24598119983726671 0.0037338506766126851 0 -0.26003022337954462 -0.0038093911555793728 0 -0.26176261374782622 0.0098260211376069873 0 -0.24598119983726671 0.0037338506766126851 0 -0.26003022337954462 -0.0038093911555793728 0 -0.27433688946420332 -0.0007833753365484626 0 -0.26176261374782622 0.0098260211376069873 0 -0.26153642505613889 0.036367366133998442 0 -0.26176261374782622 0.0098260211376069873 0 -0.24854849079604721 0.020569936005881421 0 -0.26153642505613889 0.036367366133998442 0 -0.26176261374782622 0.0098260211376069873 0 -0.27684491432135683 0.017453585025194441 0 -0.26153642505613889 0.036367366133998442 0 -0.27684491432135683 0.017453585025194441 0 -0.2825074511423824 0.030310297232740709 0 -0.27433688946420332 -0.0007833753365484626 0 -0.26176261374782622 0.0098260211376069873 0 -0.27684491432135683 0.017453585025194441 0 -0.27433688946420332 -0.0007833753365484626 0 -0.27684491432135683 0.017453585025194441 0 -0.28842838408131971 0.0076205693905790281 0 -0.28842838408131971 0.0076205693905790281 0 -0.29131927560690712 0.022062190579302341 0 -0.29989828236451899 0.011495108916467369 0 -0.27684491432135683 0.017453585025194441 0 -0.29131927560690712 0.022062190579302341 0 -0.2825074511423824 0.030310297232740709 0 -0.27684491432135683 0.017453585025194441 0 -0.28842838408131971 0.0076205693905790281 0 -0.29131927560690712 0.022062190579302341 0 -0.29131927560690712 0.022062190579302341 0 -0.2825074511423824 0.030310297232740709 0 -0.29550990707316249 0.034734931131730561 0 -0.29131927560690712 0.022062190579302341 0 -0.30587597075389272 0.02137954460474218 0 -0.29550990707316249 0.034734931131730561 0 -0.30587597075389272 0.02137954460474218 0 -0.29550990707316249 0.034734931131730561 0 -0.30859873922341308 0.03381572977126493 0 -0.29131927560690712 0.022062190579302341 0 -0.30587597075389272 0.02137954460474218 0 -0.29989828236451899 0.011495108916467369 0 -0.3025805037907468 -0.0027432771802810229 0 -0.3204068892458079 -0.0014125807301150939 0 -0.31128727758972891 0.0091565171879943417 0 -0.30587597075389272 0.02137954460474218 0 -0.29989828236451899 0.011495108916467369 0 -0.31128727758972891 0.0091565171879943417 0 -0.3025805037907468 -0.0027432771802810229 0 -0.29989828236451899 0.011495108916467369 0 -0.31128727758972891 0.0091565171879943417 0 -0.3025805037907468 -0.0027432771802810229 0 -0.28842838408131971 0.0076205693905790281 0 -0.29989828236451899 0.011495108916467369 0 -0.28646662798487532 0.053467145886994819 0 -0.304010183261538 0.043594207608826187 0 -0.29088471103165969 0.062671374321780771 0 -0.28646662798487532 0.053467145886994819 0 -0.30189037325813839 0.060543452134012458 0 -0.29088471103165969 0.062671374321780771 0 -0.28261649390190829 0.064291953838756216 0 -0.28646662798487532 0.053467145886994819 0 -0.27323710809808138 0.049716314049096537 0 -0.28646662798487532 0.053467145886994819 0 -0.28732673365434691 0.040933413293477772 0 -0.28646662798487532 0.053467145886994819 0 -0.29550990707316249 0.034734931131730561 0 -0.30859873922341308 0.03381572977126493 0 -0.28646662798487532 0.053467145886994819 0 -0.28732673365434691 0.040933413293477772 0 -0.29550990707316249 0.034734931131730561 0 -0.2825074511423824 0.030310297232740709 0 -0.28732673365434691 0.040933413293477772 0 -0.29550990707316249 0.034734931131730561 0 -0.28646662798487532 0.053467145886994819 0 -0.30859873922341308 0.03381572977126493 0 -0.28646662798487532 0.053467145886994819 0 -0.304010183261538 0.043594207608826187 0 -0.30859873922341308 0.03381572977126493 0 -0.304010183261538 0.043594207608826187 0 -0.30859873922341308 0.03381572977126493 0 -0.32155373853820057 0.033721269330657687 0 -0.304010183261538 0.043594207608826187 0 -0.3137915997446068 0.051476736654279882 0 -0.31549181974187701 0.042926529004151233 0 -0.28646662798487532 0.053467145886994819 0 -0.304010183261538 0.043594207608826187 0 -0.30189037325813839 0.060543452134012458 0 -0.30189037325813839 0.060543452134012458 0 -0.3137915997446068 0.051476736654279882 0 -0.32146679815367007 0.068824891797761426 0 -0.304010183261538 0.043594207608826187 0 -0.30189037325813839 0.060543452134012458 0 -0.3137915997446068 0.051476736654279882 0 -0.3137915997446068 0.051476736654279882 0 -0.32609882430781029 0.041494602726648067 0 -0.32146679815367007 0.068824891797761426 0 -0.32609882430781029 0.041494602726648067 0 -0.32146679815367007 0.068824891797761426 0 -0.3137915997446068 0.051476736654279882 0 -0.31549181974187701 0.042926529004151233 0 -0.32609882430781029 0.041494602726648067 0 -0.304010183261538 0.043594207608826187 0 -0.31549181974187701 0.042926529004151233 0 -0.32155373853820057 0.033721269330657687 0 -0.304010183261538 0.043594207608826187 0 -0.32155373853820057 0.033721269330657687 0 -0.31549181974187701 0.042926529004151233 0 -0.32155373853820057 0.033721269330657687 0 -0.32609882430781029 0.041494602726648067 0 -0.32609882430781029 0.041494602726648067 0 -0.34385517732675519 0.031131612817745031 0 -0.35163198926140088 0.046228739452983239 0 -0.32609882430781029 0.041494602726648067 0 -0.338272543408071 0.060603673933957783 0 -0.32146679815367007 0.068824891797761426 0 -0.32609882430781029 0.041494602726648067 0 -0.338272543408071 0.060603673933957783 0 -0.35163198926140088 0.046228739452983239 0 -0.3204068892458079 -0.0014125807301150939 0 -0.31128727758972891 0.0091565171879943417 0 -0.33073085046195078 0.01416431365553468 0 -0.30587597075389272 0.02137954460474218 0 -0.31128727758972891 0.0091565171879943417 0 -0.33073085046195078 0.01416431365553468 0 -0.30859873922341308 0.03381572977126493 0 -0.33073085046195078 0.01416431365553468 0 -0.30587597075389272 0.02137954460474218 0 -0.30859873922341308 0.03381572977126493 0 -0.33073085046195078 0.01416431365553468 0 -0.32155373853820057 0.033721269330657687 0 -0.32609882430781029 0.041494602726648067 0 -0.33073085046195078 0.01416431365553468 0 -0.30859873922341308 0.03381572977126493 0 -0.32155373853820057 0.033721269330657687 0 -0.33073085046195078 0.01416431365553468 0 -0.32609882430781029 0.041494602726648067 0 -0.33073085046195078 0.01416431365553468 0 -0.33073085046195078 0.01416431365553468 0 -0.34385517732675519 0.031131612817745031 0 -0.35381837275022032 0.01853105722209741 0 -0.32609882430781029 0.041494602726648067 0 -0.33073085046195078 0.01416431365553468 0 -0.34385517732675519 0.031131612817745031 0 -0.33540629353460438 -0.01342214774580049 0 -0.33073085046195078 0.01416431365553468 0 -0.35221409618436439 -0.0049109655465913588 0 -0.33073085046195078 0.01416431365553468 0 -0.35221409618436439 -0.0049109655465913588 0 -0.34857824671955512 -0.007874197240844389 0 -0.33073085046195078 0.01416431365553468 0 -0.35221409618436439 -0.0049109655465913588 0 -0.33073085046195078 0.01416431365553468 0 -0.34939877662876639 0.0070576099193848619 0 -0.33073085046195078 0.01416431365553468 0 -0.34939877662876639 0.0070576099193848619 0 -0.35381837275022032 0.01853105722209741 0 -0.35900139338342918 0.0020097317905480609 0 -0.34939877662876639 0.0070576099193848619 0 -0.35834074471334648 0.0096788928264882005 0 -0.35509488683577939 -0.0004162838960613095 0 -0.35900139338342918 0.0020097317905480609 0 -0.34939877662876639 0.0070576099193848619 0 -0.35509488683577939 -0.0004162838960613095 0 -0.35221409618436439 -0.0049109655465913588 0 -0.34939877662876639 0.0070576099193848619 0 -0.34939877662876639 0.0070576099193848619 0 -0.35834074471334648 0.0096788928264882005 0 -0.35381837275022032 0.01853105722209741 0 -0.34385517732675519 0.031131612817745031 0 -0.35381837275022032 0.01853105722209741 0 -0.36551724687399623 0.028318485711261141 0 -0.37937813184432773 0.031366277704107569 0 -0.36551724687399623 0.028318485711261141 0 -0.37479293228070759 0.022502646493578662 0 -0.36551724687399623 0.028318485711261141 0 -0.37479293228070759 0.022502646493578662 0 -0.36730783543836809 0.01519693074799966 0 -0.3778438638662554 0.014761087644765769 0 -0.37479293228070759 0.022502646493578662 0 -0.36730783543836809 0.01519693074799966 0 -0.35381837275022032 0.01853105722209741 0 -0.36551724687399623 0.028318485711261141 0 -0.36730783543836809 0.01519693074799966 0 -0.35834074471334648 0.0096788928264882005 0 -0.36730783543836809 0.01519693074799966 0 -0.36603012090457948 0.0050917054244422654 0 -0.35834074471334648 0.0096788928264882005 0 -0.35381837275022032 0.01853105722209741 0 -0.36730783543836809 0.01519693074799966 0 -0.36730783543836809 0.01519693074799966 0 -0.37464316483836829 0.0066416053135349984 0 -0.36603012090457948 0.0050917054244422654 0 -0.3778438638662554 0.014761087644765769 0 -0.36730783543836809 0.01519693074799966 0 -0.37464316483836829 0.0066416053135349984 0 -0.37126952376897032 -0.00085078512189483576 0 -0.37774077980655368 -0.001289555558904682 0 -0.37464316483836829 0.0066416053135349984 0 -0.37126952376897032 -0.00085078512189483576 0 -0.37464316483836829 0.0066416053135349984 0 -0.36603012090457948 0.0050917054244422654 0 -0.37126952376897032 -0.00085078512189483576 0 -0.36494834593608783 -0.001298186014321303 0 -0.36603012090457948 0.0050917054244422654 0 -0.36494834593608783 -0.001298186014321303 0 -0.35900139338342918 0.0020097317905480609 0 -0.36603012090457948 0.0050917054244422654 0 -0.35900139338342918 0.0020097317905480609 0 -0.35834074471334648 0.0096788928264882005 0 -0.36603012090457948 0.0050917054244422654 0 -0.35163198926140088 0.046228739452983239 0 -0.36891219827968119 0.060077996683558232 0 -0.35298131256760962 0.063034912088641357 0 -0.338272543408071 0.060603673933957783 0 -0.35163198926140088 0.046228739452983239 0 -0.35298131256760962 0.063034912088641357 0 -0.34385517732675519 0.031131612817745031 0 -0.36551724687399623 0.028318485711261141 0 -0.35163198926140088 0.046228739452983239 0 -0.36551724687399623 0.028318485711261141 0 -0.35163198926140088 0.046228739452983239 0 -0.37261014177358448 0.043145835856899219 0 -0.37937813184432773 0.031366277704107569 0 -0.36551724687399623 0.028318485711261141 0 -0.37261014177358448 0.043145835856899219 0 -0.35163198926140088 0.046228739452983239 0 -0.37261014177358448 0.043145835856899219 0 -0.36891219827968119 0.060077996683558232 0 -0.38207463336695202 0.051047668856640811 0 -0.37261014177358448 0.043145835856899219 0 -0.36891219827968119 0.060077996683558232 0 -0.37929074908003868 0.077603726490867345 0 -0.35694138538550352 0.073855345321458488 0 -0.37929074908003868 0.077603726490867345 0 -0.36891219827968119 0.060077996683558232 0 -0.35694138538550352 0.073855345321458488 0 -0.36891219827968119 0.060077996683558232 0 -0.35298131256760962 0.063034912088641357 0 -0.35694138538550352 0.073855345321458488 0 -0.35298131256760962 0.063034912088641357 0 -0.35694138538550352 0.073855345321458488 0 -0.34914844650339177 0.074408805051249083 0 -0.35694138538550352 0.073855345321458488 0 -0.34914844650339177 0.074408805051249083 0 -0.35387282561504041 0.085789381247760657 0 -0.338272543408071 0.060603673933957783 0 -0.35298131256760962 0.063034912088641357 0 -0.34914844650339177 0.074408805051249083 0 -0.34914844650339177 0.074408805051249083 0 -0.35387282561504041 0.085789381247760657 0 -0.33299160925146271 0.085281992960062933 0 -0.35694138538550352 0.073855345321458488 0 -0.35387282561504041 0.085789381247760657 0 -0.36438159895332511 0.085691586513687634 0 -0.35387282561504041 0.085789381247760657 0 -0.36438159895332511 0.085691586513687634 0 -0.35579278546844412 0.098564625017930646 0 -0.37929074908003868 0.077603726490867345 0 -0.35694138538550352 0.073855345321458488 0 -0.36438159895332511 0.085691586513687634 0 -0.37929074908003868 0.077603726490867345 0 -0.36438159895332511 0.085691586513687634 0 -0.37090825683648998 0.098456277756480637 0 -0.37090825683648998 0.098456277756480637 0 -0.36904533532088801 0.1177582563576956 0 -0.35579278546844412 0.098564625017930646 0 -0.36438159895332511 0.085691586513687634 0 -0.37090825683648998 0.098456277756480637 0 -0.35579278546844412 0.098564625017930646 0 -0.35823941519022368 0.13573745574644491 0 -0.36904533532088801 0.1177582563576956 0 -0.35158166360451942 0.11704707172714621 0 -0.36904533532088801 0.1177582563576956 0 -0.35158166360451942 0.11704707172714621 0 -0.35579278546844412 0.098564625017930646 0 -0.35158166360451942 0.11704707172714621 0 -0.35579278546844412 0.098564625017930646 0 -0.34047962299512569 0.099373871294989508 0 -0.35387282561504041 0.085789381247760657 0 -0.35579278546844412 0.098564625017930646 0 -0.34047962299512569 0.099373871294989508 0 -0.34047962299512569 0.099373871294989508 0 -0.33231339904552459 0.1171762944261375 0 -0.31683477199953253 0.096155180868875256 0 -0.34455851703438989 0.13305210298766909 0 -0.35158166360451942 0.11704707172714621 0 -0.33231339904552459 0.1171762944261375 0 -0.35158166360451942 0.11704707172714621 0 -0.34047962299512569 0.099373871294989508 0 -0.33231339904552459 0.1171762944261375 0 -0.31211500736378339 0.1240031522641292 0 -0.31683477199953253 0.096155180868875256 0 -0.31211500736378339 0.1240031522641292 0 -0.33231339904552459 0.1171762944261375 0 -0.31683477199953253 0.096155180868875256 0 -0.30635830999651792 0.07761242167179265 0 -0.31683477199953253 0.096155180868875256 0 -0.32146679815367007 0.068824891797761426 0 -0.31683477199953253 0.096155180868875256 0 -0.32146679815367007 0.068824891797761426 0 -0.33299160925146271 0.085281992960062933 0 -0.31683477199953253 0.096155180868875256 0 -0.32146679815367007 0.068824891797761426 0 -0.31683477199953253 0.096155180868875256 0 -0.33299160925146271 0.085281992960062933 0 -0.338272543408071 0.060603673933957783 0 -0.32146679815367007 0.068824891797761426 0 -0.33576809196089219 0.072507027900731907 0 -0.32146679815367007 0.068824891797761426 0 -0.33576809196089219 0.072507027900731907 0 -0.33299160925146271 0.085281992960062933 0 -0.34914844650339177 0.074408805051249083 0 -0.33576809196089219 0.072507027900731907 0 -0.33299160925146271 0.085281992960062933 0 -0.338272543408071 0.060603673933957783 0 -0.34914844650339177 0.074408805051249083 0 -0.33576809196089219 0.072507027900731907 0 -0.35387282561504041 0.085789381247760657 0 -0.34047962299512569 0.099373871294989508 0 -0.33299160925146271 0.085281992960062933 0 -0.34914844650339177 0.074408805051249083 0 -0.33299160925146271 0.085281992960062933 0 -0.34047962299512569 0.099373871294989508 0 -0.31683477199953253 0.096155180868875256 0 -0.33299160925146271 0.085281992960062933 0 -0.3938434845513461 0.48000301234504228 0 -0.4154786193197833 0.47000451851756458 0 -0.40908183102320411 0.4845696213484928 0 -0.3938434845513461 0.48000301234504228 0 -0.40110135887996978 0.47332954189399812 0 -0.4154786193197833 0.47000451851756458 0 -0.3938434845513461 0.48000301234504228 0 -0.4154786193197833 0.47000451851756458 0 -0.3938434845513461 0.48000301234504228 0 -0.40110135887996978 0.47332954189399812 0 -0.38930270813857232 0.46778113184491188 0 -0.3938434845513461 0.48000301234504228 0 -0.39546946259238258 0.49128185561313598 0 -0.40908183102320411 0.4845696213484928 0 -0.40521342881326272 0.5 0 -0.39546946259238258 0.49128185561313598 0 -0.37789332191386737 0.5 0 -0.40521342881326272 0.5 0 -0.39546946259238258 0.49128185561313598 0 -0.40908183102320411 0.4845696213484928 0 -0.3938434845513461 0.48000301234504228 0 -0.39546946259238258 0.49128185561313598 0 -0.38517353549973538 0.49039659604947999 0 -0.3938434845513461 0.48000301234504228 0 -0.37220834978290879 0.49000150617251997 0 -0.39546946259238258 0.49128185561313598 0 -0.38517353549973538 0.49039659604947999 0 -0.37789332191386737 0.5 0 -0.3938434845513461 0.48000301234504228 0 -0.38517353549973538 0.49039659604947999 0 -0.37220834978290879 0.49000150617251997 0 -0.38517353549973538 0.49039659604947999 0 -0.37789332191386737 0.5 0 -0.37220834978290879 0.49000150617251997 0 -0.3938434845513461 0.48000301234504228 0 -0.37805640255927542 0.47903421333972468 0 -0.3842367001720054 0.47454362448235632 0 -0.3938434845513461 0.48000301234504228 0 -0.37805640255927542 0.47903421333972468 0 -0.37220834978290879 0.49000150617251997 0 -0.3842367001720054 0.47454362448235632 0 -0.37701653082709469 0.46900635458093531 0 -0.38930270813857232 0.46778113184491188 0 -0.3938434845513461 0.48000301234504228 0 -0.3842367001720054 0.47454362448235632 0 -0.38930270813857232 0.46778113184491188 0 -0.37805640255927542 0.47903421333972468 0 -0.3842367001720054 0.47454362448235632 0 -0.37701653082709469 0.46900635458093531 0 -0.37701653082709469 0.46900635458093531 0 -0.38677844954541418 0.45747132953460651 0 -0.37376195539900242 0.45249759326054367 0 -0.37701653082709469 0.46900635458093531 0 -0.38677844954541418 0.45747132953460651 0 -0.38930270813857232 0.46778113184491188 0 -0.38473584783684761 0.44354080077547992 0 -0.36778315087773072 0.43214877602771662 0 -0.37376195539900242 0.45249759326054367 0 -0.38677844954541418 0.45747132953460651 0 -0.38473584783684761 0.44354080077547992 0 -0.37376195539900242 0.45249759326054367 0 -0.38677844954541418 0.45747132953460651 0 -0.38473584783684761 0.44354080077547992 0 -0.39843898125590987 0.45231631840454728 0 -0.39843898125590987 0.45231631840454728 0 -0.4072920944712265 0.44499890251068641 0 -0.39856520721893041 0.43647578570475237 0 -0.38473584783684761 0.44354080077547992 0 -0.39843898125590987 0.45231631840454728 0 -0.39856520721893041 0.43647578570475237 0 -0.39843898125590987 0.45231631840454728 0 -0.39841490533913748 0.46178879282826651 0 -0.41709791082295028 0.45456801136960878 0 -0.40110135887996978 0.47332954189399812 0 -0.39841490533913748 0.46178879282826651 0 -0.41709791082295028 0.45456801136960878 0 -0.38677844954541418 0.45747132953460651 0 -0.38930270813857232 0.46778113184491188 0 -0.39841490533913748 0.46178879282826651 0 -0.40110135887996978 0.47332954189399812 0 -0.38930270813857232 0.46778113184491188 0 -0.39841490533913748 0.46178879282826651 0 -0.38677844954541418 0.45747132953460651 0 -0.39843898125590987 0.45231631840454728 0 -0.39841490533913748 0.46178879282826651 0 -0.40110135887996978 0.47332954189399812 0 -0.41709791082295028 0.45456801136960878 0 -0.4154786193197833 0.47000451851756458 0 -0.40110135887996978 0.47332954189399812 0 -0.41709791082295028 0.45456801136960878 0 -0.41709791082295028 0.45456801136960878 0 -0.42692569345801529 0.46340213249295897 0 -0.4154786193197833 0.47000451851756458 0 -0.41709791082295028 0.45456801136960878 0 -0.43309446276593089 0.43580648084521972 0 -0.41506627858711548 0.4366354945638371 0 -0.39843898125590987 0.45231631840454728 0 -0.41709791082295028 0.45456801136960878 0 -0.4072920944712265 0.44499890251068641 0 -0.4072920944712265 0.44499890251068641 0 -0.41506627858711548 0.4366354945638371 0 -0.39856520721893041 0.43647578570475237 0 -0.41709791082295028 0.45456801136960878 0 -0.4072920944712265 0.44499890251068641 0 -0.41506627858711548 0.4366354945638371 0 -0.41709791082295028 0.45456801136960878 0 -0.43251943231727258 0.45189802077753072 0 -0.43309446276593089 0.43580648084521972 0 -0.41709791082295028 0.45456801136960878 0 -0.43309446276593089 0.43580648084521972 0 -0.43251943231727258 0.45189802077753072 0 -0.44285055445462801 0.44408738363144917 0 -0.43309446276593089 0.43580648084521972 0 -0.43251943231727258 0.45189802077753072 0 -0.42692569345801529 0.46340213249295897 0 -0.44262854008483871 0.46162609554841733 0 -0.42692569345801529 0.46340213249295897 0 -0.43014133963940671 0.47900644757454591 0 -0.44262854008483871 0.46162609554841733 0 -0.41709791082295028 0.45456801136960878 0 -0.43251943231727258 0.45189802077753072 0 -0.42692569345801529 0.46340213249295897 0 -0.42692569345801529 0.46340213249295897 0 -0.43014133963940671 0.47900644757454591 0 -0.4154786193197833 0.47000451851756458 0 -0.43014133963940671 0.47900644757454591 0 -0.4154786193197833 0.47000451851756458 0 -0.40908183102320411 0.4845696213484928 0 -0.40521342881326272 0.5 0 -0.40908183102320411 0.4845696213484928 0 -0.43253353571265801 0.5 0 -0.43014133963940671 0.47900644757454591 0 -0.40908183102320411 0.4845696213484928 0 -0.43253353571265801 0.5 0 -0.43014133963940671 0.47900644757454591 0 -0.43253353571265801 0.5 0 -0.44984012809851409 0.48033494727474779 0 -0.43253353571265801 0.5 0 -0.44984012809851409 0.48033494727474779 0 -0.45985364261205308 0.50000000000000111 0 -0.43014133963940671 0.47900644757454591 0 -0.44984012809851409 0.48033494727474779 0 -0.44262854008483871 0.46162609554841733 0 -0.44984012809851409 0.48033494727474779 0 -0.47312811744354261 0.47395110078869013 0 -0.45820768181792781 0.46325373185340701 0 -0.45985364261205308 0.50000000000000111 0 -0.47312811744354261 0.47395110078869013 0 -0.44984012809851409 0.48033494727474779 0 -0.45985364261205308 0.50000000000000111 0 -0.47312811744354261 0.47395110078869013 0 -0.5 0.5 0 -0.47312811744354261 0.47395110078869013 0 -0.49999999999999972 0.44664233614409321 0 -0.45985364261205308 0.50000000000000111 0 -0.5 0.5 0 -0.47312811744354261 0.47395110078869013 0 -0.48640259227503152 0.44790220157737892 0 -0.49999999999999972 0.44664233614409321 0 -0.47883616718389621 0.43347798499105172 0 -0.49999999999999972 0.44664233614409321 0 -0.47883616718389621 0.43347798499105172 0 -0.47312811744354261 0.47395110078869013 0 -0.48640259227503152 0.44790220157737892 0 -0.49999999999999972 0.44664233614409321 0 -0.47312811744354261 0.47395110078869013 0 -0.48640259227503152 0.44790220157737892 0 -0.47312811744354261 0.47395110078869013 0 -0.48640259227503152 0.44790220157737892 0 -0.46932328621444303 0.45009797021529852 0 -0.46932328621444303 0.45009797021529852 0 -0.46288197751253979 0.435741310408158 0 -0.47883616718389621 0.43347798499105172 0 -0.48640259227503152 0.44790220157737892 0 -0.46932328621444303 0.45009797021529852 0 -0.47883616718389621 0.43347798499105172 0 -0.46932328621444303 0.45009797021529852 0 -0.45653044061400749 0.44574373859450739 0 -0.46288197751253979 0.435741310408158 0 -0.46932328621444303 0.45009797021529852 0 -0.45653044061400749 0.44574373859450739 0 -0.45820768181792781 0.46325373185340701 0 -0.45653044061400749 0.44574373859450739 0 -0.44988321330808601 0.43264183945635343 0 -0.46288197751253979 0.435741310408158 0 -0.47312811744354261 0.47395110078869013 0 -0.46932328621444303 0.45009797021529852 0 -0.45820768181792781 0.46325373185340701 0 -0.45653044061400749 0.44574373859450739 0 -0.45820768181792781 0.46325373185340701 0 -0.44262854008483871 0.46162609554841733 0 -0.44984012809851409 0.48033494727474779 0 -0.45820768181792781 0.46325373185340701 0 -0.44262854008483871 0.46162609554841733 0 -0.43251943231727258 0.45189802077753072 0 -0.44262854008483871 0.46162609554841733 0 -0.44285055445462801 0.44408738363144917 0 -0.45653044061400749 0.44574373859450739 0 -0.44262854008483871 0.46162609554841733 0 -0.44285055445462801 0.44408738363144917 0 -0.44285055445462801 0.44408738363144917 0 -0.44988321330808601 0.43264183945635343 0 -0.43309446276593089 0.43580648084521972 0 -0.45653044061400749 0.44574373859450739 0 -0.44285055445462801 0.44408738363144917 0 -0.44988321330808601 0.43264183945635343 0 -0.44909101470891138 0.41704495032083061 0 -0.43309446276593089 0.43580648084521972 0 -0.44988321330808601 0.43264183945635343 0 -0.44909101470891138 0.41704495032083061 0 -0.43309446276593089 0.43580648084521972 0 -0.44988321330808601 0.43264183945635343 0 -0.44909101470891138 0.41704495032083061 0 -0.45767233436779298 0.42031363383801013 0 -0.44909101470891138 0.41704495032083061 0 -0.43642708593841462 0.41129790334070748 0 -0.43309446276593089 0.43580648084521972 0 -0.44909101470891138 0.41704495032083061 0 -0.44923652684218601 0.40651161443480333 0 -0.43642708593841462 0.41129790334070748 0 -0.44909101470891138 0.41704495032083061 0 -0.46310762304278369 0.4136785712167641 0 -0.46508756665189233 0.39828341979644161 0 -0.44909101470891138 0.41704495032083061 0 -0.46508756665189233 0.39828341979644161 0 -0.44909101470891138 0.41704495032083061 0 -0.44923652684218601 0.40651161443480333 0 -0.46508756665189233 0.39828341979644161 0 -0.44909101470891138 0.41704495032083061 0 -0.45767233436779298 0.42031363383801013 0 -0.46310762304278369 0.4136785712167641 0 -0.45767233436779298 0.42031363383801013 0 -0.46310762304278369 0.4136785712167641 0 -0.4689935185142321 0.42014913325858988 0 -0.46310762304278369 0.4136785712167641 0 -0.47635794946245552 0.41312634298853379 0 -0.46508756665189233 0.39828341979644161 0 -0.45767233436779298 0.42031363383801013 0 -0.47883616718389621 0.43347798499105172 0 -0.4689935185142321 0.42014913325858988 0 -0.45767233436779298 0.42031363383801013 0 -0.46288197751253979 0.435741310408158 0 -0.47883616718389621 0.43347798499105172 0 -0.45767233436779298 0.42031363383801013 0 -0.47883616718389621 0.43347798499105172 0 -0.44988321330808601 0.43264183945635343 0 -0.45767233436779298 0.42031363383801013 0 -0.46288197751253979 0.435741310408158 0 -0.47883616718389621 0.43347798499105172 0 -0.47635794946245552 0.41312634298853379 0 -0.48714440641974271 0.42351608680749347 0 -0.47883616718389621 0.43347798499105172 0 -0.4689935185142321 0.42014913325858988 0 -0.47635794946245552 0.41312634298853379 0 -0.46310762304278369 0.4136785712167641 0 -0.4689935185142321 0.42014913325858988 0 -0.47635794946245552 0.41312634298853379 0 -0.47635794946245552 0.41312634298853379 0 -0.48901457958177968 0.41012265573874179 0 -0.48254378332594611 0.39722493186941499 0 -0.47635794946245552 0.41312634298853379 0 -0.48901457958177968 0.41012265573874179 0 -0.48714440641974271 0.42351608680749347 0 -0.48901457958177968 0.41012265573874179 0 -0.5 0.42140439004324071 0 -0.49999999999999978 0.39616644394238798 0 -0.48901457958177968 0.41012265573874179 0 -0.5 0.42140439004324071 0 -0.48714440641974271 0.42351608680749347 0 -0.49999999999999972 0.44664233614409321 0 -0.47883616718389621 0.43347798499105172 0 -0.48714440641974271 0.42351608680749347 0 -0.49999999999999972 0.44664233614409321 0 -0.5 0.42140439004324071 0 -0.48714440641974271 0.42351608680749347 0 -0.49007778645481631 0.38142997617552599 0 -0.49999999999999978 0.39616644394238798 0 -0.50000000000000311 0.3685517992903854 0 -0.49007778645481631 0.38142997617552599 0 -0.47611467569506138 0.38535029247959018 0 -0.48714178473823078 0.37241716516273898 0 -0.49999999999999978 0.39616644394238798 0 -0.48254378332594611 0.39722493186941499 0 -0.48901457958177968 0.41012265573874179 0 -0.49999999999999978 0.39616644394238798 0 -0.48254378332594611 0.39722493186941499 0 -0.49007778645481631 0.38142997617552599 0 -0.49999999999999978 0.39616644394238798 0 -0.48254378332594611 0.39722493186941499 0 -0.48254378332594611 0.39722493186941499 0 -0.46508756665189233 0.39828341979644161 0 -0.47635794946245552 0.41312634298853379 0 -0.48254378332594611 0.39722493186941499 0 -0.46508756665189233 0.39828341979644161 0 -0.48254378332594611 0.39722493186941499 0 -0.47611467569506138 0.38535029247959018 0 -0.46508756665189233 0.39828341979644161 0 -0.47611467569506138 0.38535029247959018 0 -0.46508756665189233 0.39828341979644161 0 -0.49007778645481631 0.38142997617552599 0 -0.48254378332594611 0.39722493186941499 0 -0.47611467569506138 0.38535029247959018 0 -0.47611467569506138 0.38535029247959018 0 -0.47397397291215421 0.37493689296344251 0 -0.48714178473823078 0.37241716516273898 0 -0.47611467569506138 0.38535029247959018 0 -0.48714178473823078 0.37241716516273898 0 -0.46871814716203669 0.37906981455344119 0 -0.46360543106569913 0.37231654924431878 0 -0.47397397291215421 0.37493689296344251 0 -0.47611467569506138 0.38535029247959018 0 -0.46871814716203669 0.37906981455344119 0 -0.47397397291215421 0.37493689296344251 0 -0.46871814716203669 0.37906981455344119 0 -0.46117850897523233 0.38367552352641338 0 -0.46360543106569913 0.37231654924431878 0 -0.47611467569506138 0.38535029247959018 0 -0.46871814716203669 0.37906981455344119 0 -0.46117850897523233 0.38367552352641338 0 -0.47611467569506138 0.38535029247959018 0 -0.46117850897523233 0.38367552352641338 0 -0.46508756665189233 0.39828341979644161 0 -0.46117850897523233 0.38367552352641338 0 -0.45400385251667602 0.39093091030285698 0 -0.45110956684876158 0.38402681738971201 0 -0.46117850897523233 0.38367552352641338 0 -0.45110956684876158 0.38402681738971201 0 -0.44813402172652672 0.37354371539476261 0 -0.46117850897523233 0.38367552352641338 0 -0.44813402172652672 0.37354371539476261 0 -0.46360543106569913 0.37231654924431878 0 -0.44923652684218601 0.40651161443480333 0 -0.46508756665189233 0.39828341979644161 0 -0.44634044006952572 0.39942018428123321 0 -0.46508756665189233 0.39828341979644161 0 -0.45400385251667602 0.39093091030285698 0 -0.44634044006952572 0.39942018428123321 0 -0.46508756665189233 0.39828341979644161 0 -0.44634044006952572 0.39942018428123321 0 -0.46117850897523233 0.38367552352641338 0 -0.46508756665189233 0.39828341979644161 0 -0.45400385251667602 0.39093091030285698 0 -0.45400385251667602 0.39093091030285698 0 -0.44634044006952572 0.39942018428123321 0 -0.44518347515021223 0.38837251913440451 0 -0.44634044006952572 0.39942018428123321 0 -0.44518347515021223 0.38837251913440451 0 -0.43728617553129168 0.39370672697544878 0 -0.44923652684218601 0.40651161443480333 0 -0.44634044006952572 0.39942018428123321 0 -0.43642708593841462 0.41129790334070748 0 -0.45110956684876158 0.38402681738971201 0 -0.44480856609964842 0.38185924381796288 0 -0.44813402172652672 0.37354371539476261 0 -0.45400385251667602 0.39093091030285698 0 -0.45110956684876158 0.38402681738971201 0 -0.44518347515021223 0.38837251913440451 0 -0.45110956684876158 0.38402681738971201 0 -0.44518347515021223 0.38837251913440451 0 -0.44480856609964842 0.38185924381796288 0 -0.44518347515021223 0.38837251913440451 0 -0.43913693036841173 0.38484964203092692 0 -0.43002747341826991 0.3864772557201327 0 -0.44518347515021223 0.38837251913440451 0 -0.43002747341826991 0.3864772557201327 0 -0.44518347515021223 0.38837251913440451 0 -0.43913693036841173 0.38484964203092692 0 -0.44480856609964842 0.38185924381796288 0 -0.44480856609964842 0.38185924381796288 0 -0.4393591315165738 0.37762743775392832 0 -0.44813402172652672 0.37354371539476261 0 -0.43913693036841173 0.38484964203092692 0 -0.44480856609964842 0.38185924381796288 0 -0.4393591315165738 0.37762743775392832 0 -0.43913693036841173 0.38484964203092692 0 -0.43173797726570751 0.37658334167695551 0 -0.43913693036841173 0.38484964203092692 0 -0.43173797726570751 0.37658334167695551 0 -0.43002747341826991 0.3864772557201327 0 -0.43913693036841173 0.38484964203092692 0 -0.4393591315165738 0.37762743775392832 0 -0.43173797726570751 0.37658334167695551 0 -0.4393591315165738 0.37762743775392832 0 -0.43173797726570751 0.37658334167695551 0 -0.4325639091043616 0.37180597819459837 0 -0.43173797726570751 0.37658334167695551 0 -0.43002747341826991 0.3864772557201327 0 -0.44518347515021223 0.38837251913440451 0 -0.43002747341826991 0.3864772557201327 0 -0.43728617553129168 0.39370672697544878 0 -0.43002747341826991 0.3864772557201327 0 -0.41472776448615789 0.38456402166930481 0 -0.42117367656598032 0.39254991666010941 0 -0.43002747341826991 0.3864772557201327 0 -0.41472776448615789 0.38456402166930481 0 -0.43002747341826991 0.3864772557201327 0 -0.42328890360694349 0.38021744503538613 0 -0.41472776448615789 0.38456402166930481 0 -0.43173797726570751 0.37658334167695551 0 -0.43002747341826991 0.3864772557201327 0 -0.42328890360694349 0.38021744503538613 0 -0.43173797726570751 0.37658334167695551 0 -0.42328890360694349 0.38021744503538613 0 -0.42689564018809201 0.37117335838025439 0 -0.40881671944059661 0.37920357314115732 0 -0.42689564018809201 0.37117335838025439 0 -0.42328890360694349 0.38021744503538613 0 -0.40881671944059661 0.37920357314115732 0 -0.42689564018809201 0.37117335838025439 0 -0.42328890360694349 0.38021744503538613 0 -0.41472776448615789 0.38456402166930481 0 -0.40881671944059661 0.37920357314115732 0 -0.41472776448615789 0.38456402166930481 0 -0.40724106840129259 0.39428871981441299 0 -0.42117367656598032 0.39254991666010941 0 -0.41472776448615789 0.38456402166930481 0 -0.40826438028753348 0.3817067557430866 0 -0.39942805555404642 0.38265078761847338 0 -0.41472776448615789 0.38456402166930481 0 -0.40724106840129259 0.39428871981441299 0 -0.39942805555404642 0.38265078761847338 0 -0.41472776448615789 0.38456402166930481 0 -0.39942805555404642 0.38265078761847338 0 -0.40881671944059661 0.37920357314115732 0 -0.39942805555404642 0.38265078761847338 0 -0.41098055992701871 0.3693971202961519 0 -0.40826438028753348 0.3817067557430866 0 -0.40881671944059661 0.37920357314115732 0 -0.41472776448615789 0.38456402166930481 0 -0.40826438028753348 0.3817067557430866 0 -0.40881671944059661 0.37920357314115732 0 -0.40724106840129259 0.39428871981441299 0 -0.4157685575788832 0.40127396331749671 0 -0.40157856791931718 0.40704460823596672 0 -0.42117367656598032 0.39254991666010941 0 -0.4157685575788832 0.40127396331749671 0 -0.42759331348715912 0.40055694876602499 0 -0.40724106840129259 0.39428871981441299 0 -0.42117367656598032 0.39254991666010941 0 -0.4157685575788832 0.40127396331749671 0 -0.4157685575788832 0.40127396331749671 0 -0.42759331348715912 0.40055694876602499 0 -0.44634044006952572 0.39942018428123321 0 -0.42759331348715912 0.40055694876602499 0 -0.44634044006952572 0.39942018428123321 0 -0.42759331348715912 0.40055694876602499 0 -0.43728617553129168 0.39370672697544878 0 -0.44634044006952572 0.39942018428123321 0 -0.42759331348715912 0.40055694876602499 0 -0.43642708593841462 0.41129790334070748 0 -0.43002747341826991 0.3864772557201327 0 -0.42117367656598032 0.39254991666010941 0 -0.42759331348715912 0.40055694876602499 0 -0.43002747341826991 0.3864772557201327 0 -0.42759331348715912 0.40055694876602499 0 -0.43002747341826991 0.3864772557201327 0 -0.42759331348715912 0.40055694876602499 0 -0.43728617553129168 0.39370672697544878 0 -0.43642708593841462 0.41129790334070748 0 -0.42449994900394461 0.41844961959922572 0 -0.43309446276593089 0.43580648084521972 0 -0.42759331348715912 0.40055694876602499 0 -0.43642708593841462 0.41129790334070748 0 -0.42449994900394461 0.41844961959922572 0 -0.4157685575788832 0.40127396331749671 0 -0.42759331348715912 0.40055694876602499 0 -0.42449994900394461 0.41844961959922572 0 -0.42759331348715912 0.40055694876602499 0 -0.42449994900394461 0.41844961959922572 0 -0.42449994900394461 0.41844961959922572 0 -0.43309446276593089 0.43580648084521972 0 -0.41506627858711548 0.4366354945638371 0 -0.42449994900394461 0.41844961959922572 0 -0.41506627858711548 0.4366354945638371 0 -0.40746949035714619 0.42222882353716701 0 -0.41506627858711548 0.4366354945638371 0 -0.40746949035714619 0.42222882353716701 0 -0.39856520721893041 0.43647578570475237 0 -0.42449994900394461 0.41844961959922572 0 -0.40746949035714619 0.42222882353716701 0 -0.41232914121482278 0.41224925367246401 0 -0.4157685575788832 0.40127396331749671 0 -0.42449994900394461 0.41844961959922572 0 -0.41232914121482278 0.41224925367246401 0 -0.4157685575788832 0.40127396331749671 0 -0.41232914121482278 0.41224925367246401 0 -0.40157856791931718 0.40704460823596672 0 -0.40746949035714619 0.42222882353716701 0 -0.41232914121482278 0.41224925367246401 0 -0.40157856791931718 0.40704460823596672 0 -0.40746949035714619 0.42222882353716701 0 -0.40157856791931718 0.40704460823596672 0 -0.39298749241221759 0.42119507937603923 0 -0.40746949035714619 0.42222882353716701 0 -0.39298749241221759 0.42119507937603923 0 -0.39856520721893041 0.43647578570475237 0 -0.39298749241221759 0.42119507937603923 0 -0.39856520721893041 0.43647578570475237 0 -0.38373994498284608 0.43043669407259588 0 -0.38373994498284608 0.43043669407259588 0 -0.37668454372729859 0.41206883315114529 0 -0.36778315087773072 0.43214877602771662 0 -0.38473584783684761 0.44354080077547992 0 -0.38373994498284608 0.43043669407259588 0 -0.36778315087773072 0.43214877602771662 0 -0.38473584783684761 0.44354080077547992 0 -0.39856520721893041 0.43647578570475237 0 -0.38373994498284608 0.43043669407259588 0 -0.40157856791931718 0.40704460823596672 0 -0.39298749241221759 0.42119507937603923 0 -0.37668454372729859 0.41206883315114529 0 -0.39298749241221759 0.42119507937603923 0 -0.38373994498284608 0.43043669407259588 0 -0.37668454372729859 0.41206883315114529 0 -0.40157856791931718 0.40704460823596672 0 -0.37668454372729859 0.41206883315114529 0 -0.37668454372729859 0.41206883315114529 0 -0.37844474563582792 0.390355182046278 0 -0.39076978830337122 0.39764902138512792 0 -0.40157856791931718 0.40704460823596672 0 -0.37668454372729859 0.41206883315114529 0 -0.39076978830337122 0.39764902138512792 0 -0.38141148745950948 0.38039780936179463 0 -0.39942805555404642 0.38265078761847338 0 -0.37844474563582792 0.390355182046278 0 -0.39942805555404642 0.38265078761847338 0 -0.38141148745950948 0.38039780936179463 0 -0.37844474563582792 0.390355182046278 0 -0.39942805555404642 0.38265078761847338 0 -0.37844474563582792 0.390355182046278 0 -0.39942805555404642 0.38265078761847338 0 -0.39076978830337122 0.39764902138512792 0 -0.38141148745950948 0.38039780936179463 0 -0.39942805555404642 0.38265078761847338 0 -0.39128338495032239 0.36719877308275878 0 -0.40826438028753348 0.3817067557430866 0 -0.40881671944059661 0.37920357314115732 0 -0.39942805555404642 0.38265078761847338 0 -0.40881671944059661 0.37920357314115732 0 -0.39942805555404642 0.38265078761847338 0 -0.40724106840129259 0.39428871981441299 0 -0.40157856791931718 0.40704460823596672 0 -0.39076978830337122 0.39764902138512792 0 -0.40724106840129259 0.39428871981441299 0 -0.39942805555404642 0.38265078761847338 0 -0.39076978830337122 0.39764902138512792 0 -0.39259889148010241 0.34864188780489069 0 -0.39999637464883392 0.35559476271013252 0 -0.38966798311544332 0.35610238881872369 0 -0.39259889148010241 0.34864188780489069 0 -0.39999637464883392 0.35559476271013252 0 -0.40046159691170069 0.34164056661102238 0 -0.39999637464883392 0.35559476271013252 0 -0.40046159691170069 0.34164056661102238 0 -0.41381361947694889 0.35655778899711688 0 -0.39999637464883392 0.35559476271013252 0 -0.40397412088998857 0.3623881668075713 0 -0.41381361947694889 0.35655778899711688 0 -0.39128338495032239 0.36719877308275878 0 -0.41098055992701871 0.3693971202961519 0 -0.40397412088998857 0.3623881668075713 0 -0.39128338495032239 0.36719877308275878 0 -0.41098055992701871 0.3693971202961519 0 -0.39942805555404642 0.38265078761847338 0 -0.39128338495032239 0.36719877308275878 0 -0.41098055992701871 0.3693971202961519 0 -0.39999637464883392 0.35559476271013252 0 -0.39128338495032239 0.36719877308275878 0 -0.38966798311544332 0.35610238881872369 0 -0.39999637464883392 0.35559476271013252 0 -0.40397412088998857 0.3623881668075713 0 -0.39128338495032239 0.36719877308275878 0 -0.39128338495032239 0.36719877308275878 0 -0.38070440212728118 0.35956436367519867 0 -0.38966798311544332 0.35610238881872369 0 -0.39128338495032239 0.36719877308275878 0 -0.38070440212728118 0.35956436367519867 0 -0.37158620997362618 0.36500042586936587 0 -0.39128338495032239 0.36719877308275878 0 -0.37158620997362618 0.36500042586936587 0 -0.38141148745950948 0.38039780936179463 0 -0.39128338495032239 0.36719877308275878 0 -0.37158620997362618 0.36500042586936587 0 -0.38070440212728118 0.35956436367519867 0 -0.38259242285128608 0.34975193996759602 0 -0.36960199921418602 0.35731180584905542 0 -0.38259242285128608 0.34975193996759602 0 -0.37580907906339922 0.33647878059299557 0 -0.36960199921418602 0.35731180584905542 0 -0.38070440212728118 0.35956436367519867 0 -0.38966798311544332 0.35610238881872369 0 -0.38259242285128608 0.34975193996759602 0 -0.39259889148010241 0.34864188780489069 0 -0.38966798311544332 0.35610238881872369 0 -0.38259242285128608 0.34975193996759602 0 -0.39259889148010241 0.34864188780489069 0 -0.38259242285128608 0.34975193996759602 0 -0.38794720083446621 0.34059934721089508 0 -0.38259242285128608 0.34975193996759602 0 -0.37580907906339922 0.33647878059299557 0 -0.38794720083446621 0.34059934721089508 0 -0.37580907906339922 0.33647878059299557 0 -0.38794720083446621 0.34059934721089508 0 -0.38710957434645199 0.32672334422492838 0 -0.37580907906339922 0.33647878059299557 0 -0.38201615891261242 0.31564575533693578 0 -0.38201615891261242 0.31564575533693578 0 -0.38336946241093189 0.30974931290420182 0 -0.36531193472093021 0.32454274932608829 0 -0.37580907906339922 0.33647878059299557 0 -0.38201615891261242 0.31564575533693578 0 -0.38710957434645199 0.32672334422492838 0 -0.38201615891261242 0.31564575533693578 0 -0.39350880394476312 0.31593875705230262 0 -0.38336946241093189 0.30974931290420182 0 -0.38201615891261242 0.31564575533693578 0 -0.38710957434645199 0.32672334422492838 0 -0.39350880394476312 0.31593875705230262 0 -0.38710957434645199 0.32672334422492838 0 -0.39350880394476312 0.31593875705230262 0 -0.39921774374196328 0.327754485124091 0 -0.39350880394476312 0.31593875705230262 0 -0.39921774374196328 0.327754485124091 0 -0.40602554896887638 0.32011992980008452 0 -0.39921774374196328 0.327754485124091 0 -0.40602554896887638 0.32011992980008452 0 -0.40814721749945931 0.33505042297199122 0 -0.38794720083446621 0.34059934721089508 0 -0.38710957434645199 0.32672334422492838 0 -0.40046159691170069 0.34164056661102238 0 -0.39259889148010241 0.34864188780489069 0 -0.38794720083446621 0.34059934721089508 0 -0.40046159691170069 0.34164056661102238 0 -0.38710957434645199 0.32672334422492838 0 -0.39921774374196328 0.327754485124091 0 -0.40046159691170069 0.34164056661102238 0 -0.38710957434645199 0.32672334422492838 0 -0.40046159691170069 0.34164056661102238 0 -0.39921774374196328 0.327754485124091 0 -0.40046159691170069 0.34164056661102238 0 -0.40814721749945931 0.33505042297199122 0 -0.40814721749945931 0.33505042297199122 0 -0.41954562432067788 0.33058053440738988 0 -0.41381361947694889 0.35655778899711688 0 -0.41954562432067788 0.33058053440738988 0 -0.41381361947694889 0.35655778899711688 0 -0.40602554896887638 0.32011992980008452 0 -0.40814721749945931 0.33505042297199122 0 -0.41954562432067788 0.33058053440738988 0 -0.40602554896887638 0.32011992980008452 0 -0.41954562432067788 0.33058053440738988 0 -0.42527762916440792 0.30460327981766322 0 -0.41954562432067788 0.33058053440738988 0 -0.42527762916440792 0.30460327981766322 0 -0.41954562432067788 0.33058053440738988 0 -0.44001701522470671 0.31606260091672289 0 -0.42527762916440792 0.30460327981766322 0 -0.41954562432067788 0.33058053440738988 0 -0.42420657124029282 0.3485159257420361 0 -0.43843079740841773 0.33787066219507811 0 -0.41954562432067788 0.33058053440738988 0 -0.43843079740841773 0.33787066219507811 0 -0.44001701522470671 0.31606260091672289 0 -0.42420657124029282 0.3485159257420361 0 -0.43459164588172849 0.36007712215754689 0 -0.43843079740841773 0.33787066219507811 0 -0.42420657124029282 0.3485159257420361 0 -0.41381361947694889 0.35655778899711688 0 -0.43459164588172849 0.36007712215754689 0 -0.41381361947694889 0.35655778899711688 0 -0.43459164588172849 0.36007712215754689 0 -0.43459164588172849 0.36007712215754689 0 -0.43843079740841773 0.33787066219507811 0 -0.40046159691170069 0.34164056661102238 0 -0.40814721749945931 0.33505042297199122 0 -0.41381361947694889 0.35655778899711688 0 -0.41954562432067788 0.33058053440738988 0 -0.42420657124029282 0.3485159257420361 0 -0.41381361947694889 0.35655778899711688 0 -0.39999637464883392 0.35559476271013252 0 -0.41381361947694889 0.35655778899711688 0 -0.40046159691170069 0.34164056661102238 0 -0.41381361947694889 0.35655778899711688 0 -0.41381361947694889 0.35655778899711688 0 -0.41098055992701871 0.3693971202961519 0 -0.42689564018809201 0.37117335838025439 0 -0.41098055992701871 0.3693971202961519 0 -0.42689564018809201 0.37117335838025439 0 -0.40881671944059661 0.37920357314115732 0 -0.41098055992701871 0.3693971202961519 0 -0.42689564018809201 0.37117335838025439 0 -0.40881671944059661 0.37920357314115732 0 -0.41098055992701871 0.3693971202961519 0 -0.40397412088998857 0.3623881668075713 0 -0.41381361947694889 0.35655778899711688 0 -0.41098055992701871 0.3693971202961519 0 -0.41381361947694889 0.35655778899711688 0 -0.41098055992701871 0.3693971202961519 0 -0.41381361947694889 0.35655778899711688 0 -0.42689564018809201 0.37117335838025439 0 -0.41381361947694889 0.35655778899711688 0 -0.42907199843085347 0.36486274908666949 0 -0.43459164588172849 0.36007712215754689 0 -0.42689564018809201 0.37117335838025439 0 -0.42907199843085347 0.36486274908666949 0 -0.42980351636605002 0.37149789839679431 0 -0.43173797726570751 0.37658334167695551 0 -0.42689564018809201 0.37117335838025439 0 -0.43173797726570751 0.37658334167695551 0 -0.42689564018809201 0.37117335838025439 0 -0.42980351636605002 0.37149789839679431 0 -0.42689564018809201 0.37117335838025439 0 -0.42980351636605002 0.37149789839679431 0 -0.41381361947694889 0.35655778899711688 0 -0.42689564018809201 0.37117335838025439 0 -0.42907199843085347 0.36486274908666949 0 -0.43459164588172849 0.36007712215754689 0 -0.4325639091043616 0.37180597819459837 0 -0.42907199843085347 0.36486274908666949 0 -0.43459164588172849 0.36007712215754689 0 -0.4325639091043616 0.37180597819459837 0 -0.43173797726570751 0.37658334167695551 0 -0.4325639091043616 0.37180597819459837 0 -0.43173797726570751 0.37658334167695551 0 -0.4325639091043616 0.37180597819459837 0 -0.42980351636605002 0.37149789839679431 0 -0.4325639091043616 0.37180597819459837 0 -0.42980351636605002 0.37149789839679431 0 -0.42907199843085347 0.36486274908666949 0 -0.4325639091043616 0.37180597819459837 0 -0.42980351636605002 0.37149789839679431 0 -0.4393591315165738 0.37762743775392832 0 -0.4325639091043616 0.37180597819459837 0 -0.44813402172652672 0.37354371539476261 0 -0.4325639091043616 0.37180597819459837 0 -0.44813402172652672 0.37354371539476261 0 -0.4325639091043616 0.37180597819459837 0 -0.44813402172652672 0.37354371539476261 0 -0.45404419213644692 0.3625975043188554 0 -0.43459164588172849 0.36007712215754689 0 -0.45404419213644692 0.3625975043188554 0 -0.43459164588172849 0.36007712215754689 0 -0.4325639091043616 0.37180597819459837 0 -0.45404419213644692 0.3625975043188554 0 -0.4325639091043616 0.37180597819459837 0 -0.45404419213644692 0.3625975043188554 0 -0.43459164588172849 0.36007712215754689 0 -0.44549025602952702 0.35300777224981977 0 -0.45404419213644692 0.3625975043188554 0 -0.44549025602952702 0.35300777224981977 0 -0.45575207180717081 0.34762579988211101 0 -0.43843079740841773 0.33787066219507811 0 -0.43459164588172849 0.36007712215754689 0 -0.44549025602952702 0.35300777224981977 0 -0.43843079740841773 0.33787066219507811 0 -0.44549025602952702 0.35300777224981977 0 -0.45575207180717081 0.34762579988211101 0 -0.45404419213644692 0.3625975043188554 0 -0.45575207180717081 0.34762579988211101 0 -0.46674234051517471 0.35793515390827568 0 -0.45404419213644692 0.3625975043188554 0 -0.45575207180717081 0.34762579988211101 0 -0.46674234051517471 0.35793515390827568 0 -0.46933267881425472 0.34565439271282838 0 -0.45404419213644692 0.3625975043188554 0 -0.47441064506165659 0.36523629740895902 0 -0.46674234051517471 0.35793515390827568 0 -0.45404419213644692 0.3625975043188554 0 -0.47441064506165659 0.36523629740895902 0 -0.45404419213644692 0.3625975043188554 0 -0.46360543106569913 0.37231654924431878 0 -0.47441064506165659 0.36523629740895902 0 -0.44813402172652672 0.37354371539476261 0 -0.45404419213644692 0.3625975043188554 0 -0.46360543106569913 0.37231654924431878 0 -0.46674234051517471 0.35793515390827568 0 -0.45404419213644692 0.3625975043188554 0 -0.46360543106569913 0.37231654924431878 0 -0.47397397291215421 0.37493689296344251 0 -0.47441064506165659 0.36523629740895902 0 -0.47441064506165659 0.36523629740895902 0 -0.48058358620238051 0.35168401037216412 0 -0.49477709798686631 0.36787509049906381 0 -0.47397397291215421 0.37493689296344251 0 -0.47441064506165659 0.36523629740895902 0 -0.48714178473823078 0.37241716516273898 0 -0.46674234051517471 0.35793515390827568 0 -0.47441064506165659 0.36523629740895902 0 -0.48058358620238051 0.35168401037216412 0 -0.46674234051517471 0.35793515390827568 0 -0.46933267881425472 0.34565439271282838 0 -0.48058358620238051 0.35168401037216412 0 -0.46933267881425472 0.34565439271282838 0 -0.48058358620238051 0.35168401037216412 0 -0.48121002056386808 0.3369363626790518 0 -0.48058358620238051 0.35168401037216412 0 -0.49703354506598713 0.34759711953555122 0 -0.48121002056386808 0.3369363626790518 0 -0.49703354506598713 0.34759711953555122 0 -0.5 0.34812631329607491 0 -0.49477709798686631 0.36787509049906381 0 -0.48058358620238051 0.35168401037216412 0 -0.49703354506598713 0.34759711953555122 0 -0.49477709798686631 0.36787509049906381 0 -0.49703354506598713 0.34759711953555122 0 -0.49477709798686631 0.36787509049906381 0 -0.5 0.34812631329607491 0 -0.50000000000000311 0.3685517992903854 0 -0.49477709798686631 0.36787509049906381 0 -0.47441064506165659 0.36523629740895902 0 -0.49477709798686631 0.36787509049906381 0 -0.48714178473823078 0.37241716516273898 0 -0.47441064506165659 0.36523629740895902 0 -0.49477709798686631 0.36787509049906381 0 -0.49007778645481631 0.38142997617552599 0 -0.50000000000000311 0.3685517992903854 0 -0.49477709798686631 0.36787509049906381 0 -0.50000000000000311 0.3685517992903854 0 -0.49477709798686631 0.36787509049906381 0 -0.49007778645481631 0.38142997617552599 0 -0.49477709798686631 0.36787509049906381 0 -0.48714178473823078 0.37241716516273898 0 -0.4992899921451075 0.32731914857203848 0 -0.47890896772952718 0.31636292681222472 0 -0.4992899921451075 0.32731914857203848 0 -0.48121002056386808 0.3369363626790518 0 -0.47890896772952718 0.31636292681222472 0 -0.49999999999999989 0.32093853419885771 0 -0.47890896772952718 0.31636292681222472 0 -0.48920120729889771 0.30786362236022019 0 -0.49999999999999989 0.32093853419885771 0 -0.4992899921451075 0.32731914857203848 0 -0.47890896772952718 0.31636292681222472 0 -0.49999999999999989 0.32093853419885771 0 -0.4992899921451075 0.32731914857203848 0 -0.49703354506598713 0.34759711953555122 0 -0.4992899921451075 0.32731914857203848 0 -0.49703354506598713 0.34759711953555122 0 -0.4992899921451075 0.32731914857203848 0 -0.48121002056386808 0.3369363626790518 0 -0.49703354506598713 0.34759711953555122 0 -0.5 0.34812631329607491 0 -0.4992899921451075 0.32731914857203848 0 -0.46933267881425472 0.34565439271282838 0 -0.48121002056386808 0.3369363626790518 0 -0.46237537498267961 0.3340906367225393 0 -0.48121002056386808 0.3369363626790518 0 -0.47890896772952718 0.31636292681222472 0 -0.46237537498267961 0.3340906367225393 0 -0.47890896772952718 0.31636292681222472 0 -0.45636509730576869 0.32029680939338251 0 -0.45852794331394758 0.30540670505240958 0 -0.47890896772952718 0.31636292681222472 0 -0.45636509730576869 0.32029680939338251 0 -0.46237537498267961 0.3340906367225393 0 -0.45575207180717081 0.34762579988211101 0 -0.46933267881425472 0.34565439271282838 0 -0.46237537498267961 0.3340906367225393 0 -0.45575207180717081 0.34762579988211101 0 -0.46237537498267961 0.3340906367225393 0 -0.43843079740841773 0.33787066219507811 0 -0.45636509730576869 0.32029680939338251 0 -0.46237537498267961 0.3340906367225393 0 -0.43843079740841773 0.33787066219507811 0 -0.45636509730576869 0.32029680939338251 0 -0.43843079740841773 0.33787066219507811 0 -0.44001701522470671 0.31606260091672289 0 -0.45636509730576869 0.32029680939338251 0 -0.44001701522470671 0.31606260091672289 0 -0.45852794331394758 0.30540670505240958 0 -0.4381469188983681 0.2944504832925946 0 -0.45852794331394758 0.30540670505240958 0 -0.44001701522470671 0.31606260091672289 0 -0.4381469188983681 0.2944504832925946 0 -0.45852794331394758 0.30540670505240958 0 -0.4381469188983681 0.2944504832925946 0 -0.4447805513699985 0.27737231294201392 0 -0.43100963400813791 0.27862602522793672 0 -0.4381469188983681 0.2944504832925946 0 -0.45724976864254441 0.28334965182257721 0 -0.4447805513699985 0.27737231294201392 0 -0.4381469188983681 0.2944504832925946 0 -0.45724976864254441 0.28334965182257721 0 -0.45852794331394758 0.30540670505240958 0 -0.45724976864254441 0.28334965182257721 0 -0.45852794331394758 0.30540670505240958 0 -0.47789586146606378 0.29814868652574811 0 -0.47890896772952718 0.31636292681222472 0 -0.45852794331394758 0.30540670505240958 0 -0.47890896772952718 0.31636292681222472 0 -0.47789586146606378 0.29814868652574811 0 -0.48920120729889771 0.30786362236022019 0 -0.47890896772952718 0.31636292681222472 0 -0.45852794331394758 0.30540670505240958 0 -0.47789586146606378 0.29814868652574811 0 -0.45724976864254441 0.28334965182257721 0 -0.47789586146606378 0.29814868652574811 0 -0.48102565218130672 0.27929705551177292 0 -0.5 0.29600434190405073 0 -0.5 0.27107014960924369 0 -0.48102565218130672 0.27929705551177292 0 -0.47789586146606378 0.29814868652574811 0 -0.5 0.29600434190405073 0 -0.48102565218130672 0.27929705551177292 0 -0.47789586146606378 0.29814868652574811 0 -0.5 0.29600434190405073 0 -0.48920120729889771 0.30786362236022019 0 -0.49999999999999989 0.32093853419885771 0 -0.5 0.29600434190405073 0 -0.48920120729889771 0.30786362236022019 0 -0.48177750529808522 0.24619974485466931 0 -0.5 0.2461359573144368 0 -0.48654709528280549 0.26072196503438649 0 -0.5 0.2461359573144368 0 -0.48654709528280549 0.26072196503438649 0 -0.5 0.27107014960924369 0 -0.48654709528280549 0.26072196503438649 0 -0.5 0.27107014960924369 0 -0.48102565218130672 0.27929705551177292 0 -0.48654709528280549 0.26072196503438649 0 -0.48102565218130672 0.27929705551177292 0 -0.46993231893463527 0.26090691788180947 0 -0.45724976864254441 0.28334965182257721 0 -0.48102565218130672 0.27929705551177292 0 -0.46993231893463527 0.26090691788180947 0 -0.48177750529808522 0.24619974485466931 0 -0.48654709528280549 0.26072196503438649 0 -0.46993231893463527 0.26090691788180947 0 -0.45710504060219709 0.23686107433279269 0 -0.46993231893463527 0.26090691788180947 0 -0.44707755271196942 0.2637365605125353 0 -0.45724976864254441 0.28334965182257721 0 -0.46993231893463527 0.26090691788180947 0 -0.44707755271196942 0.2637365605125353 0 -0.45724976864254441 0.28334965182257721 0 -0.4447805513699985 0.27737231294201392 0 -0.44707755271196942 0.2637365605125353 0 -0.4447805513699985 0.27737231294201392 0 -0.44707755271196942 0.2637365605125353 0 -0.43100963400813791 0.27862602522793672 0 -0.45710504060219709 0.23686107433279269 0 -0.44707755271196942 0.2637365605125353 0 -0.44707755271196942 0.2637365605125353 0 -0.4367416388518679 0.25264877063821017 0 -0.43100963400813791 0.27862602522793672 0 -0.45710504060219709 0.23686107433279269 0 -0.44707755271196942 0.2637365605125353 0 -0.4367416388518679 0.25264877063821017 0 -0.4367416388518679 0.25264877063821017 0 -0.41175872593851298 0.2549478601346914 0 -0.41885046316002428 0.26850948483906401 0 -0.41175872593851298 0.2549478601346914 0 -0.41885046316002428 0.26850948483906401 0 -0.3976364837244763 0.27421361628784369 0 -0.41885046316002428 0.26850948483906401 0 -0.41710583327712653 0.28211115190663788 0 -0.3976364837244763 0.27421361628784369 0 -0.41885046316002428 0.26850948483906401 0 -0.43100963400813791 0.27862602522793672 0 -0.41710583327712653 0.28211115190663788 0 -0.4367416388518679 0.25264877063821017 0 -0.43100963400813791 0.27862602522793672 0 -0.4367416388518679 0.25264877063821017 0 -0.41885046316002428 0.26850948483906401 0 -0.43100963400813791 0.27862602522793672 0 -0.4381469188983681 0.2944504832925946 0 -0.43100963400813791 0.27862602522793672 0 -0.42527762916440792 0.30460327981766322 0 -0.43100963400813791 0.27862602522793672 0 -0.42527762916440792 0.30460327981766322 0 -0.41710583327712653 0.28211115190663788 0 -0.43100963400813791 0.27862602522793672 0 -0.42527762916440792 0.30460327981766322 0 -0.44001701522470671 0.31606260091672289 0 -0.4381469188983681 0.2944504832925946 0 -0.42527762916440792 0.30460327981766322 0 -0.40602554896887638 0.32011992980008452 0 -0.42527762916440792 0.30460327981766322 0 -0.4014269901009333 0.29495587648231503 0 -0.41710583327712653 0.28211115190663788 0 -0.4014269901009333 0.29495587648231503 0 -0.42527762916440792 0.30460327981766322 0 -0.41710583327712653 0.28211115190663788 0 -0.4014269901009333 0.29495587648231503 0 -0.41710583327712653 0.28211115190663788 0 -0.4014269901009333 0.29495587648231503 0 -0.3976364837244763 0.27421361628784369 0 -0.4014269901009333 0.29495587648231503 0 -0.38389766901197209 0.2919764357376447 0 -0.3976364837244763 0.27421361628784369 0 -0.4014269901009333 0.29495587648231503 0 -0.3976364837244763 0.27421361628784369 0 -0.39350880394476312 0.31593875705230262 0 -0.40602554896887638 0.32011992980008452 0 -0.4014269901009333 0.29495587648231503 0 -0.4014269901009333 0.29495587648231503 0 -0.38336946241093189 0.30974931290420182 0 -0.40602554896887638 0.32011992980008452 0 -0.4014269901009333 0.29495587648231503 0 -0.39350880394476312 0.31593875705230262 0 -0.4014269901009333 0.29495587648231503 0 -0.38336946241093189 0.30974931290420182 0 -0.38336946241093189 0.30974931290420182 0 -0.38389766901197209 0.2919764357376447 0 -0.36596935852520629 0.30787018431111951 0 -0.4014269901009333 0.29495587648231503 0 -0.38336946241093189 0.30974931290420182 0 -0.38389766901197209 0.2919764357376447 0 -0.38389766901197209 0.2919764357376447 0 -0.3839238193794226 0.27871888045260418 0 -0.3976364837244763 0.27421361628784369 0 -0.38389766901197209 0.2919764357376447 0 -0.3839238193794226 0.27871888045260418 0 -0.3703732677084236 0.2804332674389724 0 -0.3839238193794226 0.27871888045260418 0 -0.38378785707281859 0.2682522023459562 0 -0.3703732677084236 0.2804332674389724 0 -0.38378785707281859 0.2682522023459562 0 -0.37477717689163992 0.25299635056682518 0 -0.3703732677084236 0.2804332674389724 0 -0.3839238193794226 0.27871888045260418 0 -0.38378785707281859 0.2682522023459562 0 -0.3976364837244763 0.27421361628784369 0 -0.38378785707281859 0.2682522023459562 0 -0.39384597734802013 0.25347135609337229 0 -0.37477717689163992 0.25299635056682518 0 -0.39384597734802013 0.25347135609337229 0 -0.3976364837244763 0.27421361628784369 0 -0.41175872593851298 0.2549478601346914 0 -0.39384597734802013 0.25347135609337229 0 -0.3976364837244763 0.27421361628784369 0 -0.38378785707281859 0.2682522023459562 0 -0.39384597734802013 0.25347135609337229 0 -0.3976364837244763 0.27421361628784369 0 -0.35834524103505527 0.27479395617319979 0 -0.34490227433735798 0.27909378963084902 0 -0.35045174428906722 0.28677843618767362 0 -0.35834524103505527 0.27479395617319979 0 -0.34490227433735798 0.27909378963084902 0 -0.34728570068091402 0.2661688508290645 0 -0.34728570068091402 0.2661688508290645 0 -0.35464358931248319 0.25491115920099722 0 -0.34150965816976359 0.25817059719828012 0 -0.33845336435013867 0.242079554605789 0 -0.35464358931248319 0.25491115920099722 0 -0.34150965816976359 0.25817059719828012 0 -0.35834524103505527 0.27479395617319979 0 -0.34728570068091402 0.2661688508290645 0 -0.35464358931248319 0.25491115920099722 0 -0.35834524103505527 0.27479395617319979 0 -0.37477717689163992 0.25299635056682518 0 -0.35834524103505527 0.27479395617319979 0 -0.35464358931248319 0.25491115920099722 0 -0.37477717689163992 0.25299635056682518 0 -0.37477717689163992 0.25299635056682518 0 -0.3703732677084236 0.2804332674389724 0 -0.35834524103505527 0.27479395617319979 0 -0.37477717689163992 0.25299635056682518 0 -0.3703732677084236 0.2804332674389724 0 -0.3703732677084236 0.2804332674389724 0 -0.36596935852520629 0.30787018431111951 0 -0.38389766901197209 0.2919764357376447 0 -0.3703732677084236 0.2804332674389724 0 -0.36596935852520629 0.30787018431111951 0 -0.35834524103505527 0.27479395617319979 0 -0.3703732677084236 0.2804332674389724 0 -0.35925388220638338 0.290827281626163 0 -0.3703732677084236 0.2804332674389724 0 -0.36596935852520629 0.30787018431111951 0 -0.35925388220638338 0.290827281626163 0 -0.36596935852520629 0.30787018431111951 0 -0.35645499353340299 0.30154574554434233 0 -0.35925388220638338 0.290827281626163 0 -0.36596935852520629 0.30787018431111951 0 -0.35645499353340299 0.30154574554434233 0 -0.35774913989266272 0.31391262040183171 0 -0.35645499353340299 0.30154574554434233 0 -0.35013945535461871 0.3105838988596446 0 -0.35774913989266272 0.31391262040183171 0 -0.35645499353340299 0.30154574554434233 0 -0.34780240298166087 0.30288468022079579 0 -0.35285886900803182 0.29452238055293539 0 -0.34780240298166087 0.30288468022079579 0 -0.34622635383862083 0.29383585221412489 0 -0.33932813284697128 0.29730713825443927 0 -0.34780240298166087 0.30288468022079579 0 -0.35285886900803182 0.29452238055293539 0 -0.34622635383862083 0.29383585221412489 0 -0.34780240298166087 0.30288468022079579 0 -0.34514961405368982 0.30758965292055213 0 -0.33997231501418312 0.30473657218964828 0 -0.35645499353340299 0.30154574554434233 0 -0.34780240298166087 0.30288468022079579 0 -0.35013945535461871 0.3105838988596446 0 -0.34780240298166087 0.30288468022079579 0 -0.34514961405368982 0.30758965292055213 0 -0.35013945535461871 0.3105838988596446 0 -0.34514961405368982 0.30758965292055213 0 -0.35013945535461871 0.3105838988596446 0 -0.34268428286429659 0.31215346041211978 0 -0.35834524103505527 0.27479395617319979 0 -0.35925388220638338 0.290827281626163 0 -0.35045174428906722 0.28677843618767362 0 -0.35645499353340299 0.30154574554434233 0 -0.35925388220638338 0.290827281626163 0 -0.35285886900803182 0.29452238055293539 0 -0.35925388220638338 0.290827281626163 0 -0.35285886900803182 0.29452238055293539 0 -0.35045174428906722 0.28677843618767362 0 -0.35285886900803182 0.29452238055293539 0 -0.34622635383862083 0.29383585221412489 0 -0.35045174428906722 0.28677843618767362 0 -0.34622635383862083 0.29383585221412489 0 -0.35045174428906722 0.28677843618767362 0 -0.34088660642111013 0.2879281286912172 0 -0.34490227433735798 0.27909378963084902 0 -0.35045174428906722 0.28677843618767362 0 -0.34088660642111013 0.2879281286912172 0 -0.34490227433735798 0.27909378963084902 0 -0.34088660642111013 0.2879281286912172 0 -0.33262910378125132 0.278293493462413 0 -0.34088660642111013 0.2879281286912172 0 -0.33227483086849752 0.29261385498347509 0 -0.33932813284697128 0.29730713825443927 0 -0.34622635383862083 0.29383585221412489 0 -0.34088660642111013 0.2879281286912172 0 -0.33932813284697128 0.29730713825443927 0 -0.33227483086849752 0.29261385498347509 0 -0.32398535199451511 0.28524421774589648 0 -0.33262910378125132 0.278293493462413 0 -0.34088660642111013 0.2879281286912172 0 -0.33227483086849752 0.29261385498347509 0 -0.33262910378125132 0.278293493462413 0 -0.33718535734333338 0.30882123026638569 0 -0.34268428286429659 0.31215346041211978 0 -0.33477104767585758 0.31524888829805342 0 -0.33718535734333338 0.30882123026638569 0 -0.34268428286429659 0.31215346041211978 0 -0.33997231501418312 0.30473657218964828 0 -0.34514961405368982 0.30758965292055213 0 -0.34268428286429659 0.31215346041211978 0 -0.33997231501418312 0.30473657218964828 0 -0.33718535734333338 0.30882123026638569 0 -0.33997231501418312 0.30473657218964828 0 -0.33396296217470239 0.30554582684384218 0 -0.33997231501418312 0.30473657218964828 0 -0.33932813284697128 0.29730713825443927 0 -0.33396296217470239 0.30554582684384218 0 -0.34780240298166087 0.30288468022079579 0 -0.33997231501418312 0.30473657218964828 0 -0.33932813284697128 0.29730713825443927 0 -0.33227483086849752 0.29261385498347509 0 -0.33396296217470239 0.30554582684384218 0 -0.32251037119006698 0.3031431883822347 0 -0.33227483086849752 0.29261385498347509 0 -0.33932813284697128 0.29730713825443927 0 -0.33396296217470239 0.30554582684384218 0 -0.33718535734333338 0.30882123026638569 0 -0.33396296217470239 0.30554582684384218 0 -0.33477104767585758 0.31524888829805342 0 -0.33396296217470239 0.30554582684384218 0 -0.32251037119006698 0.3031431883822347 0 -0.33219148171911272 0.31730370811833031 0 -0.32251037119006698 0.3031431883822347 0 -0.31456388983813333 0.31636814557902659 0 -0.33219148171911272 0.31730370811833031 0 -0.32251037119006698 0.3031431883822347 0 -0.31282926066102218 0.28898266864613842 0 -0.30402337591517081 0.3051012194244167 0 -0.32251037119006698 0.3031431883822347 0 -0.30402337591517081 0.3051012194244167 0 -0.31456388983813333 0.31636814557902659 0 -0.32251037119006698 0.3031431883822347 0 -0.33219148171911272 0.31730370811833031 0 -0.33227483086849752 0.29261385498347509 0 -0.32251037119006698 0.3031431883822347 0 -0.32398535199451511 0.28524421774589648 0 -0.32251037119006698 0.3031431883822347 0 -0.32398535199451511 0.28524421774589648 0 -0.31282926066102218 0.28898266864613842 0 -0.32251037119006698 0.3031431883822347 0 -0.31282926066102218 0.28898266864613842 0 -0.31282926066102218 0.28898266864613842 0 -0.32065101258715689 0.274665503564473 0 -0.32398535199451511 0.28524421774589648 0 -0.31282926066102218 0.28898266864613842 0 -0.32065101258715689 0.274665503564473 0 -0.32065101258715689 0.274665503564473 0 -0.32847276451329022 0.26034833848280681 0 -0.31199410965335322 0.26463258327439948 0 -0.32065101258715689 0.274665503564473 0 -0.33262910378125132 0.278293493462413 0 -0.32847276451329022 0.26034833848280681 0 -0.31282926066102218 0.28898266864613842 0 -0.32065101258715689 0.274665503564473 0 -0.30403346053568642 0.27611708872161922 0 -0.32065101258715689 0.274665503564473 0 -0.32847276451329022 0.26034833848280681 0 -0.32398535199451511 0.28524421774589648 0 -0.32065101258715689 0.274665503564473 0 -0.33262910378125132 0.278293493462413 0 -0.33262910378125132 0.278293493462413 0 -0.33869287199199061 0.26734508287274228 0 -0.32847276451329022 0.26034833848280681 0 -0.34490227433735798 0.27909378963084902 0 -0.34728570068091402 0.2661688508290645 0 -0.33869287199199061 0.26734508287274228 0 -0.34490227433735798 0.27909378963084902 0 -0.33262910378125132 0.278293493462413 0 -0.33869287199199061 0.26734508287274228 0 -0.33845336435013867 0.242079554605789 0 -0.34150965816976359 0.25817059719828012 0 -0.32847276451329022 0.26034833848280681 0 -0.33845336435013867 0.242079554605789 0 -0.32847276451329022 0.26034833848280681 0 -0.34728570068091402 0.2661688508290645 0 -0.33869287199199061 0.26734508287274228 0 -0.34150965816976359 0.25817059719828012 0 -0.33869287199199061 0.26734508287274228 0 -0.34150965816976359 0.25817059719828012 0 -0.32847276451329022 0.26034833848280681 0 -0.33869287199199061 0.26734508287274228 0 -0.32847276451329022 0.26034833848280681 0 -0.311575650220281 0.24878047680599949 0 -0.32847276451329022 0.26034833848280681 0 -0.311575650220281 0.24878047680599949 0 -0.32847276451329022 0.26034833848280681 0 -0.31199410965335322 0.26463258327439948 0 -0.32455092720978362 0.24357057421839101 0 -0.311575650220281 0.24878047680599949 0 -0.32847276451329022 0.26034833848280681 0 -0.311575650220281 0.24878047680599949 0 -0.31199410965335322 0.26463258327439948 0 -0.29523766041035199 0.26325150879709891 0 -0.30403346053568642 0.27611708872161922 0 -0.29523766041035199 0.26325150879709891 0 -0.29574151564778611 0.28671646758259889 0 -0.31199410965335322 0.26463258327439948 0 -0.30403346053568642 0.27611708872161922 0 -0.29523766041035199 0.26325150879709891 0 -0.32065101258715689 0.274665503564473 0 -0.31199410965335322 0.26463258327439948 0 -0.30403346053568642 0.27611708872161922 0 -0.30403346053568642 0.27611708872161922 0 -0.29523766041035199 0.26325150879709891 0 -0.28985028671148488 0.25537141990030859 0 -0.26863301980023729 0.26794771562718522 0 -0.28534189936007232 0.28197220440765719 0 -0.29523766041035199 0.26325150879709891 0 -0.29574151564778611 0.28671646758259889 0 -0.29523766041035199 0.26325150879709891 0 -0.29574151564778611 0.28671646758259889 0 -0.28534189936007232 0.28197220440765719 0 -0.28985028671148488 0.25537141990030859 0 -0.29523766041035199 0.26325150879709891 0 -0.28534189936007232 0.28197220440765719 0 -0.28985028671148488 0.25537141990030859 0 -0.28534189936007232 0.28197220440765719 0 -0.29467853592727078 0.23721261512919359 0 -0.29523766041035199 0.26325150879709891 0 -0.29467853592727078 0.23721261512919359 0 -0.28985028671148488 0.25537141990030859 0 -0.29523766041035199 0.26325150879709891 0 -0.28985028671148488 0.25537141990030859 0 -0.29523766041035199 0.26325150879709891 0 -0.28985028671148488 0.25537141990030859 0 -0.2724296921133022 0.25217156250687062 0 -0.26863301980023729 0.26794771562718522 0 -0.2724296921133022 0.25217156250687062 0 -0.26863301980023729 0.26794771562718522 0 -0.25693865295534157 0.25278860643768353 0 -0.26863301980023729 0.26794771562718522 0 -0.26277913973510902 0.29023342414179659 0 -0.28534189936007232 0.28197220440765719 0 -0.26277913973510902 0.29023342414179659 0 -0.2447247674615598 0.2718938593685879 0 -0.26863301980023729 0.26794771562718522 0 -0.26277913973510902 0.29023342414179659 0 -0.2447247674615598 0.2718938593685879 0 -0.26863301980023729 0.26794771562718522 0 -0.25693865295534157 0.25278860643768353 0 -0.2447247674615598 0.2718938593685879 0 -0.26277913973510902 0.29023342414179659 0 -0.25757488899104952 0.31786411623381933 0 -0.2366570207200871 0.30010935915934539 0 -0.26277913973510902 0.29023342414179659 0 -0.28083351200865853 0.30857298891500562 0 -0.28534189936007232 0.28197220440765719 0 -0.26277913973510902 0.29023342414179659 0 -0.28083351200865853 0.30857298891500562 0 -0.26277913973510902 0.29023342414179659 0 -0.28083351200865853 0.30857298891500562 0 -0.25757488899104952 0.31786411623381933 0 -0.28083351200865853 0.30857298891500562 0 -0.29574151564778611 0.28671646758259889 0 -0.30402337591517081 0.3051012194244167 0 -0.28083351200865853 0.30857298891500562 0 -0.29574151564778611 0.28671646758259889 0 -0.28534189936007232 0.28197220440765719 0 -0.28083351200865853 0.30857298891500562 0 -0.28534189936007232 0.28197220440765719 0 -0.31282926066102218 0.28898266864613842 0 -0.29574151564778611 0.28671646758259889 0 -0.30402337591517081 0.3051012194244167 0 -0.31282926066102218 0.28898266864613842 0 -0.30403346053568642 0.27611708872161922 0 -0.29574151564778611 0.28671646758259889 0 -0.31282926066102218 0.28898266864613842 0 -0.30403346053568642 0.27611708872161922 0 -0.31282926066102218 0.28898266864613842 0 -0.30402337591517081 0.3051012194244167 0 -0.30402337591517081 0.3051012194244167 0 -0.29932851783868691 0.32736014762988469 0 -0.31456388983813333 0.31636814557902659 0 -0.29932851783868691 0.32736014762988469 0 -0.31400963374603508 0.33178692824556621 0 -0.31456388983813333 0.31636814557902659 0 -0.29582778577295937 0.3462701483728044 0 -0.31354931950312093 0.34747342072874071 0 -0.31400963374603508 0.33178692824556621 0 -0.29582778577295937 0.3462701483728044 0 -0.31400963374603508 0.33178692824556621 0 -0.29932851783868691 0.32736014762988469 0 -0.29582778577295937 0.3462701483728044 0 -0.31400963374603508 0.33178692824556621 0 -0.29932851783868691 0.32736014762988469 0 -0.27670802547122531 0.33291454828341721 0 -0.29582778577295937 0.3462701483728044 0 -0.27670802547122531 0.33291454828341721 0 -0.29582778577295937 0.3462701483728044 0 -0.28186865011063378 0.34863084123191301 0 -0.28083351200865853 0.30857298891500562 0 -0.30402337591517081 0.3051012194244167 0 -0.29932851783868691 0.32736014762988469 0 -0.28083351200865853 0.30857298891500562 0 -0.29932851783868691 0.32736014762988469 0 -0.28083351200865853 0.30857298891500562 0 -0.29932851783868691 0.32736014762988469 0 -0.27670802547122531 0.33291454828341721 0 -0.28083351200865853 0.30857298891500562 0 -0.27670802547122531 0.33291454828341721 0 -0.25757488899104952 0.31786411623381933 0 -0.28083351200865853 0.30857298891500562 0 -0.27670802547122531 0.33291454828341721 0 -0.27670802547122531 0.33291454828341721 0 -0.25757488899104952 0.31786411623381933 0 -0.25368472498167011 0.34420349485172652 0 -0.2613799420943046 0.36179346951182628 0 -0.25453646971320443 0.37462232419521813 0 -0.26689531734350652 0.36931705260985792 0 -0.2613799420943046 0.36179346951182628 0 -0.25453646971320443 0.37462232419521813 0 -0.24822911175635759 0.36217347122335058 0 -0.25368472498167011 0.34420349485172652 0 -0.27258253893379292 0.35725610765182902 0 -0.2613799420943046 0.36179346951182628 0 -0.25368472498167011 0.34420349485172652 0 -0.24822911175635759 0.36217347122335058 0 -0.2613799420943046 0.36179346951182628 0 -0.25368472498167011 0.34420349485172652 0 -0.27258253893379292 0.35725610765182902 0 -0.27670802547122531 0.33291454828341721 0 -0.27258253893379292 0.35725610765182902 0 -0.27670802547122531 0.33291454828341721 0 -0.27258253893379292 0.35725610765182902 0 -0.28186865011063378 0.34863084123191301 0 -0.27670802547122531 0.33291454828341721 0 -0.25368472498167011 0.34420349485172652 0 -0.27258253893379292 0.35725610765182902 0 -0.27258253893379292 0.35725610765182902 0 -0.27764593779988228 0.36075336850004069 0 -0.28186865011063378 0.34863084123191301 0 -0.27258253893379292 0.35725610765182902 0 -0.27764593779988228 0.36075336850004069 0 -0.27764593779988228 0.36075336850004069 0 -0.27110701654299552 0.36596211494311248 0 -0.28943519450698252 0.3688961411714532 0 -0.27110701654299552 0.36596211494311248 0 -0.28943519450698252 0.3688961411714532 0 -0.27110701654299552 0.36596211494311248 0 -0.28943519450698252 0.3688961411714532 0 -0.28084635904778937 0.37544065550995409 0 -0.27258253893379292 0.35725610765182902 0 -0.27764593779988228 0.36075336850004069 0 -0.27110701654299552 0.36596211494311248 0 -0.27764593779988228 0.36075336850004069 0 -0.27110701654299552 0.36596211494311248 0 -0.2613799420943046 0.36179346951182628 0 -0.27258253893379292 0.35725610765182902 0 -0.27110701654299552 0.36596211494311248 0 -0.2613799420943046 0.36179346951182628 0 -0.27110701654299552 0.36596211494311248 0 -0.26689531734350652 0.36931705260985792 0 -0.27258253893379292 0.35725610765182902 0 -0.27110701654299552 0.36596211494311248 0 -0.27110701654299552 0.36596211494311248 0 -0.26689531734350652 0.36931705260985792 0 -0.27110701654299552 0.36596211494311248 0 -0.28084635904778937 0.37544065550995409 0 -0.27663284499009211 0.37939207802828528 0 -0.28943519450698252 0.3688961411714532 0 -0.28685204816290072 0.37621819500323123 0 -0.28084635904778937 0.37544065550995409 0 -0.27764593779988228 0.36075336850004069 0 -0.28943519450698252 0.3688961411714532 0 -0.29551252006441958 0.37309371542857861 0 -0.28943519450698252 0.3688961411714532 0 -0.28685204816290072 0.37621819500323123 0 -0.29551252006441958 0.37309371542857861 0 -0.28943519450698252 0.3688961411714532 0 -0.27764593779988228 0.36075336850004069 0 -0.29582778577295937 0.3462701483728044 0 -0.27764593779988228 0.36075336850004069 0 -0.29582778577295937 0.3462701483728044 0 -0.28186865011063378 0.34863084123191301 0 -0.28943519450698252 0.3688961411714532 0 -0.29582778577295937 0.3462701483728044 0 -0.30300283950081008 0.36051339397403093 0 -0.27764593779988228 0.36075336850004069 0 -0.28943519450698252 0.3688961411714532 0 -0.29582778577295937 0.3462701483728044 0 -0.29582778577295937 0.3462701483728044 0 -0.30300283950081008 0.36051339397403093 0 -0.31354931950312093 0.34747342072874071 0 -0.28943519450698252 0.3688961411714532 0 -0.31408843612631249 0.37197903781600761 0 -0.28943519450698252 0.3688961411714532 0 -0.30300283950081008 0.36051339397403093 0 -0.31408843612631249 0.37197903781600761 0 -0.29551252006441958 0.37309371542857861 0 -0.28943519450698252 0.3688961411714532 0 -0.31408843612631249 0.37197903781600761 0 -0.30300283950081008 0.36051339397403093 0 -0.31408843612631249 0.37197903781600761 0 -0.32472866683278162 0.35786931268145811 0 -0.31408843612631249 0.37197903781600761 0 -0.32472866683278162 0.35786931268145811 0 -0.33874167774564268 0.3750619344605613 0 -0.31408843612631249 0.37197903781600761 0 -0.33874167774564268 0.3750619344605613 0 -0.33942470910854639 0.36092010030626542 0 -0.32472866683278162 0.35786931268145811 0 -0.33874167774564268 0.3750619344605613 0 -0.33942470910854639 0.36092010030626542 0 -0.3497530714632448 0.36534695126967459 0 -0.33874167774564268 0.3750619344605613 0 -0.33815763529499693 0.35089104021064632 0 -0.32472866683278162 0.35786931268145811 0 -0.33017767166301859 0.34092732036984391 0 -0.33815763529499693 0.35089104021064632 0 -0.33017767166301859 0.34092732036984391 0 -0.34251680356524339 0.34321741671518669 0 -0.33815763529499693 0.35089104021064632 0 -0.3460879504978186 0.35511096805544279 0 -0.34556584107983002 0.34849125976349993 0 -0.33815763529499693 0.35089104021064632 0 -0.34251680356524339 0.34321741671518669 0 -0.34556584107983002 0.34849125976349993 0 -0.33942470910854639 0.36092010030626542 0 -0.33815763529499693 0.35089104021064632 0 -0.3460879504978186 0.35511096805544279 0 -0.33942470910854639 0.36092010030626542 0 -0.33815763529499693 0.35089104021064632 0 -0.32472866683278162 0.35786931268145811 0 -0.31354931950312093 0.34747342072874071 0 -0.32472866683278162 0.35786931268145811 0 -0.33017767166301859 0.34092732036984391 0 -0.30300283950081008 0.36051339397403093 0 -0.31354931950312093 0.34747342072874071 0 -0.32472866683278162 0.35786931268145811 0 -0.31400963374603508 0.33178692824556621 0 -0.33219148171911272 0.31730370811833031 0 -0.33017767166301859 0.34092732036984391 0 -0.31354931950312093 0.34747342072874071 0 -0.31400963374603508 0.33178692824556621 0 -0.33017767166301859 0.34092732036984391 0 -0.31400963374603508 0.33178692824556621 0 -0.33219148171911272 0.31730370811833031 0 -0.31400963374603508 0.33178692824556621 0 -0.31456388983813333 0.31636814557902659 0 -0.33219148171911272 0.31730370811833031 0 -0.33477104767585758 0.31524888829805342 0 -0.33219148171911272 0.31730370811833031 0 -0.34795343649956839 0.3209401758966518 0 -0.33219148171911272 0.31730370811833031 0 -0.34725440703092858 0.33933618574797492 0 -0.34795343649956839 0.3209401758966518 0 -0.33396296217470239 0.30554582684384218 0 -0.33477104767585758 0.31524888829805342 0 -0.33219148171911272 0.31730370811833031 0 -0.33477104767585758 0.31524888829805342 0 -0.33219148171911272 0.31730370811833031 0 -0.34268428286429659 0.31215346041211978 0 -0.33477104767585758 0.31524888829805342 0 -0.34795343649956839 0.3209401758966518 0 -0.33219148171911272 0.31730370811833031 0 -0.34725440703092858 0.33933618574797492 0 -0.33219148171911272 0.31730370811833031 0 -0.33017767166301859 0.34092732036984391 0 -0.34725440703092858 0.33933618574797492 0 -0.33017767166301859 0.34092732036984391 0 -0.34251680356524339 0.34321741671518669 0 -0.34725440703092858 0.33933618574797492 0 -0.34725440703092858 0.33933618574797492 0 -0.34795343649956839 0.3209401758966518 0 -0.36531193472093021 0.32454274932608829 0 -0.34251680356524339 0.34321741671518669 0 -0.35002774160894051 0.34339273059465159 0 -0.34725440703092858 0.33933618574797492 0 -0.34725440703092858 0.33933618574797492 0 -0.35848812135385522 0.33902175933596412 0 -0.36531193472093021 0.32454274932608829 0 -0.34725440703092858 0.33933618574797492 0 -0.36531193472093021 0.32454274932608829 0 -0.34251680356524339 0.34321741671518669 0 -0.34725440703092858 0.33933618574797492 0 -0.35002774160894051 0.34339273059465159 0 -0.34725440703092858 0.33933618574797492 0 -0.35002774160894051 0.34339273059465159 0 -0.35848812135385522 0.33902175933596412 0 -0.35712059876301439 0.34740413424876382 0 -0.35002774160894051 0.34339273059465159 0 -0.34725440703092858 0.33933618574797492 0 -0.35848812135385522 0.33902175933596412 0 -0.34795343649956839 0.3209401758966518 0 -0.35774913989266272 0.31391262040183171 0 -0.36531193472093021 0.32454274932608829 0 -0.35013945535461871 0.3105838988596446 0 -0.34268428286429659 0.31215346041211978 0 -0.34795343649956839 0.3209401758966518 0 -0.35013945535461871 0.3105838988596446 0 -0.34795343649956839 0.3209401758966518 0 -0.35774913989266272 0.31391262040183171 0 -0.38336946241093189 0.30974931290420182 0 -0.36596935852520629 0.30787018431111951 0 -0.36531193472093021 0.32454274932608829 0 -0.36596935852520629 0.30787018431111951 0 -0.35774913989266272 0.31391262040183171 0 -0.36531193472093021 0.32454274932608829 0 -0.37580907906339922 0.33647878059299557 0 -0.38201615891261242 0.31564575533693578 0 -0.36531193472093021 0.32454274932608829 0 -0.38336946241093189 0.30974931290420182 0 -0.36531193472093021 0.32454274932608829 0 -0.35848812135385522 0.33902175933596412 0 -0.36629538785756799 0.33494858662202331 0 -0.36491865814174967 0.34450616947628299 0 -0.35848812135385522 0.33902175933596412 0 -0.36491865814174967 0.34450616947628299 0 -0.35712059876301439 0.34740413424876382 0 -0.35848812135385522 0.33902175933596412 0 -0.36531193472093021 0.32454274932608829 0 -0.36629538785756799 0.33494858662202331 0 -0.37580907906339922 0.33647878059299557 0 -0.36531193472093021 0.32454274932608829 0 -0.36629538785756799 0.33494858662202331 0 -0.37580907906339922 0.33647878059299557 0 -0.36629538785756799 0.33494858662202331 0 -0.36491865814174967 0.34450616947628299 0 -0.37580907906339922 0.33647878059299557 0 -0.36491865814174967 0.34450616947628299 0 -0.36960199921418602 0.35731180584905542 0 -0.37580907906339922 0.33647878059299557 0 -0.36960199921418602 0.35731180584905542 0 -0.36491865814174967 0.34450616947628299 0 -0.36204010283369881 0.35293053614415609 0 -0.35712059876301439 0.34740413424876382 0 -0.36491865814174967 0.34450616947628299 0 -0.36204010283369881 0.35293053614415609 0 -0.36960199921418602 0.35731180584905542 0 -0.36231373349064938 0.3583368008115923 0 -0.36204010283369881 0.35293053614415609 0 -0.35577634304253192 0.35617190760009498 0 -0.36231373349064938 0.3583368008115923 0 -0.36204010283369881 0.35293053614415609 0 -0.36960199921418602 0.35731180584905542 0 -0.36960199921418602 0.35731180584905542 0 -0.36339491936497281 0.37814483110511521 0 -0.36960199921418602 0.35731180584905542 0 -0.37158620997362618 0.36500042586936587 0 -0.36339491936497281 0.37814483110511521 0 -0.36960199921418602 0.35731180584905542 0 -0.36108579844600058 0.36545797327707619 0 -0.36339491936497281 0.37814483110511521 0 -0.38141148745950948 0.38039780936179463 0 -0.37158620997362618 0.36500042586936587 0 -0.36339491936497281 0.37814483110511521 0 -0.38070440212728118 0.35956436367519867 0 -0.36960199921418602 0.35731180584905542 0 -0.37158620997362618 0.36500042586936587 0 -0.36231373349064938 0.3583368008115923 0 -0.36108579844600058 0.36545797327707619 0 -0.35577634304253192 0.35617190760009498 0 -0.36231373349064938 0.3583368008115923 0 -0.36960199921418602 0.35731180584905542 0 -0.36108579844600058 0.36545797327707619 0 -0.36108579844600058 0.36545797327707619 0 -0.3497530714632448 0.36534695126967459 0 -0.35577634304253192 0.35617190760009498 0 -0.3497530714632448 0.36534695126967459 0 -0.36339491936497281 0.37814483110511521 0 -0.33874167774564268 0.3750619344605613 0 -0.36108579844600058 0.36545797327707619 0 -0.3497530714632448 0.36534695126967459 0 -0.36339491936497281 0.37814483110511521 0 -0.33942470910854639 0.36092010030626542 0 -0.3497530714632448 0.36534695126967459 0 -0.3460879504978186 0.35511096805544279 0 -0.3497530714632448 0.36534695126967459 0 -0.3460879504978186 0.35511096805544279 0 -0.35577634304253192 0.35617190760009498 0 -0.3460879504978186 0.35511096805544279 0 -0.35103907443215082 0.34984414324157243 0 -0.35577634304253192 0.35617190760009498 0 -0.3460879504978186 0.35511096805544279 0 -0.34556584107983002 0.34849125976349993 0 -0.35103907443215082 0.34984414324157243 0 -0.34251680356524339 0.34321741671518669 0 -0.35002774160894051 0.34339273059465159 0 -0.34556584107983002 0.34849125976349993 0 -0.35002774160894051 0.34339273059465159 0 -0.34556584107983002 0.34849125976349993 0 -0.35103907443215082 0.34984414324157243 0 -0.35103907443215082 0.34984414324157243 0 -0.35712059876301439 0.34740413424876382 0 -0.35577634304253192 0.35617190760009498 0 -0.35002774160894051 0.34339273059465159 0 -0.35103907443215082 0.34984414324157243 0 -0.35712059876301439 0.34740413424876382 0 -0.36204010283369881 0.35293053614415609 0 -0.35712059876301439 0.34740413424876382 0 -0.35577634304253192 0.35617190760009498 0 -0.35746143571760969 0.39805957647408341 0 -0.33700984602307921 0.4055687403903776 0 -0.35746143571760969 0.39805957647408341 0 -0.36339491936497281 0.37814483110511521 0 -0.33874167774564268 0.3750619344605613 0 -0.36339491936497281 0.37814483110511521 0 -0.33874167774564268 0.3750619344605613 0 -0.38141148745950948 0.38039780936179463 0 -0.37844474563582792 0.390355182046278 0 -0.36339491936497281 0.37814483110511521 0 -0.37844474563582792 0.390355182046278 0 -0.35746143571760969 0.39805957647408341 0 -0.36339491936497281 0.37814483110511521 0 -0.35746143571760969 0.39805957647408341 0 -0.36339491936497281 0.37814483110511521 0 -0.38141148745950948 0.38039780936179463 0 -0.36339491936497281 0.37814483110511521 0 -0.37668454372729859 0.41206883315114529 0 -0.37844474563582792 0.390355182046278 0 -0.35746143571760969 0.39805957647408341 0 -0.37844474563582792 0.390355182046278 0 -0.35746143571760969 0.39805957647408341 0 -0.37668454372729859 0.41206883315114529 0 -0.36778315087773072 0.43214877602771662 0 -0.35179051953527918 0.41709305806631919 0 -0.37668454372729859 0.41206883315114529 0 -0.35746143571760969 0.39805957647408341 0 -0.35179051953527918 0.41709305806631919 0 -0.37668454372729859 0.41206883315114529 0 -0.35179051953527918 0.41709305806631919 0 -0.36778315087773072 0.43214877602771662 0 -0.35179051953527918 0.41709305806631919 0 -0.34355933144160938 0.44471966407244162 0 -0.35179051953527918 0.41709305806631919 0 -0.34355933144160938 0.44471966407244162 0 -0.35746143571760969 0.39805957647408341 0 -0.35179051953527918 0.41709305806631919 0 -0.33700984602307921 0.4055687403903776 0 -0.35746143571760969 0.39805957647408341 0 -0.35179051953527918 0.41709305806631919 0 -0.35179051953527918 0.41709305806631919 0 -0.33092261172728182 0.42130471390500562 0 -0.33700984602307921 0.4055687403903776 0 -0.35179051953527918 0.41709305806631919 0 -0.33092261172728182 0.42130471390500562 0 -0.33092261172728182 0.42130471390500562 0 -0.31655825632854873 0.41307790430667191 0 -0.33700984602307921 0.4055687403903776 0 -0.35179051953527918 0.41709305806631919 0 -0.33092261172728182 0.42130471390500562 0 -0.34355933144160938 0.44471966407244162 0 -0.33092261172728182 0.42130471390500562 0 -0.32304151796324199 0.43794530689545591 0 -0.34355933144160938 0.44471966407244162 0 -0.33092261172728182 0.42130471390500562 0 -0.31005470391928353 0.42551636974368717 0 -0.32304151796324199 0.43794530689545591 0 -0.33092261172728182 0.42130471390500562 0 -0.31005470391928353 0.42551636974368717 0 -0.31005470391928353 0.42551636974368717 0 -0.30636015846579262 0.44081646755455739 0 -0.32304151796324199 0.43794530689545591 0 -0.31655825632854873 0.41307790430667191 0 -0.32178824989383492 0.40044082628072353 0 -0.33700984602307921 0.4055687403903776 0 -0.33092261172728182 0.42130471390500562 0 -0.31655825632854873 0.41307790430667191 0 -0.31005470391928353 0.42551636974368717 0 -0.31655825632854873 0.41307790430667191 0 -0.33700984602307921 0.4055687403903776 0 -0.31655825632854873 0.41307790430667191 0 -0.32178824989383492 0.40044082628072353 0 -0.30820761894760612 0.40180007281058999 0 -0.31589124725359768 0.39098578459502642 0 -0.32178824989383492 0.40044082628072353 0 -0.30820761894760612 0.40180007281058999 0 -0.31589124725359768 0.39098578459502642 0 -0.32178824989383492 0.40044082628072353 0 -0.33127428091634248 0.39077162930095188 0 -0.35746143571760969 0.39805957647408341 0 -0.33127428091634248 0.39077162930095188 0 -0.33700984602307921 0.4055687403903776 0 -0.32178824989383492 0.40044082628072353 0 -0.33127428091634248 0.39077162930095188 0 -0.33700984602307921 0.4055687403903776 0 -0.35746143571760969 0.39805957647408341 0 -0.33127428091634248 0.39077162930095188 0 -0.33874167774564268 0.3750619344605613 0 -0.31408843612631249 0.37197903781600761 0 -0.33127428091634248 0.39077162930095188 0 -0.33874167774564268 0.3750619344605613 0 -0.31408843612631249 0.37197903781600761 0 -0.31589124725359768 0.39098578459502642 0 -0.33127428091634248 0.39077162930095188 0 -0.29551252006441958 0.37309371542857861 0 -0.31408843612631249 0.37197903781600761 0 -0.30568017353146049 0.38157918508743732 0 -0.31408843612631249 0.37197903781600761 0 -0.31589124725359768 0.39098578459502642 0 -0.30568017353146049 0.38157918508743732 0 -0.31589124725359768 0.39098578459502642 0 -0.30568017353146049 0.38157918508743732 0 -0.30603649680964828 0.39194203915736708 0 -0.30568017353146049 0.38157918508743732 0 -0.29743858983336929 0.38628170497916159 0 -0.30603649680964828 0.39194203915736708 0 -0.29551252006441958 0.37309371542857861 0 -0.30568017353146049 0.38157918508743732 0 -0.29743858983336929 0.38628170497916159 0 -0.31589124725359768 0.39098578459502642 0 -0.30820761894760612 0.40180007281058999 0 -0.30603649680964828 0.39194203915736708 0 -0.30820761894760612 0.40180007281058999 0 -0.30603649680964828 0.39194203915736708 0 -0.29604813782321171 0.40003827384795049 0 -0.29743858983336929 0.38628170497916159 0 -0.30603649680964828 0.39194203915736708 0 -0.29604813782321171 0.40003827384795049 0 -0.30820761894760612 0.40180007281058999 0 -0.29604813782321171 0.40003827384795049 0 -0.2987408814332651 0.40933989620534528 0 -0.29604813782321171 0.40003827384795049 0 -0.28905057763704689 0.40562835892549581 0 -0.28392778011776681 0.39892722844600809 0 -0.29604813782321171 0.40003827384795049 0 -0.28905057763704689 0.40562835892549581 0 -0.2987408814332651 0.40933989620534528 0 -0.29604813782321171 0.40003827384795049 0 -0.28980128107673031 0.39400368344191522 0 -0.28392778011776681 0.39892722844600809 0 -0.29743858983336929 0.38628170497916159 0 -0.29604813782321171 0.40003827384795049 0 -0.28980128107673031 0.39400368344191522 0 -0.28980128107673031 0.39400368344191522 0 -0.28179061653257348 0.3907675264945405 0 -0.28392778011776681 0.39892722844600809 0 -0.28905057763704689 0.40562835892549581 0 -0.28392778011776681 0.39892722844600809 0 -0.27817781655911977 0.40726136879628272 0 -0.29743858983336929 0.38628170497916159 0 -0.28980128107673031 0.39400368344191522 0 -0.28179061653257348 0.3907675264945405 0 -0.29743858983336929 0.38628170497916159 0 -0.28179061653257348 0.3907675264945405 0 -0.28819376848868639 0.38228739672622841 0 -0.29743858983336929 0.38628170497916159 0 -0.28179061653257348 0.3907675264945405 0 -0.29551252006441958 0.37309371542857861 0 -0.29743858983336929 0.38628170497916159 0 -0.28819376848868639 0.38228739672622841 0 -0.29551252006441958 0.37309371542857861 0 -0.28819376848868639 0.38228739672622841 0 -0.28685204816290072 0.37621819500323123 0 -0.28179061653257348 0.3907675264945405 0 -0.28158428542699082 0.38279668863870758 0 -0.28819376848868639 0.38228739672622841 0 -0.28158428542699082 0.38279668863870758 0 -0.28819376848868639 0.38228739672622841 0 -0.28685204816290072 0.37621819500323123 0 -0.28158428542699082 0.38279668863870758 0 -0.28685204816290072 0.37621819500323123 0 -0.28084635904778937 0.37544065550995409 0 -0.27110701654299552 0.36596211494311248 0 -0.26614264323177789 0.39525334800991979 0 -0.27110701654299552 0.36596211494311248 0 -0.27663284499009211 0.37939207802828528 0 -0.27229768174870289 0.38438446135480281 0 -0.27110701654299552 0.36596211494311248 0 -0.27229768174870289 0.38438446135480281 0 -0.26614264323177789 0.39525334800991979 0 -0.27110701654299552 0.36596211494311248 0 -0.26689531734350652 0.36931705260985792 0 -0.26614264323177789 0.39525334800991979 0 -0.28158428542699082 0.38279668863870758 0 -0.28084635904778937 0.37544065550995409 0 -0.27663284499009211 0.37939207802828528 0 -0.27229768174870289 0.38438446135480281 0 -0.27641046434025379 0.38710393959788297 0 -0.26614264323177789 0.39525334800991979 0 -0.28179061653257348 0.3907675264945405 0 -0.28158428542699082 0.38279668863870758 0 -0.27641046434025379 0.38710393959788297 0 -0.27663284499009211 0.37939207802828528 0 -0.27229768174870289 0.38438446135480281 0 -0.27641046434025379 0.38710393959788297 0 -0.28158428542699082 0.38279668863870758 0 -0.27663284499009211 0.37939207802828528 0 -0.27641046434025379 0.38710393959788297 0 -0.28179061653257348 0.3907675264945405 0 -0.27641046434025379 0.38710393959788297 0 -0.26614264323177789 0.39525334800991979 0 -0.28179061653257348 0.3907675264945405 0 -0.27661435207820328 0.39472461325581981 0 -0.26614264323177789 0.39525334800991979 0 -0.28179061653257348 0.3907675264945405 0 -0.28392778011776681 0.39892722844600809 0 -0.27661435207820328 0.39472461325581981 0 -0.28179061653257348 0.3907675264945405 0 -0.26614264323177789 0.39525334800991979 0 -0.28392778011776681 0.39892722844600809 0 -0.27661435207820328 0.39472461325581981 0 -0.27572094251528112 0.40196054452149499 0 -0.28392778011776681 0.39892722844600809 0 -0.27572094251528112 0.40196054452149499 0 -0.27817781655911977 0.40726136879628272 0 -0.27572094251528112 0.40196054452149499 0 -0.26416382130603389 0.40692896758786917 0 -0.27817781655911977 0.40726136879628272 0 -0.27661435207820328 0.39472461325581981 0 -0.27572094251528112 0.40196054452149499 0 -0.26416382130603389 0.40692896758786917 0 -0.27661435207820328 0.39472461325581981 0 -0.26614264323177789 0.39525334800991979 0 -0.26416382130603389 0.40692896758786917 0 -0.27661435207820328 0.39472461325581981 0 -0.26416382130603389 0.40692896758786917 0 -0.26614264323177789 0.39525334800991979 0 -0.24781733580734391 0.38604582424895789 0 -0.24388213391773941 0.40163479241199579 0 -0.26614264323177789 0.39525334800991979 0 -0.25157066981256843 0.40894445920752592 0 -0.24388213391773941 0.40163479241199579 0 -0.26614264323177789 0.39525334800991979 0 -0.24388213391773941 0.40163479241199579 0 -0.26614264323177789 0.39525334800991979 0 -0.26416382130603389 0.40692896758786917 0 -0.26614264323177789 0.39525334800991979 0 -0.25157066981256843 0.40894445920752592 0 -0.26416382130603389 0.40692896758786917 0 -0.25453646971320443 0.37462232419521813 0 -0.26614264323177789 0.39525334800991979 0 -0.24781733580734391 0.38604582424895789 0 -0.25453646971320443 0.37462232419521813 0 -0.26689531734350652 0.36931705260985792 0 -0.26614264323177789 0.39525334800991979 0 -0.26107936510946472 0.42512814796255138 0 -0.25799490891289278 0.4433273283372331 0 -0.26107936510946472 0.42512814796255138 0 -0.27138668263498972 0.43431468825499642 0 -0.25799490891289278 0.4433273283372331 0 -0.26107936510946472 0.42512814796255138 0 -0.25799490891289278 0.4433273283372331 0 -0.24263019791012411 0.42803682032005991 0 -0.25799490891289278 0.4433273283372331 0 -0.24263019791012411 0.42803682032005991 0 -0.26107936510946472 0.42512814796255138 0 -0.26416382130603389 0.40692896758786917 0 -0.26107936510946472 0.42512814796255138 0 -0.26416382130603389 0.40692896758786917 0 -0.24263019791012411 0.42803682032005991 0 -0.26416382130603389 0.40692896758786917 0 -0.24263019791012411 0.42803682032005991 0 -0.25157066981256843 0.40894445920752592 0 -0.26416382130603389 0.40692896758786917 0 -0.24263019791012411 0.42803682032005991 0 -0.26107936510946472 0.42512814796255138 0 -0.26416382130603389 0.40692896758786917 0 -0.27370875903762831 0.41905129137381081 0 -0.26416382130603389 0.40692896758786917 0 -0.27817781655911977 0.40726136879628272 0 -0.27370875903762831 0.41905129137381081 0 -0.27817781655911977 0.40726136879628272 0 -0.27370875903762831 0.41905129137381081 0 -0.28647403122915938 0.41490769911839809 0 -0.27370875903762831 0.41905129137381081 0 -0.27138668263498972 0.43431468825499642 0 -0.28359142860916292 0.42646623900898489 0 -0.26107936510946472 0.42512814796255138 0 -0.27370875903762831 0.41905129137381081 0 -0.27138668263498972 0.43431468825499642 0 -0.27138668263498972 0.43431468825499642 0 -0.28359142860916292 0.42646623900898489 0 -0.28426041238301858 0.43930471826406531 0 -0.28359142860916292 0.42646623900898489 0 -0.29576073289665422 0.43347565529899762 0 -0.28426041238301858 0.43930471826406531 0 -0.28359142860916292 0.42646623900898489 0 -0.29576073289665422 0.43347565529899762 0 -0.29610666663401819 0.4205870682229661 0 -0.28905057763704689 0.40562835892549581 0 -0.27817781655911977 0.40726136879628272 0 -0.28647403122915938 0.41490769911839809 0 -0.27370875903762831 0.41905129137381081 0 -0.28359142860916292 0.42646623900898489 0 -0.28647403122915938 0.41490769911839809 0 -0.28359142860916292 0.42646623900898489 0 -0.28647403122915938 0.41490769911839809 0 -0.29610666663401819 0.4205870682229661 0 -0.28647403122915938 0.41490769911839809 0 -0.29610666663401819 0.4205870682229661 0 -0.2987408814332651 0.40933989620534528 0 -0.28905057763704689 0.40562835892549581 0 -0.28647403122915938 0.41490769911839809 0 -0.2987408814332651 0.40933989620534528 0 -0.31655825632854873 0.41307790430667191 0 -0.29610666663401819 0.4205870682229661 0 -0.2987408814332651 0.40933989620534528 0 -0.31655825632854873 0.41307790430667191 0 -0.29610666663401819 0.4205870682229661 0 -0.31005470391928353 0.42551636974368717 0 -0.31655825632854873 0.41307790430667191 0 -0.29610666663401819 0.4205870682229661 0 -0.31655825632854873 0.41307790430667191 0 -0.30820761894760612 0.40180007281058999 0 -0.2987408814332651 0.40933989620534528 0 -0.29576073289665422 0.43347565529899762 0 -0.31005470391928353 0.42551636974368717 0 -0.30636015846579262 0.44081646755455739 0 -0.29576073289665422 0.43347565529899762 0 -0.29610666663401819 0.4205870682229661 0 -0.31005470391928353 0.42551636974368717 0 -0.29576073289665422 0.43347565529899762 0 -0.30636015846579262 0.44081646755455739 0 -0.2944743431310044 0.45228094752776682 0 -0.30636015846579262 0.44081646755455739 0 -0.30512100021830008 0.46490456032657962 0 -0.30636015846579262 0.44081646755455739 0 -0.30512100021830008 0.46490456032657962 0 -0.2944743431310044 0.45228094752776682 0 -0.30636015846579262 0.44081646755455739 0 -0.30512100021830008 0.46490456032657962 0 -0.32381548421637429 0.45642326981327008 0 -0.30512100021830008 0.46490456032657962 0 -0.2944743431310044 0.45228094752776682 0 -0.28858619761816889 0.47377087817814589 0 -0.2944743431310044 0.45228094752776682 0 -0.27329055326553048 0.45854910325768988 0 -0.28858619761816889 0.47377087817814589 0 -0.2944743431310044 0.45228094752776682 0 -0.28426041238301858 0.43930471826406531 0 -0.27329055326553048 0.45854910325768988 0 -0.29576073289665422 0.43347565529899762 0 -0.2944743431310044 0.45228094752776682 0 -0.28426041238301858 0.43930471826406531 0 -0.27138668263498972 0.43431468825499642 0 -0.28426041238301858 0.43930471826406531 0 -0.27329055326553048 0.45854910325768988 0 -0.27138668263498972 0.43431468825499642 0 -0.27329055326553048 0.45854910325768988 0 -0.25799490891289278 0.4433273283372331 0 -0.27329055326553048 0.45854910325768988 0 -0.25799490891289278 0.4433273283372331 0 -0.27329055326553048 0.45854910325768988 0 -0.28858619761816889 0.47377087817814589 0 -0.27329055326553048 0.45854910325768988 0 -0.25438198006151169 0.46464464965965441 0 -0.25799490891289278 0.4433273283372331 0 -0.27329055326553048 0.45854910325768988 0 -0.25438198006151169 0.46464464965965441 0 -0.26859377699614329 0.4811575177290362 0 -0.25438198006151169 0.46464464965965441 0 -0.25799490891289278 0.4433273283372331 0 -0.25438198006151169 0.46464464965965441 0 -0.25799490891289278 0.4433273283372331 0 -0.24356894722331929 0.44821508210096461 0 -0.25080144613104921 0.5 0 -0.26859377699614329 0.4811575177290362 0 -0.2467553297522557 0.48147402383551691 0 -0.25080144613104921 0.5 0 -0.26859377699614329 0.4811575177290362 0 -0.27705851983630159 0.5 0 -0.25438198006151169 0.46464464965965441 0 -0.26859377699614329 0.4811575177290362 0 -0.2467553297522557 0.48147402383551691 0 -0.27329055326553048 0.45854910325768988 0 -0.26859377699614329 0.4811575177290362 0 -0.28858619761816889 0.47377087817814589 0 -0.26859377699614329 0.4811575177290362 0 -0.27705851983630159 0.5 0 -0.28830299895955541 0.48893487857068268 0 -0.27705851983630159 0.5 0 -0.28830299895955541 0.48893487857068268 0 -0.30331559354155391 0.49999999999999939 0 -0.26859377699614329 0.4811575177290362 0 -0.28830299895955541 0.48893487857068268 0 -0.28858619761816889 0.47377087817814589 0 -0.28830299895955541 0.48893487857068268 0 -0.28858619761816889 0.47377087817814589 0 -0.30388184197080759 0.48899265309860168 0 -0.28858619761816889 0.47377087817814589 0 -0.30388184197080759 0.48899265309860168 0 -0.30512100021830008 0.46490456032657962 0 -0.30388184197080759 0.48899265309860168 0 -0.30512100021830008 0.46490456032657962 0 -0.30388184197080759 0.48899265309860168 0 -0.31654611508668351 0.48621885406126381 0 -0.30512100021830008 0.46490456032657962 0 -0.28858619761816889 0.47377087817814589 0 -0.30388184197080759 0.48899265309860168 0 -0.30331559354155391 0.49999999999999939 0 -0.30388184197080759 0.48899265309860168 0 -0.28830299895955541 0.48893487857068268 0 -0.30331559354155391 0.49999999999999939 0 -0.30388184197080759 0.48899265309860168 0 -0.30388184197080759 0.48899265309860168 0 -0.31494260619507058 0.500000000000002 0 -0.31654611508668351 0.48621885406126381 0 -0.30331559354155391 0.49999999999999939 0 -0.30388184197080759 0.48899265309860168 0 -0.31494260619507058 0.500000000000002 0 -0.30388184197080759 0.48899265309860168 0 -0.31494260619507058 0.500000000000002 0 -0.31654611508668351 0.48621885406126381 0 -0.33275791060477139 0.5 0 -0.32602721644446891 0.47719705688113462 0 -0.31494260619507058 0.500000000000002 0 -0.31654611508668351 0.48621885406126381 0 -0.33275791060477139 0.5 0 -0.33275791060477139 0.5 0 -0.34200011506365208 0.48331572161184322 0 -0.32602721644446891 0.47719705688113462 0 -0.33275791060477139 0.5 0 -0.34200011506365208 0.48331572161184322 0 -0.35057321501447208 0.49999999999999872 0 -0.34200011506365208 0.48331572161184322 0 -0.32602721644446891 0.47719705688113462 0 -0.33593075250063148 0.46750731867274542 0 -0.34200011506365208 0.48331572161184322 0 -0.33593075250063148 0.46750731867274542 0 -0.35201810675435108 0.4676562019538536 0 -0.30512100021830008 0.46490456032657962 0 -0.31654611508668351 0.48621885406126381 0 -0.32602721644446891 0.47719705688113462 0 -0.30512100021830008 0.46490456032657962 0 -0.32602721644446891 0.47719705688113462 0 -0.32381548421637429 0.45642326981327008 0 -0.30636015846579262 0.44081646755455739 0 -0.32381548421637429 0.45642326981327008 0 -0.32304151796324199 0.43794530689545591 0 -0.32381548421637429 0.45642326981327008 0 -0.32304151796324199 0.43794530689545591 0 -0.34355933144160938 0.44471966407244162 0 -0.32381548421637429 0.45642326981327008 0 -0.34355933144160938 0.44471966407244162 0 -0.33593075250063148 0.46750731867274542 0 -0.32602721644446891 0.47719705688113462 0 -0.32381548421637429 0.45642326981327008 0 -0.33593075250063148 0.46750731867274542 0 -0.35201810675435108 0.4676562019538536 0 -0.36028404822733179 0.44939908513577981 0 -0.36566353784044697 0.46257036423753561 0 -0.34355933144160938 0.44471966407244162 0 -0.35201810675435108 0.4676562019538536 0 -0.36028404822733179 0.44939908513577981 0 -0.34355933144160938 0.44471966407244162 0 -0.33593075250063148 0.46750731867274542 0 -0.35201810675435108 0.4676562019538536 0 -0.36778315087773072 0.43214877602771662 0 -0.34355933144160938 0.44471966407244162 0 -0.36028404822733179 0.44939908513577981 0 -0.36778315087773072 0.43214877602771662 0 -0.36028404822733179 0.44939908513577981 0 -0.37376195539900242 0.45249759326054367 0 -0.37701653082709469 0.46900635458093531 0 -0.37376195539900242 0.45249759326054367 0 -0.36566353784044697 0.46257036423753561 0 -0.36028404822733179 0.44939908513577981 0 -0.37376195539900242 0.45249759326054367 0 -0.36566353784044697 0.46257036423753561 0 -0.36552159823955549 0.47691699748014749 0 -0.37220834978290879 0.49000150617251997 0 -0.35595833756876799 0.48470827593500232 0 -0.37701653082709469 0.46900635458093531 0 -0.36566353784044697 0.46257036423753561 0 -0.36552159823955549 0.47691699748014749 0 -0.37805640255927542 0.47903421333972468 0 -0.37701653082709469 0.46900635458093531 0 -0.36552159823955549 0.47691699748014749 0 -0.35201810675435108 0.4676562019538536 0 -0.36566353784044697 0.46257036423753561 0 -0.36552159823955549 0.47691699748014749 0 -0.37805640255927542 0.47903421333972468 0 -0.36552159823955549 0.47691699748014749 0 -0.37220834978290879 0.49000150617251997 0 -0.37220834978290879 0.49000150617251997 0 -0.35057321501447208 0.49999999999999872 0 -0.35595833756876799 0.48470827593500232 0 -0.37789332191386737 0.5 0 -0.37220834978290879 0.49000150617251997 0 -0.35057321501447208 0.49999999999999872 0 -0.37220834978290879 0.49000150617251997 0 -0.35057321501447208 0.49999999999999872 0 -0.34200011506365208 0.48331572161184322 0 -0.35057321501447208 0.49999999999999872 0 -0.35595833756876799 0.48470827593500232 0 -0.34200011506365208 0.48331572161184322 0 -0.35201810675435108 0.4676562019538536 0 -0.35595833756876799 0.48470827593500232 0 -0.35201810675435108 0.4676562019538536 0 -0.36552159823955549 0.47691699748014749 0 -0.35595833756876799 0.48470827593500232 0 -0.142080771754234 0.48212662116497451 0 -0.14744519938683801 0.47523243684594829 0 -0.1380962150490555 0.47248515407185221 0 -0.142080771754234 0.48212662116497451 0 -0.14744519938683801 0.47523243684594829 0 -0.15313912830386001 0.48632871978955722 0 -0.14744519938683801 0.47523243684594829 0 -0.1380962150490555 0.47248515407185221 0 -0.1446941887002707 0.46454185114692792 0 -0.14744519938683801 0.47523243684594829 0 -0.1446941887002707 0.46454185114692792 0 -0.15815775643206659 0.473198332503178 0 -0.14744519938683801 0.47523243684594829 0 -0.15313912830386001 0.48632871978955722 0 -0.15815775643206659 0.473198332503178 0 -0.142080771754234 0.48212662116497451 0 -0.15313912830386001 0.48632871978955722 0 -0.13803845513632401 0.5 0 -0.15313912830386001 0.48632871978955722 0 -0.13803845513632401 0.5 0 -0.1663114266205577 0.50000000000000011 0 -0.142080771754234 0.48212662116497451 0 -0.13803845513632401 0.5 0 -0.12908554574303099 0.47755934496718438 0 -0.13803845513632401 0.5 0 -0.12908554574303099 0.47755934496718438 0 -0.1160402402672886 0.48503019582547341 0 -0.142080771754234 0.48212662116497451 0 -0.12908554574303099 0.47755934496718438 0 -0.1380962150490555 0.47248515407185221 0 -0.12908554574303099 0.47755934496718438 0 -0.1380962150490555 0.47248515407185221 0 -0.13097929143795109 0.46459511115351071 0 -0.12908554574303099 0.47755934496718438 0 -0.13097929143795109 0.46459511115351071 0 -0.1176294132596279 0.46872710166108278 0 -0.13097929143795109 0.46459511115351071 0 -0.1351896940807357 0.45304119368279389 0 -0.1204057133641486 0.45504160574272429 0 -0.13097929143795109 0.46459511115351071 0 -0.1351896940807357 0.45304119368279389 0 -0.1446941887002707 0.46454185114692792 0 -0.1380962150490555 0.47248515407185221 0 -0.13097929143795109 0.46459511115351071 0 -0.1446941887002707 0.46454185114692792 0 -0.1351896940807357 0.45304119368279389 0 -0.13889501351409689 0.43598263237980822 0 -0.1242648033483075 0.43981492828754482 0 -0.1351896940807357 0.45304119368279389 0 -0.1242648033483075 0.43981492828754482 0 -0.1204057133641486 0.45504160574272429 0 -0.15017718620881049 0.45777983735391498 0 -0.13889501351409689 0.43598263237980822 0 -0.1351896940807357 0.45304119368279389 0 -0.15017718620881049 0.45777983735391498 0 -0.13889501351409689 0.43598263237980822 0 -0.15995177900170021 0.44572512983606088 0 -0.15376963845050121 0.4328235067909087 0 -0.13889501351409689 0.43598263237980822 0 -0.15017718620881049 0.45777983735391498 0 -0.15995177900170021 0.44572512983606088 0 -0.13889501351409689 0.43598263237980822 0 -0.15017718620881049 0.45777983735391498 0 -0.15995177900170021 0.44572512983606088 0 -0.1446941887002707 0.46454185114692792 0 -0.15017718620881049 0.45777983735391498 0 -0.1351896940807357 0.45304119368279389 0 -0.1446941887002707 0.46454185114692792 0 -0.15017718620881049 0.45777983735391498 0 -0.1446941887002707 0.46454185114692792 0 -0.15017718620881049 0.45777983735391498 0 -0.15815775643206659 0.473198332503178 0 -0.15017718620881049 0.45777983735391498 0 -0.15868634814382429 0.46531473325554851 0 -0.15815775643206659 0.473198332503178 0 -0.15017718620881049 0.45777983735391498 0 -0.15815775643206659 0.473198332503178 0 -0.160558198289461 0.46047642425523388 0 -0.1655661766345953 0.45099185016729298 0 -0.16585225164495951 0.46980433890986678 0 -0.1655661766345953 0.45099185016729298 0 -0.17867327812258871 0.46114583139567922 0 -0.16585225164495951 0.46980433890986678 0 -0.1655661766345953 0.45099185016729298 0 -0.16585225164495951 0.46980433890986678 0 -0.15868634814382429 0.46531473325554851 0 -0.160558198289461 0.46047642425523388 0 -0.16585225164495951 0.46980433890986678 0 -0.15017718620881049 0.45777983735391498 0 -0.15868634814382429 0.46531473325554851 0 -0.160558198289461 0.46047642425523388 0 -0.15017718620881049 0.45777983735391498 0 -0.160558198289461 0.46047642425523388 0 -0.15995177900170021 0.44572512983606088 0 -0.15995177900170021 0.44572512983606088 0 -0.1655661766345953 0.45099185016729298 0 -0.1697263717945888 0.43367042231820602 0 -0.160558198289461 0.46047642425523388 0 -0.15995177900170021 0.44572512983606088 0 -0.1655661766345953 0.45099185016729298 0 -0.15995177900170021 0.44572512983606088 0 -0.1697263717945888 0.43367042231820602 0 -0.1655661766345953 0.45099185016729298 0 -0.1926513277646352 0.45119866261047992 0 -0.1697263717945888 0.43367042231820602 0 -0.1926513277646352 0.45119866261047992 0 -0.1697263717945888 0.43367042231820602 0 -0.1926513277646352 0.45119866261047992 0 -0.18693863061853061 0.43491447939059907 0 -0.1697263717945888 0.43367042231820602 0 -0.1655661766345953 0.45099185016729298 0 -0.17867327812258871 0.46114583139567922 0 -0.1926513277646352 0.45119866261047992 0 -0.17867327812258871 0.46114583139567922 0 -0.17876854714149509 0.47093865696285842 0 -0.16585225164495951 0.46980433890986678 0 -0.17867327812258871 0.46114583139567922 0 -0.1899884502156329 0.46461586120334353 0 -0.1926513277646352 0.45119866261047992 0 -0.17867327812258871 0.46114583139567922 0 -0.17876854714149509 0.47093865696285842 0 -0.1899884502156329 0.46461586120334353 0 -0.17876854714149509 0.47093865696285842 0 -0.19138341924764241 0.47827032896460842 0 -0.1899884502156329 0.46461586120334353 0 -0.1757986315986971 0.48088398659212228 0 -0.17876854714149509 0.47093865696285842 0 -0.19138341924764241 0.47827032896460842 0 -0.1757986315986971 0.48088398659212228 0 -0.17876854714149509 0.47093865696285842 0 -0.16585225164495951 0.46980433890986678 0 -0.16585225164495951 0.46980433890986678 0 -0.16613832665532341 0.48861682765244069 0 -0.16585225164495951 0.46980433890986678 0 -0.15815775643206659 0.473198332503178 0 -0.16613832665532341 0.48861682765244069 0 -0.1757986315986971 0.48088398659212228 0 -0.16585225164495951 0.46980433890986678 0 -0.16613832665532341 0.48861682765244069 0 -0.15313912830386001 0.48632871978955722 0 -0.15815775643206659 0.473198332503178 0 -0.16613832665532341 0.48861682765244069 0 -0.15815775643206659 0.473198332503178 0 -0.16613832665532341 0.48861682765244069 0 -0.15868634814382429 0.46531473325554851 0 -0.16585225164495951 0.46980433890986678 0 -0.15815775643206659 0.473198332503178 0 -0.15313912830386001 0.48632871978955722 0 -0.16613832665532341 0.48861682765244069 0 -0.1663114266205577 0.50000000000000011 0 -0.16613832665532341 0.48861682765244069 0 -0.1720302250152923 0.50000000000000022 0 -0.16613832665532341 0.48861682765244069 0 -0.1663114266205577 0.50000000000000011 0 -0.1720302250152923 0.50000000000000022 0 -0.16613832665532341 0.48861682765244069 0 -0.1663114266205577 0.50000000000000011 0 -0.16613832665532341 0.48861682765244069 0 -0.17430115969348189 0.49501483184612438 0 -0.1720302250152923 0.50000000000000022 0 -0.17430115969348189 0.49501483184612438 0 -0.1720302250152923 0.50000000000000022 0 -0.1982872987205446 0.5 0 -0.1757986315986971 0.48088398659212228 0 -0.17430115969348189 0.49501483184612438 0 -0.19138341924764241 0.47827032896460842 0 -0.17430115969348189 0.49501483184612438 0 -0.19138341924764241 0.47827032896460842 0 -0.1757986315986971 0.48088398659212228 0 -0.16613832665532341 0.48861682765244069 0 -0.17430115969348189 0.49501483184612438 0 -0.17430115969348189 0.49501483184612438 0 -0.1982872987205446 0.5 0 -0.19138341924764241 0.47827032896460842 0 -0.1982872987205446 0.5 0 -0.19138341924764241 0.47827032896460842 0 -0.21217809917650449 0.48030286392854288 0 -0.19138341924764241 0.47827032896460842 0 -0.208465678801803 0.46152582608309223 0 -0.19138341924764241 0.47827032896460842 0 -0.21217809917650449 0.48030286392854288 0 -0.208465678801803 0.46152582608309223 0 -0.1982872987205446 0.5 0 -0.21217809917650449 0.48030286392854288 0 -0.22454437242579681 0.5 0 -0.22454437242579681 0.5 0 -0.2288960980978284 0.47674808914996208 0 -0.2467553297522557 0.48147402383551691 0 -0.21217809917650449 0.48030286392854288 0 -0.22454437242579681 0.5 0 -0.2288960980978284 0.47674808914996208 0 -0.21217809917650449 0.48030286392854288 0 -0.2288960980978284 0.47674808914996208 0 -0.22325063631842021 0.46203708915627778 0 -0.25438198006151169 0.46464464965965441 0 -0.2467553297522557 0.48147402383551691 0 -0.2372897108761052 0.46028528898629889 0 -0.2288960980978284 0.47674808914996208 0 -0.2467553297522557 0.48147402383551691 0 -0.2372897108761052 0.46028528898629889 0 -0.25080144613104921 0.5 0 -0.22454437242579681 0.5 0 -0.2467553297522557 0.48147402383551691 0 -0.24356894722331929 0.44821508210096461 0 -0.22554793835596351 0.44478132320157598 0 -0.24263019791012411 0.42803682032005991 0 -0.24356894722331929 0.44821508210096461 0 -0.2372897108761052 0.46028528898629889 0 -0.22554793835596351 0.44478132320157598 0 -0.25799490891289278 0.4433273283372331 0 -0.24356894722331929 0.44821508210096461 0 -0.24263019791012411 0.42803682032005991 0 -0.25438198006151169 0.46464464965965441 0 -0.24356894722331929 0.44821508210096461 0 -0.2372897108761052 0.46028528898629889 0 -0.2288960980978284 0.47674808914996208 0 -0.2372897108761052 0.46028528898629889 0 -0.22325063631842021 0.46203708915627778 0 -0.2372897108761052 0.46028528898629889 0 -0.22325063631842021 0.46203708915627778 0 -0.22554793835596351 0.44478132320157598 0 -0.22325063631842021 0.46203708915627778 0 -0.22554793835596351 0.44478132320157598 0 -0.208465678801803 0.46152582608309223 0 -0.22554793835596351 0.44478132320157598 0 -0.20785557032720109 0.44518798724498809 0 -0.21437917226951189 0.43588067273166847 0 -0.22554793835596351 0.44478132320157598 0 -0.20785557032720109 0.44518798724498809 0 -0.208465678801803 0.46152582608309223 0 -0.22554793835596351 0.44478132320157598 0 -0.208465678801803 0.46152582608309223 0 -0.21217809917650449 0.48030286392854288 0 -0.22325063631842021 0.46203708915627778 0 -0.208465678801803 0.46152582608309223 0 -0.19138341924764241 0.47827032896460842 0 -0.208465678801803 0.46152582608309223 0 -0.1899884502156329 0.46461586120334353 0 -0.208465678801803 0.46152582608309223 0 -0.1899884502156329 0.46461586120334353 0 -0.1926513277646352 0.45119866261047992 0 -0.20785557032720109 0.44518798724498809 0 -0.1926513277646352 0.45119866261047992 0 -0.18693863061853061 0.43491447939059907 0 -0.20785557032720109 0.44518798724498809 0 -0.208465678801803 0.46152582608309223 0 -0.1926513277646352 0.45119866261047992 0 -0.19176926968858449 0.42488004754311998 0 -0.20430089696141959 0.42856004989685992 0 -0.18693863061853061 0.43491447939059907 0 -0.20785557032720109 0.44518798724498809 0 -0.20430089696141959 0.42856004989685992 0 -0.18693863061853061 0.43491447939059907 0 -0.19176926968858449 0.42488004754311998 0 -0.19667758679306771 0.41738623802377928 0 -0.20430089696141959 0.42856004989685992 0 -0.19667758679306771 0.41738623802377928 0 -0.19460267291041519 0.40299123798476227 0 -0.182164522352502 0.41833083015148409 0 -0.19460267291041519 0.40299123798476227 0 -0.182164522352502 0.41833083015148409 0 -0.19176926968858449 0.42488004754311998 0 -0.19667758679306771 0.41738623802377928 0 -0.182164522352502 0.41833083015148409 0 -0.19667758679306771 0.41738623802377928 0 -0.2074030129404133 0.4163894186605448 0 -0.20430089696141959 0.42856004989685992 0 -0.19667758679306771 0.41738623802377928 0 -0.2074030129404133 0.4163894186605448 0 -0.19460267291041519 0.40299123798476227 0 -0.2074030129404133 0.4163894186605448 0 -0.21981228343346321 0.42499333058324978 0 -0.22162162460370111 0.40801623681407218 0 -0.2074030129404133 0.4163894186605448 0 -0.22162162460370111 0.40801623681407218 0 -0.19460267291041519 0.40299123798476227 0 -0.20785557032720109 0.44518798724498809 0 -0.20430089696141959 0.42856004989685992 0 -0.21437917226951189 0.43588067273166847 0 -0.2074030129404133 0.4163894186605448 0 -0.20430089696141959 0.42856004989685992 0 -0.21981228343346321 0.42499333058324978 0 -0.20430089696141959 0.42856004989685992 0 -0.21437917226951189 0.43588067273166847 0 -0.21981228343346321 0.42499333058324978 0 -0.22554793835596351 0.44478132320157598 0 -0.24263019791012411 0.42803682032005991 0 -0.22554793835596351 0.44478132320157598 0 -0.2313941741476824 0.42795323546389102 0 -0.24263019791012411 0.42803682032005991 0 -0.22554793835596351 0.44478132320157598 0 -0.21437917226951189 0.43588067273166847 0 -0.21981228343346321 0.42499333058324978 0 -0.22554793835596351 0.44478132320157598 0 -0.2313941741476824 0.42795323546389102 0 -0.21981228343346321 0.42499333058324978 0 -0.2313941741476824 0.42795323546389102 0 -0.21981228343346321 0.42499333058324978 0 -0.2301621318308705 0.41771135234831969 0 -0.2313941741476824 0.42795323546389102 0 -0.2301621318308705 0.41771135234831969 0 -0.23881831920799079 0.42424335086624981 0 -0.21981228343346321 0.42499333058324978 0 -0.22162162460370111 0.40801623681407218 0 -0.2301621318308705 0.41771135234831969 0 -0.22162162460370111 0.40801623681407218 0 -0.2301621318308705 0.41771135234831969 0 -0.241034552697166 0.41286836770778501 0 -0.25157066981256843 0.40894445920752592 0 -0.241034552697166 0.41286836770778501 0 -0.24263019791012411 0.42803682032005991 0 -0.241034552697166 0.41286836770778501 0 -0.24263019791012411 0.42803682032005991 0 -0.23881831920799079 0.42424335086624981 0 -0.22162162460370111 0.40801623681407218 0 -0.241034552697166 0.41286836770778501 0 -0.24388213391773941 0.40163479241199579 0 -0.2301621318308705 0.41771135234831969 0 -0.241034552697166 0.41286836770778501 0 -0.23881831920799079 0.42424335086624981 0 -0.25157066981256843 0.40894445920752592 0 -0.241034552697166 0.41286836770778501 0 -0.24388213391773941 0.40163479241199579 0 -0.2313941741476824 0.42795323546389102 0 -0.24263019791012411 0.42803682032005991 0 -0.23881831920799079 0.42424335086624981 0 -0.24263019791012411 0.42803682032005991 0 -0.23881831920799079 0.42424335086624981 0 -0.25453646971320443 0.37462232419521813 0 -0.24781733580734391 0.38604582424895789 0 -0.23735930512057779 0.37349779701461089 0 -0.2365264908337599 0.38834162546439549 0 -0.24781733580734391 0.38604582424895789 0 -0.23735930512057779 0.37349779701461089 0 -0.2365264908337599 0.38834162546439549 0 -0.24781733580734391 0.38604582424895789 0 -0.24388213391773941 0.40163479241199579 0 -0.22162162460370111 0.40801623681407218 0 -0.24388213391773941 0.40163479241199579 0 -0.22162162460370111 0.40801623681407218 0 -0.2365264908337599 0.38834162546439549 0 -0.2225569648072106 0.38059728391652659 0 -0.22162162460370111 0.40801623681407218 0 -0.2365264908337599 0.38834162546439549 0 -0.24388213391773941 0.40163479241199579 0 -0.2365264908337599 0.38834162546439549 0 -0.2225569648072106 0.38059728391652659 0 -0.23735930512057779 0.37349779701461089 0 -0.2225569648072106 0.38059728391652659 0 -0.20545957084956781 0.38789926664213359 0 -0.1994770785436861 0.36691897370504389 0 -0.22162162460370111 0.40801623681407218 0 -0.2225569648072106 0.38059728391652659 0 -0.20545957084956781 0.38789926664213359 0 -0.22162162460370111 0.40801623681407218 0 -0.20545957084956781 0.38789926664213359 0 -0.19460267291041519 0.40299123798476227 0 -0.20545957084956781 0.38789926664213359 0 -0.19460267291041519 0.40299123798476227 0 -0.18736095772118591 0.3836472042370111 0 -0.20545957084956781 0.38789926664213359 0 -0.18736095772118591 0.3836472042370111 0 -0.1994770785436861 0.36691897370504389 0 -0.18736095772118591 0.3836472042370111 0 -0.16248792359233191 0.38534127627451031 0 -0.17644948136236779 0.3976803029940168 0 -0.18736095772118591 0.3836472042370111 0 -0.16248792359233191 0.38534127627451031 0 -0.1741500565645078 0.37123080613525078 0 -0.16248792359233191 0.38534127627451031 0 -0.16330635783110381 0.4038062271485704 0 -0.14438589058212131 0.3948348353259919 0 -0.16248792359233191 0.38534127627451031 0 -0.16330635783110381 0.4038062271485704 0 -0.17644948136236779 0.3976803029940168 0 -0.19460267291041519 0.40299123798476227 0 -0.17644948136236779 0.3976803029940168 0 -0.17778078602166139 0.40821888849324761 0 -0.19460267291041519 0.40299123798476227 0 -0.18736095772118591 0.3836472042370111 0 -0.17644948136236779 0.3976803029940168 0 -0.16330635783110381 0.4038062271485704 0 -0.17644948136236779 0.3976803029940168 0 -0.17778078602166139 0.40821888849324761 0 -0.19460267291041519 0.40299123798476227 0 -0.182164522352502 0.41833083015148409 0 -0.17778078602166139 0.40821888849324761 0 -0.182164522352502 0.41833083015148409 0 -0.1723808956519178 0.41828584418740389 0 -0.17778078602166139 0.40821888849324761 0 -0.19176926968858449 0.42488004754311998 0 -0.182164522352502 0.41833083015148409 0 -0.18693863061853061 0.43491447939059907 0 -0.182164522352502 0.41833083015148409 0 -0.18693863061853061 0.43491447939059907 0 -0.1697263717945888 0.43367042231820602 0 -0.182164522352502 0.41833083015148409 0 -0.1697263717945888 0.43367042231820602 0 -0.182164522352502 0.41833083015148409 0 -0.1723808956519178 0.41828584418740389 0 -0.1697263717945888 0.43367042231820602 0 -0.15995177900170021 0.44572512983606088 0 -0.1697263717945888 0.43367042231820602 0 -0.15376963845050121 0.4328235067909087 0 -0.1697263717945888 0.43367042231820602 0 -0.14650538949161929 0.41591584262955861 0 -0.15376963845050121 0.4328235067909087 0 -0.1697263717945888 0.43367042231820602 0 -0.14650538949161929 0.41591584262955861 0 -0.1723808956519178 0.41828584418740389 0 -0.1697263717945888 0.43367042231820602 0 -0.14650538949161929 0.41591584262955861 0 -0.1723808956519178 0.41828584418740389 0 -0.14650538949161929 0.41591584262955861 0 -0.16330635783110381 0.4038062271485704 0 -0.1723808956519178 0.41828584418740389 0 -0.14650538949161929 0.41591584262955861 0 -0.16330635783110381 0.4038062271485704 0 -0.1723808956519178 0.41828584418740389 0 -0.17778078602166139 0.40821888849324761 0 -0.14650538949161929 0.41591584262955861 0 -0.15376963845050121 0.4328235067909087 0 -0.13889501351409689 0.43598263237980822 0 -0.13889501351409689 0.43598263237980822 0 -0.12761284081938409 0.41418542740570108 0 -0.14650538949161929 0.41591584262955861 0 -0.13889501351409689 0.43598263237980822 0 -0.12761284081938409 0.41418542740570108 0 -0.13889501351409689 0.43598263237980822 0 -0.12761284081938409 0.41418542740570108 0 -0.1242648033483075 0.43981492828754482 0 -0.14650538949161929 0.41591584262955861 0 -0.12761284081938409 0.41418542740570108 0 -0.12644786621320531 0.40058001872868543 0 -0.14650538949161929 0.41591584262955861 0 -0.12644786621320531 0.40058001872868543 0 -0.14650538949161929 0.41591584262955861 0 -0.12761284081938409 0.41418542740570108 0 -0.14650538949161929 0.41591584262955861 0 -0.12644786621320531 0.40058001872868543 0 -0.14438589058212131 0.3948348353259919 0 -0.12644786621320531 0.40058001872868543 0 -0.12826940643264259 0.38638828685515292 0 -0.14438589058212131 0.3948348353259919 0 -0.1399268433138337 0.37661104245066729 0 -0.12826940643264259 0.38638828685515292 0 -0.1198206075896991 0.37069234566290138 0 -0.1399268433138337 0.37661104245066729 0 -0.12826940643264259 0.38638828685515292 0 -0.14438589058212131 0.3948348353259919 0 -0.16248792359233191 0.38534127627451031 0 -0.1399268433138337 0.37661104245066729 0 -0.1571746455416145 0.36408416689185819 0 -0.16248792359233191 0.38534127627451031 0 -0.1399268433138337 0.37661104245066729 0 -0.14438589058212131 0.3948348353259919 0 -0.16330635783110381 0.4038062271485704 0 -0.14650538949161929 0.41591584262955861 0 -0.14438589058212131 0.3948348353259919 0 -0.1367685514822152 0.35851885971508118 0 -0.13367478836053351 0.33932016938713638 0 -0.15331730601663701 0.3395623532820784 0 -0.1367685514822152 0.35851885971508118 0 -0.15331730601663701 0.3395623532820784 0 -0.1571746455416145 0.36408416689185819 0 -0.1399268433138337 0.37661104245066729 0 -0.1367685514822152 0.35851885971508118 0 -0.1571746455416145 0.36408416689185819 0 -0.1399268433138337 0.37661104245066729 0 -0.1367685514822152 0.35851885971508118 0 -0.1198206075896991 0.37069234566290138 0 -0.1367685514822152 0.35851885971508118 0 -0.13367478836053351 0.33932016938713638 0 -0.1173066256070304 0.35104950557859033 0 -0.13367478836053351 0.33932016938713638 0 -0.1262409447270301 0.3211703831111522 0 -0.1175879007316586 0.33497855513245622 0 -0.13367478836053351 0.33932016938713638 0 -0.1262409447270301 0.3211703831111522 0 -0.14995133854557879 0.31573290008088639 0 -0.1262409447270301 0.3211703831111522 0 -0.14995133854557879 0.31573290008088639 0 -0.13170636281121431 0.30540396541675668 0 -0.13367478836053351 0.33932016938713638 0 -0.14995133854557879 0.31573290008088639 0 -0.15331730601663701 0.3395623532820784 0 -0.15331730601663701 0.3395623532820784 0 -0.17079439025487569 0.32494122108339912 0 -0.1763971922801616 0.3532406634935612 0 -0.14995133854557879 0.31573290008088639 0 -0.17079439025487569 0.32494122108339912 0 -0.167164841548782 0.29891422322321631 0 -0.14995133854557879 0.31573290008088639 0 -0.15331730601663701 0.3395623532820784 0 -0.17079439025487569 0.32494122108339912 0 -0.17079439025487569 0.32494122108339912 0 -0.19256976679114979 0.33165381796875049 0 -0.19699128312530151 0.30504565645142051 0 -0.17079439025487569 0.32494122108339912 0 -0.1763971922801616 0.3532406634935612 0 -0.19256976679114979 0.33165381796875049 0 -0.15331730601663701 0.3395623532820784 0 -0.1763971922801616 0.3532406634935612 0 -0.1571746455416145 0.36408416689185819 0 -0.15331730601663701 0.3395623532820784 0 -0.1763971922801616 0.3532406634935612 0 -0.1763971922801616 0.3532406634935612 0 -0.1571746455416145 0.36408416689185819 0 -0.1741500565645078 0.37123080613525078 0 -0.16248792359233191 0.38534127627451031 0 -0.1571746455416145 0.36408416689185819 0 -0.1741500565645078 0.37123080613525078 0 -0.18736095772118591 0.3836472042370111 0 -0.1741500565645078 0.37123080613525078 0 -0.1994770785436861 0.36691897370504389 0 -0.1763971922801616 0.3532406634935612 0 -0.1741500565645078 0.37123080613525078 0 -0.1994770785436861 0.36691897370504389 0 -0.1763971922801616 0.3532406634935612 0 -0.1994770785436861 0.36691897370504389 0 -0.1763971922801616 0.3532406634935612 0 -0.20127160642404629 0.34878804965207372 0 -0.19256976679114979 0.33165381796875049 0 -0.1763971922801616 0.3532406634935612 0 -0.1994770785436861 0.36691897370504389 0 -0.20127160642404629 0.34878804965207372 0 -0.1994770785436861 0.36691897370504389 0 -0.20127160642404629 0.34878804965207372 0 -0.22480168799342179 0.35512276170724633 0 -0.20127160642404629 0.34878804965207372 0 -0.22480168799342179 0.35512276170724633 0 -0.2131123065118124 0.33700403138576668 0 -0.2225569648072106 0.38059728391652659 0 -0.1994770785436861 0.36691897370504389 0 -0.2225569648072106 0.38059728391652659 0 -0.1994770785436861 0.36691897370504389 0 -0.22480168799342179 0.35512276170724633 0 -0.2225569648072106 0.38059728391652659 0 -0.22480168799342179 0.35512276170724633 0 -0.23735930512057779 0.37349779701461089 0 -0.25368472498167011 0.34420349485172652 0 -0.22480168799342179 0.35512276170724633 0 -0.24822911175635759 0.36217347122335058 0 -0.22480168799342179 0.35512276170724633 0 -0.24822911175635759 0.36217347122335058 0 -0.23735930512057779 0.37349779701461089 0 -0.25453646971320443 0.37462232419521813 0 -0.24822911175635759 0.36217347122335058 0 -0.23735930512057779 0.37349779701461089 0 -0.25757488899104952 0.31786411623381933 0 -0.23478691102954721 0.33115088205162452 0 -0.2366570207200871 0.30010935915934539 0 -0.25368472498167011 0.34420349485172652 0 -0.22480168799342179 0.35512276170724633 0 -0.23478691102954721 0.33115088205162452 0 -0.25368472498167011 0.34420349485172652 0 -0.23478691102954721 0.33115088205162452 0 -0.25757488899104952 0.31786411623381933 0 -0.25368472498167011 0.34420349485172652 0 -0.23478691102954721 0.33115088205162452 0 -0.23478691102954721 0.33115088205162452 0 -0.2158890970774244 0.31809826925152251 0 -0.2131123065118124 0.33700403138576668 0 -0.22480168799342179 0.35512276170724633 0 -0.23478691102954721 0.33115088205162452 0 -0.2131123065118124 0.33700403138576668 0 -0.23478691102954721 0.33115088205162452 0 -0.2158890970774244 0.31809826925152251 0 -0.2366570207200871 0.30010935915934539 0 -0.23478691102954721 0.33115088205162452 0 -0.2158890970774244 0.31809826925152251 0 -0.2158890970774244 0.31809826925152251 0 -0.2131123065118124 0.33700403138576668 0 -0.19256976679114979 0.33165381796875049 0 -0.20127160642404629 0.34878804965207372 0 -0.2131123065118124 0.33700403138576668 0 -0.19256976679114979 0.33165381796875049 0 -0.2158890970774244 0.31809826925152251 0 -0.19256976679114979 0.33165381796875049 0 -0.19699128312530151 0.30504565645142051 0 -0.19699128312530151 0.30504565645142051 0 -0.2044220976180971 0.2747921468301005 0 -0.18537993383704029 0.28397978744787411 0 -0.19699128312530151 0.30504565645142051 0 -0.21636901433909059 0.29447561219915308 0 -0.2044220976180971 0.2747921468301005 0 -0.2158890970774244 0.31809826925152251 0 -0.19699128312530151 0.30504565645142051 0 -0.21636901433909059 0.29447561219915308 0 -0.2158890970774244 0.31809826925152251 0 -0.19699128312530151 0.30504565645142051 0 -0.2158890970774244 0.31809826925152251 0 -0.21636901433909059 0.29447561219915308 0 -0.2366570207200871 0.30010935915934539 0 -0.21636901433909059 0.29447561219915308 0 -0.2366570207200871 0.30010935915934539 0 -0.2235041758045673 0.27405874977876837 0 -0.26277913973510902 0.29023342414179659 0 -0.2366570207200871 0.30010935915934539 0 -0.2447247674615598 0.2718938593685879 0 -0.2366570207200871 0.30010935915934539 0 -0.2447247674615598 0.2718938593685879 0 -0.2235041758045673 0.27405874977876837 0 -0.25693865295534157 0.25278860643768353 0 -0.2416444700809012 0.25186566196455601 0 -0.2447247674615598 0.2718938593685879 0 -0.2416444700809012 0.25186566196455601 0 -0.2447247674615598 0.2718938593685879 0 -0.22667039518801041 0.25355429459537898 0 -0.2447247674615598 0.2718938593685879 0 -0.22667039518801041 0.25355429459537898 0 -0.2447247674615598 0.2718938593685879 0 -0.2235041758045673 0.27405874977876837 0 -0.22667039518801041 0.25355429459537898 0 -0.2235041758045673 0.27405874977876837 0 -0.22667039518801041 0.25355429459537898 0 -0.21218175950055909 0.24952722652004439 0 -0.2044220976180971 0.2747921468301005 0 -0.1929026130837673 0.25762258695206858 0 -0.21218175950055909 0.24952722652004439 0 -0.2044220976180971 0.2747921468301005 0 -0.21218175950055909 0.24952722652004439 0 -0.2235041758045673 0.27405874977876837 0 -0.2044220976180971 0.2747921468301005 0 -0.21218175950055909 0.24952722652004439 0 -0.21636901433909059 0.29447561219915308 0 -0.2235041758045673 0.27405874977876837 0 -0.2044220976180971 0.2747921468301005 0 -0.2044220976180971 0.2747921468301005 0 -0.1929026130837673 0.25762258695206858 0 -0.18537993383704029 0.28397978744787411 0 -0.1929026130837673 0.25762258695206858 0 -0.16582228118094081 0.26466105519565358 0 -0.18651378479530609 0.23505073182760211 0 -0.1929026130837673 0.25762258695206858 0 -0.16582228118094081 0.26466105519565358 0 -0.18537993383704029 0.28397978744787411 0 -0.16582228118094081 0.26466105519565358 0 -0.167164841548782 0.29891422322321631 0 -0.14136362158270599 0.28508793949713551 0 -0.16582228118094081 0.26466105519565358 0 -0.18537993383704029 0.28397978744787411 0 -0.167164841548782 0.29891422322321631 0 -0.19699128312530151 0.30504565645142051 0 -0.18537993383704029 0.28397978744787411 0 -0.167164841548782 0.29891422322321631 0 -0.17079439025487569 0.32494122108339912 0 -0.19699128312530151 0.30504565645142051 0 -0.167164841548782 0.29891422322321631 0 -0.167164841548782 0.29891422322321631 0 -0.14136362158270599 0.28508793949713551 0 -0.14995133854557879 0.31573290008088639 0 -0.167164841548782 0.29891422322321631 0 -0.14136362158270599 0.28508793949713551 0 -0.14995133854557879 0.31573290008088639 0 -0.14136362158270599 0.28508793949713551 0 -0.13170636281121431 0.30540396541675668 0 -0.1262409447270301 0.3211703831111522 0 -0.13170636281121431 0.30540396541675668 0 -0.1173504618646501 0.30916380798395637 0 -0.14136362158270599 0.28508793949713551 0 -0.13170636281121431 0.30540396541675668 0 -0.1202787732923796 0.29457691953651272 0 -0.14136362158270599 0.28508793949713551 0 -0.1196693143642453 0.28329908912575552 0 -0.1202787732923796 0.29457691953651272 0 -0.14136362158270599 0.28508793949713551 0 -0.1155624016166297 0.27126165577105521 0 -0.1196693143642453 0.28329908912575552 0 -0.14136362158270599 0.28508793949713551 0 -0.1155624016166297 0.27126165577105521 0 -0.12872708527658799 0.25991420809329241 0 -0.1416417428525672 0.26777243923482702 0 -0.1155624016166297 0.27126165577105521 0 -0.14136362158270599 0.28508793949713551 0 -0.1416417428525672 0.26777243923482702 0 -0.1155624016166297 0.27126165577105521 0 -0.12872708527658799 0.25991420809329241 0 -0.14534546737678511 0.25129379472131641 0 -0.1416417428525672 0.26777243923482702 0 -0.12872708527658799 0.25991420809329241 0 -0.14534546737678511 0.25129379472131641 0 -0.12470300375741469 0.2457033751303839 0 -0.16582228118094081 0.26466105519565358 0 -0.14534546737678511 0.25129379472131641 0 -0.1416417428525672 0.26777243923482702 0 -0.16582228118094081 0.26466105519565358 0 -0.14136362158270599 0.28508793949713551 0 -0.1416417428525672 0.26777243923482702 0 -0.1083690905562489 0.27746201143443072 0 -0.10470287070229969 0.27376422074294909 0 -0.09206590757372593 0.27740472432850488 0 -0.099741497972773749 0.27068482051400677 0 -0.1098053558875477 0.27272524579145851 0 -0.092391857727521592 0.25884509119311472 0 -0.1155624016166297 0.27126165577105521 0 -0.1098053558875477 0.27272524579145851 0 -0.092391857727521592 0.25884509119311472 0 -0.099741497972773749 0.27068482051400677 0 -0.09206590757372593 0.27740472432850488 0 -0.092391857727521592 0.25884509119311472 0 -0.10470287070229969 0.27376422074294909 0 -0.099741497972773749 0.27068482051400677 0 -0.1098053558875477 0.27272524579145851 0 -0.1083690905562489 0.27746201143443072 0 -0.1098053558875477 0.27272524579145851 0 -0.1083690905562489 0.27746201143443072 0 -0.10470287070229969 0.27376422074294909 0 -0.1098053558875477 0.27272524579145851 0 -0.10470287070229969 0.27376422074294909 0 -0.099741497972773749 0.27068482051400677 0 -0.09206590757372593 0.27740472432850488 0 -0.1155624016166297 0.27126165577105521 0 -0.092391857727521592 0.25884509119311472 0 -0.11076524853809321 0.25238606884059173 0 -0.1155624016166297 0.27126165577105521 0 -0.092391857727521592 0.25884509119311472 0 -0.11076524853809321 0.25238606884059173 0 -0.1199394347971814 0.25731632695883078 0 -0.1155624016166297 0.27126165577105521 0 -0.12872708527658799 0.25991420809329241 0 -0.1199394347971814 0.25731632695883078 0 -0.12470300375741469 0.2457033751303839 0 -0.11076524853809321 0.25238606884059173 0 -0.1199394347971814 0.25731632695883078 0 -0.12470300375741469 0.2457033751303839 0 -0.12872708527658799 0.25991420809329241 0 -0.1199394347971814 0.25731632695883078 0 -0.1155624016166297 0.27126165577105521 0 -0.12872708527658799 0.25991420809329241 0 -0.1155624016166297 0.27126165577105521 0 -0.1083690905562489 0.27746201143443072 0 -0.1155624016166297 0.27126165577105521 0 -0.1196693143642453 0.28329908912575552 0 -0.1083690905562489 0.27746201143443072 0 -0.1155624016166297 0.27126165577105521 0 -0.1098053558875477 0.27272524579145851 0 -0.1083690905562489 0.27746201143443072 0 -0.1155624016166297 0.27126165577105521 0 -0.1083690905562489 0.27746201143443072 0 -0.1202787732923796 0.29457691953651272 0 -0.1003457715998239 0.30392270831765028 0 -0.1083690905562489 0.27746201143443072 0 -0.1196693143642453 0.28329908912575552 0 -0.1202787732923796 0.29457691953651272 0 -0.1202787732923796 0.29457691953651272 0 -0.1173504618646501 0.30916380798395637 0 -0.1003457715998239 0.30392270831765028 0 -0.13170636281121431 0.30540396541675668 0 -0.1202787732923796 0.29457691953651272 0 -0.1173504618646501 0.30916380798395637 0 -0.1173504618646501 0.30916380798395637 0 -0.1003457715998239 0.30392270831765028 0 -0.1081804568928026 0.32074506353771021 0 -0.1083690905562489 0.27746201143443072 0 -0.08834593029567378 0.29472120043351602 0 -0.09206590757372593 0.27740472432850488 0 -0.1083690905562489 0.27746201143443072 0 -0.1003457715998239 0.30392270831765028 0 -0.08834593029567378 0.29472120043351602 0 -0.1083690905562489 0.27746201143443072 0 -0.1003457715998239 0.30392270831765028 0 -0.1083690905562489 0.27746201143443072 0 -0.08834593029567378 0.29472120043351602 0 -0.08834593029567378 0.29472120043351602 0 -0.079344374197139078 0.28508182268507098 0 -0.09206590757372593 0.27740472432850488 0 -0.08834593029567378 0.29472120043351602 0 -0.072463929930227558 0.29930610977545041 0 -0.077617967212061698 0.29366907382828078 0 -0.08834593029567378 0.29472120043351602 0 -0.079344374197139078 0.28508182268507098 0 -0.077617967212061698 0.29366907382828078 0 -0.08834593029567378 0.29472120043351602 0 -0.087527931766016032 0.31235393694025021 0 -0.08121949171140587 0.31012908581564408 0 -0.08834593029567378 0.29472120043351602 0 -0.068322770035098762 0.31198038943260148 0 -0.1003457715998239 0.30392270831765028 0 -0.08834593029567378 0.29472120043351602 0 -0.087527931766016032 0.31235393694025021 0 -0.08834593029567378 0.29472120043351602 0 -0.08121949171140587 0.31012908581564408 0 -0.069852456288818351 0.31207980665071 0 -0.08834593029567378 0.29472120043351602 0 -0.068322770035098762 0.31198038943260148 0 -0.069852456288818351 0.31207980665071 0 -0.08834593029567378 0.29472120043351602 0 -0.072463929930227558 0.29930610977545041 0 -0.068322770035098762 0.31198038943260148 0 -0.072463929930227558 0.29930610977545041 0 -0.064179569528432873 0.29754197169583518 0 -0.063962500348327456 0.30379626580195229 0 -0.072463929930227558 0.29930610977545041 0 -0.063962500348327456 0.30379626580195229 0 -0.068322770035098762 0.31198038943260148 0 -0.068322770035098762 0.31198038943260148 0 -0.069852456288818351 0.31207980665071 0 -0.079344374197139078 0.28508182268507098 0 -0.070510141993048517 0.29225124769799787 0 -0.067485792004003509 0.28106498521306011 0 -0.079344374197139078 0.28508182268507098 0 -0.077617967212061698 0.29366907382828078 0 -0.070510141993048517 0.29225124769799787 0 -0.072463929930227558 0.29930610977545041 0 -0.077617967212061698 0.29366907382828078 0 -0.070510141993048517 0.29225124769799787 0 -0.064179569528432873 0.29754197169583518 0 -0.070510141993048517 0.29225124769799787 0 -0.059799020663136082 0.29068729405280619 0 -0.072463929930227558 0.29930610977545041 0 -0.064179569528432873 0.29754197169583518 0 -0.070510141993048517 0.29225124769799787 0 -0.070510141993048517 0.29225124769799787 0 -0.067485792004003509 0.28106498521306011 0 -0.059799020663136082 0.29068729405280619 0 -0.079344374197139078 0.28508182268507098 0 -0.077112635008727601 0.26938653581869981 0 -0.067485792004003509 0.28106498521306011 0 -0.077112635008727601 0.26938653581869981 0 -0.067485792004003509 0.28106498521306011 0 -0.060296114269721542 0.26705395206363342 0 -0.079344374197139078 0.28508182268507098 0 -0.077112635008727601 0.26938653581869981 0 -0.09206590757372593 0.27740472432850488 0 -0.077112635008727601 0.26938653581869981 0 -0.09206590757372593 0.27740472432850488 0 -0.092391857727521592 0.25884509119311472 0 -0.092391857727521592 0.25884509119311472 0 -0.069221313838413207 0.24642852661517459 0 -0.077112635008727601 0.26938653581869981 0 -0.092391857727521592 0.25884509119311472 0 -0.069221313838413207 0.24642852661517459 0 -0.077112635008727601 0.26938653581869981 0 -0.060296114269721542 0.26705395206363342 0 -0.069221313838413207 0.24642852661517459 0 -0.048126263350958612 0.25465777805589501 0 -0.060296114269721542 0.26705395206363342 0 -0.069221313838413207 0.24642852661517459 0 -0.048126263350958612 0.25465777805589501 0 -0.060296114269721542 0.26705395206363342 0 -0.041784573477856593 0.2719242686623195 0 -0.055384127889045079 0.27986410773994991 0 -0.060296114269721542 0.26705395206363342 0 -0.041784573477856593 0.2719242686623195 0 -0.055384127889045079 0.27986410773994991 0 -0.041784573477856593 0.2719242686623195 0 -0.044370237993260717 0.29032640624232281 0 -0.067485792004003509 0.28106498521306011 0 -0.055384127889045079 0.27986410773994991 0 -0.060296114269721542 0.26705395206363342 0 -0.041784573477856593 0.2719242686623195 0 -0.028053557715267439 0.25838243531431121 0 -0.02550209953536561 0.27186686885002359 0 -0.041784573477856593 0.2719242686623195 0 -0.02550209953536561 0.27186686885002359 0 -0.031040102747703489 0.28267752730564011 0 -0.048126263350958612 0.25465777805589501 0 -0.041784573477856593 0.2719242686623195 0 -0.028053557715267439 0.25838243531431121 0 -0.048126263350958612 0.25465777805589501 0 -0.028053557715267439 0.25838243531431121 0 -0.033382390283993792 0.24359412621706661 0 -0.028053557715267439 0.25838243531431121 0 -0.01504563196256534 0.26333196488375049 0 -0.01778818590069102 0.2421293126167848 0 -0.01504563196256534 0.26333196488375049 0 -0.01778818590069102 0.2421293126167848 0 -0.028053557715267439 0.25838243531431121 0 -0.02550209953536561 0.27186686885002359 0 -0.01504563196256534 0.26333196488375049 0 -0.028053557715267439 0.25838243531431121 0 -0.01504563196256534 0.26333196488375049 0 -0.02550209953536561 0.27186686885002359 0 -0.01214761008608776 0.28573653795517551 0 -0.031040102747703489 0.28267752730564011 0 -0.02550209953536561 0.27186686885002359 0 -0.01504563196256534 0.26333196488375049 0 -0.01214761008608776 0.28573653795517551 0 -0.001267499687089951 0.2776013217203892 0 -0.01504563196256534 0.26333196488375049 0 -0.01214761008608776 0.28573653795517551 0 -0.01504563196256534 0.26333196488375049 0 -0.01214761008608776 0.28573653795517551 0 -0.00067809962666212902 0.26216505597133072 0 -0.01504563196256534 0.26333196488375049 0 0.010965700908337589 0.27322930467739909 0 -0.001267499687089951 0.2776013217203892 0 -0.01504563196256534 0.26333196488375049 0 0.010965700908337589 0.27322930467739909 0 -0.01504563196256534 0.26333196488375049 0 0.010965700908337589 0.27322930467739909 0 -0.0087132352456033638 0.25173417187717928 0 -0.01504563196256534 0.26333196488375049 0 -0.01778818590069102 0.2421293126167848 0 -0.00067809962666212902 0.26216505597133072 0 -0.0087132352456033638 0.25173417187717928 0 0.0027594708259384838 0.25829047161104352 0 -0.00067809962666212902 0.26216505597133072 0 -0.0087132352456033638 0.25173417187717928 0 -0.01504563196256534 0.26333196488375049 0 -0.009249588209606344 0.30814111102660002 0 -0.01214761008608776 0.28573653795517551 0 0.0038021096493471361 0.29689124930627131 0 -0.009249588209606344 0.30814111102660002 0 -0.01214761008608776 0.28573653795517551 0 -0.01214761008608776 0.28573653795517551 0 0.002380999114604244 0.28599596302517022 0 0.0038021096493471361 0.29689124930627131 0 -0.001267499687089951 0.2776013217203892 0 -0.01214761008608776 0.28573653795517551 0 0.002380999114604244 0.28599596302517022 0 -0.009249588209606344 0.30814111102660002 0 -0.01214761008608776 0.28573653795517551 0 -0.02711874363180217 0.2953884665518679 0 -0.01214761008608776 0.28573653795517551 0 -0.031040102747703489 0.28267752730564011 0 -0.02711874363180217 0.2953884665518679 0 -0.009249588209606344 0.30814111102660002 0 -0.02711874363180217 0.2953884665518679 0 -0.038786179122352507 0.31006075022960111 0 -0.009249588209606344 0.30814111102660002 0 -0.038786179122352507 0.31006075022960111 0 -0.02711874363180217 0.2953884665518679 0 -0.038786179122352507 0.31006075022960111 0 -0.044370237993260717 0.29032640624232281 0 -0.038786179122352507 0.31006075022960111 0 -0.044370237993260717 0.29032640624232281 0 -0.054162254707424723 0.30166894115096898 0 -0.031040102747703489 0.28267752730564011 0 -0.02711874363180217 0.2953884665518679 0 -0.044370237993260717 0.29032640624232281 0 -0.041784573477856593 0.2719242686623195 0 -0.031040102747703489 0.28267752730564011 0 -0.044370237993260717 0.29032640624232281 0 -0.055384127889045079 0.27986410773994991 0 -0.044370237993260717 0.29032640624232281 0 -0.059799020663136082 0.29068729405280619 0 -0.044370237993260717 0.29032640624232281 0 -0.059799020663136082 0.29068729405280619 0 -0.054162254707424723 0.30166894115096898 0 -0.064179569528432873 0.29754197169583518 0 -0.059799020663136082 0.29068729405280619 0 -0.054162254707424723 0.30166894115096898 0 -0.067485792004003509 0.28106498521306011 0 -0.055384127889045079 0.27986410773994991 0 -0.059799020663136082 0.29068729405280619 0 -0.068322770035098762 0.31198038943260148 0 -0.038786179122352507 0.31006075022960111 0 -0.068322770035098762 0.31198038943260148 0 -0.038786179122352507 0.31006075022960111 0 -0.054162254707424723 0.30166894115096898 0 -0.064179569528432873 0.29754197169583518 0 -0.063962500348327456 0.30379626580195229 0 -0.054162254707424723 0.30166894115096898 0 -0.063962500348327456 0.30379626580195229 0 -0.068322770035098762 0.31198038943260148 0 -0.054162254707424723 0.30166894115096898 0 -0.068322770035098762 0.31198038943260148 0 -0.038786179122352507 0.31006075022960111 0 -0.053879496619987192 0.32442993198196868 0 -0.068322770035098762 0.31198038943260148 0 -0.053879496619987192 0.32442993198196868 0 -0.059045099567240703 0.33862263320968672 0 -0.059976501396798443 0.34640013057040159 0 -0.068046633572776155 0.34513696516333192 0 -0.053879496619987192 0.32442993198196868 0 -0.059045099567240703 0.33862263320968672 0 -0.06815446288386498 0.3263880450875648 0 -0.053879496619987192 0.32442993198196868 0 -0.059045099567240703 0.33862263320968672 0 -0.049717572699208172 0.33977374392884352 0 -0.053879496619987192 0.32442993198196868 0 -0.049717572699208172 0.33977374392884352 0 -0.039436223204876379 0.33687947453133682 0 -0.059045099567240703 0.33862263320968672 0 -0.049717572699208172 0.33977374392884352 0 -0.052933118771744558 0.34753778728834739 0 -0.049717572699208172 0.33977374392884352 0 -0.039436223204876379 0.33687947453133682 0 -0.045752302425533672 0.34929255203680049 0 -0.053879496619987192 0.32442993198196868 0 -0.039436223204876379 0.33687947453133682 0 -0.039359444206513459 0.32419621080282812 0 -0.053879496619987192 0.32442993198196868 0 -0.039436223204876379 0.33687947453133682 0 -0.039436223204876379 0.33687947453133682 0 -0.039359444206513459 0.32419621080282812 0 -0.02531264429424256 0.33765677836634578 0 -0.039436223204876379 0.33687947453133682 0 -0.02531264429424256 0.33765677836634578 0 -0.034795741464765127 0.3466441775467104 0 -0.038786179122352507 0.31006075022960111 0 -0.053879496619987192 0.32442993198196868 0 -0.039359444206513459 0.32419621080282812 0 -0.038786179122352507 0.31006075022960111 0 -0.039359444206513459 0.32419621080282812 0 -0.024068293084679539 0.32272721199300619 0 -0.009249588209606344 0.30814111102660002 0 -0.038786179122352507 0.31006075022960111 0 -0.024068293084679539 0.32272721199300619 0 -0.024068293084679539 0.32272721199300619 0 -0.02531264429424256 0.33765677836634578 0 -0.005758602284471958 0.33512988219008361 0 -0.039359444206513459 0.32419621080282812 0 -0.024068293084679539 0.32272721199300619 0 -0.02531264429424256 0.33765677836634578 0 -0.005758602284471958 0.33512988219008361 0 -0.0077202170519437719 0.34710906184019069 0 0.0082446038140756572 0.34376242611402219 0 -0.02531264429424256 0.33765677836634578 0 -0.005758602284471958 0.33512988219008361 0 -0.0077202170519437719 0.34710906184019069 0 -0.009249588209606344 0.30814111102660002 0 -0.005758602284471958 0.33512988219008361 0 0.0094307060340404689 0.32376070079746733 0 -0.009249588209606344 0.30814111102660002 0 -0.005758602284471958 0.33512988219008361 0 -0.009249588209606344 0.30814111102660002 0 -0.024068293084679539 0.32272721199300619 0 -0.005758602284471958 0.33512988219008361 0 -0.0045677851665312944 0.36532665559408428 0 -0.0087141207398781558 0.37710904293520409 0 0.0077169544749549623 0.36306791211952738 0 -0.0045677851665312944 0.36532665559408428 0 -0.019623601183504629 0.35541479533684739 0 -0.0087141207398781558 0.37710904293520409 0 -0.0087141207398781558 0.37710904293520409 0 0.0077169544749549623 0.36306791211952738 0 -0.0077202170519437719 0.34710906184019069 0 -0.019623601183504629 0.35541479533684739 0 0.0038095970876644218 0.35606187191015221 0 -0.019623601183504629 0.35541479533684739 0 0.0038095970876644218 0.35606187191015221 0 -0.0045677851665312944 0.36532665559408428 0 -0.019623601183504629 0.35541479533684739 0 0.0038095970876644218 0.35606187191015221 0 -0.02531264429424256 0.33765677836634578 0 -0.019623601183504629 0.35541479533684739 0 -0.034795741464765127 0.3466441775467104 0 -0.02531264429424256 0.33765677836634578 0 -0.0077202170519437719 0.34710906184019069 0 -0.019623601183504629 0.35541479533684739 0 -0.019623601183504629 0.35541479533684739 0 -0.034100997704691827 0.37295894625721099 0 -0.0087141207398781558 0.37710904293520409 0 -0.019623601183504629 0.35541479533684739 0 -0.034100997704691827 0.37295894625721099 0 -0.043056799454673583 0.35476771876354157 0 -0.034100997704691827 0.37295894625721099 0 -0.047131069669461997 0.36807368878450081 0 -0.054593457040109393 0.3822816536988497 0 -0.034100997704691827 0.37295894625721099 0 -0.043056799454673583 0.35476771876354157 0 -0.034100997704691827 0.37295894625721099 0 -0.043056799454673583 0.35476771876354157 0 -0.047131069669461997 0.36807368878450081 0 -0.019623601183504629 0.35541479533684739 0 -0.043056799454673583 0.35476771876354157 0 -0.019623601183504629 0.35541479533684739 0 -0.034795741464765127 0.3466441775467104 0 -0.043056799454673583 0.35476771876354157 0 -0.043056799454673583 0.35476771876354157 0 -0.045752302425533672 0.34929255203680049 0 -0.039436223204876379 0.33687947453133682 0 -0.034795741464765127 0.3466441775467104 0 -0.045752302425533672 0.34929255203680049 0 -0.034795741464765127 0.3466441775467104 0 -0.043056799454673583 0.35476771876354157 0 -0.045752302425533672 0.34929255203680049 0 -0.043056799454673583 0.35476771876354157 0 -0.052933118771744558 0.34753778728834739 0 -0.059881153675432383 0.35430313662024071 0 -0.043056799454673583 0.35476771876354157 0 -0.059881153675432383 0.35430313662024071 0 -0.051828064233363932 0.36038047858465339 0 -0.043056799454673583 0.35476771876354157 0 -0.059881153675432383 0.35430313662024071 0 -0.043056799454673583 0.35476771876354157 0 -0.045752302425533672 0.34929255203680049 0 -0.052933118771744558 0.34753778728834739 0 -0.049717572699208172 0.33977374392884352 0 -0.045752302425533672 0.34929255203680049 0 -0.052933118771744558 0.34753778728834739 0 -0.059881153675432383 0.35430313662024071 0 -0.051828064233363932 0.36038047858465339 0 -0.058626870601395778 0.36023180910453118 0 -0.059045099567240703 0.33862263320968672 0 -0.052933118771744558 0.34753778728834739 0 -0.059976501396798443 0.34640013057040159 0 -0.052933118771744558 0.34753778728834739 0 -0.059881153675432383 0.35430313662024071 0 -0.059976501396798443 0.34640013057040159 0 -0.047131069669461997 0.36807368878450081 0 -0.054116187566776573 0.36544526432200969 0 -0.058148679921659119 0.37186744297544022 0 -0.047131069669461997 0.36807368878450081 0 -0.058148679921659119 0.37186744297544022 0 -0.054593457040109393 0.3822816536988497 0 -0.043056799454673583 0.35476771876354157 0 -0.047131069669461997 0.36807368878450081 0 -0.051828064233363932 0.36038047858465339 0 -0.047131069669461997 0.36807368878450081 0 -0.051828064233363932 0.36038047858465339 0 -0.054116187566776573 0.36544526432200969 0 -0.054116187566776573 0.36544526432200969 0 -0.058626870601395778 0.36023180910453118 0 -0.058148679921659119 0.37186744297544022 0 -0.051828064233363932 0.36038047858465339 0 -0.054116187566776573 0.36544526432200969 0 -0.058626870601395778 0.36023180910453118 0 -0.058626870601395778 0.36023180910453118 0 -0.058148679921659119 0.37186744297544022 0 -0.076275814730551866 0.38330479896731001 0 -0.058626870601395778 0.36023180910453118 0 -0.071157696118109362 0.36170448025062218 0 -0.076275814730551866 0.38330479896731001 0 -0.071157696118109362 0.36170448025062218 0 -0.084299133686975572 0.35684410208409001 0 -0.076275814730551866 0.38330479896731001 0 -0.058626870601395778 0.36023180910453118 0 -0.076275814730551866 0.38330479896731001 0 -0.084299133686975572 0.35684410208409001 0 -0.089436666146690338 0.3774527594588406 0 -0.076275814730551866 0.38330479896731001 0 -0.084299133686975572 0.35684410208409001 0 -0.076275814730551866 0.38330479896731001 0 -0.093494049974744503 0.36523362229143391 0 -0.084299133686975572 0.35684410208409001 0 -0.089436666146690338 0.3774527594588406 0 -0.084299133686975572 0.35684410208409001 0 -0.076705507896191183 0.35383855447693902 0 -0.080753986599573127 0.33990497651870988 0 -0.084299133686975572 0.35684410208409001 0 -0.092322452643399749 0.33038340520087017 0 -0.095141502753968779 0.35097174187852381 0 -0.093494049974744503 0.36523362229143391 0 -0.084299133686975572 0.35684410208409001 0 -0.095141502753968779 0.35097174187852381 0 -0.059881153675432383 0.35430313662024071 0 -0.071157696118109362 0.36170448025062218 0 -0.076705507896191183 0.35383855447693902 0 -0.076705507896191183 0.35383855447693902 0 -0.068046633572776155 0.34513696516333192 0 -0.080753986599573127 0.33990497651870988 0 -0.059881153675432383 0.35430313662024071 0 -0.076705507896191183 0.35383855447693902 0 -0.068046633572776155 0.34513696516333192 0 -0.059881153675432383 0.35430313662024071 0 -0.076705507896191183 0.35383855447693902 0 -0.071157696118109362 0.36170448025062218 0 -0.084299133686975572 0.35684410208409001 0 -0.076705507896191183 0.35383855447693902 0 -0.059881153675432383 0.35430313662024071 0 -0.058626870601395778 0.36023180910453118 0 -0.071157696118109362 0.36170448025062218 0 -0.059881153675432383 0.35430313662024071 0 -0.059976501396798443 0.34640013057040159 0 -0.068046633572776155 0.34513696516333192 0 -0.06815446288386498 0.3263880450875648 0 -0.079151648495115301 0.32136139923810009 0 -0.080753986599573127 0.33990497651870988 0 -0.068046633572776155 0.34513696516333192 0 -0.06815446288386498 0.3263880450875648 0 -0.080753986599573127 0.33990497651870988 0 -0.059045099567240703 0.33862263320968672 0 -0.068046633572776155 0.34513696516333192 0 -0.06815446288386498 0.3263880450875648 0 -0.068322770035098762 0.31198038943260148 0 -0.069852456288818351 0.31207980665071 0 -0.06815446288386498 0.3263880450875648 0 -0.068322770035098762 0.31198038943260148 0 -0.053879496619987192 0.32442993198196868 0 -0.06815446288386498 0.3263880450875648 0 -0.08121949171140587 0.31012908581564408 0 -0.069852456288818351 0.31207980665071 0 -0.079151648495115301 0.32136139923810009 0 -0.069852456288818351 0.31207980665071 0 -0.06815446288386498 0.3263880450875648 0 -0.079151648495115301 0.32136139923810009 0 -0.087527931766016032 0.31235393694025021 0 -0.079151648495115301 0.32136139923810009 0 -0.092322452643399749 0.33038340520087017 0 -0.1003457715998239 0.30392270831765028 0 -0.087527931766016032 0.31235393694025021 0 -0.092322452643399749 0.33038340520087017 0 -0.087527931766016032 0.31235393694025021 0 -0.08121949171140587 0.31012908581564408 0 -0.079151648495115301 0.32136139923810009 0 -0.084299133686975572 0.35684410208409001 0 -0.092322452643399749 0.33038340520087017 0 -0.079151648495115301 0.32136139923810009 0 -0.092322452643399749 0.33038340520087017 0 -0.080753986599573127 0.33990497651870988 0 -0.084299133686975572 0.35684410208409001 0 -0.092322452643399749 0.33038340520087017 0 -0.080753986599573127 0.33990497651870988 0 -0.092322452643399749 0.33038340520087017 0 -0.10472406897533799 0.34168768652513631 0 -0.095141502753968779 0.35097174187852381 0 -0.092322452643399749 0.33038340520087017 0 -0.10472406897533799 0.34168768652513631 0 -0.1081804568928026 0.32074506353771021 0 -0.1003457715998239 0.30392270831765028 0 -0.092322452643399749 0.33038340520087017 0 -0.1003457715998239 0.30392270831765028 0 -0.092322452643399749 0.33038340520087017 0 -0.1081804568928026 0.32074506353771021 0 -0.1262409447270301 0.3211703831111522 0 -0.1173504618646501 0.30916380798395637 0 -0.1081804568928026 0.32074506353771021 0 -0.1262409447270301 0.3211703831111522 0 -0.1081804568928026 0.32074506353771021 0 -0.1175879007316586 0.33497855513245622 0 -0.13367478836053351 0.33932016938713638 0 -0.1175879007316586 0.33497855513245622 0 -0.1173066256070304 0.35104950557859033 0 -0.10472406897533799 0.34168768652513631 0 -0.1081804568928026 0.32074506353771021 0 -0.1175879007316586 0.33497855513245622 0 -0.10472406897533799 0.34168768652513631 0 -0.1175879007316586 0.33497855513245622 0 -0.1173066256070304 0.35104950557859033 0 -0.1173066256070304 0.35104950557859033 0 -0.1198206075896991 0.37069234566290138 0 -0.1030551893938276 0.35978992576853291 0 -0.1367685514822152 0.35851885971508118 0 -0.1173066256070304 0.35104950557859033 0 -0.1198206075896991 0.37069234566290138 0 -0.1198206075896991 0.37069234566290138 0 -0.1030551893938276 0.35978992576853291 0 -0.10026372758235801 0.37465761506622741 0 -0.093494049974744503 0.36523362229143391 0 -0.10026372758235801 0.37465761506622741 0 -0.089436666146690338 0.3774527594588406 0 -0.093494049974744503 0.36523362229143391 0 -0.1030551893938276 0.35978992576853291 0 -0.10026372758235801 0.37465761506622741 0 -0.10472406897533799 0.34168768652513631 0 -0.1030551893938276 0.35978992576853291 0 -0.095141502753968779 0.35097174187852381 0 -0.093494049974744503 0.36523362229143391 0 -0.1030551893938276 0.35978992576853291 0 -0.095141502753968779 0.35097174187852381 0 -0.10472406897533799 0.34168768652513631 0 -0.1173066256070304 0.35104950557859033 0 -0.1030551893938276 0.35978992576853291 0 -0.101128536279416 0.3977608810528192 0 -0.11378235269799521 0.38746486633725291 0 -0.11258596611237601 0.40408595479252452 0 -0.101128536279416 0.3977608810528192 0 -0.095244926421122186 0.38729621463576269 0 -0.11378235269799521 0.38746486633725291 0 -0.101128536279416 0.3977608810528192 0 -0.11258596611237601 0.40408595479252452 0 -0.097808874238227678 0.41145560844912898 0 -0.101128536279416 0.3977608810528192 0 -0.097808874238227678 0.41145560844912898 0 -0.087042344484389883 0.39738020370821953 0 -0.101128536279416 0.3977608810528192 0 -0.095244926421122186 0.38729621463576269 0 -0.087042344484389883 0.39738020370821953 0 -0.10026372758235801 0.37465761506622741 0 -0.095244926421122186 0.38729621463576269 0 -0.11378235269799521 0.38746486633725291 0 -0.10026372758235801 0.37465761506622741 0 -0.095244926421122186 0.38729621463576269 0 -0.089436666146690338 0.3774527594588406 0 -0.1198206075896991 0.37069234566290138 0 -0.10026372758235801 0.37465761506622741 0 -0.11378235269799521 0.38746486633725291 0 -0.12826940643264259 0.38638828685515292 0 -0.1198206075896991 0.37069234566290138 0 -0.11378235269799521 0.38746486633725291 0 -0.12644786621320531 0.40058001872868543 0 -0.12826940643264259 0.38638828685515292 0 -0.11378235269799521 0.38746486633725291 0 -0.12761284081938409 0.41418542740570108 0 -0.11378235269799521 0.38746486633725291 0 -0.12761284081938409 0.41418542740570108 0 -0.12644786621320531 0.40058001872868543 0 -0.11378235269799521 0.38746486633725291 0 -0.12761284081938409 0.41418542740570108 0 -0.11378235269799521 0.38746486633725291 0 -0.11258596611237601 0.40408595479252452 0 -0.12761284081938409 0.41418542740570108 0 -0.11258596611237601 0.40408595479252452 0 -0.097808874238227678 0.41145560844912898 0 -0.12761284081938409 0.41418542740570108 0 -0.1126245701039178 0.4308246085444013 0 -0.097808874238227678 0.41145560844912898 0 -0.12761284081938409 0.41418542740570108 0 -0.097808874238227678 0.41145560844912898 0 -0.12761284081938409 0.41418542740570108 0 -0.1126245701039178 0.4308246085444013 0 -0.1242648033483075 0.43981492828754482 0 -0.1126245701039178 0.4308246085444013 0 -0.096605527178418776 0.42311346390882398 0 -0.097170403390676049 0.43571281837191522 0 -0.1126245701039178 0.4308246085444013 0 -0.097170403390676049 0.43571281837191522 0 -0.10338783084247161 0.44098956532991213 0 -0.1126245701039178 0.4308246085444013 0 -0.097808874238227678 0.41145560844912898 0 -0.1126245701039178 0.4308246085444013 0 -0.096605527178418776 0.42311346390882398 0 -0.097808874238227678 0.41145560844912898 0 -0.096605527178418776 0.42311346390882398 0 -0.097808874238227678 0.41145560844912898 0 -0.090623427087895073 0.41079747558654428 0 -0.097808874238227678 0.41145560844912898 0 -0.090623427087895073 0.41079747558654428 0 -0.096605527178418776 0.42311346390882398 0 -0.090623427087895073 0.41079747558654428 0 -0.084800361071377284 0.4267768085921303 0 -0.090623427087895073 0.41079747558654428 0 -0.084347825254610875 0.40943513047528779 0 -0.084800361071377284 0.4267768085921303 0 -0.084800361071377284 0.4267768085921303 0 -0.074925168374781331 0.40278603401425761 0 -0.084347825254610875 0.40943513047528779 0 -0.084800361071377284 0.4267768085921303 0 -0.074925168374781331 0.40278603401425761 0 -0.097808874238227678 0.41145560844912898 0 -0.090623427087895073 0.41079747558654428 0 -0.087042344484389883 0.39738020370821953 0 -0.096605527178418776 0.42311346390882398 0 -0.097170403390676049 0.43571281837191522 0 -0.084800361071377284 0.4267768085921303 0 -0.084800361071377284 0.4267768085921303 0 -0.077689053426030094 0.43734830183904833 0 -0.073740177733494089 0.43015549729097768 0 -0.084800361071377284 0.4267768085921303 0 -0.077689053426030094 0.43734830183904833 0 -0.085627028266785254 0.44117175463919189 0 -0.077689053426030094 0.43734830183904833 0 -0.073740177733494089 0.43015549729097768 0 -0.069373851585076945 0.43677151010665521 0 -0.084800361071377284 0.4267768085921303 0 -0.073740177733494089 0.43015549729097768 0 -0.074963529381557356 0.42372471124402672 0 -0.084800361071377284 0.4267768085921303 0 -0.074963529381557356 0.42372471124402672 0 -0.074207610301873977 0.415826985147286 0 -0.073740177733494089 0.43015549729097768 0 -0.07134827269677288 0.42521816639912852 0 -0.067010261651664849 0.42692585223643509 0 -0.073740177733494089 0.43015549729097768 0 -0.074963529381557356 0.42372471124402672 0 -0.07134827269677288 0.42521816639912852 0 -0.074963529381557356 0.42372471124402672 0 -0.07134827269677288 0.42521816639912852 0 -0.069903249343569923 0.42035209495099629 0 -0.06803153127557314 0.42418340705062968 0 -0.063864341410284964 0.42423751461595932 0 -0.069903249343569923 0.42035209495099629 0 -0.07134827269677288 0.42521816639912852 0 -0.06803153127557314 0.42418340705062968 0 -0.067010261651664849 0.42692585223643509 0 -0.07134827269677288 0.42521816639912852 0 -0.06803153127557314 0.42418340705062968 0 -0.069903249343569923 0.42035209495099629 0 -0.06803153127557314 0.42418340705062968 0 -0.063864341410284964 0.42423751461595932 0 -0.067010261651664849 0.42692585223643509 0 -0.063864341410284964 0.42423751461595932 0 -0.067010261651664849 0.42692585223643509 0 -0.067010261651664849 0.42692585223643509 0 -0.06657591115514655 0.43192586875325267 0 -0.062357688865182517 0.42920641545622512 0 -0.063864341410284964 0.42423751461595932 0 -0.067010261651664849 0.42692585223643509 0 -0.062357688865182517 0.42920641545622512 0 -0.063864341410284964 0.42423751461595932 0 -0.062357688865182517 0.42920641545622512 0 -0.073740177733494089 0.43015549729097768 0 -0.067010261651664849 0.42692585223643509 0 -0.06657591115514655 0.43192586875325267 0 -0.073740177733494089 0.43015549729097768 0 -0.06657591115514655 0.43192586875325267 0 -0.069373851585076945 0.43677151010665521 0 -0.06657591115514655 0.43192586875325267 0 -0.062750456602468974 0.43554137489064498 0 -0.062357688865182517 0.42920641545622512 0 -0.06657591115514655 0.43192586875325267 0 -0.062750456602468974 0.43554137489064498 0 -0.069373851585076945 0.43677151010665521 0 -0.063864341410284964 0.42423751461595932 0 -0.069903249343569923 0.42035209495099629 0 -0.070070078070418332 0.40377115679163461 0 -0.074207610301873977 0.415826985147286 0 -0.069903249343569923 0.42035209495099629 0 -0.070070078070418332 0.40377115679163461 0 -0.063864341410284964 0.42423751461595932 0 -0.070070078070418332 0.40377115679163461 0 -0.058881304157308093 0.40804381518971672 0 -0.063864341410284964 0.42423751461595932 0 -0.070070078070418332 0.40377115679163461 0 -0.084800361071377284 0.4267768085921303 0 -0.074207610301873977 0.415826985147286 0 -0.074925168374781331 0.40278603401425761 0 -0.074207610301873977 0.415826985147286 0 -0.070070078070418332 0.40377115679163461 0 -0.074925168374781331 0.40278603401425761 0 -0.074963529381557356 0.42372471124402672 0 -0.074207610301873977 0.415826985147286 0 -0.069903249343569923 0.42035209495099629 0 -0.070070078070418332 0.40377115679163461 0 -0.064506344576777661 0.39145758865641178 0 -0.076275814730551866 0.38330479896731001 0 -0.070070078070418332 0.40377115679163461 0 -0.074925168374781331 0.40278603401425761 0 -0.076275814730551866 0.38330479896731001 0 -0.070070078070418332 0.40377115679163461 0 -0.076275814730551866 0.38330479896731001 0 -0.070070078070418332 0.40377115679163461 0 -0.064506344576777661 0.39145758865641178 0 -0.057086028466031037 0.39647274516785291 0 -0.074925168374781331 0.40278603401425761 0 -0.087042344484389883 0.39738020370821953 0 -0.076275814730551866 0.38330479896731001 0 -0.084347825254610875 0.40943513047528779 0 -0.074925168374781331 0.40278603401425761 0 -0.087042344484389883 0.39738020370821953 0 -0.097808874238227678 0.41145560844912898 0 -0.087042344484389883 0.39738020370821953 0 -0.090623427087895073 0.41079747558654428 0 -0.084347825254610875 0.40943513047528779 0 -0.087042344484389883 0.39738020370821953 0 -0.087042344484389883 0.39738020370821953 0 -0.089436666146690338 0.3774527594588406 0 -0.076275814730551866 0.38330479896731001 0 -0.095244926421122186 0.38729621463576269 0 -0.087042344484389883 0.39738020370821953 0 -0.089436666146690338 0.3774527594588406 0 -0.087042344484389883 0.39738020370821953 0 -0.076275814730551866 0.38330479896731001 0 -0.064506344576777661 0.39145758865641178 0 -0.076275814730551866 0.38330479896731001 0 -0.054593457040109393 0.3822816536988497 0 -0.058148679921659119 0.37186744297544022 0 -0.076275814730551866 0.38330479896731001 0 -0.054593457040109393 0.3822816536988497 0 -0.064506344576777661 0.39145758865641178 0 -0.054593457040109393 0.3822816536988497 0 -0.057086028466031037 0.39647274516785291 0 -0.054593457040109393 0.3822816536988497 0 -0.057086028466031037 0.39647274516785291 0 -0.042391572779214973 0.39096282696345341 0 -0.057086028466031037 0.39647274516785291 0 -0.042391572779214973 0.39096282696345341 0 -0.044504768682498037 0.40769384418342008 0 -0.070070078070418332 0.40377115679163461 0 -0.057086028466031037 0.39647274516785291 0 -0.058881304157308093 0.40804381518971672 0 -0.057086028466031037 0.39647274516785291 0 -0.044504768682498037 0.40769384418342008 0 -0.058881304157308093 0.40804381518971672 0 -0.02514519595471108 0.39115017375088101 0 -0.044504768682498037 0.40769384418342008 0 -0.042391572779214973 0.39096282696345341 0 -0.02514519595471108 0.39115017375088101 0 -0.044504768682498037 0.40769384418342008 0 -0.034100997704691827 0.37295894625721099 0 -0.054593457040109393 0.3822816536988497 0 -0.042391572779214973 0.39096282696345341 0 -0.034100997704691827 0.37295894625721099 0 -0.042391572779214973 0.39096282696345341 0 -0.02514519595471108 0.39115017375088101 0 -0.034100997704691827 0.37295894625721099 0 -0.02514519595471108 0.39115017375088101 0 -0.034100997704691827 0.37295894625721099 0 -0.02514519595471108 0.39115017375088101 0 -0.0087141207398781558 0.37710904293520409 0 -0.02514519595471108 0.39115017375088101 0 -0.0087141207398781558 0.37710904293520409 0 -0.02514519595471108 0.39115017375088101 0 -0.014810785045769751 0.41214166341376801 0 -0.02514519595471108 0.39115017375088101 0 -0.014810785045769751 0.41214166341376801 0 -0.044504768682498037 0.40769384418342008 0 -0.0068648610501423502 0.39382000907293813 0 -0.014810785045769751 0.41214166341376801 0 0.0046995574085186929 0.41194005205042061 0 -0.02514519595471108 0.39115017375088101 0 -0.0068648610501423502 0.39382000907293813 0 -0.014810785045769751 0.41214166341376801 0 -0.02514519595471108 0.39115017375088101 0 -0.0068648610501423502 0.39382000907293813 0 -0.0087141207398781558 0.37710904293520409 0 -0.0068648610501423502 0.39382000907293813 0 -0.0087141207398781558 0.37710904293520409 0 0.0053185270157129726 0.37689571945341471 0 -0.0044763741368290672 0.43313315307665529 0 -0.014810785045769751 0.41214166341376801 0 -0.0044763741368290672 0.43313315307665529 0 -0.014810785045769751 0.41214166341376801 0 -0.026116443713473419 0.4246575807879529 0 -0.0044763741368290672 0.43313315307665529 0 -0.014810785045769751 0.41214166341376801 0 0.0046995574085186929 0.41194005205042061 0 -0.014810785045769751 0.41214166341376801 0 -0.026116443713473419 0.4246575807879529 0 -0.044504768682498037 0.40769384418342008 0 -0.0044763741368290672 0.43313315307665529 0 -0.026116443713473419 0.4246575807879529 0 -0.02623027688729573 0.44118750916919391 0 -0.026116443713473419 0.4246575807879529 0 -0.040560013814974517 0.42913173409672722 0 -0.02623027688729573 0.44118750916919391 0 -0.040560013814974517 0.42913173409672722 0 -0.048293098329248912 0.43867666423002288 0 -0.039090066940739521 0.44352471403713711 0 -0.026116443713473419 0.4246575807879529 0 -0.040560013814974517 0.42913173409672722 0 -0.044504768682498037 0.40769384418342008 0 -0.040560013814974517 0.42913173409672722 0 -0.044504768682498037 0.40769384418342008 0 -0.051886787429848112 0.42350176277299723 0 -0.063864341410284964 0.42423751461595932 0 -0.044504768682498037 0.40769384418342008 0 -0.058881304157308093 0.40804381518971672 0 -0.063864341410284964 0.42423751461595932 0 -0.044504768682498037 0.40769384418342008 0 -0.051886787429848112 0.42350176277299723 0 -0.063864341410284964 0.42423751461595932 0 -0.044504768682498037 0.40769384418342008 0 -0.053936434918908913 0.43159717611494758 0 -0.057641003333182179 0.44086754716312743 0 -0.048293098329248912 0.43867666423002288 0 -0.040560013814974517 0.42913173409672722 0 -0.053936434918908913 0.43159717611494758 0 -0.048293098329248912 0.43867666423002288 0 -0.040560013814974517 0.42913173409672722 0 -0.053936434918908913 0.43159717611494758 0 -0.051886787429848112 0.42350176277299723 0 -0.053936434918908913 0.43159717611494758 0 -0.051886787429848112 0.42350176277299723 0 -0.062357688865182517 0.42920641545622512 0 -0.063864341410284964 0.42423751461595932 0 -0.051886787429848112 0.42350176277299723 0 -0.062357688865182517 0.42920641545622512 0 -0.062750456602468974 0.43554137489064498 0 -0.053936434918908913 0.43159717611494758 0 -0.062357688865182517 0.42920641545622512 0 -0.062750456602468974 0.43554137489064498 0 -0.053936434918908913 0.43159717611494758 0 -0.057641003333182179 0.44086754716312743 0 -0.062750456602468974 0.43554137489064498 0 -0.057641003333182179 0.44086754716312743 0 -0.065491549478626135 0.44200233464982802 0 -0.057641003333182179 0.44086754716312743 0 -0.062398417199954148 0.4499603094023914 0 -0.065491549478626135 0.44200233464982802 0 -0.057641003333182179 0.44086754716312743 0 -0.062398417199954148 0.4499603094023914 0 -0.050237972638439453 0.44826214973817502 0 -0.057641003333182179 0.44086754716312743 0 -0.050237972638439453 0.44826214973817502 0 -0.048293098329248912 0.43867666423002288 0 -0.062398417199954148 0.4499603094023914 0 -0.050230730183752688 0.46259696058471089 0 -0.064501224992871267 0.46542691543905351 0 -0.062398417199954148 0.4499603094023914 0 -0.050237972638439453 0.44826214973817502 0 -0.050230730183752688 0.46259696058471089 0 -0.050230730183752688 0.46259696058471089 0 -0.035748626011326709 0.45858167758110602 0 -0.046040344352481867 0.47841272498986082 0 -0.050237972638439453 0.44826214973817502 0 -0.050230730183752688 0.46259696058471089 0 -0.035748626011326709 0.45858167758110602 0 -0.035748626011326709 0.45858167758110602 0 -0.039090066940739521 0.44352471403713711 0 -0.02623027688729573 0.44118750916919391 0 -0.050237972638439453 0.44826214973817502 0 -0.048293098329248912 0.43867666423002288 0 -0.039090066940739521 0.44352471403713711 0 -0.050237972638439453 0.44826214973817502 0 -0.035748626011326709 0.45858167758110602 0 -0.039090066940739521 0.44352471403713711 0 -0.040560013814974517 0.42913173409672722 0 -0.039090066940739521 0.44352471403713711 0 -0.02623027688729573 0.44118750916919391 0 -0.035748626011326709 0.45858167758110602 0 -0.02623027688729573 0.44118750916919391 0 -0.01728298942402769 0.45556140426229003 0 -0.0044763741368290672 0.43313315307665529 0 -0.02623027688729573 0.44118750916919391 0 -0.01728298942402769 0.45556140426229003 0 -0.035748626011326709 0.45858167758110602 0 -0.01728298942402769 0.45556140426229003 0 -0.022784747477638551 0.4775754860453762 0 -0.01728298942402769 0.45556140426229003 0 -0.0062093312902834459 0.46527566221073008 0 0.006403582431216831 0.45126676372832991 0 -0.01728298942402769 0.45556140426229003 0 -0.0062093312902834459 0.46527566221073008 0 -0.022784747477638551 0.4775754860453762 0 -0.0044763741368290672 0.43313315307665529 0 -0.01728298942402769 0.45556140426229003 0 0.006403582431216831 0.45126676372832991 0 -0.0062093312902834459 0.46527566221073008 0 -0.022784747477638551 0.4775754860453762 0 0.0095498935665802413 0.47810272379952351 0 -0.022784747477638551 0.4775754860453762 0 -0.021427984417146221 0.5 0 0.0095498935665802413 0.47810272379952351 0 -0.021427984417146221 0.5 0 0.0095498935665802413 0.47810272379952351 0 0.0086042794582089632 0.5 0 -0.022784747477638551 0.4775754860453762 0 -0.021427984417146221 0.5 0 -0.046040344352481867 0.47841272498986082 0 -0.021427984417146221 0.5 0 -0.046040344352481867 0.47841272498986082 0 -0.051460248292501398 0.5 0 -0.035748626011326709 0.45858167758110602 0 -0.022784747477638551 0.4775754860453762 0 -0.046040344352481867 0.47841272498986082 0 -0.046040344352481867 0.47841272498986082 0 -0.067939054777113927 0.48291587414950521 0 -0.064501224992871267 0.46542691543905351 0 -0.050230730183752688 0.46259696058471089 0 -0.046040344352481867 0.47841272498986082 0 -0.064501224992871267 0.46542691543905351 0 -0.046040344352481867 0.47841272498986082 0 -0.051460248292501398 0.5 0 -0.067939054777113927 0.48291587414950521 0 -0.051460248292501398 0.5 0 -0.081492512167856565 0.50000000000000011 0 -0.067939054777113927 0.48291587414950521 0 -0.081492512167856565 0.50000000000000011 0 -0.085878896958769185 0.47675925450649242 0 -0.067939054777113927 0.48291587414950521 0 -0.081492512167856565 0.50000000000000011 0 -0.085878896958769185 0.47675925450649242 0 -0.099362977551805121 0.48745008538217821 0 -0.081492512167856565 0.50000000000000011 0 -0.085878896958769185 0.47675925450649242 0 -0.085878896958769185 0.47675925450649242 0 -0.075452149305044958 0.46933040044586682 0 -0.067939054777113927 0.48291587414950521 0 -0.075452149305044958 0.46933040044586682 0 -0.067939054777113927 0.48291587414950521 0 -0.064501224992871267 0.46542691543905351 0 -0.064501224992871267 0.46542691543905351 0 -0.075214053997903707 0.45912990264989012 0 -0.070315415620740368 0.45334812155980347 0 -0.062398417199954148 0.4499603094023914 0 -0.064501224992871267 0.46542691543905351 0 -0.070315415620740368 0.45334812155980347 0 -0.075214053997903707 0.45912990264989012 0 -0.070315415620740368 0.45334812155980347 0 -0.081419329692844739 0.44979703694502599 0 -0.075452149305044958 0.46933040044586682 0 -0.064501224992871267 0.46542691543905351 0 -0.075214053997903707 0.45912990264989012 0 -0.075452149305044958 0.46933040044586682 0 -0.075214053997903707 0.45912990264989012 0 -0.082509194984251868 0.46007906520350089 0 -0.069373851585076945 0.43677151010665521 0 -0.065491549478626135 0.44200233464982802 0 -0.073041418115067244 0.44511613748665291 0 -0.062750456602468974 0.43554137489064498 0 -0.069373851585076945 0.43677151010665521 0 -0.065491549478626135 0.44200233464982802 0 -0.062398417199954148 0.4499603094023914 0 -0.065491549478626135 0.44200233464982802 0 -0.073041418115067244 0.44511613748665291 0 -0.062398417199954148 0.4499603094023914 0 -0.070315415620740368 0.45334812155980347 0 -0.073041418115067244 0.44511613748665291 0 -0.070315415620740368 0.45334812155980347 0 -0.073041418115067244 0.44511613748665291 0 -0.081419329692844739 0.44979703694502599 0 -0.073041418115067244 0.44511613748665291 0 -0.07941018481149445 0.44345804230003222 0 -0.081419329692844739 0.44979703694502599 0 -0.077689053426030094 0.43734830183904833 0 -0.069373851585076945 0.43677151010665521 0 -0.073041418115067244 0.44511613748665291 0 -0.077689053426030094 0.43734830183904833 0 -0.073041418115067244 0.44511613748665291 0 -0.07941018481149445 0.44345804230003222 0 -0.097170403390676049 0.43571281837191522 0 -0.084800361071377284 0.4267768085921303 0 -0.094675553767973264 0.45076758317000298 0 -0.084800361071377284 0.4267768085921303 0 -0.094675553767973264 0.45076758317000298 0 -0.084800361071377284 0.4267768085921303 0 -0.085627028266785254 0.44117175463919189 0 -0.094675553767973264 0.45076758317000298 0 -0.085627028266785254 0.44117175463919189 0 -0.07941018481149445 0.44345804230003222 0 -0.081419329692844739 0.44979703694502599 0 -0.077689053426030094 0.43734830183904833 0 -0.085627028266785254 0.44117175463919189 0 -0.07941018481149445 0.44345804230003222 0 -0.085627028266785254 0.44117175463919189 0 -0.081419329692844739 0.44979703694502599 0 -0.088082484801868088 0.44854024150695748 0 -0.081419329692844739 0.44979703694502599 0 -0.086047819819581178 0.45134535453790131 0 -0.088082484801868088 0.44854024150695748 0 -0.085627028266785254 0.44117175463919189 0 -0.088082484801868088 0.44854024150695748 0 -0.094675553767973264 0.45076758317000298 0 -0.086047819819581178 0.45134535453790131 0 -0.088082484801868088 0.44854024150695748 0 -0.090265281749681819 0.45351850901298468 0 -0.088082484801868088 0.44854024150695748 0 -0.090265281749681819 0.45351850901298468 0 -0.094675553767973264 0.45076758317000298 0 -0.085878896958769185 0.47675925450649242 0 -0.075452149305044958 0.46933040044586682 0 -0.082509194984251868 0.46007906520350089 0 -0.085878896958769185 0.47675925450649242 0 -0.090265281749681819 0.45351850901298468 0 -0.085878896958769185 0.47675925450649242 0 -0.090265281749681819 0.45351850901298468 0 -0.093944937474792503 0.46462082789344678 0 -0.085878896958769185 0.47675925450649242 0 -0.082509194984251868 0.46007906520350089 0 -0.090265281749681819 0.45351850901298468 0 -0.081419329692844739 0.44979703694502599 0 -0.086047819819581178 0.45134535453790131 0 -0.082509194984251868 0.46007906520350089 0 -0.075214053997903707 0.45912990264989012 0 -0.081419329692844739 0.44979703694502599 0 -0.082509194984251868 0.46007906520350089 0 -0.090265281749681819 0.45351850901298468 0 -0.093944937474792503 0.46462082789344678 0 -0.094675553767973264 0.45076758317000298 0 -0.086047819819581178 0.45134535453790131 0 -0.082509194984251868 0.46007906520350089 0 -0.090265281749681819 0.45351850901298468 0 -0.093944937474792503 0.46462082789344678 0 -0.094675553767973264 0.45076758317000298 0 -0.1045507464645692 0.47475835774787573 0 -0.094675553767973264 0.45076758317000298 0 -0.1045507464645692 0.47475835774787573 0 -0.1087715055698807 0.4588247561088431 0 -0.094675553767973264 0.45076758317000298 0 -0.1045507464645692 0.47475835774787573 0 -0.1126245701039178 0.4308246085444013 0 -0.1090807961073193 0.44665325123332839 0 -0.10338783084247161 0.44098956532991213 0 -0.097170403390676049 0.43571281837191522 0 -0.094675553767973264 0.45076758317000298 0 -0.10338783084247161 0.44098956532991213 0 -0.1087715055698807 0.4588247561088431 0 -0.094675553767973264 0.45076758317000298 0 -0.1090807961073193 0.44665325123332839 0 -0.094675553767973264 0.45076758317000298 0 -0.1090807961073193 0.44665325123332839 0 -0.10338783084247161 0.44098956532991213 0 -0.1126245701039178 0.4308246085444013 0 -0.1090807961073193 0.44665325123332839 0 -0.1242648033483075 0.43981492828754482 0 -0.1090807961073193 0.44665325123332839 0 -0.1242648033483075 0.43981492828754482 0 -0.1204057133641486 0.45504160574272429 0 -0.1087715055698807 0.4588247561088431 0 -0.1176294132596279 0.46872710166108278 0 -0.1045507464645692 0.47475835774787573 0 -0.1087715055698807 0.4588247561088431 0 -0.1204057133641486 0.45504160574272429 0 -0.1176294132596279 0.46872710166108278 0 -0.1087715055698807 0.4588247561088431 0 -0.1090807961073193 0.44665325123332839 0 -0.1204057133641486 0.45504160574272429 0 -0.13097929143795109 0.46459511115351071 0 -0.1204057133641486 0.45504160574272429 0 -0.1176294132596279 0.46872710166108278 0 -0.12908554574303099 0.47755934496718438 0 -0.1176294132596279 0.46872710166108278 0 -0.1160402402672886 0.48503019582547341 0 -0.1176294132596279 0.46872710166108278 0 -0.1160402402672886 0.48503019582547341 0 -0.1045507464645692 0.47475835774787573 0 -0.13803845513632401 0.5 0 -0.1097654836520903 0.5 0 -0.1160402402672886 0.48503019582547341 0 -0.1097654836520903 0.5 0 -0.1160402402672886 0.48503019582547341 0 -0.099362977551805121 0.48745008538217821 0 -0.081492512167856565 0.50000000000000011 0 -0.1097654836520903 0.5 0 -0.099362977551805121 0.48745008538217821 0 -0.085878896958769185 0.47675925450649242 0 -0.093944937474792503 0.46462082789344678 0 -0.1045507464645692 0.47475835774787573 0 -0.085878896958769185 0.47675925450649242 0 -0.099362977551805121 0.48745008538217821 0 -0.1045507464645692 0.47475835774787573 0 -0.1160402402672886 0.48503019582547341 0 -0.099362977551805121 0.48745008538217821 0 -0.1045507464645692 0.47475835774787573 0 -0.15850742705232401 0.077073165420907211 0 -0.17832815471062741 0.080370175701138483 0 -0.15596223049933161 0.089669487892629185 0 -0.17128916945913089 0.092189477241546317 0 -0.17832815471062741 0.080370175701138483 0 -0.15596223049933161 0.089669487892629185 0 -0.17832815471062741 0.080370175701138483 0 -0.15596223049933161 0.089669487892629185 0 -0.15850742705232401 0.077073165420907211 0 -0.16907692184479731 0.071953328836937142 0 -0.17832815471062741 0.080370175701138483 0 -0.15850742705232401 0.077073165420907211 0 -0.15722519427174569 0.065058312825911402 0 -0.16907692184479731 0.071953328836937142 0 -0.16907692184479731 0.071953328836937142 0 -0.1809864334298861 0.069780609401686525 0 -0.17832815471062741 0.080370175701138483 0 -0.16907692184479731 0.071953328836937142 0 -0.1809864334298861 0.069780609401686525 0 -0.18167022033174851 0.056262687610226528 0 -0.1809864334298861 0.069780609401686525 0 -0.17832815471062741 0.080370175701138483 0 -0.20069407892192309 0.071070863509647808 0 -0.1809864334298861 0.069780609401686525 0 -0.18167022033174851 0.056262687610226528 0 -0.1876556690991136 0.063313821709693935 0 -0.17128916945913089 0.092189477241546317 0 -0.18444466814129201 0.081023499242751457 0 -0.17631468167186989 0.1066384650542631 0 -0.17128916945913089 0.092189477241546317 0 -0.18444466814129201 0.081023499242751457 0 -0.17832815471062741 0.080370175701138483 0 -0.18444466814129201 0.081023499242751457 0 -0.17631468167186989 0.1066384650542631 0 -0.19937405773042491 0.1071019237599893 0 -0.17631468167186989 0.1066384650542631 0 -0.16393492635195239 0.1245978723337525 0 -0.1795193575176991 0.1294692331289829 0 -0.17631468167186989 0.1066384650542631 0 -0.19937405773042491 0.1071019237599893 0 -0.1795193575176991 0.1294692331289829 0 -0.16393492635195239 0.1245978723337525 0 -0.16139611227253359 0.1032457583169494 0 -0.15311233888185891 0.1152965378839053 0 -0.17631468167186989 0.1066384650542631 0 -0.16393492635195239 0.1245978723337525 0 -0.16139611227253359 0.1032457583169494 0 -0.17128916945913089 0.092189477241546317 0 -0.17631468167186989 0.1066384650542631 0 -0.16139611227253359 0.1032457583169494 0 -0.17128916945913089 0.092189477241546317 0 -0.16139611227253359 0.1032457583169494 0 -0.15596223049933161 0.089669487892629185 0 -0.16139611227253359 0.1032457583169494 0 -0.13359630628803579 0.098968800084119873 0 -0.15596223049933161 0.089669487892629185 0 -0.16139611227253359 0.1032457583169494 0 -0.15311233888185891 0.1152965378839053 0 -0.13359630628803579 0.098968800084119873 0 -0.13359630628803579 0.098968800084119873 0 -0.15596223049933161 0.089669487892629185 0 -0.15311233888185891 0.1152965378839053 0 -0.13930859898956699 0.1145050369687237 0 -0.153752621985453 0.14073392350839439 0 -0.15311233888185891 0.1152965378839053 0 -0.13930859898956699 0.1145050369687237 0 -0.13359630628803579 0.098968800084119873 0 -0.13930859898956699 0.1145050369687237 0 -0.12607259725238279 0.11330641960449821 0 -0.12916618827146031 0.12390190950899049 0 -0.13930859898956699 0.1145050369687237 0 -0.12607259725238279 0.11330641960449821 0 -0.13359630628803579 0.098968800084119873 0 -0.13359630628803579 0.098968800084119873 0 -0.12697672020224329 0.087309090757334687 0 -0.14089006822782121 0.082531143958766096 0 -0.12697672020224329 0.087309090757334687 0 -0.14089006822782121 0.082531143958766096 0 -0.12697985749263241 0.07630636069427757 0 -0.15850742705232401 0.077073165420907211 0 -0.14089006822782121 0.082531143958766096 0 -0.15596223049933161 0.089669487892629185 0 -0.13359630628803579 0.098968800084119873 0 -0.14089006822782121 0.082531143958766096 0 -0.15596223049933161 0.089669487892629185 0 -0.15850742705232401 0.077073165420907211 0 -0.14089006822782121 0.082531143958766096 0 -0.14764327064684279 0.071644858797684771 0 -0.15722519427174569 0.065058312825911402 0 -0.14764327064684279 0.071644858797684771 0 -0.1471722955607111 0.059591957907519158 0 -0.15850742705232401 0.077073165420907211 0 -0.15722519427174569 0.065058312825911402 0 -0.14764327064684279 0.071644858797684771 0 -0.14089006822782121 0.082531143958766096 0 -0.14764327064684279 0.071644858797684771 0 -0.13666502121529681 0.069478967649866344 0 -0.14764327064684279 0.071644858797684771 0 -0.13666502121529681 0.069478967649866344 0 -0.1471722955607111 0.059591957907519158 0 -0.14089006822782121 0.082531143958766096 0 -0.13666502121529681 0.069478967649866344 0 -0.12697985749263241 0.07630636069427757 0 -0.13666502121529681 0.069478967649866344 0 -0.12697985749263241 0.07630636069427757 0 -0.12509646681095879 0.065597408261105467 0 -0.13666502121529681 0.069478967649866344 0 -0.12509646681095879 0.065597408261105467 0 -0.13233523162579211 0.057527865090889828 0 -0.13233523162579211 0.057527865090889828 0 -0.1197320338084647 0.057760070231756527 0 -0.1244920148619628 0.050381604022983993 0 -0.12509646681095879 0.065597408261105467 0 -0.13233523162579211 0.057527865090889828 0 -0.1197320338084647 0.057760070231756527 0 -0.13666502121529681 0.069478967649866344 0 -0.13233523162579211 0.057527865090889828 0 -0.1471722955607111 0.059591957907519158 0 -0.13233523162579211 0.057527865090889828 0 -0.131277092146349 0.043237905602295942 0 -0.1435202772377579 0.047601805401877667 0 -0.13233523162579211 0.057527865090889828 0 -0.131277092146349 0.043237905602295942 0 -0.1244920148619628 0.050381604022983993 0 -0.131277092146349 0.043237905602295942 0 -0.14194951185496399 0.035172378083737049 0 -0.12424451236807239 0.027069144312366941 0 -0.131277092146349 0.043237905602295942 0 -0.12424451236807239 0.027069144312366941 0 -0.12075472355362291 0.04122338309529356 0 -0.131277092146349 0.043237905602295942 0 -0.12075472355362291 0.04122338309529356 0 -0.1244920148619628 0.050381604022983993 0 -0.131277092146349 0.043237905602295942 0 -0.14194951185496399 0.035172378083737049 0 -0.1435202772377579 0.047601805401877667 0 -0.14194951185496399 0.035172378083737049 0 -0.15126073753592009 0.02487777788828089 0 -0.1637260562540532 0.045028253166508762 0 -0.14194951185496399 0.035172378083737049 0 -0.1435202772377579 0.047601805401877667 0 -0.1637260562540532 0.045028253166508762 0 -0.15722519427174569 0.065058312825911402 0 -0.1471722955607111 0.059591957907519158 0 -0.1637260562540532 0.045028253166508762 0 -0.1471722955607111 0.059591957907519158 0 -0.1435202772377579 0.047601805401877667 0 -0.1637260562540532 0.045028253166508762 0 -0.13233523162579211 0.057527865090889828 0 -0.1471722955607111 0.059591957907519158 0 -0.1435202772377579 0.047601805401877667 0 -0.1244522405185825 -0.00038769298458709092 0 -0.1310798501921922 0.016754836893075501 0 -0.12424451236807239 0.027069144312366941 0 -0.1244522405185825 -0.00038769298458709092 0 -0.13302987177733741 0.0072862060594841918 0 -0.1310798501921922 0.016754836893075501 0 -0.13796817939809339 -7.5853332940862265e-05 0 -0.13302987177733741 0.0072862060594841918 0 -0.13861921700048169 0.01285353366238922 0 -0.1244522405185825 -0.00038769298458709092 0 -0.13796817939809339 -7.5853332940862265e-05 0 -0.13302987177733741 0.0072862060594841918 0 -0.13302987177733741 0.0072862060594841918 0 -0.13861921700048169 0.01285353366238922 0 -0.1310798501921922 0.016754836893075501 0 -0.14194951185496399 0.035172378083737049 0 -0.1395360945068517 0.023372288850015029 0 -0.12424451236807239 0.027069144312366941 0 -0.13861921700048169 0.01285353366238922 0 -0.1395360945068517 0.023372288850015029 0 -0.1310798501921922 0.016754836893075501 0 -0.1395360945068517 0.023372288850015029 0 -0.1310798501921922 0.016754836893075501 0 -0.12424451236807239 0.027069144312366941 0 -0.14194951185496399 0.035172378083737049 0 -0.1395360945068517 0.023372288850015029 0 -0.15126073753592009 0.02487777788828089 0 -0.15126073753592009 0.02487777788828089 0 -0.15188271994169991 0.01786916074884114 0 -0.14657132146084931 0.01677767438903701 0 -0.15126073753592009 0.02487777788828089 0 -0.15837519066330749 0.018103177496080571 0 -0.1567842680697151 0.017821512483746641 0 -0.15126073753592009 0.02487777788828089 0 -0.15188271994169991 0.01786916074884114 0 -0.1567842680697151 0.017821512483746641 0 -0.1543123506052223 0.01567032783345056 0 -0.15188271994169991 0.01786916074884114 0 -0.1567842680697151 0.017821512483746641 0 -0.13861921700048169 0.01285353366238922 0 -0.1395360945068517 0.023372288850015029 0 -0.14657132146084931 0.01677767438903701 0 -0.1395360945068517 0.023372288850015029 0 -0.15126073753592009 0.02487777788828089 0 -0.14657132146084931 0.01677767438903701 0 -0.15381676672243971 -0.0048344028756085976 0 -0.13796817939809339 -7.5853332940862265e-05 0 -0.14598604308907309 0.0075397954886723484 0 -0.15381676672243971 -0.0048344028756085976 0 -0.15837519066330749 0.018103177496080571 0 -0.15381676672243971 -0.0048344028756085976 0 -0.15182406541376531 0.011854288846745499 0 -0.15837519066330749 0.018103177496080571 0 -0.15381676672243971 -0.0048344028756085976 0 -0.15182406541376531 0.011854288846745499 0 -0.14598604308907309 0.0075397954886723484 0 -0.13861921700048169 0.01285353366238922 0 -0.14657132146084931 0.01677767438903701 0 -0.14598604308907309 0.0075397954886723484 0 -0.14657132146084931 0.01677767438903701 0 -0.15182406541376531 0.011854288846745499 0 -0.14598604308907309 0.0075397954886723484 0 -0.15188271994169991 0.01786916074884114 0 -0.14657132146084931 0.01677767438903701 0 -0.15182406541376531 0.011854288846745499 0 -0.1543123506052223 0.01567032783345056 0 -0.15182406541376531 0.011854288846745499 0 -0.15837519066330749 0.018103177496080571 0 -0.1543123506052223 0.01567032783345056 0 -0.15188271994169991 0.01786916074884114 0 -0.15182406541376531 0.011854288846745499 0 -0.13796817939809339 -7.5853332940862265e-05 0 -0.13861921700048169 0.01285353366238922 0 -0.14598604308907309 0.0075397954886723484 0 -0.15381676672243971 -0.0048344028756085976 0 -0.16872927738725291 0.0066655648670224509 0 -0.15837519066330749 0.018103177496080571 0 -0.16872927738725291 0.0066655648670224509 0 -0.15837519066330749 0.018103177496080571 0 -0.17312315274812851 0.016956976572924821 0 -0.15837519066330749 0.018103177496080571 0 -0.17088268452158301 0.030303691123205939 0 -0.18416549926151529 0.022669224655560441 0 -0.15837519066330749 0.018103177496080571 0 -0.17088268452158301 0.030303691123205939 0 -0.1637260562540532 0.045028253166508762 0 -0.15126073753592009 0.02487777788828089 0 -0.15837519066330749 0.018103177496080571 0 -0.1637260562540532 0.045028253166508762 0 -0.15837519066330749 0.018103177496080571 0 -0.18416549926151529 0.022669224655560441 0 -0.1543123506052223 0.01567032783345056 0 -0.15837519066330749 0.018103177496080571 0 -0.1567842680697151 0.017821512483746641 0 -0.15837519066330749 0.018103177496080571 0 -0.1567842680697151 0.017821512483746641 0 -0.15837519066330749 0.018103177496080571 0 -0.18416549926151529 0.022669224655560441 0 -0.17312315274812851 0.016956976572924821 0 -0.17088268452158301 0.030303691123205939 0 -0.18416549926151529 0.022669224655560441 0 -0.1815242396402782 0.037713578252632912 0 -0.18416549926151529 0.022669224655560441 0 -0.17919408738426101 0.017592611389363012 0 -0.18518118592807509 0.0154377595936586 0 -0.18416549926151529 0.022669224655560441 0 -0.17312315274812851 0.016956976572924821 0 -0.17919408738426101 0.017592611389363012 0 -0.1785064095432054 -0.0066611219507198768 0 -0.16872927738725291 0.0066655648670224509 0 -0.193034969706537 0.00064734206737222756 0 -0.16872927738725291 0.0066655648670224509 0 -0.193034969706537 0.00064734206737222756 0 -0.16872927738725291 0.0066655648670224509 0 -0.18518118592807509 0.0154377595936586 0 -0.193034969706537 0.00064734206737222756 0 -0.16872927738725291 0.0066655648670224509 0 -0.17919408738426101 0.017592611389363012 0 -0.18518118592807509 0.0154377595936586 0 -0.16872927738725291 0.0066655648670224509 0 -0.17312315274812851 0.016956976572924821 0 -0.17919408738426101 0.017592611389363012 0 -0.16907692184479731 0.071953328836937142 0 -0.1637260562540532 0.045028253166508762 0 -0.18167022033174851 0.056262687610226528 0 -0.15722519427174569 0.065058312825911402 0 -0.16907692184479731 0.071953328836937142 0 -0.1637260562540532 0.045028253166508762 0 -0.16907692184479731 0.071953328836937142 0 -0.1637260562540532 0.045028253166508762 0 -0.15837519066330749 0.018103177496080571 0 -0.1637260562540532 0.045028253166508762 0 -0.17088268452158301 0.030303691123205939 0 -0.1637260562540532 0.045028253166508762 0 -0.1815242396402782 0.037713578252632912 0 -0.1815242396402782 0.037713578252632912 0 -0.18167022033174851 0.056262687610226528 0 -0.1948999673891425 0.045815662425189529 0 -0.1637260562540532 0.045028253166508762 0 -0.1815242396402782 0.037713578252632912 0 -0.18167022033174851 0.056262687610226528 0 -0.18416549926151529 0.022669224655560441 0 -0.1815242396402782 0.037713578252632912 0 -0.19539241544158811 0.034915353149486399 0 -0.19598386328254799 0.058823167906541372 0 -0.20873259774339259 0.055173182954087172 0 -0.20069407892192309 0.071070863509647808 0 -0.18167022033174851 0.056262687610226528 0 -0.19598386328254799 0.058823167906541372 0 -0.1876556690991136 0.063313821709693935 0 -0.19598386328254799 0.058823167906541372 0 -0.1948999673891425 0.045815662425189529 0 -0.20873259774339259 0.055173182954087172 0 -0.18167022033174851 0.056262687610226528 0 -0.19598386328254799 0.058823167906541372 0 -0.1948999673891425 0.045815662425189529 0 -0.1815242396402782 0.037713578252632912 0 -0.1948999673891425 0.045815662425189529 0 -0.19539241544158811 0.034915353149486399 0 -0.1948999673891425 0.045815662425189529 0 -0.19539241544158811 0.034915353149486399 0 -0.20641656305728129 0.041143028599009299 0 -0.20641656305728129 0.041143028599009299 0 -0.20995580785972329 0.027235271815039791 0 -0.22080882119384479 0.043900986742667819 0 -0.19539241544158811 0.034915353149486399 0 -0.20641656305728129 0.041143028599009299 0 -0.20995580785972329 0.027235271815039791 0 -0.20641656305728129 0.041143028599009299 0 -0.20873259774339259 0.055173182954087172 0 -0.22080882119384479 0.043900986742667819 0 -0.20873259774339259 0.055173182954087172 0 -0.2267202713125637 0.058975611642501508 0 -0.2176358721649875 0.072186860311035453 0 -0.1948999673891425 0.045815662425189529 0 -0.20641656305728129 0.041143028599009299 0 -0.20873259774339259 0.055173182954087172 0 -0.20993853639106591 -0.0035380738047605968 0 -0.2009137908539024 0.01431144198083124 0 -0.193034969706537 0.00064734206737222756 0 -0.18518118592807509 0.0154377595936586 0 -0.2009137908539024 0.01431144198083124 0 -0.193034969706537 0.00064734206737222756 0 -0.18518118592807509 0.0154377595936586 0 -0.193034969706537 0.00064734206737222756 0 -0.18416549926151529 0.022669224655560441 0 -0.20995580785972329 0.027235271815039791 0 -0.18416549926151529 0.022669224655560441 0 -0.18518118592807509 0.0154377595936586 0 -0.2009137908539024 0.01431144198083124 0 -0.18416549926151529 0.022669224655560441 0 -0.2009137908539024 0.01431144198083124 0 -0.20995580785972329 0.027235271815039791 0 -0.18416549926151529 0.022669224655560441 0 -0.19539241544158811 0.034915353149486399 0 -0.20995580785972329 0.027235271815039791 0 -0.2009137908539024 0.01431144198083124 0 -0.20995580785972329 0.027235271815039791 0 -0.21568563774484731 0.0082874278720449449 0 -0.20993853639106591 -0.0035380738047605968 0 -0.2009137908539024 0.01431144198083124 0 -0.21568563774484731 0.0082874278720449449 0 -0.22684210307559549 -0.0077234896768903086 0 -0.21568563774484731 0.0082874278720449449 0 -0.23077795054394901 0.01115198904600462 0 -0.22684210307559549 -0.0077234896768903086 0 -0.23077795054394901 0.01115198904600462 0 -0.20995580785972329 0.027235271815039791 0 -0.21568563774484731 0.0082874278720449449 0 -0.23077795054394901 0.01115198904600462 0 -0.20995580785972329 0.027235271815039791 0 -0.2357461164579312 0.03180131897451912 0 -0.20995580785972329 0.027235271815039791 0 -0.23077795054394901 0.01115198904600462 0 -0.2357461164579312 0.03180131897451912 0 -0.23077795054394901 0.01115198904600462 0 -0.24854849079604721 0.020569936005881421 0 -0.2357461164579312 0.03180131897451912 0 -0.26153642505613889 0.036367366133998442 0 -0.24854849079604721 0.020569936005881421 0 -0.2357461164579312 0.03180131897451912 0 -0.23077795054394901 0.01115198904600462 0 -0.24854849079604721 0.020569936005881421 0 -0.24598119983726671 0.0037338506766126851 0 -0.22684210307559549 -0.0077234896768903086 0 -0.23077795054394901 0.01115198904600462 0 -0.24598119983726671 0.0037338506766126851 0 -0.20873259774339259 0.055173182954087172 0 -0.2267202713125637 0.058975611642501508 0 -0.22080882119384479 0.043900986742667819 0 -0.2267202713125637 0.058975611642501508 0 -0.22080882119384479 0.043900986742667819 0 -0.239388393447095 0.04766651035075449 0 -0.22080882119384479 0.043900986742667819 0 -0.2357461164579312 0.03180131897451912 0 -0.239388393447095 0.04766651035075449 0 -0.20995580785972329 0.027235271815039791 0 -0.22080882119384479 0.043900986742667819 0 -0.2357461164579312 0.03180131897451912 0 -0.26153642505613889 0.036367366133998442 0 -0.2357461164579312 0.03180131897451912 0 -0.26153642505613889 0.036367366133998442 0 -0.2357461164579312 0.03180131897451912 0 -0.239388393447095 0.04766651035075449 0 -0.25116276906762952 0.054241108780248931 0 -0.239388393447095 0.04766651035075449 0 -0.24035595759446179 0.060712669830591162 0 -0.2267202713125637 0.058975611642501508 0 -0.239388393447095 0.04766651035075449 0 -0.24035595759446179 0.060712669830591162 0 -0.25116276906762952 0.054241108780248931 0 -0.24035595759446179 0.060712669830591162 0 -0.24829977196364941 0.065213336215906109 0 -0.2267202713125637 0.058975611642501508 0 -0.24035595759446179 0.060712669830591162 0 -0.23791909572611269 0.075142721002645518 0 -0.24035595759446179 0.060712669830591162 0 -0.24829977196364941 0.065213336215906109 0 -0.23791909572611269 0.075142721002645518 0 -0.25064083865024739 0.073628726666345984 0 -0.23791909572611269 0.075142721002645518 0 -0.24857020570659841 0.081659589420377987 0 -0.25064083865024739 0.073628726666345984 0 -0.24829977196364941 0.065213336215906109 0 -0.23791909572611269 0.075142721002645518 0 -0.23791909572611269 0.075142721002645518 0 -0.2427234934652894 0.090762762990284518 0 -0.22646138453880821 0.085461994072224837 0 -0.25413031243694739 0.089521027236778197 0 -0.2427234934652894 0.090762762990284518 0 -0.24857020570659841 0.081659589420377987 0 -0.23791909572611269 0.075142721002645518 0 -0.2427234934652894 0.090762762990284518 0 -0.24857020570659841 0.081659589420377987 0 -0.2267202713125637 0.058975611642501508 0 -0.23791909572611269 0.075142721002645518 0 -0.2176358721649875 0.072186860311035453 0 -0.23791909572611269 0.075142721002645518 0 -0.22646138453880821 0.085461994072224837 0 -0.2176358721649875 0.072186860311035453 0 -0.20873259774339259 0.055173182954087172 0 -0.2176358721649875 0.072186860311035453 0 -0.20069407892192309 0.071070863509647808 0 -0.2176358721649875 0.072186860311035453 0 -0.20525373999263671 0.08640341449760941 0 -0.20069407892192309 0.071070863509647808 0 -0.22646138453880821 0.085461994072224837 0 -0.2176358721649875 0.072186860311035453 0 -0.20525373999263671 0.08640341449760941 0 -0.22646138453880821 0.085461994072224837 0 -0.20525373999263671 0.08640341449760941 0 -0.2161514522581473 0.1006972439961434 0 -0.18444466814129201 0.081023499242751457 0 -0.20525373999263671 0.08640341449760941 0 -0.20069407892192309 0.071070863509647808 0 -0.18444466814129201 0.081023499242751457 0 -0.20525373999263671 0.08640341449760941 0 -0.19937405773042491 0.1071019237599893 0 -0.17832815471062741 0.080370175701138483 0 -0.20069407892192309 0.071070863509647808 0 -0.18444466814129201 0.081023499242751457 0 -0.17832815471062741 0.080370175701138483 0 -0.20069407892192309 0.071070863509647808 0 -0.1809864334298861 0.069780609401686525 0 -0.1876556690991136 0.063313821709693935 0 -0.20069407892192309 0.071070863509647808 0 -0.19598386328254799 0.058823167906541372 0 -0.1876556690991136 0.063313821709693935 0 -0.20069407892192309 0.071070863509647808 0 -0.19937405773042491 0.1071019237599893 0 -0.2161514522581473 0.1006972439961434 0 -0.21430344731955769 0.133180348277227 0 -0.19937405773042491 0.1071019237599893 0 -0.19727411993202021 0.1275714443648302 0 -0.1795193575176991 0.1294692331289829 0 -0.18444466814129201 0.081023499242751457 0 -0.19937405773042491 0.1071019237599893 0 -0.20525373999263671 0.08640341449760941 0 -0.19937405773042491 0.1071019237599893 0 -0.2161514522581473 0.1006972439961434 0 -0.19937405773042491 0.1071019237599893 0 -0.21430344731955769 0.133180348277227 0 -0.19937405773042491 0.1071019237599893 0 -0.19727411993202021 0.1275714443648302 0 -0.21430344731955769 0.133180348277227 0 -0.2161514522581473 0.1006972439961434 0 -0.23231730930006211 0.10853516007106349 0 -0.21430344731955769 0.133180348277227 0 -0.2427234934652894 0.090762762990284518 0 -0.22646138453880821 0.085461994072224837 0 -0.23231730930006211 0.10853516007106349 0 -0.22646138453880821 0.085461994072224837 0 -0.2161514522581473 0.1006972439961434 0 -0.23231730930006211 0.10853516007106349 0 -0.25610310449345419 0.1041046972302731 0 -0.2427234934652894 0.090762762990284518 0 -0.23231730930006211 0.10853516007106349 0 -0.25610310449345419 0.1041046972302731 0 -0.23231730930006211 0.10853516007106349 0 -0.2495823492922267 0.12121763785839371 0 -0.23231730930006211 0.10853516007106349 0 -0.2495823492922267 0.12121763785839371 0 -0.23849568892714909 0.13696143350773771 0 -0.23231730930006211 0.10853516007106349 0 -0.23849568892714909 0.13696143350773771 0 -0.25477231595188199 0.13792181725732239 0 -0.2495823492922267 0.12121763785839371 0 -0.23849568892714909 0.13696143350773771 0 -0.23231730930006211 0.10853516007106349 0 -0.23849568892714909 0.13696143350773771 0 -0.21430344731955769 0.133180348277227 0 -0.23849568892714909 0.13696143350773771 0 -0.22923283690869051 0.15925877279446471 0 -0.21430344731955769 0.133180348277227 0 -0.22923283690869051 0.15925877279446471 0 -0.21430344731955769 0.133180348277227 0 -0.2543915534089356 0.15018751405662761 0 -0.23849568892714909 0.13696143350773771 0 -0.24467406855423091 0.1653877069444131 0 -0.23849568892714909 0.13696143350773771 0 -0.24467406855423091 0.1653877069444131 0 -0.22923283690869051 0.15925877279446471 0 -0.2543915534089356 0.15018751405662761 0 -0.25477231595188199 0.13792181725732239 0 -0.23849568892714909 0.13696143350773771 0 -0.23849568892714909 0.13696143350773771 0 -0.24467406855423091 0.1653877069444131 0 -0.24467406855423091 0.1653877069444131 0 -0.2350219134637796 0.18103954803765679 0 -0.22379977898383499 0.16989282922580509 0 -0.24467406855423091 0.1653877069444131 0 -0.24947341468037071 0.1874691479585941 0 -0.2350219134637796 0.18103954803765679 0 -0.24467406855423091 0.1653877069444131 0 -0.24947341468037071 0.1874691479585941 0 -0.2350219134637796 0.18103954803765679 0 -0.22004124654446131 0.18611549732905991 0 -0.22379977898383499 0.16989282922580509 0 -0.24467406855423091 0.1653877069444131 0 -0.22379977898383499 0.16989282922580509 0 -0.22923283690869051 0.15925877279446471 0 -0.22379977898383499 0.16989282922580509 0 -0.22923283690869051 0.15925877279446471 0 -0.20989634202023699 0.1560844752241346 0 -0.24467406855423091 0.1653877069444131 0 -0.22379977898383499 0.16989282922580509 0 -0.22379977898383499 0.16989282922580509 0 -0.20292548941343971 0.17439795150720031 0 -0.20989634202023699 0.1560844752241346 0 -0.20292548941343971 0.17439795150720031 0 -0.20989634202023699 0.1560844752241346 0 -0.17833905569944569 0.15756593750779829 0 -0.22379977898383499 0.16989282922580509 0 -0.20292548941343971 0.17439795150720031 0 -0.22004124654446131 0.18611549732905991 0 -0.22379977898383499 0.16989282922580509 0 -0.20292548941343971 0.17439795150720031 0 -0.22004124654446131 0.18611549732905991 0 -0.20292548941343971 0.17439795150720031 0 -0.22004124654446131 0.18611549732905991 0 -0.20292548941343971 0.17439795150720031 0 -0.20568385543668641 0.19260324117033031 0 -0.20292548941343971 0.17439795150720031 0 -0.1757122088887666 0.1802711648698879 0 -0.20292548941343971 0.17439795150720031 0 -0.1897130520823497 0.19444680225630501 0 -0.1757122088887666 0.1802711648698879 0 -0.20292548941343971 0.17439795150720031 0 -0.20568385543668641 0.19260324117033031 0 -0.1897130520823497 0.19444680225630501 0 -0.20292548941343971 0.17439795150720031 0 -0.17833905569944569 0.15756593750779829 0 -0.19589961716039911 0.1405342722931214 0 -0.20989634202023699 0.1560844752241346 0 -0.17833905569944569 0.15756593750779829 0 -0.19727411993202021 0.1275714443648302 0 -0.19589961716039911 0.1405342722931214 0 -0.1795193575176991 0.1294692331289829 0 -0.19727411993202021 0.1275714443648302 0 -0.19589961716039911 0.1405342722931214 0 -0.21430344731955769 0.133180348277227 0 -0.22923283690869051 0.15925877279446471 0 -0.21430344731955769 0.133180348277227 0 -0.20989634202023699 0.1560844752241346 0 -0.19589961716039911 0.1405342722931214 0 -0.21430344731955769 0.133180348277227 0 -0.20989634202023699 0.1560844752241346 0 -0.23288038931281729 0.23888496135878451 0 -0.21994142138302111 0.22426230620998819 0 -0.21218175950055909 0.24952722652004439 0 -0.22667039518801041 0.25355429459537898 0 -0.23288038931281729 0.23888496135878451 0 -0.21218175950055909 0.24952722652004439 0 -0.2416444700809012 0.25186566196455601 0 -0.22667039518801041 0.25355429459537898 0 -0.23288038931281729 0.23888496135878451 0 -0.2416444700809012 0.25186566196455601 0 -0.23288038931281729 0.23888496135878451 0 -0.2470081454867771 0.2422065880623451 0 -0.25693865295534157 0.25278860643768353 0 -0.2416444700809012 0.25186566196455601 0 -0.2470081454867771 0.2422065880623451 0 -0.25109603964961891 0.234366577265785 0 -0.2470081454867771 0.2422065880623451 0 -0.24424918889796191 0.23342051569475999 0 -0.23288038931281729 0.23888496135878451 0 -0.2470081454867771 0.2422065880623451 0 -0.24424918889796191 0.23342051569475999 0 -0.23288038931281729 0.23888496135878451 0 -0.24424918889796191 0.23342051569475999 0 -0.2396805993576108 0.22455316273993289 0 -0.24424918889796191 0.23342051569475999 0 -0.249817319625419 0.2274340479663062 0 -0.2396805993576108 0.22455316273993289 0 -0.25109603964961891 0.234366577265785 0 -0.24424918889796191 0.23342051569475999 0 -0.249817319625419 0.2274340479663062 0 -0.249817319625419 0.2274340479663062 0 -0.24904636230289101 0.22050689045355901 0 -0.2396805993576108 0.22455316273993289 0 -0.24904636230289101 0.22050689045355901 0 -0.2396805993576108 0.22455316273993289 0 -0.24333230173327219 0.21221501244476959 0 -0.2396805993576108 0.22455316273993289 0 -0.21994142138302111 0.22426230620998819 0 -0.23304733008138001 0.21339205942673259 0 -0.23288038931281729 0.23888496135878451 0 -0.2396805993576108 0.22455316273993289 0 -0.21994142138302111 0.22426230620998819 0 -0.21994142138302111 0.22426230620998819 0 -0.22770108326548311 0.19899738589993199 0 -0.210353022999335 0.20567537760669019 0 -0.21994142138302111 0.22426230620998819 0 -0.23304733008138001 0.21339205942673259 0 -0.22770108326548311 0.19899738589993199 0 -0.21994142138302111 0.22426230620998819 0 -0.22770108326548311 0.19899738589993199 0 -0.23304733008138001 0.21339205942673259 0 -0.2346933251094325 0.20523388649383931 0 -0.22770108326548311 0.19899738589993199 0 -0.25427276080650663 0.20955058897277601 0 -0.23715700367548431 0.1978330431509176 0 -0.2396805993576108 0.22455316273993289 0 -0.23304733008138001 0.21339205942673259 0 -0.24333230173327219 0.21221501244476959 0 -0.25427276080650663 0.20955058897277601 0 -0.24333230173327219 0.21221501244476959 0 -0.23715700367548431 0.1978330431509176 0 -0.25561524088587501 0.21572724177218369 0 -0.24904636230289101 0.22050689045355901 0 -0.24333230173327219 0.21221501244476959 0 -0.24333230173327219 0.21221501244476959 0 -0.2346933251094325 0.20523388649383931 0 -0.23715700367548431 0.1978330431509176 0 -0.23304733008138001 0.21339205942673259 0 -0.24333230173327219 0.21221501244476959 0 -0.2346933251094325 0.20523388649383931 0 -0.25427276080650663 0.20955058897277601 0 -0.24947341468037071 0.1874691479585941 0 -0.23715700367548431 0.1978330431509176 0 -0.24947341468037071 0.1874691479585941 0 -0.2350219134637796 0.18103954803765679 0 -0.23715700367548431 0.1978330431509176 0 -0.22004124654446131 0.18611549732905991 0 -0.23715700367548431 0.1978330431509176 0 -0.22004124654446131 0.18611549732905991 0 -0.23715700367548431 0.1978330431509176 0 -0.22770108326548311 0.19899738589993199 0 -0.2350219134637796 0.18103954803765679 0 -0.22004124654446131 0.18611549732905991 0 -0.23715700367548431 0.1978330431509176 0 -0.2346933251094325 0.20523388649383931 0 -0.23715700367548431 0.1978330431509176 0 -0.22770108326548311 0.19899738589993199 0 -0.22004124654446131 0.18611549732905991 0 -0.22770108326548311 0.19899738589993199 0 -0.21594480206149139 0.19584787550150309 0 -0.22770108326548311 0.19899738589993199 0 -0.21594480206149139 0.19584787550150309 0 -0.210353022999335 0.20567537760669019 0 -0.22004124654446131 0.18611549732905991 0 -0.21594480206149139 0.19584787550150309 0 -0.20568385543668641 0.19260324117033031 0 -0.21594480206149139 0.19584787550150309 0 -0.20568385543668641 0.19260324117033031 0 -0.210353022999335 0.20567537760669019 0 -0.20568385543668641 0.19260324117033031 0 -0.19800517532583911 0.2033181044808495 0 -0.210353022999335 0.20567537760669019 0 -0.20568385543668641 0.19260324117033031 0 -0.1897130520823497 0.19444680225630501 0 -0.19800517532583911 0.2033181044808495 0 -0.1897130520823497 0.19444680225630501 0 -0.19800517532583911 0.2033181044808495 0 -0.1863200837324982 0.20555600776477401 0 -0.19800517532583911 0.2033181044808495 0 -0.19795586237832599 0.21830909360614789 0 -0.210353022999335 0.20567537760669019 0 -0.19800517532583911 0.2033181044808495 0 -0.19795586237832599 0.21830909360614789 0 -0.1863200837324982 0.20555600776477401 0 -0.19795586237832599 0.21830909360614789 0 -0.18240126852579899 0.21930684119835961 0 -0.1863200837324982 0.20555600776477401 0 -0.21994142138302111 0.22426230620998819 0 -0.19795586237832599 0.21830909360614789 0 -0.210353022999335 0.20567537760669019 0 -0.21994142138302111 0.22426230620998819 0 -0.19795586237832599 0.21830909360614789 0 -0.20314208847108339 0.23556135501649109 0 -0.19795586237832599 0.21830909360614789 0 -0.18651378479530609 0.23505073182760211 0 -0.18240126852579899 0.21930684119835961 0 -0.19795586237832599 0.21830909360614789 0 -0.20314208847108339 0.23556135501649109 0 -0.18651378479530609 0.23505073182760211 0 -0.1929026130837673 0.25762258695206858 0 -0.20314208847108339 0.23556135501649109 0 -0.18651378479530609 0.23505073182760211 0 -0.1929026130837673 0.25762258695206858 0 -0.20314208847108339 0.23556135501649109 0 -0.21218175950055909 0.24952722652004439 0 -0.21994142138302111 0.22426230620998819 0 -0.21218175950055909 0.24952722652004439 0 -0.21994142138302111 0.22426230620998819 0 -0.20314208847108339 0.23556135501649109 0 -0.21218175950055909 0.24952722652004439 0 -0.16582228118094081 0.26466105519565358 0 -0.18651378479530609 0.23505073182760211 0 -0.1608218935138386 0.23306973899941771 0 -0.16582228118094081 0.26466105519565358 0 -0.14534546737678511 0.25129379472131641 0 -0.1608218935138386 0.23306973899941771 0 -0.18651378479530609 0.23505073182760211 0 -0.1608218935138386 0.23306973899941771 0 -0.18651378479530609 0.23505073182760211 0 -0.18240126852579899 0.21930684119835961 0 -0.1608218935138386 0.23306973899941771 0 -0.1608218935138386 0.23306973899941771 0 -0.16716432822862029 0.21469463307327219 0 -0.14537567171977789 0.21373021027012479 0 -0.18240126852579899 0.21930684119835961 0 -0.1608218935138386 0.23306973899941771 0 -0.16716432822862029 0.21469463307327219 0 -0.16716432822862029 0.21469463307327219 0 -0.15728284033457929 0.19872471446884221 0 -0.14537567171977789 0.21373021027012479 0 -0.16716432822862029 0.21469463307327219 0 -0.1863200837324982 0.20555600776477401 0 -0.15728284033457929 0.19872471446884221 0 -0.18240126852579899 0.21930684119835961 0 -0.16716432822862029 0.21469463307327219 0 -0.1863200837324982 0.20555600776477401 0 -0.1863200837324982 0.20555600776477401 0 -0.1747365466553682 0.1940095109997643 0 -0.15728284033457929 0.19872471446884221 0 -0.1897130520823497 0.19444680225630501 0 -0.1863200837324982 0.20555600776477401 0 -0.1747365466553682 0.1940095109997643 0 -0.1897130520823497 0.19444680225630501 0 -0.1747365466553682 0.1940095109997643 0 -0.1757122088887666 0.1802711648698879 0 -0.1747365466553682 0.1940095109997643 0 -0.16534449221108169 0.19019064904669619 0 -0.1757122088887666 0.1802711648698879 0 -0.1863200837324982 0.20555600776477401 0 -0.15728284033457929 0.19872471446884221 0 -0.1747365466553682 0.1940095109997643 0 -0.16534449221108169 0.19019064904669619 0 -0.15728284033457929 0.19872471446884221 0 -0.16534449221108169 0.19019064904669619 0 -0.15728284033457929 0.19872471446884221 0 -0.15629575781976141 0.184461654133797 0 -0.15728284033457929 0.19872471446884221 0 -0.12824559693666041 0.19189342117291039 0 -0.15629575781976141 0.184461654133797 0 -0.15728284033457929 0.19872471446884221 0 -0.12824559693666041 0.19189342117291039 0 -0.14537567171977789 0.21373021027012479 0 -0.15728284033457929 0.19872471446884221 0 -0.12824559693666041 0.19189342117291039 0 -0.12824559693666041 0.19189342117291039 0 -0.14537567171977789 0.21373021027012479 0 -0.1242544958201173 0.21504107598638081 0 -0.1608218935138386 0.23306973899941771 0 -0.14537567171977789 0.21373021027012479 0 -0.13513000223237101 0.23108874617123329 0 -0.1608218935138386 0.23306973899941771 0 -0.13513000223237101 0.23108874617123329 0 -0.14537567171977789 0.21373021027012479 0 -0.13513000223237101 0.23108874617123329 0 -0.1242544958201173 0.21504107598638081 0 -0.14534546737678511 0.25129379472131641 0 -0.13513000223237101 0.23108874617123329 0 -0.12470300375741469 0.2457033751303839 0 -0.14534546737678511 0.25129379472131641 0 -0.1608218935138386 0.23306973899941771 0 -0.13513000223237101 0.23108874617123329 0 -0.17833905569944569 0.15756593750779829 0 -0.1561619761378806 0.16047685630827471 0 -0.153752621985453 0.14073392350839439 0 -0.1795193575176991 0.1294692331289829 0 -0.17833905569944569 0.15756593750779829 0 -0.153752621985453 0.14073392350839439 0 -0.17833905569944569 0.15756593750779829 0 -0.153752621985453 0.14073392350839439 0 -0.16393492635195239 0.1245978723337525 0 -0.15311233888185891 0.1152965378839053 0 -0.153752621985453 0.14073392350839439 0 -0.16393492635195239 0.1245978723337525 0 -0.1795193575176991 0.1294692331289829 0 -0.153752621985453 0.14073392350839439 0 -0.19589961716039911 0.1405342722931214 0 -0.1795193575176991 0.1294692331289829 0 -0.17833905569944569 0.15756593750779829 0 -0.20292548941343971 0.17439795150720031 0 -0.17833905569944569 0.15756593750779829 0 -0.1757122088887666 0.1802711648698879 0 -0.1897130520823497 0.19444680225630501 0 -0.1757122088887666 0.1802711648698879 0 -0.16534449221108169 0.19019064904669619 0 -0.1757122088887666 0.1802711648698879 0 -0.15629575781976141 0.184461654133797 0 -0.1757122088887666 0.1802711648698879 0 -0.15629575781976141 0.184461654133797 0 -0.1757122088887666 0.1802711648698879 0 -0.15629575781976141 0.184461654133797 0 -0.1561619761378806 0.16047685630827471 0 -0.17833905569944569 0.15756593750779829 0 -0.1757122088887666 0.1802711648698879 0 -0.1561619761378806 0.16047685630827471 0 -0.1757122088887666 0.1802711648698879 0 -0.1561619761378806 0.16047685630827471 0 -0.1561619761378806 0.16047685630827471 0 -0.14126926821389521 0.17232478353634881 0 -0.1371080151487378 0.15864895140394189 0 -0.15629575781976141 0.184461654133797 0 -0.1561619761378806 0.16047685630827471 0 -0.14126926821389521 0.17232478353634881 0 -0.12824559693666041 0.19189342117291039 0 -0.15629575781976141 0.184461654133797 0 -0.14126926821389521 0.17232478353634881 0 -0.12824559693666041 0.19189342117291039 0 -0.14126926821389521 0.17232478353634881 0 -0.1248941403316576 0.1686438139500778 0 -0.14126926821389521 0.17232478353634881 0 -0.1371080151487378 0.15864895140394189 0 -0.1248941403316576 0.1686438139500778 0 -0.1371080151487378 0.15864895140394189 0 -0.1239269324459726 0.1539154783358255 0 -0.1248941403316576 0.1686438139500778 0 -0.1371080151487378 0.15864895140394189 0 -0.13661174338699569 0.1406825477466605 0 -0.1239269324459726 0.1539154783358255 0 -0.1561619761378806 0.16047685630827471 0 -0.13661174338699569 0.1406825477466605 0 -0.1561619761378806 0.16047685630827471 0 -0.13661174338699569 0.1406825477466605 0 -0.153752621985453 0.14073392350839439 0 -0.1561619761378806 0.16047685630827471 0 -0.1371080151487378 0.15864895140394189 0 -0.13661174338699569 0.1406825477466605 0 -0.12916618827146031 0.12390190950899049 0 -0.153752621985453 0.14073392350839439 0 -0.13930859898956699 0.1145050369687237 0 -0.12916618827146031 0.12390190950899049 0 -0.153752621985453 0.14073392350839439 0 -0.13661174338699569 0.1406825477466605 0 -0.11706151063611089 0.1208882391850464 0 -0.12916618827146031 0.12390190950899049 0 -0.13661174338699569 0.1406825477466605 0 -0.11706151063611089 0.1208882391850464 0 -0.12916618827146031 0.12390190950899049 0 -0.13661174338699569 0.1406825477466605 0 -0.153752621985453 0.14073392350839439 0 -0.13661174338699569 0.1406825477466605 0 -0.11473911200363 0.13153944404780621 0 -0.1132109842275667 0.1430328284895945 0 -0.13661174338699569 0.1406825477466605 0 -0.11473911200363 0.13153944404780621 0 -0.11706151063611089 0.1208882391850464 0 -0.11473911200363 0.13153944404780621 0 -0.1039338124667491 0.13009472872812991 0 -0.1132109842275667 0.1430328284895945 0 -0.11473911200363 0.13153944404780621 0 -0.1039338124667491 0.13009472872812991 0 -0.10601879130899509 0.12208205668825579 0 -0.1039338124667491 0.13009472872812991 0 -0.093398168270057425 0.14218175111966569 0 -0.093946486761182085 0.1175508364221631 0 -0.1039338124667491 0.13009472872812991 0 -0.1132109842275667 0.1430328284895945 0 -0.093398168270057425 0.14218175111966569 0 -0.1078097791349048 0.15856925008885259 0 -0.089544080768145809 0.16137822361845131 0 -0.093398168270057425 0.14218175111966569 0 -0.1132109842275667 0.1430328284895945 0 -0.1078097791349048 0.15856925008885259 0 -0.093398168270057425 0.14218175111966569 0 -0.13661174338699569 0.1406825477466605 0 -0.1132109842275667 0.1430328284895945 0 -0.1239269324459726 0.1539154783358255 0 -0.1132109842275667 0.1430328284895945 0 -0.1239269324459726 0.1539154783358255 0 -0.1078097791349048 0.15856925008885259 0 -0.1248941403316576 0.1686438139500778 0 -0.099208353538741523 0.18506212787697859 0 -0.1078097791349048 0.15856925008885259 0 -0.1239269324459726 0.1539154783358255 0 -0.1248941403316576 0.1686438139500778 0 -0.1078097791349048 0.15856925008885259 0 -0.12824559693666041 0.19189342117291039 0 -0.1248941403316576 0.1686438139500778 0 -0.099208353538741523 0.18506212787697859 0 -0.099208353538741523 0.18506212787697859 0 -0.1078097791349048 0.15856925008885259 0 -0.089544080768145809 0.16137822361845131 0 -0.089544080768145809 0.16137822361845131 0 -0.070171110140822543 0.1782308345810468 0 -0.074669823138777097 0.15727584041375819 0 -0.099208353538741523 0.18506212787697859 0 -0.089544080768145809 0.16137822361845131 0 -0.070171110140822543 0.1782308345810468 0 -0.099208353538741523 0.18506212787697859 0 -0.070171110140822543 0.1782308345810468 0 -0.070171110140822543 0.1782308345810468 0 -0.074669823138777097 0.15727584041375819 0 -0.057722578482997257 0.16273086802879619 0 -0.074669823138777097 0.15727584041375819 0 -0.066369438716585821 0.14892706699039879 0 -0.057722578482997257 0.16273086802879619 0 -0.074669823138777097 0.15727584041375819 0 -0.066369438716585821 0.14892706699039879 0 -0.074733199104357148 0.14603812585323231 0 -0.074669823138777097 0.15727584041375819 0 -0.074733199104357148 0.14603812585323231 0 -0.082756465015383474 0.1492386270883771 0 -0.074733199104357148 0.14603812585323231 0 -0.067315024607703278 0.13662092079142449 0 -0.081437053795579945 0.1393191944367777 0 -0.066369438716585821 0.14892706699039879 0 -0.074733199104357148 0.14603812585323231 0 -0.067315024607703278 0.13662092079142449 0 -0.066369438716585821 0.14892706699039879 0 -0.067315024607703278 0.13662092079142449 0 -0.054361576129613079 0.15178129246158931 0 -0.067315024607703278 0.13662092079142449 0 -0.088852304720190942 0.12644129241805541 0 -0.067315024607703278 0.13662092079142449 0 -0.088852304720190942 0.12644129241805541 0 -0.075786521408142987 0.12443322189858901 0 -0.067315024607703278 0.13662092079142449 0 -0.062016764747578973 0.12884034001808189 0 -0.075786521408142987 0.12443322189858901 0 -0.088852304720190942 0.12644129241805541 0 -0.093398168270057425 0.14218175111966569 0 -0.093946486761182085 0.1175508364221631 0 -0.067315024607703278 0.13662092079142449 0 -0.081437053795579945 0.1393191944367777 0 -0.088852304720190942 0.12644129241805541 0 -0.093398168270057425 0.14218175111966569 0 -0.093946486761182085 0.1175508364221631 0 -0.081437053795579945 0.1393191944367777 0 -0.088852304720190942 0.12644129241805541 0 -0.093398168270057425 0.14218175111966569 0 -0.089544080768145809 0.16137822361845131 0 -0.093398168270057425 0.14218175111966569 0 -0.082756465015383474 0.1492386270883771 0 -0.089544080768145809 0.16137822361845131 0 -0.074669823138777097 0.15727584041375819 0 -0.082756465015383474 0.1492386270883771 0 -0.074733199104357148 0.14603812585323231 0 -0.081437053795579945 0.1393191944367777 0 -0.082756465015383474 0.1492386270883771 0 -0.081437053795579945 0.1393191944367777 0 -0.093398168270057425 0.14218175111966569 0 -0.082756465015383474 0.1492386270883771 0 -0.11076524853809321 0.25238606884059173 0 -0.1094381109509034 0.22910775334304889 0 -0.091345724210048884 0.23566487628332011 0 -0.11076524853809321 0.25238606884059173 0 -0.092391857727521592 0.25884509119311472 0 -0.091345724210048884 0.23566487628332011 0 -0.13513000223237101 0.23108874617123329 0 -0.12470300375741469 0.2457033751303839 0 -0.1094381109509034 0.22910775334304889 0 -0.11076524853809321 0.25238606884059173 0 -0.12470300375741469 0.2457033751303839 0 -0.1094381109509034 0.22910775334304889 0 -0.13513000223237101 0.23108874617123329 0 -0.1094381109509034 0.22910775334304889 0 -0.13513000223237101 0.23108874617123329 0 -0.1094381109509034 0.22910775334304889 0 -0.1242544958201173 0.21504107598638081 0 -0.1094381109509034 0.22910775334304889 0 -0.10308309726087379 0.20938524897458621 0 -0.091345724210048884 0.23566487628332011 0 -0.1094381109509034 0.22910775334304889 0 -0.10308309726087379 0.20938524897458621 0 -0.1242544958201173 0.21504107598638081 0 -0.12824559693666041 0.19189342117291039 0 -0.10308309726087379 0.20938524897458621 0 -0.1242544958201173 0.21504107598638081 0 -0.12824559693666041 0.19189342117291039 0 -0.099208353538741523 0.18506212787697859 0 -0.12824559693666041 0.19189342117291039 0 -0.099208353538741523 0.18506212787697859 0 -0.10308309726087379 0.20938524897458621 0 -0.099208353538741523 0.18506212787697859 0 -0.070171110140822543 0.1782308345810468 0 -0.078220861930521898 0.21057701145176541 0 -0.070171110140822543 0.1782308345810468 0 -0.078220861930521898 0.21057701145176541 0 -0.056949983849450658 0.19269083667038239 0 -0.099208353538741523 0.18506212787697859 0 -0.10308309726087379 0.20938524897458621 0 -0.078220861930521898 0.21057701145176541 0 -0.078220861930521898 0.21057701145176541 0 -0.056178602179823331 0.21732906463454121 0 -0.056949983849450658 0.19269083667038239 0 -0.10308309726087379 0.20938524897458621 0 -0.078220861930521898 0.21057701145176541 0 -0.091345724210048884 0.23566487628332011 0 -0.078220861930521898 0.21057701145176541 0 -0.069221313838413207 0.24642852661517459 0 -0.091345724210048884 0.23566487628332011 0 -0.078220861930521898 0.21057701145176541 0 -0.069221313838413207 0.24642852661517459 0 -0.056178602179823331 0.21732906463454121 0 -0.092391857727521592 0.25884509119311472 0 -0.069221313838413207 0.24642852661517459 0 -0.091345724210048884 0.23566487628332011 0 -0.033382390283993792 0.24359412621706661 0 -0.046050769949304807 0.23401196203723451 0 -0.025866468353912139 0.2289639569827632 0 -0.048126263350958612 0.25465777805589501 0 -0.033382390283993792 0.24359412621706661 0 -0.046050769949304807 0.23401196203723451 0 -0.048126263350958612 0.25465777805589501 0 -0.069221313838413207 0.24642852661517459 0 -0.046050769949304807 0.23401196203723451 0 -0.069221313838413207 0.24642852661517459 0 -0.046050769949304807 0.23401196203723451 0 -0.069221313838413207 0.24642852661517459 0 -0.046050769949304807 0.23401196203723451 0 -0.056178602179823331 0.21732906463454121 0 -0.046050769949304807 0.23401196203723451 0 -0.03692704292774221 0.2147422921961073 0 -0.025866468353912139 0.2289639569827632 0 -0.046050769949304807 0.23401196203723451 0 -0.03692704292774221 0.2147422921961073 0 -0.056178602179823331 0.21732906463454121 0 -0.03692704292774221 0.2147422921961073 0 -0.056178602179823331 0.21732906463454121 0 -0.044221089124866657 0.20193605474889509 0 -0.03692704292774221 0.2147422921961073 0 -0.044221089124866657 0.20193605474889509 0 -0.032331133115066808 0.19858524020914661 0 -0.056178602179823331 0.21732906463454121 0 -0.056949983849450658 0.19269083667038239 0 -0.044221089124866657 0.20193605474889509 0 -0.056949983849450658 0.19269083667038239 0 -0.040360849617421202 0.18777351164107661 0 -0.044221089124866657 0.20193605474889509 0 -0.040360849617421202 0.18777351164107661 0 -0.032331133115066808 0.19858524020914661 0 -0.026751027678188599 0.18229597604057349 0 -0.040360849617421202 0.18777351164107661 0 -0.044221089124866657 0.20193605474889509 0 -0.032331133115066808 0.19858524020914661 0 -0.016914194843479571 0.2076274745640635 0 -0.026751027678188599 0.18229597604057349 0 -0.032331133115066808 0.19858524020914661 0 -0.016914194843479571 0.2076274745640635 0 -0.026751027678188599 0.18229597604057349 0 -0.01405220631290922 0.19352016069679451 0 -0.016914194843479571 0.2076274745640635 0 -0.026751027678188599 0.18229597604057349 0 -0.01405220631290922 0.19352016069679451 0 -0.0012364494800765971 0.1960628175593882 0 -0.01891215499648707 0.1765136475382359 0 -0.01405220631290922 0.19352016069679451 0 -0.0012364494800765971 0.1960628175593882 0 -0.0064787008301582438 0.20475797647738719 0 -0.0012364494800765971 0.1960628175593882 0 -0.0064787008301582438 0.20475797647738719 0 0.003893562275735573 0.2064819102401671 0 -0.01405220631290922 0.19352016069679451 0 -0.0064787008301582438 0.20475797647738719 0 -0.016914194843479571 0.2076274745640635 0 -0.0045317147067566524 0.21522543551468479 0 -0.016914194843479571 0.2076274745640635 0 -0.0070773620087705444 0.23295897308755351 0 -0.0064787008301582438 0.20475797647738719 0 -0.0045317147067566524 0.21522543551468479 0 -0.016914194843479571 0.2076274745640635 0 -0.0064787008301582438 0.20475797647738719 0 -0.0045317147067566524 0.21522543551468479 0 0.003893562275735573 0.2064819102401671 0 -0.03692704292774221 0.2147422921961073 0 -0.016914194843479571 0.2076274745640635 0 -0.025866468353912139 0.2289639569827632 0 -0.03692704292774221 0.2147422921961073 0 -0.032331133115066808 0.19858524020914661 0 -0.016914194843479571 0.2076274745640635 0 -0.016914194843479571 0.2076274745640635 0 -0.025866468353912139 0.2289639569827632 0 -0.0070773620087705444 0.23295897308755351 0 -0.016914194843479571 0.2076274745640635 0 -0.0070773620087705444 0.23295897308755351 0 -0.0045317147067566524 0.21522543551468479 0 -0.0070773620087705444 0.23295897308755351 0 0.0038866256090455522 0.2239579318999283 0 -0.0070773620087705444 0.23295897308755351 0 0.001894876929373096 0.24743045501984201 0 0.0027594708259384838 0.25829047161104352 0 -0.0070773620087705444 0.23295897308755351 0 0.0027594708259384838 0.25829047161104352 0 -0.0087132352456033638 0.25173417187717928 0 -0.0070773620087705444 0.23295897308755351 0 -0.01778818590069102 0.2421293126167848 0 -0.0087132352456033638 0.25173417187717928 0 -0.0070773620087705444 0.23295897308755351 0 0.0027594708259384838 0.25829047161104352 0 -0.025866468353912139 0.2289639569827632 0 -0.0070773620087705444 0.23295897308755351 0 -0.01778818590069102 0.2421293126167848 0 -0.028053557715267439 0.25838243531431121 0 -0.033382390283993792 0.24359412621706661 0 -0.01778818590069102 0.2421293126167848 0 -0.033382390283993792 0.24359412621706661 0 -0.025866468353912139 0.2289639569827632 0 -0.01778818590069102 0.2421293126167848 0 -0.044416936009294992 0.14744373737619401 0 -0.030319635528424791 0.14770209815471691 0 -0.021396469969749188 0.1374028974533886 0 -0.044416936009294992 0.14744373737619401 0 -0.030319635528424791 0.14770209815471691 0 -0.027639103276038759 0.15537380566908321 0 -0.044416936009294992 0.14744373737619401 0 -0.038116788675066252 0.15302723042411279 0 -0.027639103276038759 0.15537380566908321 0 -0.044416936009294992 0.14744373737619401 0 -0.041458398192443832 0.13942314763129199 0 -0.021396469969749188 0.1374028974533886 0 -0.044416936009294992 0.14744373737619401 0 -0.027639103276038759 0.15537380566908321 0 -0.044416936009294992 0.14744373737619401 0 -0.021396469969749188 0.1374028974533886 0 -0.044416936009294992 0.14744373737619401 0 -0.036587860512897558 0.15696447751708351 0 -0.044416936009294992 0.14744373737619401 0 -0.047012455662473793 0.15786975055381819 0 -0.036587860512897558 0.15696447751708351 0 -0.044416936009294992 0.14744373737619401 0 -0.038116788675066252 0.15302723042411279 0 -0.036587860512897558 0.15696447751708351 0 -0.038116788675066252 0.15302723042411279 0 -0.036587860512897558 0.15696447751708351 0 -0.027639103276038759 0.15537380566908321 0 -0.038116788675066252 0.15302723042411279 0 -0.036587860512897558 0.15696447751708351 0 -0.037500573576258918 0.13069979942664511 0 -0.041458398192443832 0.13942314763129199 0 -0.021396469969749188 0.1374028974533886 0 -0.037500573576258918 0.13069979942664511 0 -0.028643554108799551 0.12806760582925611 0 -0.034668926388748328 0.1237436995229996 0 -0.037500573576258918 0.13069979942664511 0 -0.047589673205635397 0.1324549890601831 0 -0.046884900963607742 0.11986348336078891 0 -0.037500573576258918 0.13069979942664511 0 -0.041458398192443832 0.13942314763129199 0 -0.047589673205635397 0.1324549890601831 0 -0.044416936009294992 0.14744373737619401 0 -0.041458398192443832 0.13942314763129199 0 -0.047589673205635397 0.1324549890601831 0 -0.067315024607703278 0.13662092079142449 0 -0.044416936009294992 0.14744373737619401 0 -0.062016764747578973 0.12884034001808189 0 -0.044416936009294992 0.14744373737619401 0 -0.062016764747578973 0.12884034001808189 0 -0.044416936009294992 0.14744373737619401 0 -0.047589673205635397 0.1324549890601831 0 -0.062016764747578973 0.12884034001808189 0 -0.047589673205635397 0.1324549890601831 0 -0.062016764747578973 0.12884034001808189 0 -0.046884900963607742 0.11986348336078891 0 -0.067315024607703278 0.13662092079142449 0 -0.044416936009294992 0.14744373737619401 0 -0.054361576129613079 0.15178129246158931 0 -0.067315024607703278 0.13662092079142449 0 -0.044416936009294992 0.14744373737619401 0 -0.044416936009294992 0.14744373737619401 0 -0.054361576129613079 0.15178129246158931 0 -0.044416936009294992 0.14744373737619401 0 -0.054361576129613079 0.15178129246158931 0 -0.047012455662473793 0.15786975055381819 0 -0.066369438716585821 0.14892706699039879 0 -0.054361576129613079 0.15178129246158931 0 -0.057722578482997257 0.16273086802879619 0 -0.057722578482997257 0.16273086802879619 0 -0.050411583818504503 0.1777900037548745 0 -0.045636115300606919 0.16650756778262649 0 -0.054361576129613079 0.15178129246158931 0 -0.057722578482997257 0.16273086802879619 0 -0.047012455662473793 0.15786975055381819 0 -0.057722578482997257 0.16273086802879619 0 -0.047012455662473793 0.15786975055381819 0 -0.045636115300606919 0.16650756778262649 0 -0.070171110140822543 0.1782308345810468 0 -0.056949983849450658 0.19269083667038239 0 -0.050411583818504503 0.1777900037548745 0 -0.070171110140822543 0.1782308345810468 0 -0.057722578482997257 0.16273086802879619 0 -0.050411583818504503 0.1777900037548745 0 -0.056949983849450658 0.19269083667038239 0 -0.040360849617421202 0.18777351164107661 0 -0.050411583818504503 0.1777900037548745 0 -0.040360849617421202 0.18777351164107661 0 -0.050411583818504503 0.1777900037548745 0 -0.039949487385523758 0.17426630734724691 0 -0.050411583818504503 0.1777900037548745 0 -0.039949487385523758 0.17426630734724691 0 -0.045636115300606919 0.16650756778262649 0 -0.040360849617421202 0.18777351164107661 0 -0.039949487385523758 0.17426630734724691 0 -0.026751027678188599 0.18229597604057349 0 -0.039949487385523758 0.17426630734724691 0 -0.036587860512897558 0.15696447751708351 0 -0.026751027678188599 0.18229597604057349 0 -0.036587860512897558 0.15696447751708351 0 -0.026751027678188599 0.18229597604057349 0 -0.039949487385523758 0.17426630734724691 0 -0.045636115300606919 0.16650756778262649 0 -0.036587860512897558 0.15696447751708351 0 -0.047012455662473793 0.15786975055381819 0 -0.045636115300606919 0.16650756778262649 0 -0.036587860512897558 0.15696447751708351 0 -0.01891215499648707 0.1765136475382359 0 -0.010861270542782259 0.1633038739619718 0 -0.027639103276038759 0.15537380566908321 0 -0.010861270542782259 0.1633038739619718 0 -0.027639103276038759 0.15537380566908321 0 -0.036587860512897558 0.15696447751708351 0 -0.01891215499648707 0.1765136475382359 0 -0.036587860512897558 0.15696447751708351 0 -0.01891215499648707 0.1765136475382359 0 -0.027639103276038759 0.15537380566908321 0 -0.01405220631290922 0.19352016069679451 0 -0.01891215499648707 0.1765136475382359 0 -0.026751027678188599 0.18229597604057349 0 -0.036587860512897558 0.15696447751708351 0 -0.01891215499648707 0.1765136475382359 0 -0.026751027678188599 0.18229597604057349 0 -0.01891215499648707 0.1765136475382359 0 -0.010861270542782259 0.1633038739619718 0 0.00061104658230836653 0.17769045695541219 0 -0.0012364494800765971 0.1960628175593882 0 -0.01891215499648707 0.1765136475382359 0 0.00061104658230836653 0.17769045695541219 0 -0.0012364494800765971 0.1960628175593882 0 -0.01891215499648707 0.1765136475382359 0 -0.010861270542782259 0.1633038739619718 0 0.001788155555331062 0.1557637096651584 0 0.00061104658230836653 0.17769045695541219 0 -0.01542264584752753 0.14956457798035719 0 -0.015783289274076458 0.13495459563681389 0 0.001788155555331062 0.1557637096651584 0 -0.015783289274076458 0.13495459563681389 0 0.001788155555331062 0.1557637096651584 0 0.01185912902997375 0.14130758542593569 0 -0.010861270542782259 0.1633038739619718 0 -0.01542264584752753 0.14956457798035719 0 0.001788155555331062 0.1557637096651584 0 -0.015783289274076458 0.13495459563681389 0 0.001788155555331062 0.1557637096651584 0 -0.01542264584752753 0.14956457798035719 0 -0.023159931299824549 0.14839209377580129 0 -0.027639103276038759 0.15537380566908321 0 -0.010861270542782259 0.1633038739619718 0 -0.01542264584752753 0.14956457798035719 0 -0.027639103276038759 0.15537380566908321 0 -0.01542264584752753 0.14956457798035719 0 -0.023159931299824549 0.14839209377580129 0 -0.021396469969749188 0.1374028974533886 0 -0.01542264584752753 0.14956457798035719 0 -0.021396469969749188 0.1374028974533886 0 -0.015783289274076458 0.13495459563681389 0 -0.030319635528424791 0.14770209815471691 0 -0.021396469969749188 0.1374028974533886 0 -0.023159931299824549 0.14839209377580129 0 -0.030319635528424791 0.14770209815471691 0 -0.021396469969749188 0.1374028974533886 0 -0.023159931299824549 0.14839209377580129 0 -0.030319635528424791 0.14770209815471691 0 -0.027639103276038759 0.15537380566908321 0 -0.028643554108799551 0.12806760582925611 0 -0.017506847497941139 0.13291345901070739 0 -0.032144953111298558 0.1155781737325411 0 -0.037500573576258918 0.13069979942664511 0 -0.028643554108799551 0.12806760582925611 0 -0.021396469969749188 0.1374028974533886 0 -0.021396469969749188 0.1374028974533886 0 -0.015783289274076458 0.13495459563681389 0 -0.017506847497941139 0.13291345901070739 0 -0.021396469969749188 0.1374028974533886 0 -0.015783289274076458 0.13495459563681389 0 -0.021396469969749188 0.1374028974533886 0 -0.017506847497941139 0.13291345901070739 0 -0.015783289274076458 0.13495459563681389 0 -0.017506847497941139 0.13291345901070739 0 -0.028643554108799551 0.12806760582925611 0 -0.021396469969749188 0.1374028974533886 0 -0.017506847497941139 0.13291345901070739 0 -0.015783289274076458 0.13495459563681389 0 -0.017506847497941139 0.13291345901070739 0 -0.0052228475358298988 0.1187351519746004 0 -0.015783289274076458 0.13495459563681389 0 -0.0052228475358298988 0.1187351519746004 0 0.0081407562022233586 0.1245196413435004 0 -0.017506847497941139 0.13291345901070739 0 -0.0052228475358298988 0.1187351519746004 0 -0.015783289274076458 0.13495459563681389 0 0.0081407562022233586 0.1245196413435004 0 -0.0052228475358298988 0.1187351519746004 0 -0.0040597014752050652 0.1051126182356364 0 -0.02761291541641378 0.1090435214711212 0 -0.017506847497941139 0.13291345901070739 0 -0.0052228475358298988 0.1187351519746004 0 -0.019344259015361451 0.119617058157429 0 -0.0040597014752050652 0.1051126182356364 0 -0.01533391803445322 0.09737838425916874 0 0.0051087594610210148 0.080527692295617709 0 -0.0052228475358298988 0.1187351519746004 0 -0.0040597014752050652 0.1051126182356364 0 0.0092582498306486675 0.1020209346744549 0 -0.0040597014752050652 0.1051126182356364 0 -0.01533391803445322 0.09737838425916874 0 -0.02761291541641378 0.1090435214711212 0 -0.01533391803445322 0.09737838425916874 0 -0.027797722535604891 0.095528124355643507 0 -0.02761291541641378 0.1090435214711212 0 -0.0052228475358298988 0.1187351519746004 0 -0.02761291541641378 0.1090435214711212 0 -0.019344259015361451 0.119617058157429 0 -0.017506847497941139 0.13291345901070739 0 -0.019344259015361451 0.119617058157429 0 -0.032144953111298558 0.1155781737325411 0 -0.02761291541641378 0.1090435214711212 0 -0.019344259015361451 0.119617058157429 0 -0.032144953111298558 0.1155781737325411 0 -0.0052228475358298988 0.1187351519746004 0 -0.02761291541641378 0.1090435214711212 0 -0.017506847497941139 0.13291345901070739 0 -0.032144953111298558 0.1155781737325411 0 -0.0012292332505543029 0.06378464068123596 0 -0.011084303888442551 0.081696622097620714 0 -0.018620569400409771 0.06708533464306303 0 -0.0012292332505543029 0.06378464068123596 0 -0.011084303888442551 0.081696622097620714 0 0.0051087594610210148 0.080527692295617709 0 -0.01533391803445322 0.09737838425916874 0 -0.011084303888442551 0.081696622097620714 0 0.0051087594610210148 0.080527692295617709 0 -0.01533391803445322 0.09737838425916874 0 0.0051087594610210148 0.080527692295617709 0 -0.011084303888442551 0.081696622097620714 0 0.0051087594610210148 0.080527692295617709 0 -0.027797722535604891 0.095528124355643507 0 -0.011084303888442551 0.081696622097620714 0 -0.032921925083363349 0.0833654898886593 0 -0.01533391803445322 0.09737838425916874 0 -0.027797722535604891 0.095528124355643507 0 -0.011084303888442551 0.081696622097620714 0 -0.018620569400409771 0.06708533464306303 0 -0.031868141831282552 0.069818555696904067 0 -0.028283535649973771 0.053358049395037133 0 -0.018620569400409771 0.06708533464306303 0 -0.031868141831282552 0.069818555696904067 0 -0.032921925083363349 0.0833654898886593 0 -0.011084303888442551 0.081696622097620714 0 -0.018620569400409771 0.06708533464306303 0 -0.032921925083363349 0.0833654898886593 0 -0.046276495737503101 0.06795068115397529 0 -0.032921925083363349 0.0833654898886593 0 -0.055882409073029139 0.082732437330199013 0 -0.046276495737503101 0.06795068115397529 0 -0.031868141831282552 0.069818555696904067 0 -0.028283535649973771 0.053358049395037133 0 -0.046276495737503101 0.06795068115397529 0 -0.031868141831282552 0.069818555696904067 0 -0.032921925083363349 0.0833654898886593 0 -0.027797722535604891 0.095528124355643507 0 -0.032921925083363349 0.0833654898886593 0 -0.050002983296997462 0.099351890967641507 0 -0.032921925083363349 0.0833654898886593 0 -0.055882409073029139 0.082732437330199013 0 -0.050002983296997462 0.099351890967641507 0 -0.055882409073029139 0.082732437330199013 0 -0.050002983296997462 0.099351890967641507 0 -0.072393051177581158 0.089660260464161839 0 -0.046276495737503101 0.06795068115397529 0 -0.055882409073029139 0.082732437330199013 0 -0.062589921296568873 0.06642957971461419 0 -0.032144953111298558 0.1155781737325411 0 -0.050002983296997462 0.099351890967641507 0 -0.046884900963607742 0.11986348336078891 0 -0.037500573576258918 0.13069979942664511 0 -0.034668926388748328 0.1237436995229996 0 -0.046884900963607742 0.11986348336078891 0 -0.028643554108799551 0.12806760582925611 0 -0.034668926388748328 0.1237436995229996 0 -0.032144953111298558 0.1155781737325411 0 -0.034668926388748328 0.1237436995229996 0 -0.032144953111298558 0.1155781737325411 0 -0.046884900963607742 0.11986348336078891 0 -0.027797722535604891 0.095528124355643507 0 -0.02761291541641378 0.1090435214711212 0 -0.050002983296997462 0.099351890967641507 0 -0.02761291541641378 0.1090435214711212 0 -0.050002983296997462 0.099351890967641507 0 -0.02761291541641378 0.1090435214711212 0 -0.032144953111298558 0.1155781737325411 0 -0.050002983296997462 0.099351890967641507 0 -0.050002983296997462 0.099351890967641507 0 -0.072393051177581158 0.089660260464161839 0 -0.050002983296997462 0.099351890967641507 0 -0.062115440392200259 0.1100516779477724 0 -0.072393051177581158 0.089660260464161839 0 -0.062016764747578973 0.12884034001808189 0 -0.062115440392200259 0.1100516779477724 0 -0.046884900963607742 0.11986348336078891 0 -0.050002983296997462 0.099351890967641507 0 -0.062115440392200259 0.1100516779477724 0 -0.046884900963607742 0.11986348336078891 0 -0.062016764747578973 0.12884034001808189 0 -0.062115440392200259 0.1100516779477724 0 -0.07825578499994286 0.1108801308713713 0 -0.062016764747578973 0.12884034001808189 0 -0.07825578499994286 0.1108801308713713 0 -0.062016764747578973 0.12884034001808189 0 -0.075786521408142987 0.12443322189858901 0 -0.07825578499994286 0.1108801308713713 0 -0.088852304720190942 0.12644129241805541 0 -0.075786521408142987 0.12443322189858901 0 -0.083719546898917335 0.119699814685821 0 -0.083719546898917335 0.119699814685821 0 -0.07825578499994286 0.1108801308713713 0 -0.093946486761182085 0.1175508364221631 0 -0.075786521408142987 0.12443322189858901 0 -0.083719546898917335 0.119699814685821 0 -0.07825578499994286 0.1108801308713713 0 -0.088852304720190942 0.12644129241805541 0 -0.083719546898917335 0.119699814685821 0 -0.093946486761182085 0.1175508364221631 0 -0.07825578499994286 0.1108801308713713 0 -0.072393051177581158 0.089660260464161839 0 -0.094494805252306774 0.092919921724660626 0 -0.07825578499994286 0.1108801308713713 0 -0.094494805252306774 0.092919921724660626 0 -0.093946486761182085 0.1175508364221631 0 -0.07825578499994286 0.1108801308713713 0 -0.094494805252306774 0.092919921724660626 0 -0.062115440392200259 0.1100516779477724 0 -0.07825578499994286 0.1108801308713713 0 -0.072393051177581158 0.089660260464161839 0 -0.055882409073029139 0.082732437330199013 0 -0.072393051177581158 0.089660260464161839 0 -0.062589921296568873 0.06642957971461419 0 -0.072393051177581158 0.089660260464161839 0 -0.062589921296568873 0.06642957971461419 0 -0.079461892795990779 0.070449194571112136 0 -0.062589921296568873 0.06642957971461419 0 -0.079461892795990779 0.070449194571112136 0 -0.072380178782229632 0.053292134703331731 0 -0.079461892795990779 0.070449194571112136 0 -0.094783119058163612 0.079968629960679383 0 -0.095163193665411511 0.062895368012773595 0 -0.072393051177581158 0.089660260464161839 0 -0.079461892795990779 0.070449194571112136 0 -0.094783119058163612 0.079968629960679383 0 -0.072393051177581158 0.089660260464161839 0 -0.094494805252306774 0.092919921724660626 0 -0.094783119058163612 0.079968629960679383 0 -0.072393051177581158 0.089660260464161839 0 -0.094783119058163612 0.079968629960679383 0 -0.094494805252306774 0.092919921724660626 0 -0.1072570836689255 0.074569224449017327 0 -0.1143352617609841 0.070976556735617355 0 -0.094494805252306774 0.092919921724660626 0 -0.094783119058163612 0.079968629960679383 0 -0.1072570836689255 0.074569224449017327 0 -0.094494805252306774 0.092919921724660626 0 -0.094783119058163612 0.079968629960679383 0 -0.094494805252306774 0.092919921724660626 0 -0.1143352617609841 0.070976556735617355 0 -0.11134444788944529 0.091345452974062963 0 -0.094494805252306774 0.092919921724660626 0 -0.1143352617609841 0.070976556735617355 0 -0.094783119058163612 0.079968629960679383 0 -0.095163193665411511 0.062895368012773595 0 -0.094783119058163612 0.079968629960679383 0 -0.095163193665411511 0.062895368012773595 0 -0.1072570836689255 0.074569224449017327 0 -0.095163193665411511 0.062895368012773595 0 -0.1143352617609841 0.070976556735617355 0 -0.1079186055395126 0.059947093390224047 0 -0.095163193665411511 0.062895368012773595 0 -0.1072570836689255 0.074569224449017327 0 -0.1143352617609841 0.070976556735617355 0 -0.095163193665411511 0.062895368012773595 0 -0.1143352617609841 0.070976556735617355 0 -0.094783119058163612 0.079968629960679383 0 -0.1072570836689255 0.074569224449017327 0 -0.1131683311422218 0.062814464837820119 0 -0.1163519950294771 0.068746068028026575 0 -0.1143352617609841 0.070976556735617355 0 -0.1131683311422218 0.062814464837820119 0 -0.1143352617609841 0.070976556735617355 0 -0.1079186055395126 0.059947093390224047 0 -0.1131683311422218 0.062814464837820119 0 -0.1163519950294771 0.068746068028026575 0 -0.1185872066977806 0.063729502839677182 0 -0.1163519950294771 0.068746068028026575 0 -0.1143352617609841 0.070976556735617355 0 -0.12697985749263241 0.07630636069427757 0 -0.1143352617609841 0.070976556735617355 0 -0.12697985749263241 0.07630636069427757 0 -0.1143352617609841 0.070976556735617355 0 -0.1200161930876608 0.081776906418299489 0 -0.12697985749263241 0.07630636069427757 0 -0.1163519950294771 0.068746068028026575 0 -0.1143352617609841 0.070976556735617355 0 -0.12697985749263241 0.07630636069427757 0 -0.12509646681095879 0.065597408261105467 0 -0.1163519950294771 0.068746068028026575 0 -0.12509646681095879 0.065597408261105467 0 -0.1163519950294771 0.068746068028026575 0 -0.1185872066977806 0.063729502839677182 0 -0.13359630628803579 0.098968800084119873 0 -0.12697672020224329 0.087309090757334687 0 -0.11134444788944529 0.091345452974062963 0 -0.1143352617609841 0.070976556735617355 0 -0.11134444788944529 0.091345452974062963 0 -0.1200161930876608 0.081776906418299489 0 -0.12697672020224329 0.087309090757334687 0 -0.11134444788944529 0.091345452974062963 0 -0.1200161930876608 0.081776906418299489 0 -0.12697672020224329 0.087309090757334687 0 -0.12697985749263241 0.07630636069427757 0 -0.1200161930876608 0.081776906418299489 0 -0.12607259725238279 0.11330641960449821 0 -0.13359630628803579 0.098968800084119873 0 -0.11123038207674001 0.1082681122756106 0 -0.13359630628803579 0.098968800084119873 0 -0.11134444788944529 0.091345452974062963 0 -0.11123038207674001 0.1082681122756106 0 -0.13359630628803579 0.098968800084119873 0 -0.11123038207674001 0.1082681122756106 0 -0.11134444788944529 0.091345452974062963 0 -0.11123038207674001 0.1082681122756106 0 -0.1057361510920251 0.099277959283072717 0 -0.12607259725238279 0.11330641960449821 0 -0.11123038207674001 0.1082681122756106 0 -0.11706151063611089 0.1208882391850464 0 -0.12607259725238279 0.11330641960449821 0 -0.12916618827146031 0.12390190950899049 0 -0.11706151063611089 0.1208882391850464 0 -0.11473911200363 0.13153944404780621 0 -0.11706151063611089 0.1208882391850464 0 -0.10601879130899509 0.12208205668825579 0 -0.1036345166478785 0.1154037657297244 0 -0.093946486761182085 0.1175508364221631 0 -0.097511277885226108 0.1010939306234323 0 -0.11123038207674001 0.1082681122756106 0 -0.11706151063611089 0.1208882391850464 0 -0.097511277885226108 0.1010939306234323 0 -0.11706151063611089 0.1208882391850464 0 -0.1036345166478785 0.1154037657297244 0 -0.097511277885226108 0.1010939306234323 0 -0.11706151063611089 0.1208882391850464 0 -0.097511277885226108 0.1010939306234323 0 -0.11706151063611089 0.1208882391850464 0 -0.1036345166478785 0.1154037657297244 0 -0.10601879130899509 0.12208205668825579 0 -0.1039338124667491 0.13009472872812991 0 -0.10601879130899509 0.12208205668825579 0 -0.093946486761182085 0.1175508364221631 0 -0.1036345166478785 0.1154037657297244 0 -0.10601879130899509 0.12208205668825579 0 -0.093946486761182085 0.1175508364221631 0 -0.094494805252306774 0.092919921724660626 0 -0.11134444788944529 0.091345452974062963 0 -0.1057361510920251 0.099277959283072717 0 -0.094494805252306774 0.092919921724660626 0 -0.093946486761182085 0.1175508364221631 0 -0.094494805252306774 0.092919921724660626 0 -0.093946486761182085 0.1175508364221631 0 -0.097511277885226108 0.1010939306234323 0 -0.094494805252306774 0.092919921724660626 0 -0.097511277885226108 0.1010939306234323 0 -0.1057361510920251 0.099277959283072717 0 -0.11123038207674001 0.1082681122756106 0 -0.097511277885226108 0.1010939306234323 0 -0.1057361510920251 0.099277959283072717 0 -0.1001339578063882 0.022436777626384768 0 -0.09536928659882779 0.01424719335382847 0 -0.1128440433065038 0.01636018592503535 0 -0.1001339578063882 0.022436777626384768 0 -0.1128440433065038 0.01636018592503535 0 -0.1012358460944251 0.033108064834657697 0 -0.1128440433065038 0.01636018592503535 0 -0.11393466639619521 0.035004472642448957 0 -0.1012358460944251 0.033108064834657697 0 -0.1128440433065038 0.01636018592503535 0 -0.1012358460944251 0.033108064834657697 0 -0.1001339578063882 0.022436777626384768 0 -0.1012358460944251 0.033108064834657697 0 -0.091086655225796079 0.026031666392017531 0 -0.1001339578063882 0.022436777626384768 0 -0.09536928659882779 0.01424719335382847 0 -0.091086655225796079 0.026031666392017531 0 -0.10394313851700079 0.0020556251079679459 0 -0.09536928659882779 0.01424719335382847 0 -0.085958893623968774 0.001514634656162053 0 -0.10394313851700079 0.0020556251079679459 0 -0.09536928659882779 0.01424719335382847 0 -0.1128440433065038 0.01636018592503535 0 -0.1244522405185825 -0.00038769298458709092 0 -0.12424451236807239 0.027069144312366941 0 -0.1244522405185825 -0.00038769298458709092 0 -0.1128440433065038 0.01636018592503535 0 -0.12424451236807239 0.027069144312366941 0 -0.1244522405185825 -0.00038769298458709092 0 -0.1128440433065038 0.01636018592503535 0 -0.1244522405185825 -0.00038769298458709092 0 -0.10394313851700079 0.0020556251079679459 0 -0.1128440433065038 0.01636018592503535 0 -0.1128440433065038 0.01636018592503535 0 -0.12424451236807239 0.027069144312366941 0 -0.11393466639619521 0.035004472642448957 0 -0.12424451236807239 0.027069144312366941 0 -0.12075472355362291 0.04122338309529356 0 -0.11393466639619521 0.035004472642448957 0 -0.12075472355362291 0.04122338309529356 0 -0.1244920148619628 0.050381604022983993 0 -0.1151670195775447 0.0482238646449 0 -0.11393466639619521 0.035004472642448957 0 -0.1151670195775447 0.0482238646449 0 -0.10635909785250069 0.04125385698526951 0 -0.12075472355362291 0.04122338309529356 0 -0.11393466639619521 0.035004472642448957 0 -0.1151670195775447 0.0482238646449 0 -0.12509646681095879 0.065597408261105467 0 -0.1185872066977806 0.063729502839677182 0 -0.1197320338084647 0.057760070231756527 0 -0.1197320338084647 0.057760070231756527 0 -0.1244920148619628 0.050381604022983993 0 -0.1151670195775447 0.0482238646449 0 -0.1151670195775447 0.0482238646449 0 -0.1125210466915524 0.054978807834542787 0 -0.1051700993263314 0.050476507920077678 0 -0.1197320338084647 0.057760070231756527 0 -0.1151670195775447 0.0482238646449 0 -0.1125210466915524 0.054978807834542787 0 -0.1131683311422218 0.062814464837820119 0 -0.1197320338084647 0.057760070231756527 0 -0.1125210466915524 0.054978807834542787 0 -0.1131683311422218 0.062814464837820119 0 -0.1125210466915524 0.054978807834542787 0 -0.1079186055395126 0.059947093390224047 0 -0.1131683311422218 0.062814464837820119 0 -0.1185872066977806 0.063729502839677182 0 -0.1197320338084647 0.057760070231756527 0 -0.095163193665411511 0.062895368012773595 0 -0.1051700993263314 0.050476507920077678 0 -0.095336714328198874 0.041619114628837717 0 -0.095163193665411511 0.062895368012773595 0 -0.095336714328198874 0.041619114628837717 0 -0.1125210466915524 0.054978807834542787 0 -0.1079186055395126 0.059947093390224047 0 -0.1051700993263314 0.050476507920077678 0 -0.095163193665411511 0.062895368012773595 0 -0.1079186055395126 0.059947093390224047 0 -0.1051700993263314 0.050476507920077678 0 -0.11393466639619521 0.035004472642448957 0 -0.10635909785250069 0.04125385698526951 0 -0.1012358460944251 0.033108064834657697 0 -0.1051700993263314 0.050476507920077678 0 -0.10635909785250069 0.04125385698526951 0 -0.095336714328198874 0.041619114628837717 0 -0.1151670195775447 0.0482238646449 0 -0.1051700993263314 0.050476507920077678 0 -0.10635909785250069 0.04125385698526951 0 -0.095336714328198874 0.041619114628837717 0 -0.1012358460944251 0.033108064834657697 0 -0.08853862327275358 0.036894035852943478 0 -0.10635909785250069 0.04125385698526951 0 -0.095336714328198874 0.041619114628837717 0 -0.1012358460944251 0.033108064834657697 0 -0.095336714328198874 0.041619114628837717 0 -0.1012358460944251 0.033108064834657697 0 -0.1012358460944251 0.033108064834657697 0 -0.08853862327275358 0.036894035852943478 0 -0.091086655225796079 0.026031666392017531 0 -0.08853862327275358 0.036894035852943478 0 -0.081088353484909961 0.032020518526829703 0 -0.091086655225796079 0.026031666392017531 0 -0.08853862327275358 0.036894035852943478 0 -0.079654612676290371 0.043453985766932421 0 -0.089627648882346422 0.049855943744280047 0 -0.095336714328198874 0.041619114628837717 0 -0.08853862327275358 0.036894035852943478 0 -0.089627648882346422 0.049855943744280047 0 -0.095336714328198874 0.041619114628837717 0 -0.089627648882346422 0.049855943744280047 0 -0.08853862327275358 0.036894035852943478 0 -0.079654612676290371 0.043453985766932421 0 -0.081088353484909961 0.032020518526829703 0 -0.095163193665411511 0.062895368012773595 0 -0.089627648882346422 0.049855943744280047 0 -0.072380178782229632 0.053292134703331731 0 -0.095163193665411511 0.062895368012773595 0 -0.095336714328198874 0.041619114628837717 0 -0.089627648882346422 0.049855943744280047 0 -0.095163193665411511 0.062895368012773595 0 -0.072380178782229632 0.053292134703331731 0 -0.079461892795990779 0.070449194571112136 0 -0.095163193665411511 0.062895368012773595 0 -0.072380178782229632 0.053292134703331731 0 -0.079654612676290371 0.043453985766932421 0 -0.089627648882346422 0.049855943744280047 0 -0.072380178782229632 0.053292134703331731 0 -0.079654612676290371 0.043453985766932421 0 -0.072380178782229632 0.053292134703331731 0 -0.065785112224924183 0.037111289768743512 0 -0.072380178782229632 0.053292134703331731 0 -0.065785112224924183 0.037111289768743512 0 -0.049597163899048183 0.043688901393888827 0 -0.079654612676290371 0.043453985766932421 0 -0.081088353484909961 0.032020518526829703 0 -0.065785112224924183 0.037111289768743512 0 -0.081088353484909961 0.032020518526829703 0 -0.065785112224924183 0.037111289768743512 0 -0.069646162847898541 0.026335067629459381 0 -0.069646162847898541 0.026335067629459381 0 -0.076118231742993758 0.01527396050979404 0 -0.05559295393876626 0.02093450171247024 0 -0.065785112224924183 0.037111289768743512 0 -0.069646162847898541 0.026335067629459381 0 -0.05559295393876626 0.02093450171247024 0 -0.081088353484909961 0.032020518526829703 0 -0.069646162847898541 0.026335067629459381 0 -0.076118231742993758 0.01527396050979404 0 -0.081088353484909961 0.032020518526829703 0 -0.091086655225796079 0.026031666392017531 0 -0.076118231742993758 0.01527396050979404 0 -0.09536928659882779 0.01424719335382847 0 -0.091086655225796079 0.026031666392017531 0 -0.076118231742993758 0.01527396050979404 0 -0.09536928659882779 0.01424719335382847 0 -0.085958893623968774 0.001514634656162053 0 -0.076118231742993758 0.01527396050979404 0 -0.076118231742993758 0.01527396050979404 0 -0.065648076432031049 0.00090955339710942099 0 -0.05559295393876626 0.02093450171247024 0 -0.085958893623968774 0.001514634656162053 0 -0.076118231742993758 0.01527396050979404 0 -0.065648076432031049 0.00090955339710942099 0 -0.045118160941850949 -0.00049033847668307538 0 -0.065648076432031049 0.00090955339710942099 0 -0.05559295393876626 0.02093450171247024 0 -0.05559295393876626 0.02093450171247024 0 -0.041197297059898302 0.028587588038626519 0 -0.049597163899048183 0.043688901393888827 0 -0.05559295393876626 0.02093450171247024 0 -0.032784921385912158 0.01564128096370114 0 -0.041197297059898302 0.028587588038626519 0 -0.032784921385912158 0.01564128096370114 0 -0.041197297059898302 0.028587588038626519 0 -0.02681414901586664 0.034085668084445887 0 -0.045118160941850949 -0.00049033847668307538 0 -0.05559295393876626 0.02093450171247024 0 -0.032784921385912158 0.01564128096370114 0 -0.045118160941850949 -0.00049033847668307538 0 -0.027025641752002061 -0.0079319500279313396 0 -0.032784921385912158 0.01564128096370114 0 -0.062589921296568873 0.06642957971461419 0 -0.072380178782229632 0.053292134703331731 0 -0.049597163899048183 0.043688901393888827 0 -0.046276495737503101 0.06795068115397529 0 -0.062589921296568873 0.06642957971461419 0 -0.049597163899048183 0.043688901393888827 0 -0.072380178782229632 0.053292134703331731 0 -0.049597163899048183 0.043688901393888827 0 -0.065785112224924183 0.037111289768743512 0 -0.05559295393876626 0.02093450171247024 0 -0.049597163899048183 0.043688901393888827 0 -0.049597163899048183 0.043688901393888827 0 -0.02681414901586664 0.034085668084445887 0 -0.041197297059898302 0.028587588038626519 0 -0.049597163899048183 0.043688901393888827 0 -0.02681414901586664 0.034085668084445887 0 -0.049597163899048183 0.043688901393888827 0 -0.028283535649973771 0.053358049395037133 0 -0.02681414901586664 0.034085668084445887 0 -0.046276495737503101 0.06795068115397529 0 -0.028283535649973771 0.053358049395037133 0 -0.046276495737503101 0.06795068115397529 0 -0.049597163899048183 0.043688901393888827 0 -0.028283535649973771 0.053358049395037133 0 -0.028283535649973771 0.053358049395037133 0 -0.010290575562444429 0.038765417636098962 0 -0.0097640400442320502 0.053032197103308337 0 -0.018620569400409771 0.06708533464306303 0 -0.028283535649973771 0.053358049395037133 0 -0.0097640400442320502 0.053032197103308337 0 -0.028283535649973771 0.053358049395037133 0 -0.010290575562444429 0.038765417636098962 0 -0.02681414901586664 0.034085668084445887 0 -0.010290575562444429 0.038765417636098962 0 -0.020835528804160591 0.022374223573919171 0 -0.028283535649973771 0.053358049395037133 0 -0.02681414901586664 0.034085668084445887 0 -0.010290575562444429 0.038765417636098962 0 -0.010290575562444429 0.038765417636098962 0 0.0077023845250848884 0.024172785877160811 0 -0.010290575562444429 0.038765417636098962 0 -0.0034349793211087142 0.044893397967285961 0 0.0047272217829380687 0.036246676438490527 0 -0.010290575562444429 0.038765417636098962 0 -0.0034349793211087142 0.044893397967285961 0 -0.0097640400442320502 0.053032197103308337 0 -0.0012292332505543029 0.06378464068123596 0 -0.018620569400409771 0.06708533464306303 0 -0.0097640400442320502 0.053032197103308337 0 -0.0034349793211087142 0.044893397967285961 0 -0.0097640400442320502 0.053032197103308337 0 0.0015874765393035599 0.051529300691246019 0 -0.0012292332505543029 0.06378464068123596 0 -0.0097640400442320502 0.053032197103308337 0 0.0015874765393035599 0.051529300691246019 0 -0.027025641752002061 -0.0079319500279313396 0 -0.032784921385912158 0.01564128096370114 0 -0.01566814095190756 0.010235570601176981 0 -0.032784921385912158 0.01564128096370114 0 -0.02681414901586664 0.034085668084445887 0 -0.020835528804160591 0.022374223573919171 0 -0.032784921385912158 0.01564128096370114 0 -0.01566814095190756 0.010235570601176981 0 -0.020835528804160591 0.022374223573919171 0 -0.010290575562444429 0.038765417636098962 0 -0.020835528804160591 0.022374223573919171 0 -0.0077262750329500059 0.02266504195052366 0 -0.01566814095190756 0.010235570601176981 0 -0.020835528804160591 0.022374223573919171 0 -0.0077262750329500059 0.02266504195052366 0 -0.010290575562444429 0.038765417636098962 0 -0.0077262750329500059 0.02266504195052366 0 0.0077023845250848884 0.024172785877160811 0 -0.0091716063734174208 -0.003332990253060792 0 -0.01566814095190756 0.010235570601176981 0 0.001118487675879971 0.0096665619175221752 0 -0.0091716063734174208 -0.003332990253060792 0 0.001118487675879971 0.0096665619175221752 0 0.006935528729737548 -0.0054826371559186567 0 -0.01566814095190756 0.010235570601176981 0 -0.0077262750329500059 0.02266504195052366 0 0.001118487675879971 0.0096665619175221752 0 0.001118487675879971 0.0096665619175221752 0 0.0077023845250848884 0.024172785877160811 0 0.025695344612614111 0.0095801541182225364 0 0.001118487675879971 0.0096665619175221752 0 0.025695344612614111 0.0095801541182225364 0 0.006935528729737548 -0.0054826371559186567 0 -0.0077262750329500059 0.02266504195052366 0 0.001118487675879971 0.0096665619175221752 0 0.0077023845250848884 0.024172785877160811 0 0.0077023845250848884 0.024172785877160811 0 0.024648998497944961 0.02642224341189468 0 0.015911730558903318 0.034762274935307848 0 0.024648998497944961 0.02642224341189468 0 0.025695344612614111 0.0095801541182225364 0 0.038363400138324961 0.019751697241263279 0 0.0077023845250848884 0.024172785877160811 0 0.024648998497944961 0.02642224341189468 0 0.025695344612614111 0.0095801541182225364 0 0.0077023845250848884 0.024172785877160811 0 0.025695344612614111 0.0095801541182225364 0 0.025695344612614111 0.0095801541182225364 0 0.006935528729737548 -0.0054826371559186567 0 0.01459521235494949 0.061710637509134872 0 0.0047272217829380687 0.036246676438490527 0 -0.0012292332505543029 0.06378464068123596 0 0.01459521235494949 0.061710637509134872 0 0.0015874765393035599 0.051529300691246019 0 0.01459521235494949 0.061710637509134872 0 0.0015874765393035599 0.051529300691246019 0 0.0047272217829380687 0.036246676438490527 0 0.01459521235494949 0.061710637509134872 0 0.0047272217829380687 0.036246676438490527 0 0.016570281580619739 0.045526930476817662 0 -0.010290575562444429 0.038765417636098962 0 0.0077023845250848884 0.024172785877160811 0 0.0047272217829380687 0.036246676438490527 0 -0.0034349793211087142 0.044893397967285961 0 0.0015874765393035599 0.051529300691246019 0 0.0047272217829380687 0.036246676438490527 0 0.0047272217829380687 0.036246676438490527 0 0.015911730558903318 0.034762274935307848 0 0.016570281580619739 0.045526930476817662 0 0.0077023845250848884 0.024172785877160811 0 0.0047272217829380687 0.036246676438490527 0 0.015911730558903318 0.034762274935307848 0 0.024648998497944961 0.02642224341189468 0 0.015911730558903318 0.034762274935307848 0 0.025892041879535671 0.039420421904702428 0 0.024648998497944961 0.02642224341189468 0 0.025892041879535671 0.039420421904702428 0 0.038236142792751733 0.035111405712831077 0 0.015911730558903318 0.034762274935307848 0 0.025892041879535671 0.039420421904702428 0 0.016570281580619739 0.045526930476817662 0 0.025892041879535671 0.039420421904702428 0 0.016570281580619739 0.045526930476817662 0 0.021716339062575678 0.05448348331271597 0 0.01459521235494949 0.061710637509134872 0 0.016570281580619739 0.045526930476817662 0 0.021716339062575678 0.05448348331271597 0 0.01459521235494949 0.061710637509134872 0 0.021716339062575678 0.05448348331271597 0 0.030459386295035529 0.05963142741263059 0 0.01459521235494949 0.061710637509134872 0 0.030459386295035529 0.05963142741263059 0 0.021716339062575678 0.05448348331271597 0 0.030459386295035529 0.05963142741263059 0 0.032703710623893968 0.046893395464013943 0 0.025892041879535671 0.039420421904702428 0 0.021716339062575678 0.05448348331271597 0 0.032703710623893968 0.046893395464013943 0 0.030459386295035529 0.05963142741263059 0 0.032703710623893968 0.046893395464013943 0 0.047214643089571059 0.045820238977188371 0 0.030459386295035529 0.05963142741263059 0 0.04797297407010033 0.057336039788577382 0 0.030459386295035529 0.05963142741263059 0 0.04797297407010033 0.057336039788577382 0 0.027635028654909001 0.06907575978797427 0 0.030459386295035529 0.05963142741263059 0 0.047214643089571059 0.045820238977188371 0 0.04797297407010033 0.057336039788577382 0 0.030459386295035529 0.05963142741263059 0 0.047214643089571059 0.045820238977188371 0 0.038236142792751733 0.035111405712831077 0 0.047214643089571059 0.045820238977188371 0 0.051031455664035288 0.029923240364304559 0 0.032703710623893968 0.046893395464013943 0 0.038236142792751733 0.035111405712831077 0 0.047214643089571059 0.045820238977188371 0 0.025892041879535671 0.039420421904702428 0 0.032703710623893968 0.046893395464013943 0 0.038236142792751733 0.035111405712831077 0 0.062359133547200143 0.040731400683572692 0 0.047214643089571059 0.045820238977188371 0 0.063969899884107562 0.032009050541747332 0 0.047214643089571059 0.045820238977188371 0 0.063969899884107562 0.032009050541747332 0 0.047214643089571059 0.045820238977188371 0 0.051031455664035288 0.029923240364304559 0 0.063969899884107562 0.032009050541747332 0 0.062359133547200143 0.040731400683572692 0 0.04797297407010033 0.057336039788577382 0 0.072379857481358154 0.054137194478101919 0 0.04797297407010033 0.057336039788577382 0 0.072379857481358154 0.054137194478101919 0 0.062359133547200143 0.040731400683572692 0 0.04797297407010033 0.057336039788577382 0 0.062359133547200143 0.040731400683572692 0 0.047214643089571059 0.045820238977188371 0 0.04797297407010033 0.057336039788577382 0 0.04797297407010033 0.057336039788577382 0 0.072379857481358154 0.054137194478101919 0 0.06072113176624426 0.066105246874810966 0 0.040835927619124697 0.0088703260301804514 0 0.038363400138324961 0.019751697241263279 0 0.051939500327619889 0.017318508583630769 0 0.040835927619124697 0.0088703260301804514 0 0.046640351189982193 0.001482106492276504 0 0.040314465242246092 -0.002276229875846851 0 0.025695344612614111 0.0095801541182225364 0 0.040314465242246092 -0.002276229875846851 0 0.025695344612614111 0.0095801541182225364 0 0.040835927619124697 0.0088703260301804514 0 0.040314465242246092 -0.002276229875846851 0 0.025695344612614111 0.0095801541182225364 0 0.040835927619124697 0.0088703260301804514 0 0.038363400138324961 0.019751697241263279 0 0.025695344612614111 0.0095801541182225364 0 0.038363400138324961 0.019751697241263279 0 0.024648998497944961 0.02642224341189468 0 0.038236142792751733 0.035111405712831077 0 0.038363400138324961 0.019751697241263279 0 0.038363400138324961 0.019751697241263279 0 0.051031455664035288 0.029923240364304559 0 0.038236142792751733 0.035111405712831077 0 0.038363400138324961 0.019751697241263279 0 0.051031455664035288 0.029923240364304559 0 0.038363400138324961 0.019751697241263279 0 0.051939500327619889 0.017318508583630769 0 0.051031455664035288 0.029923240364304559 0 0.051031455664035288 0.029923240364304559 0 0.062107590562420073 0.0228568457980407 0 0.063969899884107562 0.032009050541747332 0 0.051939500327619889 0.017318508583630769 0 0.062107590562420073 0.0228568457980407 0 0.064696567818308529 0.01472149906873369 0 0.051939500327619889 0.017318508583630769 0 0.051031455664035288 0.029923240364304559 0 0.062107590562420073 0.0228568457980407 0 0.055514373943813228 0.0067304088365214816 0 0.075461568133428525 0.0044331687040122013 0 0.049896637954744763 -0.0073960790217490677 0 0.051939500327619889 0.017318508583630769 0 0.055514373943813228 0.0067304088365214816 0 0.064696567818308529 0.01472149906873369 0 0.040835927619124697 0.0088703260301804514 0 0.051939500327619889 0.017318508583630769 0 0.055514373943813228 0.0067304088365214816 0 0.046640351189982193 0.001482106492276504 0 0.055514373943813228 0.0067304088365214816 0 0.049896637954744763 -0.0073960790217490677 0 0.040835927619124697 0.0088703260301804514 0 0.046640351189982193 0.001482106492276504 0 0.055514373943813228 0.0067304088365214816 0 0.075461568133428525 0.0044331687040122013 0 0.064696567818308529 0.01472149906873369 0 0.08072515667864405 0.018197862106306289 0 0.055514373943813228 0.0067304088365214816 0 0.075461568133428525 0.0044331687040122013 0 0.064696567818308529 0.01472149906873369 0 0.075461568133428525 0.0044331687040122013 0 0.1010264983121123 0.016262416429773479 0 0.075461568133428525 0.0044331687040122013 0 0.1010264983121123 0.016262416429773479 0 0.098011391193308373 -0.0056982583262641584 0 0.075461568133428525 0.0044331687040122013 0 0.08072515667864405 0.018197862106306289 0 0.1010264983121123 0.016262416429773479 0 0.088041666307225416 0.02743399724937181 0 0.08072515667864405 0.018197862106306289 0 0.1010264983121123 0.016262416429773479 0 0.088041666307225416 0.02743399724937181 0 0.08072515667864405 0.018197862106306289 0 0.076745293024301803 0.02412676157856956 0 0.088041666307225416 0.02743399724937181 0 0.076745293024301803 0.02412676157856956 0 0.082258845210710349 0.03253561428057717 0 0.08072515667864405 0.018197862106306289 0 0.076745293024301803 0.02412676157856956 0 0.063969899884107562 0.032009050541747332 0 0.062107590562420073 0.0228568457980407 0 0.064696567818308529 0.01472149906873369 0 0.08072515667864405 0.018197862106306289 0 0.08072515667864405 0.018197862106306289 0 0.063969899884107562 0.032009050541747332 0 0.062107590562420073 0.0228568457980407 0 0.08072515667864405 0.018197862106306289 0 0.063969899884107562 0.032009050541747332 0 0.062359133547200143 0.040731400683572692 0 0.076745293024301803 0.02412676157856956 0 0.062359133547200143 0.040731400683572692 0 0.076745293024301803 0.02412676157856956 0 0.076375628159171968 0.038405412939545532 0 0.062359133547200143 0.040731400683572692 0 0.076745293024301803 0.02412676157856956 0 0.063969899884107562 0.032009050541747332 0 0.062359133547200143 0.040731400683572692 0 0.076375628159171968 0.038405412939545532 0 0.072379857481358154 0.054137194478101919 0 0.072379857481358154 0.054137194478101919 0 0.087872793352142223 0.040176285354821803 0 0.096786740892615686 0.050938349167624693 0 0.072379857481358154 0.054137194478101919 0 0.096786740892615686 0.050938349167624693 0 0.072379857481358154 0.054137194478101919 0 0.096786740892615686 0.050938349167624693 0 0.089592915186254174 0.067390154600646832 0 0.076375628159171968 0.038405412939545532 0 0.072379857481358154 0.054137194478101919 0 0.087872793352142223 0.040176285354821803 0 0.076375628159171968 0.038405412939545532 0 0.082258845210710349 0.03253561428057717 0 0.087872793352142223 0.040176285354821803 0 0.076745293024301803 0.02412676157856956 0 0.076375628159171968 0.038405412939545532 0 0.082258845210710349 0.03253561428057717 0 0.088041666307225416 0.02743399724937181 0 0.087872793352142223 0.040176285354821803 0 0.098246025398924644 0.032379674771496843 0 0.088041666307225416 0.02743399724937181 0 0.082258845210710349 0.03253561428057717 0 0.087872793352142223 0.040176285354821803 0 0.098246025398924644 0.032379674771496843 0 0.09859813872304253 0.041737690340159041 0 0.1063796333462841 0.038668109643535398 0 0.087872793352142223 0.040176285354821803 0 0.098246025398924644 0.032379674771496843 0 0.09859813872304253 0.041737690340159041 0 0.087872793352142223 0.040176285354821803 0 0.09859813872304253 0.041737690340159041 0 0.096786740892615686 0.050938349167624693 0 0.09859813872304253 0.041737690340159041 0 0.1037055006252459 0.04652603276331644 0 0.096786740892615686 0.050938349167624693 0 0.1037055006252459 0.04652603276331644 0 0.1091701701315707 0.045405346223324289 0 0.1063796333462841 0.038668109643535398 0 0.09859813872304253 0.041737690340159041 0 0.1037055006252459 0.04652603276331644 0 0.1063796333462841 0.038668109643535398 0 0.098246025398924644 0.032379674771496843 0 0.1063796333462841 0.038668109643535398 0 0.1080469394596527 0.029312409717345649 0 0.1063796333462841 0.038668109643535398 0 0.11369005285381351 0.036564640387925021 0 0.1080469394596527 0.029312409717345649 0 0.10140855114010359 0.056741753968867333 0 0.1082136550722141 0.059696613986540442 0 0.089592915186254174 0.067390154600646832 0 0.10140855114010359 0.056741753968867333 0 0.096786740892615686 0.050938349167624693 0 0.089592915186254174 0.067390154600646832 0 0.10140855114010359 0.056741753968867333 0 0.096786740892615686 0.050938349167624693 0 0.1040187002827474 0.052009313231975308 0 0.1037055006252459 0.04652603276331644 0 0.096786740892615686 0.050938349167624693 0 0.1040187002827474 0.052009313231975308 0 0.1037055006252459 0.04652603276331644 0 0.10828434687670541 0.049049973369521209 0 0.1040187002827474 0.052009313231975308 0 0.1037055006252459 0.04652603276331644 0 0.1091701701315707 0.045405346223324289 0 0.10828434687670541 0.049049973369521209 0 0.10828434687670541 0.049049973369521209 0 0.1040187002827474 0.052009313231975308 0 0.1085923347430168 0.054888678040205661 0 0.10140855114010359 0.056741753968867333 0 0.1040187002827474 0.052009313231975308 0 0.1085923347430168 0.054888678040205661 0 0.10140855114010359 0.056741753968867333 0 0.1085923347430168 0.054888678040205661 0 0.1082136550722141 0.059696613986540442 0 0.1082136550722141 0.059696613986540442 0 0.12683439495817461 0.052003073372435288 0 0.1085923347430168 0.054888678040205661 0 0.1082136550722141 0.059696613986540442 0 0.12683439495817461 0.052003073372435288 0 0.1082136550722141 0.059696613986540442 0 0.1213053233293625 0.063977455960140386 0 0.12683439495817461 0.052003073372435288 0 0.1085923347430168 0.054888678040205661 0 0.11545296983014219 0.044674578582556468 0 0.12683439495817461 0.052003073372435288 0 0.1085923347430168 0.054888678040205661 0 0.11545296983014219 0.044674578582556468 0 0.10828434687670541 0.049049973369521209 0 0.1085923347430168 0.054888678040205661 0 0.11545296983014219 0.044674578582556468 0 0.11545296983014219 0.044674578582556468 0 0.12683439495817461 0.052003073372435288 0 0.11545296983014219 0.044674578582556468 0 0.12659142849079691 0.028091664155532971 0 0.13015300311198849 0.040381385354086502 0 0.11369005285381351 0.036564640387925021 0 0.11545296983014219 0.044674578582556468 0 0.12659142849079691 0.028091664155532971 0 0.11369005285381351 0.036564640387925021 0 0.1080469394596527 0.029312409717345649 0 0.12659142849079691 0.028091664155532971 0 0.11545296983014219 0.044674578582556468 0 0.12659142849079691 0.028091664155532971 0 0.1091701701315707 0.045405346223324289 0 0.1063796333462841 0.038668109643535398 0 0.11316657253878901 0.043202368340974628 0 0.11369005285381351 0.036564640387925021 0 0.11316657253878901 0.043202368340974628 0 0.11545296983014219 0.044674578582556468 0 0.1063796333462841 0.038668109643535398 0 0.11369005285381351 0.036564640387925021 0 0.11316657253878901 0.043202368340974628 0 0.1091701701315707 0.045405346223324289 0 0.10828434687670541 0.049049973369521209 0 0.11545296983014219 0.044674578582556468 0 0.1091701701315707 0.045405346223324289 0 0.11316657253878901 0.043202368340974628 0 0.11545296983014219 0.044674578582556468 0 0.11316657253878901 0.043202368340974628 0 0.11545296983014219 0.044674578582556468 0 0.11545296983014219 0.044674578582556468 0 0.13015300311198849 0.040381385354086502 0 0.12683439495817461 0.052003073372435288 0 0.11882011836095251 0.0065886106746579649 0 0.1010264983121123 0.016262416429773479 0 0.12659142849079691 0.028091664155532971 0 0.1010264983121123 0.016262416429773479 0 0.12659142849079691 0.028091664155532971 0 0.1010264983121123 0.016262416429773479 0 0.1080469394596527 0.029312409717345649 0 0.12659142849079691 0.028091664155532971 0 0.11882011836095251 0.0065886106746579649 0 0.1010264983121123 0.016262416429773479 0 0.098011391193308373 -0.0056982583262641584 0 0.088041666307225416 0.02743399724937181 0 0.098246025398924644 0.032379674771496843 0 0.1010264983121123 0.016262416429773479 0 0.098246025398924644 0.032379674771496843 0 0.1010264983121123 0.016262416429773479 0 0.1080469394596527 0.029312409717345649 0 0.102028599401492 0.1079210482782756 0 0.1185648575779607 0.095458187827811403 0 0.097454497296707604 0.093489332089851121 0 0.102028599401492 0.1079210482782756 0 0.094862282777670462 0.1196438628042634 0 0.1117522404438802 0.12667258555115829 0 0.123281054128593 0.11724462113534739 0 0.1117522404438802 0.12667258555115829 0 0.13947052033133081 0.1245003570974072 0 0.102028599401492 0.1079210482782756 0 0.123281054128593 0.11724462113534739 0 0.1117522404438802 0.12667258555115829 0 0.102028599401492 0.1079210482782756 0 0.123281054128593 0.11724462113534739 0 0.102028599401492 0.1079210482782756 0 0.123281054128593 0.11724462113534739 0 0.1185648575779607 0.095458187827811403 0 0.1185648575779607 0.095458187827811403 0 0.10766661625946521 0.081617344394697103 0 0.12679961534922851 0.075073796793526271 0 0.1127439035567581 0.069567645006608142 0 0.10766661625946521 0.081617344394697103 0 0.12679961534922851 0.075073796793526271 0 0.1213053233293625 0.063977455960140386 0 0.1127439035567581 0.069567645006608142 0 0.12679961534922851 0.075073796793526271 0 0.1082136550722141 0.059696613986540442 0 0.1213053233293625 0.063977455960140386 0 0.1127439035567581 0.069567645006608142 0 0.1082136550722141 0.059696613986540442 0 0.089592915186254174 0.067390154600646832 0 0.1014387622560044 0.070574023901201433 0 0.10766661625946521 0.081617344394697103 0 0.08998097741878798 0.081820185866337797 0 0.1082136550722141 0.059696613986540442 0 0.1014387622560044 0.070574023901201433 0 0.089592915186254174 0.067390154600646832 0 0.1082136550722141 0.059696613986540442 0 0.1127439035567581 0.069567645006608142 0 0.1014387622560044 0.070574023901201433 0 0.1127439035567581 0.069567645006608142 0 0.1014387622560044 0.070574023901201433 0 0.10766661625946521 0.081617344394697103 0 0.1185648575779607 0.095458187827811403 0 0.097454497296707604 0.093489332089851121 0 0.10766661625946521 0.081617344394697103 0 0.097454497296707604 0.093489332089851121 0 0.10766661625946521 0.081617344394697103 0 0.08998097741878798 0.081820185866337797 0 0.097454497296707604 0.093489332089851121 0 0.08998097741878798 0.081820185866337797 0 0.080776144674391009 0.098597475421203867 0 0.08998097741878798 0.081820185866337797 0 0.071888117261322881 0.075707086101057836 0 0.080776144674391009 0.098597475421203867 0 0.08998097741878798 0.081820185866337797 0 0.089592915186254174 0.067390154600646832 0 0.071888117261322881 0.075707086101057836 0 0.1014387622560044 0.070574023901201433 0 0.08998097741878798 0.081820185866337797 0 0.089592915186254174 0.067390154600646832 0 0.072379857481358154 0.054137194478101919 0 0.089592915186254174 0.067390154600646832 0 0.071888117261322881 0.075707086101057836 0 0.072379857481358154 0.054137194478101919 0 0.071888117261322881 0.075707086101057836 0 0.06072113176624426 0.066105246874810966 0 0.071888117261322881 0.075707086101057836 0 0.080776144674391009 0.098597475421203867 0 0.059523689947290133 0.089273902564132146 0 0.069834633883481517 0.1065625652268001 0 0.059315065316452309 0.1025539410383776 0 0.059523689947290133 0.089273902564132146 0 0.080776144674391009 0.098597475421203867 0 0.059523689947290133 0.089273902564132146 0 0.069834633883481517 0.1065625652268001 0 0.080776144674391009 0.098597475421203867 0 0.081634330708880196 0.1151370033827101 0 0.069834633883481517 0.1065625652268001 0 0.080776144674391009 0.098597475421203867 0 0.059523689947290133 0.089273902564132146 0 0.069834633883481517 0.1065625652268001 0 0.064307476710745728 0.1098785041095611 0 0.059315065316452309 0.1025539410383776 0 0.102028599401492 0.1079210482782756 0 0.080776144674391009 0.098597475421203867 0 0.081634330708880196 0.1151370033827101 0 0.102028599401492 0.1079210482782756 0 0.080776144674391009 0.098597475421203867 0 0.102028599401492 0.1079210482782756 0 0.097454497296707604 0.093489332089851121 0 0.080776144674391009 0.098597475421203867 0 0.102028599401492 0.1079210482782756 0 0.094862282777670462 0.1196438628042634 0 0.081634330708880196 0.1151370033827101 0 0.094862282777670462 0.1196438628042634 0 0.081634330708880196 0.1151370033827101 0 0.084033960556429532 0.12884481400490949 0 0.081634330708880196 0.1151370033827101 0 0.071861500007931359 0.1232467005620789 0 0.084033960556429532 0.12884481400490949 0 0.081634330708880196 0.1151370033827101 0 0.071861500007931359 0.1232467005620789 0 0.068543873750645412 0.1149277749384955 0 0.069834633883481517 0.1065625652268001 0 0.081634330708880196 0.1151370033827101 0 0.068543873750645412 0.1149277749384955 0 0.068543873750645412 0.1149277749384955 0 0.064307476710745728 0.1098785041095611 0 0.059536333892403683 0.1154697352345713 0 0.069834633883481517 0.1065625652268001 0 0.068543873750645412 0.1149277749384955 0 0.064307476710745728 0.1098785041095611 0 0.071861500007931359 0.1232467005620789 0 0.068543873750645412 0.1149277749384955 0 0.059536333892403683 0.1154697352345713 0 0.056458373241313059 0.1220229844831647 0 0.046980594318971967 0.103944553472415 0 0.044984286063853948 0.1144984098979744 0 0.056458373241313059 0.1220229844831647 0 0.059536333892403683 0.1154697352345713 0 0.047111977694586651 0.095143209078012936 0 0.056458373241313059 0.1220229844831647 0 0.047823074661834691 0.1229743903388081 0 0.044984286063853948 0.1144984098979744 0 0.056458373241313059 0.1220229844831647 0 0.047111977694586651 0.095143209078012936 0 0.056458373241313059 0.1220229844831647 0 0.047111977694586651 0.095143209078012936 0 0.046980594318971967 0.103944553472415 0 0.059536333892403683 0.1154697352345713 0 0.059315065316452309 0.1025539410383776 0 0.048250118395506067 0.092934788779969885 0 0.064307476710745728 0.1098785041095611 0 0.059536333892403683 0.1154697352345713 0 0.059315065316452309 0.1025539410383776 0 0.059536333892403683 0.1154697352345713 0 0.047111977694586651 0.095143209078012936 0 0.048250118395506067 0.092934788779969885 0 0.059536333892403683 0.1154697352345713 0 0.048250118395506067 0.092934788779969885 0 0.059315065316452309 0.1025539410383776 0 0.059523689947290133 0.089273902564132146 0 0.048250118395506067 0.092934788779969885 0 0.046980594318971967 0.103944553472415 0 0.031997015267580219 0.10661530464401089 0 0.044984286063853948 0.1144984098979744 0 0.046980594318971967 0.103944553472415 0 0.039592722901722707 0.099159129702000026 0 0.031997015267580219 0.10661530464401089 0 0.047111977694586651 0.095143209078012936 0 0.046980594318971967 0.103944553472415 0 0.044236279529428407 0.098362398272746204 0 0.043259823202432338 0.095202700838556822 0 0.039592722901722707 0.099159129702000026 0 0.040006298791842428 0.091064350555588536 0 0.047111977694586651 0.095143209078012936 0 0.043259823202432338 0.095202700838556822 0 0.043326765309194368 0.091114650811160686 0 0.047111977694586651 0.095143209078012936 0 0.043259823202432338 0.095202700838556822 0 0.044236279529428407 0.098362398272746204 0 0.046980594318971967 0.103944553472415 0 0.044236279529428407 0.098362398272746204 0 0.039592722901722707 0.099159129702000026 0 0.043259823202432338 0.095202700838556822 0 0.044236279529428407 0.098362398272746204 0 0.039592722901722707 0.099159129702000026 0 0.039592722901722707 0.099159129702000026 0 0.040006298791842428 0.091064350555588536 0 0.033999193661208522 0.092549709374426317 0 0.039592722901722707 0.099159129702000026 0 0.031997015267580219 0.10661530464401089 0 0.033999193661208522 0.092549709374426317 0 0.031997015267580219 0.10661530464401089 0 0.044984286063853948 0.1144984098979744 0 0.040254683338031831 0.12792389191371131 0 0.031997015267580219 0.10661530464401089 0 0.027418588341799281 0.11951208787462859 0 0.040254683338031831 0.12792389191371131 0 0.031997015267580219 0.10661530464401089 0 0.040254683338031831 0.12792389191371131 0 0.047823074661834691 0.1229743903388081 0 0.044984286063853948 0.1144984098979744 0 0.040254683338031831 0.12792389191371131 0 0.071888117261322881 0.075707086101057836 0 0.050643578252195447 0.077240667131504986 0 0.06072113176624426 0.066105246874810966 0 0.071888117261322881 0.075707086101057836 0 0.050643578252195447 0.077240667131504986 0 0.04797297407010033 0.057336039788577382 0 0.050643578252195447 0.077240667131504986 0 0.06072113176624426 0.066105246874810966 0 0.059523689947290133 0.089273902564132146 0 0.048250118395506067 0.092934788779969885 0 0.038271235220189187 0.079950329707060411 0 0.050643578252195447 0.077240667131504986 0 0.059523689947290133 0.089273902564132146 0 0.038271235220189187 0.079950329707060411 0 0.059523689947290133 0.089273902564132146 0 0.038271235220189187 0.079950329707060411 0 0.071888117261322881 0.075707086101057836 0 0.050643578252195447 0.077240667131504986 0 0.059523689947290133 0.089273902564132146 0 0.050643578252195447 0.077240667131504986 0 0.038271235220189187 0.079950329707060411 0 0.029399039243067929 0.078774248161950916 0 0.043326765309194368 0.091114650811160686 0 0.040006298791842428 0.091064350555588536 0 0.038271235220189187 0.079950329707060411 0 0.048250118395506067 0.092934788779969885 0 0.043326765309194368 0.091114650811160686 0 0.038271235220189187 0.079950329707060411 0 0.047111977694586651 0.095143209078012936 0 0.048250118395506067 0.092934788779969885 0 0.043326765309194368 0.091114650811160686 0 0.043259823202432338 0.095202700838556822 0 0.043326765309194368 0.091114650811160686 0 0.040006298791842428 0.091064350555588536 0 0.040006298791842428 0.091064350555588536 0 0.033999193661208522 0.092549709374426317 0 0.035112272261912547 0.085996705185296951 0 0.033999193661208522 0.092549709374426317 0 0.035112272261912547 0.085996705185296951 0 0.030562463090829231 0.085656845023995995 0 0.040006298791842428 0.091064350555588536 0 0.035112272261912547 0.085996705185296951 0 0.038271235220189187 0.079950329707060411 0 0.035112272261912547 0.085996705185296951 0 0.038271235220189187 0.079950329707060411 0 0.029399039243067929 0.078774248161950916 0 0.035112272261912547 0.085996705185296951 0 0.029399039243067929 0.078774248161950916 0 0.030562463090829231 0.085656845023995995 0 0.04797297407010033 0.057336039788577382 0 0.027635028654909001 0.06907575978797427 0 0.029399039243067929 0.078774248161950916 0 0.04797297407010033 0.057336039788577382 0 0.050643578252195447 0.077240667131504986 0 0.029399039243067929 0.078774248161950916 0 0.050643578252195447 0.077240667131504986 0 0.029399039243067929 0.078774248161950916 0 0.04797297407010033 0.057336039788577382 0 0.029399039243067929 0.078774248161950916 0 0.01459521235494949 0.061710637509134872 0 0.030459386295035529 0.05963142741263059 0 0.017825248683011649 0.070045619055208203 0 0.01459521235494949 0.061710637509134872 0 0.017825248683011649 0.070045619055208203 0 0.030459386295035529 0.05963142741263059 0 0.017825248683011649 0.070045619055208203 0 0.030459386295035529 0.05963142741263059 0 0.017825248683011649 0.070045619055208203 0 0.027635028654909001 0.06907575978797427 0 0.027635028654909001 0.06907575978797427 0 0.021430743364398389 0.07934945609652827 0 0.029399039243067929 0.078774248161950916 0 0.017825248683011649 0.070045619055208203 0 0.027635028654909001 0.06907575978797427 0 0.021430743364398389 0.07934945609652827 0 0.017825248683011649 0.070045619055208203 0 0.021430743364398389 0.07934945609652827 0 0.023739347197128589 0.085306717374310406 0 0.0092582498306486675 0.1020209346744549 0 0.021430743364398389 0.07934945609652827 0 0.023739347197128589 0.085306717374310406 0 0.01369104835205702 0.085774757015682671 0 0.021430743364398389 0.07934945609652827 0 0.023739347197128589 0.085306717374310406 0 0.021430743364398389 0.07934945609652827 0 0.029399039243067929 0.078774248161950916 0 0.023739347197128589 0.085306717374310406 0 0.021430743364398389 0.07934945609652827 0 0.029399039243067929 0.078774248161950916 0 0.029399039243067929 0.078774248161950916 0 0.030562463090829231 0.085656845023995995 0 0.023739347197128589 0.085306717374310406 0 0.029399039243067929 0.078774248161950916 0 0.023739347197128589 0.085306717374310406 0 0.033999193661208522 0.092549709374426317 0 0.030562463090829231 0.085656845023995995 0 0.023739347197128589 0.085306717374310406 0 0.023739347197128589 0.085306717374310406 0 0.01369104835205702 0.085774757015682671 0 0.0092582498306486675 0.1020209346744549 0 0.0051087594610210148 0.080527692295617709 0 0.01369104835205702 0.085774757015682671 0 0.0092582498306486675 0.1020209346744549 0 0.021430743364398389 0.07934945609652827 0 0.0051087594610210148 0.080527692295617709 0 0.021430743364398389 0.07934945609652827 0 0.0051087594610210148 0.080527692295617709 0 0.01369104835205702 0.085774757015682671 0 -0.0012292332505543029 0.06378464068123596 0 0.01459521235494949 0.061710637509134872 0 -0.0012292332505543029 0.06378464068123596 0 0.01459521235494949 0.061710637509134872 0 0.0080955592782806732 0.069159055867407046 0 0.017825248683011649 0.070045619055208203 0 0.021430743364398389 0.07934945609652827 0 0.0051087594610210148 0.080527692295617709 0 -0.0012292332505543029 0.06378464068123596 0 0.0051087594610210148 0.080527692295617709 0 0.0080955592782806732 0.069159055867407046 0 0.017825248683011649 0.070045619055208203 0 0.0051087594610210148 0.080527692295617709 0 0.0080955592782806732 0.069159055867407046 0 0.017825248683011649 0.070045619055208203 0 0.0051087594610210148 0.080527692295617709 0 0.01459521235494949 0.061710637509134872 0 0.017825248683011649 0.070045619055208203 0 0.0080955592782806732 0.069159055867407046 0 0.019482067178466251 0.1107491432724047 0 0.017356945103072018 0.1204998149293544 0 0.027418588341799281 0.11951208787462859 0 0.017356945103072018 0.1204998149293544 0 0.027418588341799281 0.11951208787462859 0 0.028136896369567631 0.1331750506540591 0 0.031997015267580219 0.10661530464401089 0 0.019482067178466251 0.1107491432724047 0 0.027418588341799281 0.11951208787462859 0 0.031997015267580219 0.10661530464401089 0 0.033999193661208522 0.092549709374426317 0 0.023739347197128589 0.085306717374310406 0 0.023739347197128589 0.085306717374310406 0 0.02108550348152554 0.10082233348119581 0 0.0092582498306486675 0.1020209346744549 0 0.031997015267580219 0.10661530464401089 0 0.023739347197128589 0.085306717374310406 0 0.031997015267580219 0.10661530464401089 0 0.023739347197128589 0.085306717374310406 0 0.02108550348152554 0.10082233348119581 0 0.031997015267580219 0.10661530464401089 0 0.019482067178466251 0.1107491432724047 0 0.02108550348152554 0.10082233348119581 0 0.019482067178466251 0.1107491432724047 0 0.02108550348152554 0.10082233348119581 0 0.0092582498306486675 0.1020209346744549 0 -0.0040597014752050652 0.1051126182356364 0 0.0051087594610210148 0.080527692295617709 0 0.0092582498306486675 0.1020209346744549 0 0.019482067178466251 0.1107491432724047 0 0.0092582498306486675 0.1020209346744549 0 0.0097761010461718117 0.1150243840307837 0 -0.0052228475358298988 0.1187351519746004 0 0.0092582498306486675 0.1020209346744549 0 -0.0052228475358298988 0.1187351519746004 0 0.0092582498306486675 0.1020209346744549 0 0.0097761010461718117 0.1150243840307837 0 0.019482067178466251 0.1107491432724047 0 0.017356945103072018 0.1204998149293544 0 0.0097761010461718117 0.1150243840307837 0 0.017356945103072018 0.1204998149293544 0 0.0081407562022233586 0.1245196413435004 0 0.017356945103072018 0.1204998149293544 0 0.0097761010461718117 0.1150243840307837 0 0.0081407562022233586 0.1245196413435004 0 -0.0052228475358298988 0.1187351519746004 0 0.0097761010461718117 0.1150243840307837 0 0.0081407562022233586 0.1245196413435004 0 -0.0052228475358298988 0.1187351519746004 0 0.0081407562022233586 0.1245196413435004 0 -0.015783289274076458 0.13495459563681389 0 0.0081407562022233586 0.1245196413435004 0 0.01185912902997375 0.14130758542593569 0 0.017356945103072018 0.1204998149293544 0 0.0081407562022233586 0.1245196413435004 0 0.028136896369567631 0.1331750506540591 0 0.0081407562022233586 0.1245196413435004 0 0.028136896369567631 0.1331750506540591 0 0.0081407562022233586 0.1245196413435004 0 0.028136896369567631 0.1331750506540591 0 0.01185912902997375 0.14130758542593569 0 0.028136896369567631 0.1331750506540591 0 0.0267736462585265 0.15269096182544131 0 0.035919394343652343 0.14075559589415579 0 0.028136896369567631 0.1331750506540591 0 0.0267736462585265 0.15269096182544131 0 0.01185912902997375 0.14130758542593569 0 0.0267736462585265 0.15269096182544131 0 0.001788155555331062 0.1557637096651584 0 0.01185912902997375 0.14130758542593569 0 0.001788155555331062 0.1557637096651584 0 0.00061104658230836653 0.17769045695541219 0 0.019359600384737739 0.17657282369350361 0 0.001788155555331062 0.1557637096651584 0 0.019359600384737739 0.17657282369350361 0 0.00061104658230836653 0.17769045695541219 0 0.019359600384737739 0.17657282369350361 0 0.017852612557627559 0.19656860209324539 0 0.019359600384737739 0.17657282369350361 0 0.036931045214144441 0.19738193772184889 0 0.0267736462585265 0.15269096182544131 0 0.001788155555331062 0.1557637096651584 0 0.019359600384737739 0.17657282369350361 0 0.0267736462585265 0.15269096182544131 0 0.019359600384737739 0.17657282369350361 0 0.038399134829123632 0.17159850230738899 0 0.0267736462585265 0.15269096182544131 0 0.038399134829123632 0.17159850230738899 0 0.048512351408483409 0.1492324791834117 0 0.019359600384737739 0.17657282369350361 0 0.038399134829123632 0.17159850230738899 0 0.036931045214144441 0.19738193772184889 0 0.038399134829123632 0.17159850230738899 0 0.053915020648589329 0.181809847856817 0 0.036931045214144441 0.19738193772184889 0 0.053915020648589329 0.181809847856817 0 0.056298621576963533 0.16595151756685289 0 0.075151164334765874 0.17578253529346821 0 0.038399134829123632 0.17159850230738899 0 0.053915020648589329 0.181809847856817 0 0.056298621576963533 0.16595151756685289 0 0.038399134829123632 0.17159850230738899 0 0.056298621576963533 0.16595151756685289 0 0.048512351408483409 0.1492324791834117 0 0.048512351408483409 0.1492324791834117 0 0.055211699142625699 0.13746009370018761 0 0.065804768788039439 0.14890275988831639 0 0.056298621576963533 0.16595151756685289 0 0.048512351408483409 0.1492324791834117 0 0.065804768788039439 0.14890275988831639 0 0.048512351408483409 0.1492324791834117 0 0.055211699142625699 0.13746009370018761 0 0.049904412172306151 0.13036597214331841 0 0.056458373241313059 0.1220229844831647 0 0.059536333892403683 0.1154697352345713 0 0.070822549389301243 0.1380046816891726 0 0.056458373241313059 0.1220229844831647 0 0.055211699142625699 0.13746009370018761 0 0.065804768788039439 0.14890275988831639 0 0.056458373241313059 0.1220229844831647 0 0.065804768788039439 0.14890275988831639 0 0.056458373241313059 0.1220229844831647 0 0.047823074661834691 0.1229743903388081 0 0.049904412172306151 0.13036597214331841 0 0.056458373241313059 0.1220229844831647 0 0.055211699142625699 0.13746009370018761 0 0.049904412172306151 0.13036597214331841 0 0.048512351408483409 0.1492324791834117 0 0.040254683338031831 0.12792389191371131 0 0.048512351408483409 0.1492324791834117 0 0.040254683338031831 0.12792389191371131 0 0.035919394343652343 0.14075559589415579 0 0.048512351408483409 0.1492324791834117 0 0.049904412172306151 0.13036597214331841 0 0.040254683338031831 0.12792389191371131 0 0.047823074661834691 0.1229743903388081 0 0.049904412172306151 0.13036597214331841 0 0.040254683338031831 0.12792389191371131 0 0.027418588341799281 0.11951208787462859 0 0.028136896369567631 0.1331750506540591 0 0.040254683338031831 0.12792389191371131 0 0.028136896369567631 0.1331750506540591 0 0.040254683338031831 0.12792389191371131 0 0.035919394343652343 0.14075559589415579 0 0.0267736462585265 0.15269096182544131 0 0.048512351408483409 0.1492324791834117 0 0.035919394343652343 0.14075559589415579 0 0.020197736684044801 0.2291273398277828 0 0.034114961552744377 0.23516115760169301 0 0.036501911092354018 0.25177276941539839 0 0.018629400856135309 0.24429501886194191 0 0.020197736684044801 0.2291273398277828 0 0.02692674034290404 0.25134916217479408 0 0.020197736684044801 0.2291273398277828 0 0.02692674034290404 0.25134916217479408 0 0.036501911092354018 0.25177276941539839 0 0.020197736684044801 0.2291273398277828 0 0.036501911092354018 0.25177276941539839 0 0.018629400856135309 0.24429501886194191 0 0.0082785766384091443 0.23618007315607359 0 0.020197736684044801 0.2291273398277828 0 0.018629400856135309 0.24429501886194191 0 0.012944211518790589 0.24639919126045251 0 0.0082785766384091443 0.23618007315607359 0 0.012944211518790589 0.24639919126045251 0 0.001894876929373096 0.24743045501984201 0 0.0082785766384091443 0.23618007315607359 0 -0.0070773620087705444 0.23295897308755351 0 0.001894876929373096 0.24743045501984201 0 0.0082785766384091443 0.23618007315607359 0 0.0082785766384091443 0.23618007315607359 0 0.0038866256090455522 0.2239579318999283 0 0.020197736684044801 0.2291273398277828 0 0.0038866256090455522 0.2239579318999283 0 0.020197736684044801 0.2291273398277828 0 0.003893562275735573 0.2064819102401671 0 -0.0070773620087705444 0.23295897308755351 0 0.0082785766384091443 0.23618007315607359 0 0.0038866256090455522 0.2239579318999283 0 0.01643925603633389 0.21561198758054059 0 0.035370792182188207 0.216260201755786 0 0.034114961552744377 0.23516115760169301 0 0.020197736684044801 0.2291273398277828 0 0.01643925603633389 0.21561198758054059 0 0.034114961552744377 0.23516115760169301 0 0.01643925603633389 0.21561198758054059 0 0.034114961552744377 0.23516115760169301 0 0.017852612557627559 0.19656860209324539 0 0.036931045214144441 0.19738193772184889 0 0.035370792182188207 0.216260201755786 0 0.01643925603633389 0.21561198758054059 0 0.017852612557627559 0.19656860209324539 0 0.035370792182188207 0.216260201755786 0 0.020197736684044801 0.2291273398277828 0 0.003893562275735573 0.2064819102401671 0 -0.0045317147067566524 0.21522543551468479 0 0.0038866256090455522 0.2239579318999283 0 0.003893562275735573 0.2064819102401671 0 -0.0012364494800765971 0.1960628175593882 0 0.01643925603633389 0.21561198758054059 0 -0.0012364494800765971 0.1960628175593882 0 0.01643925603633389 0.21561198758054059 0 0.003893562275735573 0.2064819102401671 0 0.020197736684044801 0.2291273398277828 0 0.01643925603633389 0.21561198758054059 0 0.003893562275735573 0.2064819102401671 0 -0.0012364494800765971 0.1960628175593882 0 0.01643925603633389 0.21561198758054059 0 0.017852612557627559 0.19656860209324539 0 -0.0012364494800765971 0.1960628175593882 0 0.00061104658230836653 0.17769045695541219 0 0.017852612557627559 0.19656860209324539 0 0.019359600384737739 0.17657282369350361 0 0.017852612557627559 0.19656860209324539 0 0.036931045214144441 0.19738193772184889 0 0.053915020648589329 0.181809847856817 0 0.036931045214144441 0.19738193772184889 0 0.062795137287949193 0.19833474639452611 0 0.036931045214144441 0.19738193772184889 0 0.054502490043551163 0.2181910517501941 0 0.062795137287949193 0.19833474639452611 0 0.036931045214144441 0.19738193772184889 0 0.054502490043551163 0.2181910517501941 0 0.036931045214144441 0.19738193772184889 0 0.054502490043551163 0.2181910517501941 0 0.035370792182188207 0.216260201755786 0 0.054502490043551163 0.2181910517501941 0 0.035370792182188207 0.216260201755786 0 0.034114961552744377 0.23516115760169301 0 0.054502490043551163 0.2181910517501941 0 0.055174909047777811 0.2396291133956362 0 0.034114961552744377 0.23516115760169301 0 0.054502490043551163 0.2181910517501941 0 0.055174909047777811 0.2396291133956362 0 0.072073934872957782 0.23900016577853919 0 0.055174909047777811 0.2396291133956362 0 0.034114961552744377 0.23516115760169301 0 0.051790667069154861 0.2547103276228454 0 0.055174909047777811 0.2396291133956362 0 0.051790667069154861 0.2547103276228454 0 0.063392491700480919 0.2510828642249095 0 0.034114961552744377 0.23516115760169301 0 0.036501911092354018 0.25177276941539839 0 0.051790667069154861 0.2547103276228454 0 0.034114961552744377 0.23516115760169301 0 0.051790667069154861 0.2547103276228454 0 0.072073934872957782 0.23900016577853919 0 0.093843955428218759 0.229542086103772 0 0.089645379702363526 0.25980927980688501 0 0.072073934872957782 0.23900016577853919 0 0.089645379702363526 0.25980927980688501 0 0.055174909047777811 0.2396291133956362 0 0.072073934872957782 0.23900016577853919 0 0.063392491700480919 0.2510828642249095 0 0.072073934872957782 0.23900016577853919 0 0.063392491700480919 0.2510828642249095 0 0.074261774750864804 0.25289133929391111 0 0.054502490043551163 0.2181910517501941 0 0.072073934872957782 0.23900016577853919 0 0.054502490043551163 0.2181910517501941 0 0.072073934872957782 0.23900016577853919 0 0.07691655231929137 0.22036312128655 0 0.072073934872957782 0.23900016577853919 0 0.07691655231929137 0.22036312128655 0 0.093843955428218759 0.229542086103772 0 0.084497559881492323 0.20266231069862009 0 0.1011551627426199 0.2154511434485995 0 0.093843955428218759 0.229542086103772 0 0.084497559881492323 0.20266231069862009 0 0.093843955428218759 0.229542086103772 0 0.07691655231929137 0.22036312128655 0 0.084497559881492323 0.20266231069862009 0 0.093843955428218759 0.229542086103772 0 0.07691655231929137 0.22036312128655 0 0.062795137287949193 0.19833474639452611 0 0.084497559881492323 0.20266231069862009 0 0.054502490043551163 0.2181910517501941 0 0.07691655231929137 0.22036312128655 0 0.062795137287949193 0.19833474639452611 0 0.062795137287949193 0.19833474639452611 0 0.084497559881492323 0.20266231069862009 0 0.075151164334765874 0.17578253529346821 0 0.084497559881492323 0.20266231069862009 0 0.075151164334765874 0.17578253529346821 0 0.084497559881492323 0.20266231069862009 0 0.10184565838461331 0.1924014028594688 0 0.093394980383096363 0.18307457459837531 0 0.084497559881492323 0.20266231069862009 0 0.10184565838461331 0.1924014028594688 0 0.10260278643249959 0.20376756124449391 0 0.10184565838461331 0.1924014028594688 0 0.1105875138732399 0.1994169567440035 0 0.10260278643249959 0.20376756124449391 0 0.10184565838461331 0.1924014028594688 0 0.1131184160342838 0.18994185980391479 0 0.1105875138732399 0.1994169567440035 0 0.10184565838461331 0.1924014028594688 0 0.1131184160342838 0.18994185980391479 0 0.1054525685194168 0.18020148819897211 0 0.1131184160342838 0.18994185980391479 0 0.1210814068145178 0.19423580856195369 0 0.1131184160342838 0.18994185980391479 0 0.1210814068145178 0.19423580856195369 0 0.1196286990311512 0.18236386641526309 0 0.1210814068145178 0.19423580856195369 0 0.11958782189190099 0.20227867846385961 0 0.13241563583181001 0.2003476577346209 0 0.1131184160342838 0.18994185980391479 0 0.1210814068145178 0.19423580856195369 0 0.11958782189190099 0.20227867846385961 0 0.1131184160342838 0.18994185980391479 0 0.11958782189190099 0.20227867846385961 0 0.1105875138732399 0.1994169567440035 0 0.11958782189190099 0.20227867846385961 0 0.1105875138732399 0.1994169567440035 0 0.11467542950451071 0.21015036581969679 0 0.11958782189190099 0.20227867846385961 0 0.11467542950451071 0.21015036581969679 0 0.12714211421566091 0.2115365522170618 0 0.11467542950451071 0.21015036581969679 0 0.1287590091161889 0.22454109023782651 0 0.12714211421566091 0.2115365522170618 0 0.11467542950451071 0.21015036581969679 0 0.1011551627426199 0.2154511434485995 0 0.1117838155087727 0.22779371718329239 0 0.084497559881492323 0.20266231069862009 0 0.10260278643249959 0.20376756124449391 0 0.1011551627426199 0.2154511434485995 0 0.1105875138732399 0.1994169567440035 0 0.11467542950451071 0.21015036581969679 0 0.10260278643249959 0.20376756124449391 0 0.11467542950451071 0.21015036581969679 0 0.10260278643249959 0.20376756124449391 0 0.1011551627426199 0.2154511434485995 0 0.1011551627426199 0.2154511434485995 0 0.093843955428218759 0.229542086103772 0 0.1117838155087727 0.22779371718329239 0 0.11467542950451071 0.21015036581969679 0 0.1117838155087727 0.22779371718329239 0 0.1287590091161889 0.22454109023782651 0 0.1117838155087727 0.22779371718329239 0 0.1287590091161889 0.22454109023782651 0 0.116065923487036 0.25155424759680489 0 0.093843955428218759 0.229542086103772 0 0.089645379702363526 0.25980927980688501 0 0.116065923487036 0.25155424759680489 0 0.093843955428218759 0.229542086103772 0 0.1117838155087727 0.22779371718329239 0 0.116065923487036 0.25155424759680489 0 0.085867858697711436 0.14453522140638461 0 0.070822549389301243 0.1380046816891726 0 0.082108764886198796 0.1605396281437739 0 0.085867858697711436 0.14453522140638461 0 0.082108764886198796 0.1605396281437739 0 0.098061838006449922 0.1524476624703702 0 0.085867858697711436 0.14453522140638461 0 0.084033960556429532 0.12884481400490949 0 0.098019367542785563 0.1407790739484335 0 0.085867858697711436 0.14453522140638461 0 0.084033960556429532 0.12884481400490949 0 0.070822549389301243 0.1380046816891726 0 0.071861500007931359 0.1232467005620789 0 0.059536333892403683 0.1154697352345713 0 0.070822549389301243 0.1380046816891726 0 0.059536333892403683 0.1154697352345713 0 0.070822549389301243 0.1380046816891726 0 0.056458373241313059 0.1220229844831647 0 0.070822549389301243 0.1380046816891726 0 0.065804768788039439 0.14890275988831639 0 0.071861500007931359 0.1232467005620789 0 0.084033960556429532 0.12884481400490949 0 0.070822549389301243 0.1380046816891726 0 0.070822549389301243 0.1380046816891726 0 0.082108764886198796 0.1605396281437739 0 0.070822549389301243 0.1380046816891726 0 0.065804768788039439 0.14890275988831639 0 0.082108764886198796 0.1605396281437739 0 0.056298621576963533 0.16595151756685289 0 0.065804768788039439 0.14890275988831639 0 0.075151164334765874 0.17578253529346821 0 0.065804768788039439 0.14890275988831639 0 0.075151164334765874 0.17578253529346821 0 0.082108764886198796 0.1605396281437739 0 0.065804768788039439 0.14890275988831639 0 0.075151164334765874 0.17578253529346821 0 0.053915020648589329 0.181809847856817 0 0.062795137287949193 0.19833474639452611 0 0.075151164334765874 0.17578253529346821 0 0.075151164334765874 0.17578253529346821 0 0.093394980383096363 0.18307457459837531 0 0.082108764886198796 0.1605396281437739 0 0.084497559881492323 0.20266231069862009 0 0.075151164334765874 0.17578253529346821 0 0.093394980383096363 0.18307457459837531 0 0.093394980383096363 0.18307457459837531 0 0.082108764886198796 0.1605396281437739 0 0.1017810834163356 0.16778327145988009 0 0.093394980383096363 0.18307457459837531 0 0.082108764886198796 0.1605396281437739 0 0.082108764886198796 0.1605396281437739 0 0.1017810834163356 0.16778327145988009 0 0.098061838006449922 0.1524476624703702 0 0.1017810834163356 0.16778327145988009 0 0.1094413004412432 0.1568441156191657 0 0.098061838006449922 0.1524476624703702 0 0.10184565838461331 0.1924014028594688 0 0.093394980383096363 0.18307457459837531 0 0.1054525685194168 0.18020148819897211 0 0.093394980383096363 0.18307457459837531 0 0.1017810834163356 0.16778327145988009 0 0.1054525685194168 0.18020148819897211 0 0.1017810834163356 0.16778327145988009 0 0.1054525685194168 0.18020148819897211 0 0.1143103312636523 0.17467474260035151 0 0.1131184160342838 0.18994185980391479 0 0.1132877880089454 0.18182979361660931 0 0.1196286990311512 0.18236386641526309 0 0.1131184160342838 0.18994185980391479 0 0.1054525685194168 0.18020148819897211 0 0.1132877880089454 0.18182979361660931 0 0.1054525685194168 0.18020148819897211 0 0.1132877880089454 0.18182979361660931 0 0.1143103312636523 0.17467474260035151 0 0.1132877880089454 0.18182979361660931 0 0.1143103312636523 0.17467474260035151 0 0.1196286990311512 0.18236386641526309 0 0.1143103312636523 0.17467474260035151 0 0.1229466648353691 0.17360959233997481 0 0.1196286990311512 0.18236386641526309 0 0.1229466648353691 0.17360959233997481 0 0.1196286990311512 0.18236386641526309 0 0.1315359285025598 0.17914174819028489 0 0.1210814068145178 0.19423580856195369 0 0.1196286990311512 0.18236386641526309 0 0.1315359285025598 0.17914174819028489 0 0.1017810834163356 0.16778327145988009 0 0.1143103312636523 0.17467474260035151 0 0.11826309888899959 0.1638296446882945 0 0.1017810834163356 0.16778327145988009 0 0.1094413004412432 0.1568441156191657 0 0.11826309888899959 0.1638296446882945 0 0.1094413004412432 0.1568441156191657 0 0.11826309888899959 0.1638296446882945 0 0.12116198843957229 0.15461983439099389 0 0.1143103312636523 0.17467474260035151 0 0.1229466648353691 0.17360959233997481 0 0.11826309888899959 0.1638296446882945 0 0.1229466648353691 0.17360959233997481 0 0.11826309888899959 0.1638296446882945 0 0.1286748755814317 0.16568949079043779 0 0.11826309888899959 0.1638296446882945 0 0.12116198843957229 0.15461983439099389 0 0.1286748755814317 0.16568949079043779 0 0.12116198843957229 0.15461983439099389 0 0.1235319134973574 0.14279740261083959 0 0.11069945258584669 0.14552439304262721 0 0.1094413004412432 0.1568441156191657 0 0.12116198843957229 0.15461983439099389 0 0.11069945258584669 0.14552439304262721 0 0.1094413004412432 0.1568441156191657 0 0.11069945258584669 0.14552439304262721 0 0.098061838006449922 0.1524476624703702 0 0.11069945258584669 0.14552439304262721 0 0.098019367542785563 0.1407790739484335 0 0.098061838006449922 0.1524476624703702 0 0.085867858697711436 0.14453522140638461 0 0.098019367542785563 0.1407790739484335 0 0.098061838006449922 0.1524476624703702 0 0.084033960556429532 0.12884481400490949 0 0.1117522404438802 0.12667258555115829 0 0.094862282777670462 0.1196438628042634 0 0.084033960556429532 0.12884481400490949 0 0.1117522404438802 0.12667258555115829 0 0.084033960556429532 0.12884481400490949 0 0.098019367542785563 0.1407790739484335 0 0.1117522404438802 0.12667258555115829 0 0.11069945258584669 0.14552439304262721 0 0.098019367542785563 0.1407790739484335 0 0.1117522404438802 0.12667258555115829 0 0.1235319134973574 0.14279740261083959 0 0.11069945258584669 0.14552439304262721 0 0.1117522404438802 0.12667258555115829 0 0.1235319134973574 0.14279740261083959 0 0.1117522404438802 0.12667258555115829 0 0.1338250830151082 0.13680555700437169 0 0.1117522404438802 0.12667258555115829 0 0.1338250830151082 0.13680555700437169 0 0.13947052033133081 0.1245003570974072 0 0.1117522404438802 0.12667258555115829 0 0.13947052033133081 0.1245003570974072 0 0.1338250830151082 0.13680555700437169 0 0.14773514824261011 0.13994704674368119 0 0.13947052033133081 0.1245003570974072 0 0.14773514824261011 0.13994704674368119 0 0.13947052033133081 0.1245003570974072 0 0.16718880021878149 0.12232812864365609 0 0.14773514824261011 0.13994704674368119 0 0.1492794596183103 0.15557552201751701 0 0.16307655427518189 0.1461583771030025 0 0.14773514824261011 0.13994704674368119 0 0.1492794596183103 0.15557552201751701 0 0.13636128964255501 0.15303395959459851 0 0.1235319134973574 0.14279740261083959 0 0.1338250830151082 0.13680555700437169 0 0.13636128964255501 0.15303395959459851 0 0.1338250830151082 0.13680555700437169 0 0.14773514824261011 0.13994704674368119 0 0.13636128964255501 0.15303395959459851 0 0.12116198843957229 0.15461983439099389 0 0.1235319134973574 0.14279740261083959 0 0.13636128964255501 0.15303395959459851 0 0.12116198843957229 0.15461983439099389 0 0.13636128964255501 0.15303395959459851 0 0.1286748755814317 0.16568949079043779 0 0.13636128964255501 0.15303395959459851 0 0.1286748755814317 0.16568949079043779 0 0.1402599975996246 0.1687496010839549 0 0.1286748755814317 0.16568949079043779 0 0.1402599975996246 0.1687496010839549 0 0.1315359285025598 0.17914174819028489 0 0.1210814068145178 0.19423580856195369 0 0.1315359285025598 0.17914174819028489 0 0.14172685770208041 0.18088834424850889 0 0.1229466648353691 0.17360959233997481 0 0.1286748755814317 0.16568949079043779 0 0.1315359285025598 0.17914174819028489 0 0.1402599975996246 0.1687496010839549 0 0.1315359285025598 0.17914174819028489 0 0.14172685770208041 0.18088834424850889 0 0.1315359285025598 0.17914174819028489 0 0.14172685770208041 0.18088834424850889 0 0.14172685770208041 0.18088834424850889 0 0.1589643083315804 0.1699886255623487 0 0.15664227980061579 0.1834446584897341 0 0.14172685770208041 0.18088834424850889 0 0.1589643083315804 0.1699886255623487 0 0.1402599975996246 0.1687496010839549 0 0.14172685770208041 0.18088834424850889 0 0.1589643083315804 0.1699886255623487 0 0.14172685770208041 0.18088834424850889 0 0.15664227980061579 0.1834446584897341 0 0.14735069213281321 0.19092796682168489 0 0.14172685770208041 0.18088834424850889 0 0.15664227980061579 0.1834446584897341 0 0.1492794596183103 0.15557552201751701 0 0.1402599975996246 0.1687496010839549 0 0.1589643083315804 0.1699886255623487 0 0.1492794596183103 0.15557552201751701 0 0.13636128964255501 0.15303395959459851 0 0.1402599975996246 0.1687496010839549 0 0.1492794596183103 0.15557552201751701 0 0.1589643083315804 0.1699886255623487 0 0.16307655427518189 0.1461583771030025 0 0.1589643083315804 0.1699886255623487 0 0.1832181015668064 0.15465227861531949 0 0.16307655427518189 0.1461583771030025 0 0.1589643083315804 0.1699886255623487 0 0.16307655427518189 0.1461583771030025 0 0.1589643083315804 0.1699886255623487 0 0.1832181015668064 0.15465227861531949 0 0.1589643083315804 0.1699886255623487 0 0.15664227980061579 0.1834446584897341 0 0.17367876449497299 0.17356388092826039 0 0.15664227980061579 0.1834446584897341 0 0.17803712215301101 0.18711146321258301 0 0.15664227980061579 0.1834446584897341 0 0.17367876449497299 0.17356388092826039 0 0.17803712215301101 0.18711146321258301 0 0.1589643083315804 0.1699886255623487 0 0.15664227980061579 0.1834446584897341 0 0.17367876449497299 0.17356388092826039 0 0.17803712215301101 0.18711146321258301 0 0.1915320106228488 0.17262237876131631 0 0.1589643083315804 0.1699886255623487 0 0.17367876449497299 0.17356388092826039 0 0.1832181015668064 0.15465227861531949 0 0.17367876449497299 0.17356388092826039 0 0.1832181015668064 0.15465227861531949 0 0.1915320106228488 0.17262237876131631 0 0.1832181015668064 0.15465227861531949 0 0.18154761934540289 0.13534417850528041 0 0.16307655427518189 0.1461583771030025 0 0.18154761934540289 0.13534417850528041 0 0.19370351113240411 0.1202502215829211 0 0.16718880021878149 0.12232812864365609 0 0.16307655427518189 0.1461583771030025 0 0.16718880021878149 0.12232812864365609 0 0.14773514824261011 0.13994704674368119 0 0.16307655427518189 0.1461583771030025 0 0.16718880021878149 0.12232812864365609 0 0.18154761934540289 0.13534417850528041 0 0.16307655427518189 0.1461583771030025 0 0.16718880021878149 0.12232812864365609 0 0.14248646727170791 0.24329921538672239 0 0.16890701105638031 0.23504418317664161 0 0.14248646727170791 0.24329921538672239 0 0.116065923487036 0.25155424759680489 0 0.14248646727170791 0.24329921538672239 0 0.1287590091161889 0.22454109023782651 0 0.116065923487036 0.25155424759680489 0 0.14248646727170791 0.24329921538672239 0 0.1287590091161889 0.22454109023782651 0 0.14216045677169509 0.2226427774354276 0 0.1287590091161889 0.22454109023782651 0 0.14216045677169509 0.2226427774354276 0 0.13903299807830019 0.21154409335764149 0 0.14248646727170791 0.24329921538672239 0 0.14216045677169509 0.2226427774354276 0 0.16890701105638031 0.23504418317664161 0 0.14216045677169509 0.2226427774354276 0 0.1513137794066001 0.21432303737238931 0 0.16890701105638031 0.23504418317664161 0 0.15183105921464751 0.210852851725322 0 0.13241563583181001 0.2003476577346209 0 0.15183105921464751 0.210852851725322 0 0.13903299807830019 0.21154409335764149 0 0.13241563583181001 0.2003476577346209 0 0.1513137794066001 0.21432303737238931 0 0.15183105921464751 0.210852851725322 0 0.14522842943996589 0.21534193400985699 0 0.1513137794066001 0.21432303737238931 0 0.15183105921464751 0.210852851725322 0 0.15183105921464751 0.210852851725322 0 0.14522842943996589 0.21534193400985699 0 0.13903299807830019 0.21154409335764149 0 0.14216045677169509 0.2226427774354276 0 0.1513137794066001 0.21432303737238931 0 0.14522842943996589 0.21534193400985699 0 0.14216045677169509 0.2226427774354276 0 0.14522842943996589 0.21534193400985699 0 0.13903299807830019 0.21154409335764149 0 0.1287590091161889 0.22454109023782651 0 0.13903299807830019 0.21154409335764149 0 0.12714211421566091 0.2115365522170618 0 0.11958782189190099 0.20227867846385961 0 0.12714211421566091 0.2115365522170618 0 0.13241563583181001 0.2003476577346209 0 0.13903299807830019 0.21154409335764149 0 0.12714211421566091 0.2115365522170618 0 0.13241563583181001 0.2003476577346209 0 0.1210814068145178 0.19423580856195369 0 0.13241563583181001 0.2003476577346209 0 0.13808072668616231 0.19149491569441959 0 0.1210814068145178 0.19423580856195369 0 0.14172685770208041 0.18088834424850889 0 0.13808072668616231 0.19149491569441959 0 0.1210814068145178 0.19423580856195369 0 0.14172685770208041 0.18088834424850889 0 0.1210814068145178 0.19423580856195369 0 0.13241563583181001 0.2003476577346209 0 0.15664227980061579 0.1834446584897341 0 0.15183105921464751 0.210852851725322 0 0.14735069213281321 0.19092796682168489 0 0.14172685770208041 0.18088834424850889 0 0.13808072668616231 0.19149491569441959 0 0.14735069213281321 0.19092796682168489 0 0.15183105921464751 0.210852851725322 0 0.13808072668616231 0.19149491569441959 0 0.14735069213281321 0.19092796682168489 0 0.15664227980061579 0.1834446584897341 0 0.15183105921464751 0.210852851725322 0 0.15183105921464751 0.210852851725322 0 0.13241563583181001 0.2003476577346209 0 0.13808072668616231 0.19149491569441959 0 0.15183105921464751 0.210852851725322 0 0.13808072668616231 0.19149491569441959 0 0.15664227980061579 0.1834446584897341 0 0.17803712215301101 0.18711146321258301 0 0.17078007948547791 0.20461318166966591 0 0.15664227980061579 0.1834446584897341 0 0.15183105921464751 0.210852851725322 0 0.17078007948547791 0.20461318166966591 0 0.17803712215301101 0.18711146321258301 0 0.18699821765939811 0.20575379358823331 0 0.17078007948547791 0.20461318166966591 0 0.18699821765939811 0.20575379358823331 0 0.18150256540618689 0.21619068467845909 0 0.17078007948547791 0.20461318166966591 0 0.18150256540618689 0.21619068467845909 0 0.17078007948547791 0.20461318166966591 0 0.1696832039875637 0.2204437538389574 0 0.15183105921464751 0.210852851725322 0 0.1696832039875637 0.2204437538389574 0 0.15183105921464751 0.210852851725322 0 0.17078007948547791 0.20461318166966591 0 0.1696832039875637 0.2204437538389574 0 0.15183105921464751 0.210852851725322 0 0.16890701105638031 0.23504418317664161 0 0.15183105921464751 0.210852851725322 0 0.1696832039875637 0.2204437538389574 0 0.16890701105638031 0.23504418317664161 0 0.1513137794066001 0.21432303737238931 0 0.15183105921464751 0.210852851725322 0 0.16890701105638031 0.23504418317664161 0 0.1696832039875637 0.2204437538389574 0 0.1730962958839812 0.23373525170759399 0 0.16890701105638031 0.23504418317664161 0 0.18150256540618689 0.21619068467845909 0 0.1696832039875637 0.2204437538389574 0 0.1874551123034256 0.23002704556275291 0 0.1696832039875637 0.2204437538389574 0 0.1874551123034256 0.23002704556275291 0 0.1730962958839812 0.23373525170759399 0 0.1696832039875637 0.2204437538389574 0 0.1874551123034256 0.23002704556275291 0 0.16890701105638031 0.23504418317664161 0 0.18564289691528729 0.25868749876629671 0 0.1821848497420967 0.24129823675235251 0 0.16890701105638031 0.23504418317664161 0 0.18564289691528729 0.25868749876629671 0 0.1730962958839812 0.23373525170759399 0 0.1821848497420967 0.24129823675235251 0 0.16890701105638031 0.23504418317664161 0 0.1874551123034256 0.23002704556275291 0 0.1730962958839812 0.23373525170759399 0 0.1821848497420967 0.24129823675235251 0 0.14248646727170791 0.24329921538672239 0 0.16890701105638031 0.23504418317664161 0 0.1631161995596529 0.25657386530356069 0 0.1730962958839812 0.23373525170759399 0 0.16890701105638031 0.23504418317664161 0 0.2052270206192876 0.23961033728654851 0 0.2245441737887168 0.23093760545441711 0 0.21458810326103989 0.25029177234766842 0 0.2052270206192876 0.23961033728654851 0 0.2050239072751949 0.2492833193895482 0 0.21458810326103989 0.25029177234766842 0 0.2052270206192876 0.23961033728654851 0 0.2050239072751949 0.2492833193895482 0 0.1956251304139873 0.24830732682566101 0 0.1874551123034256 0.23002704556275291 0 0.1821848497420967 0.24129823675235251 0 0.1956251304139873 0.24830732682566101 0 0.1874551123034256 0.23002704556275291 0 0.2052270206192876 0.23961033728654851 0 0.1821848497420967 0.24129823675235251 0 0.1956251304139873 0.24830732682566101 0 0.18564289691528729 0.25868749876629671 0 0.1874551123034256 0.23002704556275291 0 0.2052270206192876 0.23961033728654851 0 0.1956251304139873 0.24830732682566101 0 0.1874551123034256 0.23002704556275291 0 0.2052270206192876 0.23961033728654851 0 0.20110338325899621 0.22697869990708769 0 0.18150256540618689 0.21619068467845909 0 0.1874551123034256 0.23002704556275291 0 0.19422843088031849 0.2167901493339745 0 0.1874551123034256 0.23002704556275291 0 0.20110338325899621 0.22697869990708769 0 0.19422843088031849 0.2167901493339745 0 0.20110338325899621 0.22697869990708769 0 0.2086865974780466 0.21738525977654841 0 0.19422843088031849 0.2167901493339745 0 0.2052270206192876 0.23961033728654851 0 0.21155197229915221 0.22775520817690251 0 0.2245441737887168 0.23093760545441711 0 0.20110338325899621 0.22697869990708769 0 0.21155197229915221 0.22775520817690251 0 0.2086865974780466 0.21738525977654841 0 0.2052270206192876 0.23961033728654851 0 0.20110338325899621 0.22697869990708769 0 0.21155197229915221 0.22775520817690251 0 0.21155197229915221 0.22775520817690251 0 0.2086865974780466 0.21738525977654841 0 0.22156171208109349 0.2232889965660497 0 0.211417792929007 0.20448623071467029 0 0.2086865974780466 0.21738525977654841 0 0.22411523440486891 0.2128525325182862 0 0.2086865974780466 0.21738525977654841 0 0.22411523440486891 0.2128525325182862 0 0.22156171208109349 0.2232889965660497 0 0.211417792929007 0.20448623071467029 0 0.2086865974780466 0.21738525977654841 0 0.19996516513116139 0.20542151256053021 0 0.2086865974780466 0.21738525977654841 0 0.19422843088031849 0.2167901493339745 0 0.19996516513116139 0.20542151256053021 0 0.18699821765939811 0.20575379358823331 0 0.18150256540618689 0.21619068467845909 0 0.19422843088031849 0.2167901493339745 0 0.18699821765939811 0.20575379358823331 0 0.19422843088031849 0.2167901493339745 0 0.19996516513116139 0.20542151256053021 0 0.18699821765939811 0.20575379358823331 0 0.19996516513116139 0.20542151256053021 0 0.19943196450540629 0.19077826793543179 0 0.17803712215301101 0.18711146321258301 0 0.19943196450540629 0.19077826793543179 0 0.17803712215301101 0.18711146321258301 0 0.18699821765939811 0.20575379358823331 0 0.19943196450540629 0.19077826793543179 0 0.211417792929007 0.20448623071467029 0 0.19943196450540629 0.19077826793543179 0 0.22082680685780151 0.19444507265828059 0 0.19943196450540629 0.19077826793543179 0 0.22082680685780151 0.19444507265828059 0 0.211417792929007 0.20448623071467029 0 0.19996516513116139 0.20542151256053021 0 0.19943196450540629 0.19077826793543179 0 0.22082680685780151 0.19444507265828059 0 0.2418323282778008 0.1922485172988235 0 0.23200417938957321 0.20455559625434991 0 0.22082680685780151 0.19444507265828059 0 0.2418323282778008 0.1922485172988235 0 0.2298041727050075 0.1787595393801808 0 0.2418323282778008 0.1922485172988235 0 0.24124234801782149 0.21867626254200909 0 0.2418323282778008 0.1922485172988235 0 0.24124234801782149 0.21867626254200909 0 0.25471258750952741 0.20148162901819469 0 0.2418323282778008 0.1922485172988235 0 0.24124234801782149 0.21867626254200909 0 0.23200417938957321 0.20455559625434991 0 0.24124234801782149 0.21867626254200909 0 0.25357276657721323 0.21641202867955539 0 0.25471258750952741 0.20148162901819469 0 0.24124234801782149 0.21867626254200909 0 0.22411523440486891 0.2128525325182862 0 0.2303270751280653 0.22194856436908961 0 0.211417792929007 0.20448623071467029 0 0.22082680685780151 0.19444507265828059 0 0.22411523440486891 0.2128525325182862 0 0.22082680685780151 0.19444507265828059 0 0.23200417938957321 0.20455559625434991 0 0.22411523440486891 0.2128525325182862 0 0.24124234801782149 0.21867626254200909 0 0.23200417938957321 0.20455559625434991 0 0.22411523440486891 0.2128525325182862 0 0.22411523440486891 0.2128525325182862 0 0.22156171208109349 0.2232889965660497 0 0.2303270751280653 0.22194856436908961 0 0.22156171208109349 0.2232889965660497 0 0.2245441737887168 0.23093760545441711 0 0.2301452193877111 0.22885480910105491 0 0.21155197229915221 0.22775520817690251 0 0.22156171208109349 0.2232889965660497 0 0.2245441737887168 0.23093760545441711 0 0.2301452193877111 0.22885480910105491 0 0.23408043491912681 0.23335190051361199 0 0.23787356880598759 0.22384871304106421 0 0.2301452193877111 0.22885480910105491 0 0.23408043491912681 0.23335190051361199 0 0.2258394828391487 0.23585902185418811 0 0.2245441737887168 0.23093760545441711 0 0.2301452193877111 0.22885480910105491 0 0.2258394828391487 0.23585902185418811 0 0.2301452193877111 0.22885480910105491 0 0.2303270751280653 0.22194856436908961 0 0.23787356880598759 0.22384871304106421 0 0.22156171208109349 0.2232889965660497 0 0.2301452193877111 0.22885480910105491 0 0.2303270751280653 0.22194856436908961 0 0.24124234801782149 0.21867626254200909 0 0.2303270751280653 0.22194856436908961 0 0.23787356880598759 0.22384871304106421 0 0.24124234801782149 0.21867626254200909 0 0.23787356880598759 0.22384871304106421 0 0.25357276657721323 0.21641202867955539 0 0.23408043491912681 0.23335190051361199 0 0.24868260911088891 0.2303107595792985 0 0.25357276657721323 0.21641202867955539 0 0.23408043491912681 0.23335190051361199 0 0.23787356880598759 0.22384871304106421 0 0.25357276657721323 0.21641202867955539 0 0.23408043491912681 0.23335190051361199 0 0.25357276657721323 0.21641202867955539 0 0.24868260911088891 0.2303107595792985 0 0.2392512687495113 0.23539683186585869 0 0.2471090749199483 0.2357199094212839 0 0.23408043491912681 0.23335190051361199 0 0.24868260911088891 0.2303107595792985 0 0.2392512687495113 0.23539683186585869 0 0.23408043491912681 0.23335190051361199 0 0.2356673672060029 0.23553231024254659 0 0.23369101455560959 0.23545012385447089 0 0.2356673672060029 0.23553231024254659 0 0.23652425047500741 0.24096462129343871 0 0.23369101455560959 0.23545012385447089 0 0.23652425047500741 0.24096462129343871 0 0.2392512687495113 0.23539683186585869 0 0.24523436150048811 0.24199469982198529 0 0.2356673672060029 0.23553231024254659 0 0.23652425047500741 0.24096462129343871 0 0.2392512687495113 0.23539683186585869 0 0.23408043491912681 0.23335190051361199 0 0.2356673672060029 0.23553231024254659 0 0.2392512687495113 0.23539683186585869 0 0.24523436150048811 0.24199469982198529 0 0.2471090749199483 0.2357199094212839 0 0.25452501640087027 0.2374112721999547 0 0.2392512687495113 0.23539683186585869 0 0.24523436150048811 0.24199469982198529 0 0.2471090749199483 0.2357199094212839 0 0.24523436150048811 0.24199469982198529 0 0.23995652529561701 0.25039133628829258 0 0.25404003316197471 0.25208422786308371 0 0.23652425047500741 0.24096462129343871 0 0.24523436150048811 0.24199469982198529 0 0.23995652529561701 0.25039133628829258 0 0.23652425047500741 0.24096462129343871 0 0.23169913173193779 0.25404958449575432 0 0.23995652529561701 0.25039133628829258 0 0.23369101455560959 0.23545012385447089 0 0.2170338530129477 0.25958452376210089 0 0.21458810326103989 0.25029177234766842 0 0.23408043491912681 0.23335190051361199 0 0.23369101455560959 0.23545012385447089 0 0.21458810326103989 0.25029177234766842 0 0.23408043491912681 0.23335190051361199 0 0.21458810326103989 0.25029177234766842 0 0.2245441737887168 0.23093760545441711 0 0.21458810326103989 0.25029177234766842 0 0.23408043491912681 0.23335190051361199 0 0.2258394828391487 0.23585902185418811 0 0.21458810326103989 0.25029177234766842 0 0.23369101455560959 0.23545012385447089 0 0.2170338530129477 0.25958452376210089 0 0.23169913173193779 0.25404958449575432 0 0.23652425047500741 0.24096462129343871 0 0.23369101455560959 0.23545012385447089 0 0.23169913173193779 0.25404958449575432 0 0.23369101455560959 0.23545012385447089 0 0.2170338530129477 0.25958452376210089 0 0.2245441737887168 0.23093760545441711 0 0.2258394828391487 0.23585902185418811 0 0.21458810326103989 0.25029177234766842 0 0.2074718948020329 0.13931593166829101 0 0.2035930282546865 0.1573108976369578 0 0.22801201431925219 0.15227861461809999 0 0.2074718948020329 0.13931593166829101 0 0.22815060196587239 0.13250420183309389 0 0.2202182220460269 0.1181723145221887 0 0.2074718948020329 0.13931593166829101 0 0.2202182220460269 0.1181723145221887 0 0.19370351113240411 0.1202502215829211 0 0.18154761934540289 0.13534417850528041 0 0.2074718948020329 0.13931593166829101 0 0.19370351113240411 0.1202502215829211 0 0.1832181015668064 0.15465227861531949 0 0.2074718948020329 0.13931593166829101 0 0.1832181015668064 0.15465227861531949 0 0.18154761934540289 0.13534417850528041 0 0.2074718948020329 0.13931593166829101 0 0.1832181015668064 0.15465227861531949 0 0.2074718948020329 0.13931593166829101 0 0.2035930282546865 0.1573108976369578 0 0.1832181015668064 0.15465227861531949 0 0.1915320106228488 0.17262237876131631 0 0.2035930282546865 0.1573108976369578 0 0.1915320106228488 0.17262237876131631 0 0.21309098299550949 0.1707274381193544 0 0.2035930282546865 0.1573108976369578 0 0.19943196450540629 0.19077826793543179 0 0.1915320106228488 0.17262237876131631 0 0.21309098299550949 0.1707274381193544 0 0.17803712215301101 0.18711146321258301 0 0.19943196450540629 0.19077826793543179 0 0.1915320106228488 0.17262237876131631 0 0.19943196450540629 0.19077826793543179 0 0.22082680685780151 0.19444507265828059 0 0.21309098299550949 0.1707274381193544 0 0.21309098299550949 0.1707274381193544 0 0.2035930282546865 0.1573108976369578 0 0.22801201431925219 0.15227861461809999 0 0.2298041727050075 0.1787595393801808 0 0.2424223085377801 0.16582077205563811 0 0.22801201431925219 0.15227861461809999 0 0.21309098299550949 0.1707274381193544 0 0.2298041727050075 0.1787595393801808 0 0.22801201431925219 0.15227861461809999 0 0.22082680685780151 0.19444507265828059 0 0.21309098299550949 0.1707274381193544 0 0.2298041727050075 0.1787595393801808 0 0.2418323282778008 0.1922485172988235 0 0.2424223085377801 0.16582077205563811 0 0.2418323282778008 0.1922485172988235 0 0.2424223085377801 0.16582077205563811 0 0.26032431562704572 0.18342712708893841 0 0.2418323282778008 0.1922485172988235 0 0.2298041727050075 0.1787595393801808 0 0.2424223085377801 0.16582077205563811 0 0.2424223085377801 0.16582077205563811 0 0.24301228879775941 0.13939302681245261 0 0.2424223085377801 0.16582077205563811 0 0.24301228879775941 0.13939302681245261 0 0.25486404381895789 0.1523024957907583 0 0.22801201431925219 0.15227861461809999 0 0.23648687609860089 0.13476882232929049 0 0.24301228879775941 0.13939302681245261 0 0.2424223085377801 0.16582077205563811 0 0.22801201431925219 0.15227861461809999 0 0.24301228879775941 0.13939302681245261 0 0.2074718948020329 0.13931593166829101 0 0.22801201431925219 0.15227861461809999 0 0.22815060196587239 0.13250420183309389 0 0.22815060196587239 0.13250420183309389 0 0.24420216851797599 0.1292372680552665 0 0.2202182220460269 0.1181723145221887 0 0.22801201431925219 0.15227861461809999 0 0.22815060196587239 0.13250420183309389 0 0.23648687609860089 0.13476882232929049 0 0.22815060196587239 0.13250420183309389 0 0.23648687609860089 0.13476882232929049 0 0.24420216851797599 0.1292372680552665 0 0.23648687609860089 0.13476882232929049 0 0.24301228879775941 0.13939302681245261 0 0.24420216851797599 0.1292372680552665 0 0.24646482385440791 0.1109165710353929 0 0.23770217468454991 0.11680213067385049 0 0.255186127323073 0.11543194682551421 0 0.24420216851797599 0.1292372680552665 0 0.23770217468454991 0.11680213067385049 0 0.255186127323073 0.11543194682551421 0 0.23770217468454991 0.11680213067385049 0 0.255186127323073 0.11543194682551421 0 0.23770217468454991 0.11680213067385049 0 0.24055722746134861 0.1095612663226197 0 0.23538797832625211 0.10692464088038291 0 0.24646482385440791 0.1109165710353929 0 0.23770217468454991 0.11680213067385049 0 0.24055722746134861 0.1095612663226197 0 0.24174744587836799 0.1033548466348798 0 0.22816008327650389 0.097918375238235045 0 0.24736227196270541 0.090270970101712061 0 0.22816008327650389 0.097918375238235045 0 0.24736227196270541 0.090270970101712061 0 0.24174744587836799 0.1033548466348798 0 0.24736227196270541 0.090270970101712061 0 0.25459763100830068 0.096141582858552177 0 0.24174744587836799 0.1033548466348798 0 0.25459763100830068 0.096141582858552177 0 0.24646482385440791 0.1109165710353929 0 0.24174744587836799 0.1033548466348798 0 0.25655208948606423 0.10927836717886751 0 0.24174744587836799 0.1033548466348798 0 0.25655208948606423 0.10927836717886751 0 0.24646482385440791 0.1109165710353929 0 0.24055722746134861 0.1095612663226197 0 0.24174744587836799 0.1033548466348798 0 0.23538797832625211 0.10692464088038291 0 0.24174744587836799 0.1033548466348798 0 0.22816008327650389 0.097918375238235045 0 0.24055722746134861 0.1095612663226197 0 0.23538797832625211 0.10692464088038291 0 0.24174744587836799 0.1033548466348798 0 0.23538797832625211 0.10692464088038291 0 0.24174744587836799 0.1033548466348798 0 0.24174744587836799 0.1033548466348798 0 0.22816008327650389 0.097918375238235045 0 0.23538797832625211 0.10692464088038291 0 0.22816008327650389 0.097918375238235045 0 0.22436085098549791 0.1097634104313145 0 0.23770217468454991 0.11680213067385049 0 0.2202182220460269 0.1181723145221887 0 0.23770217468454991 0.11680213067385049 0 0.2202182220460269 0.1181723145221887 0 0.22436085098549791 0.1097634104313145 0 0.24420216851797599 0.1292372680552665 0 0.23770217468454991 0.11680213067385049 0 0.2202182220460269 0.1181723145221887 0 0.24420216851797599 0.1292372680552665 0 0.2202182220460269 0.1181723145221887 0 0.23770217468454991 0.11680213067385049 0 0.23538797832625211 0.10692464088038291 0 0.22436085098549791 0.1097634104313145 0 0.2202182220460269 0.1181723145221887 0 0.20033579659415629 0.10899959084191641 0 0.19370351113240411 0.1202502215829211 0 0.2202182220460269 0.1181723145221887 0 0.20033579659415629 0.10899959084191641 0 0.2202182220460269 0.1181723145221887 0 0.19370351113240411 0.1202502215829211 0 0.2202182220460269 0.1181723145221887 0 0.22436085098549791 0.1097634104313145 0 0.20033579659415629 0.10899959084191641 0 0.22816008327650389 0.097918375238235045 0 0.22436085098549791 0.1097634104313145 0 0.20033579659415629 0.10899959084191641 0 0.22816008327650389 0.097918375238235045 0 0.20033579659415629 0.10899959084191641 0 0.2016134769563831 0.087296750559026068 0 0.22816008327650389 0.097918375238235045 0 0.20033579659415629 0.10899959084191641 0 0.20033579659415629 0.10899959084191641 0 0.18422746814952201 0.1154148446289336 0 0.1860496622757298 0.1024087067025775 0 0.20033579659415629 0.10899959084191641 0 0.2016134769563831 0.087296750559026068 0 0.1860496622757298 0.1024087067025775 0 0.20033579659415629 0.10899959084191641 0 0.1860496622757298 0.1024087067025775 0 0.20033579659415629 0.10899959084191641 0 0.19370351113240411 0.1202502215829211 0 0.18422746814952201 0.1154148446289336 0 0.20033579659415629 0.10899959084191641 0 0.18422746814952201 0.1154148446289336 0 0.19220101611619109 0.069455466931817506 0 0.2016134769563831 0.087296750559026068 0 0.22553753830923129 0.072562856517635971 0 0.19220101611619109 0.069455466931817506 0 0.22553753830923129 0.072562856517635971 0 0.20371280465575431 0.054854742933563613 0 0.19220101611619109 0.069455466931817506 0 0.2016134769563831 0.087296750559026068 0 0.17506687063626211 0.076675125879817507 0 0.2016134769563831 0.087296750559026068 0 0.17506687063626211 0.076675125879817507 0 0.2016134769563831 0.087296750559026068 0 0.1860496622757298 0.1024087067025775 0 0.17954517331912459 0.085943521096986275 0 0.22816008327650389 0.097918375238235045 0 0.2016134769563831 0.087296750559026068 0 0.22553753830923129 0.072562856517635971 0 0.22816008327650389 0.097918375238235045 0 0.2016134769563831 0.087296750559026068 0 0.22553753830923129 0.072562856517635971 0 0.20371280465575431 0.054854742933563613 0 0.22816008327650389 0.097918375238235045 0 0.22553753830923129 0.072562856517635971 0 0.24736227196270541 0.090270970101712061 0 0.22553753830923129 0.072562856517635971 0 0.24736227196270541 0.090270970101712061 0 0.22553753830923129 0.072562856517635971 0 0.24736227196270541 0.090270970101712061 0 0.24874122334595 0.07170785510379532 0 0.22553753830923129 0.072562856517635971 0 0.24874122334595 0.07170785510379532 0 0.24629062771517271 0.052820950830226497 0 0.24629062771517271 0.052820950830226497 0 0.22540450977275331 0.044226989078737088 0 0.24629062771517271 0.052820950830226497 0 0.2492733855269578 0.041579555173777823 0 0.22540450977275331 0.044226989078737088 0 0.2492733855269578 0.041579555173777823 0 0.23050941707716249 0.025621187905106171 0 0.2492733855269578 0.041579555173777823 0 0.22540450977275331 0.044226989078737088 0 0.23050941707716249 0.025621187905106171 0 0.22540450977275331 0.044226989078737088 0 0.23050941707716249 0.025621187905106171 0 0.21805144048265651 0.031797176764528597 0 0.22553753830923129 0.072562856517635971 0 0.24629062771517271 0.052820950830226497 0 0.22540450977275331 0.044226989078737088 0 0.23790413247208811 0.0091049515404343275 0 0.25322369798355371 0.0032948183560677501 0 0.2464198669495459 -0.012097030270161889 0 0.23790413247208811 0.0091049515404343275 0 0.25442723867738032 0.016379625870619269 0 0.25322369798355371 0.0032948183560677501 0 0.2492733855269578 0.041579555173777823 0 0.24818833723327199 0.02644705719899533 0 0.23050941707716249 0.025621187905106171 0 0.23790413247208811 0.0091049515404343275 0 0.24818833723327199 0.02644705719899533 0 0.25442723867738032 0.016379625870619269 0 0.23790413247208811 0.0091049515404343275 0 0.24818833723327199 0.02644705719899533 0 0.23050941707716249 0.025621187905106171 0 0.23050941707716249 0.025621187905106171 0 0.2117734432503762 0.02170750274702346 0 0.21805144048265651 0.031797176764528597 0 0.23050941707716249 0.025621187905106171 0 0.21174544862736719 0.0096628206364345465 0 0.23050941707716249 0.025621187905106171 0 0.22518260227175371 0.0072623370788317187 0 0.21174544862736719 0.0096628206364345465 0 0.23790413247208811 0.0091049515404343275 0 0.22518260227175371 0.0072623370788317187 0 0.2300866381754704 -0.0072438550720441714 0 0.23790413247208811 0.0091049515404343275 0 0.23050941707716249 0.025621187905106171 0 0.22518260227175371 0.0072623370788317187 0 0.21174544862736719 0.0096628206364345465 0 0.2117734432503762 0.02170750274702346 0 0.20589386385567829 -0.0063134785331596111 0 0.2117734432503762 0.02170750274702346 0 0.19985428483697371 0.01027601627170664 0 0.20589386385567829 -0.0063134785331596111 0 0.2117734432503762 0.02170750274702346 0 0.20589386385567829 -0.0063134785331596111 0 0.22518260227175371 0.0072623370788317187 0 0.21174544862736719 0.0096628206364345465 0 0.2185782736923042 -0.0038367730406402641 0 0.23050941707716249 0.025621187905106171 0 0.21174544862736719 0.0096628206364345465 0 0.2117734432503762 0.02170750274702346 0 0.2117734432503762 0.02170750274702346 0 0.19994459845139961 0.023663902980434019 0 0.19985428483697371 0.01027601627170664 0 0.2117734432503762 0.02170750274702346 0 0.21805144048265651 0.031797176764528597 0 0.20451839183033399 0.035633027327247678 0 0.2117734432503762 0.02170750274702346 0 0.19994459845139961 0.023663902980434019 0 0.20451839183033399 0.035633027327247678 0 0.19994459845139961 0.023663902980434019 0 0.20451839183033399 0.035633027327247678 0 0.1836322738879155 0.027039065575756291 0 0.19994459845139961 0.023663902980434019 0 0.19985428483697371 0.01027601627170664 0 0.1836322738879155 0.027039065575756291 0 0.19985428483697371 0.01027601627170664 0 0.20589386385567829 -0.0063134785331596111 0 0.18863989258252481 -0.001979820774580698 0 0.19985428483697371 0.01027601627170664 0 0.1836322738879155 0.027039065575756291 0 0.18863989258252481 -0.001979820774580698 0 0.22553753830923129 0.072562856517635971 0 0.22540450977275331 0.044226989078737088 0 0.20371280465575431 0.054854742933563613 0 0.22540450977275331 0.044226989078737088 0 0.20451839183033399 0.035633027327247678 0 0.22540450977275331 0.044226989078737088 0 0.21805144048265651 0.031797176764528597 0 0.20451839183033399 0.035633027327247678 0 0.22540450977275331 0.044226989078737088 0 0.20371280465575431 0.054854742933563613 0 0.20451839183033399 0.035633027327247678 0 0.20451839183033399 0.035633027327247678 0 0.1818880710022803 0.03714662934948755 0 0.1836322738879155 0.027039065575756291 0 0.20371280465575431 0.054854742933563613 0 0.20451839183033399 0.035633027327247678 0 0.1818880710022803 0.03714662934948755 0 0.20371280465575431 0.054854742933563613 0 0.1818880710022803 0.03714662934948755 0 0.20451839183033399 0.035633027327247678 0 0.1836322738879155 0.027039065575756291 0 0.20371280465575431 0.054854742933563613 0 0.17847747081927551 0.05691087761465332 0 0.1818880710022803 0.03714662934948755 0 0.19220101611619109 0.069455466931817506 0 0.20371280465575431 0.054854742933563613 0 0.17847747081927551 0.05691087761465332 0 0.17847747081927551 0.05691087761465332 0 0.1818880710022803 0.03714662934948755 0 0.17847747081927551 0.05691087761465332 0 0.1818880710022803 0.03714662934948755 0 0.1636569447874848 0.036789081642687432 0 0.1818880710022803 0.03714662934948755 0 0.1836322738879155 0.027039065575756291 0 0.1818880710022803 0.03714662934948755 0 0.1636569447874848 0.036789081642687432 0 0.1620242678869008 0.02102957209859084 0 0.17847747081927551 0.05691087761465332 0 0.1636569447874848 0.036789081642687432 0 0.15962551614652079 0.053115759904931073 0 0.17847747081927551 0.05691087761465332 0 0.15962551614652079 0.053115759904931073 0 0.16641746421004469 0.065589342706300277 0 0.15962551614652079 0.053115759904931073 0 0.15045482833334159 0.067212260357143019 0 0.16641746421004469 0.065589342706300277 0 0.1716695151525548 0.011722155214289249 0 0.17506184651935949 -0.0021247232161890161 0 0.18863989258252481 -0.001979820774580698 0 0.1836322738879155 0.027039065575756291 0 0.18863989258252481 -0.001979820774580698 0 0.1836322738879155 0.027039065575756291 0 0.1716695151525548 0.011722155214289249 0 0.18863989258252481 -0.001979820774580698 0 0.1818880710022803 0.03714662934948755 0 0.1730573255808272 0.02268781650565178 0 0.1620242678869008 0.02102957209859084 0 0.1818880710022803 0.03714662934948755 0 0.1620242678869008 0.02102957209859084 0 0.1730573255808272 0.02268781650565178 0 0.1836322738879155 0.027039065575756291 0 0.1716695151525548 0.011722155214289249 0 0.1730573255808272 0.02268781650565178 0 0.1836322738879155 0.027039065575756291 0 0.1818880710022803 0.03714662934948755 0 0.1730573255808272 0.02268781650565178 0 0.1836322738879155 0.027039065575756291 0 0.1636569447874848 0.036789081642687432 0 0.1620242678869008 0.02102957209859084 0 0.15032019737810451 0.03113296745297477 0 0.1730573255808272 0.02268781650565178 0 0.1620242678869008 0.02102957209859084 0 0.1716695151525548 0.011722155214289249 0 0.1620242678869008 0.02102957209859084 0 0.1716695151525548 0.011722155214289249 0 0.15871689523486121 0.010399441389301141 0 0.1716695151525548 0.011722155214289249 0 0.15871689523486121 0.010399441389301141 0 0.1628037813635097 0.0015330777282007481 0 0.15871689523486121 0.010399441389301141 0 0.1628037813635097 0.0015330777282007481 0 0.15453230216132671 0.0032055715019124438 0 0.1716695151525548 0.011722155214289249 0 0.1628037813635097 0.0015330777282007481 0 0.17506184651935949 -0.0021247232161890161 0 0.1620242678869008 0.02102957209859084 0 0.14216046477152491 0.0049125148476896544 0 0.15871689523486121 0.010399441389301141 0 0.14216046477152491 0.0049125148476896544 0 0.15453230216132671 0.0032055715019124438 0 0.14216046477152491 0.0049125148476896544 0 0.15453230216132671 0.0032055715019124438 0 0.15849764294065671 -0.0060544572746906826 0 0.1620242678869008 0.02102957209859084 0 0.15871689523486121 0.010399441389301141 0 0.14216046477152491 0.0049125148476896544 0 0.1620242678869008 0.02102957209859084 0 0.14216046477152491 0.0049125148476896544 0 0.1432298655490542 0.02239521632663263 0 0.1620242678869008 0.02102957209859084 0 0.1432298655490542 0.02239521632663263 0 0.15032019737810451 0.03113296745297477 0 0.1432298655490542 0.02239521632663263 0 0.15032019737810451 0.03113296745297477 0 0.1366405524080008 0.032741533152345258 0 0.1432298655490542 0.02239521632663263 0 0.12659142849079691 0.028091664155532971 0 0.1366405524080008 0.032741533152345258 0 0.14216046477152491 0.0049125148476896544 0 0.1432298655490542 0.02239521632663263 0 0.12659142849079691 0.028091664155532971 0 0.14216046477152491 0.0049125148476896544 0 0.12659142849079691 0.028091664155532971 0 0.1323442420055404 0.014884056975098 0 0.14216046477152491 0.0049125148476896544 0 0.12659142849079691 0.028091664155532971 0 0.11882011836095251 0.0065886106746579649 0 0.12659142849079691 0.028091664155532971 0 0.1323442420055404 0.014884056975098 0 0.12659142849079691 0.028091664155532971 0 0.1366405524080008 0.032741533152345258 0 0.11882011836095251 0.0065886106746579649 0 0.1323442420055404 0.014884056975098 0 0.13735218555535891 0.001011181807127467 0 0.1323442420055404 0.014884056975098 0 0.13735218555535891 0.001011181807127467 0 0.14216046477152491 0.0049125148476896544 0 0.1323442420055404 0.014884056975098 0 0.13735218555535891 0.001011181807127467 0 0.14216046477152491 0.0049125148476896544 0 0.13735218555535891 0.001011181807127467 0 0.15962551614652079 0.053115759904931073 0 0.1452456698728295 0.044396077507560729 0 0.15045482833334159 0.067212260357143019 0 0.1452456698728295 0.044396077507560729 0 0.12683439495817461 0.052003073372435288 0 0.15045482833334159 0.067212260357143019 0 0.1636569447874848 0.036789081642687432 0 0.15032019737810451 0.03113296745297477 0 0.1452456698728295 0.044396077507560729 0 0.1636569447874848 0.036789081642687432 0 0.15962551614652079 0.053115759904931073 0 0.1452456698728295 0.044396077507560729 0 0.1636569447874848 0.036789081642687432 0 0.1452456698728295 0.044396077507560729 0 0.15032019737810451 0.03113296745297477 0 0.1452456698728295 0.044396077507560729 0 0.1366405524080008 0.032741533152345258 0 0.1452456698728295 0.044396077507560729 0 0.13015300311198849 0.040381385354086502 0 0.12683439495817461 0.052003073372435288 0 0.1452456698728295 0.044396077507560729 0 0.1366405524080008 0.032741533152345258 0 0.13015300311198849 0.040381385354086502 0 0.12659142849079691 0.028091664155532971 0 0.1366405524080008 0.032741533152345258 0 0.13015300311198849 0.040381385354086502 0 0.12683439495817461 0.052003073372435288 0 0.13134854049252651 0.064566646620811727 0 0.15045482833334159 0.067212260357143019 0 0.1452456698728295 0.044396077507560729 0 0.12683439495817461 0.052003073372435288 0 0.12683439495817461 0.052003073372435288 0 0.15045482833334159 0.067212260357143019 0 0.1213053233293625 0.063977455960140386 0 0.12683439495817461 0.052003073372435288 0 0.13134854049252651 0.064566646620811727 0 0.13134854049252651 0.064566646620811727 0 0.12679961534922851 0.075073796793526271 0 0.15045482833334159 0.067212260357143019 0 0.1213053233293625 0.063977455960140386 0 0.13134854049252651 0.064566646620811727 0 0.12679961534922851 0.075073796793526271 0 0.12679961534922851 0.075073796793526271 0 0.15045482833334159 0.067212260357143019 0 0.1492815716532653 0.085445809678383625 0 0.1185648575779607 0.095458187827811403 0 0.12679961534922851 0.075073796793526271 0 0.13332649773741079 0.089989738391902788 0 0.1492815716532653 0.085445809678383625 0 0.13332649773741079 0.089989738391902788 0 0.13865994636918871 0.10398115926788989 0 0.12679961534922851 0.075073796793526271 0 0.1492815716532653 0.085445809678383625 0 0.12679961534922851 0.075073796793526271 0 0.1492815716532653 0.085445809678383625 0 0.13332649773741079 0.089989738391902788 0 0.123281054128593 0.11724462113534739 0 0.1185648575779607 0.095458187827811403 0 0.13865994636918871 0.10398115926788989 0 0.1185648575779607 0.095458187827811403 0 0.13332649773741079 0.089989738391902788 0 0.13865994636918871 0.10398115926788989 0 0.123281054128593 0.11724462113534739 0 0.13865994636918871 0.10398115926788989 0 0.13947052033133081 0.1245003570974072 0 0.13947052033133081 0.1245003570974072 0 0.15026369300765779 0.1129544164764977 0 0.16718880021878149 0.12232812864365609 0 0.13947052033133081 0.1245003570974072 0 0.16718880021878149 0.12232812864365609 0 0.13865994636918871 0.10398115926788989 0 0.13947052033133081 0.1245003570974072 0 0.15026369300765779 0.1129544164764977 0 0.1492815716532653 0.085445809678383625 0 0.13865994636918871 0.10398115926788989 0 0.15573550511132991 0.1010080208970377 0 0.13865994636918871 0.10398115926788989 0 0.15026369300765779 0.1129544164764977 0 0.15573550511132991 0.1010080208970377 0 0.15573550511132991 0.1010080208970377 0 0.17176352795730221 0.095817822563241214 0 0.16718880021878149 0.12232812864365609 0 0.17176352795730221 0.095817822563241214 0 0.16718880021878149 0.12232812864365609 0 0.1492815716532653 0.085445809678383625 0 0.15573550511132991 0.1010080208970377 0 0.17176352795730221 0.095817822563241214 0 0.15026369300765779 0.1129544164764977 0 0.15573550511132991 0.1010080208970377 0 0.16718880021878149 0.12232812864365609 0 0.16718880021878149 0.12232812864365609 0 0.18422746814952201 0.1154148446289336 0 0.17176352795730221 0.095817822563241214 0 0.16718880021878149 0.12232812864365609 0 0.18422746814952201 0.1154148446289336 0 0.19370351113240411 0.1202502215829211 0 0.16718880021878149 0.12232812864365609 0 0.19370351113240411 0.1202502215829211 0 0.16718880021878149 0.12232812864365609 0 0.18422746814952201 0.1154148446289336 0 0.17176352795730221 0.095817822563241214 0 0.18422746814952201 0.1154148446289336 0 0.1860496622757298 0.1024087067025775 0 0.17176352795730221 0.095817822563241214 0 0.1860496622757298 0.1024087067025775 0 0.17954517331912459 0.085943521096986275 0 0.17176352795730221 0.095817822563241214 0 0.1860496622757298 0.1024087067025775 0 0.2016134769563831 0.087296750559026068 0 0.17954517331912459 0.085943521096986275 0 0.17506687063626211 0.076675125879817507 0 0.17176352795730221 0.095817822563241214 0 0.17407526170850959 0.082421447341849294 0 0.17176352795730221 0.095817822563241214 0 0.17954517331912459 0.085943521096986275 0 0.17407526170850959 0.082421447341849294 0 0.17954517331912459 0.085943521096986275 0 0.17407526170850959 0.082421447341849294 0 0.17506687063626211 0.076675125879817507 0 0.17407526170850959 0.082421447341849294 0 0.17506687063626211 0.076675125879817507 0 0.17954517331912459 0.085943521096986275 0 0.17407526170850959 0.082421447341849294 0 0.17847747081927551 0.05691087761465332 0 0.17506687063626211 0.076675125879817507 0 0.19220101611619109 0.069455466931817506 0 0.17847747081927551 0.05691087761465332 0 0.17506687063626211 0.076675125879817507 0 0.17847747081927551 0.05691087761465332 0 0.17506687063626211 0.076675125879817507 0 0.16641746421004469 0.065589342706300277 0 0.17407526170850959 0.082421447341849294 0 0.17506687063626211 0.076675125879817507 0 0.16846263511482451 0.074032689774956653 0 0.15045482833334159 0.067212260357143019 0 0.16846263511482451 0.074032689774956653 0 0.16641746421004469 0.065589342706300277 0 0.17506687063626211 0.076675125879817507 0 0.16846263511482451 0.074032689774956653 0 0.16641746421004469 0.065589342706300277 0 0.15045482833334159 0.067212260357143019 0 0.17407526170850959 0.082421447341849294 0 0.16846263511482451 0.074032689774956653 0 0.17506687063626211 0.076675125879817507 0 0.16846263511482451 0.074032689774956653 0 0.15045482833334159 0.067212260357143019 0 0.17407526170850959 0.082421447341849294 0 0.1492815716532653 0.085445809678383625 0 0.17176352795730221 0.095817822563241214 0 0.1492815716532653 0.085445809678383625 0 0.17176352795730221 0.095817822563241214 0 0.17407526170850959 0.082421447341849294 0 0.15045482833334159 0.067212260357143019 0 0.1492815716532653 0.085445809678383625 0 0.17407526170850959 0.082421447341849294 0 0.094789198081262169 0.47221984895451657 0 0.09870107108427445 0.5 0 0.1248616532684987 0.47476888169724352 0 0.09870107108427445 0.5 0 0.1248616532684987 0.47476888169724352 0 0.1287333349596296 0.50000000000000233 0 0.1248616532684987 0.47476888169724352 0 0.1154926134483955 0.45328817880533262 0 0.094789198081262169 0.47221984895451657 0 0.1248616532684987 0.47476888169724352 0 0.1154926134483955 0.45328817880533262 0 0.1248616532684987 0.47476888169724352 0 0.1205619018159948 0.44674810255646558 0 0.1248616532684987 0.47476888169724352 0 0.1154926134483955 0.45328817880533262 0 0.1205619018159948 0.44674810255646558 0 0.1154926134483955 0.45328817880533262 0 0.106123573628292 0.43180747591342172 0 0.1154926134483955 0.45328817880533262 0 0.1205619018159948 0.44674810255646558 0 0.106123573628292 0.43180747591342172 0 0.1154926134483955 0.45328817880533262 0 0.096722182691352548 0.44869154901932268 0 0.106123573628292 0.43180747591342172 0 0.094789198081262169 0.47221984895451657 0 0.1154926134483955 0.45328817880533262 0 0.096722182691352548 0.44869154901932268 0 0.094789198081262169 0.47221984895451657 0 0.077453222292990773 0.45016302493177879 0 0.067202034968243438 0.47028323083424428 0 0.094789198081262169 0.47221984895451657 0 0.096722182691352548 0.44869154901932268 0 0.077453222292990773 0.45016302493177879 0 0.096722182691352548 0.44869154901932268 0 0.077453222292990773 0.45016302493177879 0 0.085233479690329184 0.42595657570789891 0 0.077453222292990773 0.45016302493177879 0 0.085233479690329184 0.42595657570789891 0 0.077453222292990773 0.45016302493177879 0 0.055846149836862702 0.43889490050586683 0 0.065639666334966471 0.42409002317344818 0 0.077453222292990773 0.45016302493177879 0 0.067202034968243438 0.47028323083424428 0 0.051776939420019832 0.45519588853091181 0 0.094789198081262169 0.47221984895451657 0 0.067202034968243438 0.47028323083424428 0 0.068668807208919325 0.5 0 0.094789198081262169 0.47221984895451657 0 0.09870107108427445 0.5 0 0.068668807208919325 0.5 0 0.068668807208919325 0.5 0 0.043814234576468783 0.4752156274217324 0 0.038636543333564137 0.5 0 0.067202034968243438 0.47028323083424428 0 0.068668807208919325 0.5 0 0.043814234576468783 0.4752156274217324 0 0.038636543333564137 0.5 0 0.0095498935665802413 0.47810272379952351 0 0.0086042794582089632 0.5 0 0.043814234576468783 0.4752156274217324 0 0.038636543333564137 0.5 0 0.0095498935665802413 0.47810272379952351 0 0.043814234576468783 0.4752156274217324 0 0.0095498935665802413 0.47810272379952351 0 0.02936257191825143 0.45548825099001988 0 -0.0044763741368290672 0.43313315307665529 0 0.006403582431216831 0.45126676372832991 0 0.01131617767293759 0.43066417693356068 0 0.006403582431216831 0.45126676372832991 0 0.024585063983693121 0.43937755350337049 0 0.01131617767293759 0.43066417693356068 0 -0.0062093312902834459 0.46527566221073008 0 0.0095498935665802413 0.47810272379952351 0 0.006403582431216831 0.45126676372832991 0 0.0095498935665802413 0.47810272379952351 0 0.006403582431216831 0.45126676372832991 0 0.02936257191825143 0.45548825099001988 0 0.02936257191825143 0.45548825099001988 0 0.024585063983693121 0.43937755350337049 0 0.039439570502417587 0.44016889882154447 0 0.006403582431216831 0.45126676372832991 0 0.02936257191825143 0.45548825099001988 0 0.024585063983693121 0.43937755350337049 0 0.02936257191825143 0.45548825099001988 0 0.039439570502417587 0.44016889882154447 0 0.051776939420019832 0.45519588853091181 0 0.043814234576468783 0.4752156274217324 0 0.02936257191825143 0.45548825099001988 0 0.051776939420019832 0.45519588853091181 0 0.067202034968243438 0.47028323083424428 0 0.043814234576468783 0.4752156274217324 0 0.051776939420019832 0.45519588853091181 0 0.039439570502417587 0.44016889882154447 0 0.051776939420019832 0.45519588853091181 0 0.055846149836862702 0.43889490050586683 0 0.077453222292990773 0.45016302493177879 0 0.051776939420019832 0.45519588853091181 0 0.055846149836862702 0.43889490050586683 0 0.055846149836862702 0.43889490050586683 0 0.044352211855280779 0.42435697566478181 0 0.065639666334966471 0.42409002317344818 0 0.054179592762823331 0.4124556941646933 0 0.065774511826563423 0.40583773171119408 0 0.065639666334966471 0.42409002317344818 0 0.054179592762823331 0.4124556941646933 0 0.044352211855280779 0.42435697566478181 0 0.042551786202842029 0.40583695196884878 0 0.054179592762823331 0.4124556941646933 0 0.044352211855280779 0.42435697566478181 0 0.065639666334966471 0.42409002317344818 0 0.054179592762823331 0.4124556941646933 0 0.052579787594463898 0.40215678830519391 0 0.065774511826563423 0.40583773171119408 0 0.054179592762823331 0.4124556941646933 0 0.042551786202842029 0.40583695196884878 0 0.052579787594463898 0.40215678830519391 0 0.031615607723292562 0.41237007764590089 0 0.044352211855280779 0.42435697566478181 0 0.042551786202842029 0.40583695196884878 0 0.031615607723292562 0.41237007764590089 0 0.044352211855280779 0.42435697566478181 0 0.029348552931666359 0.42650056435783129 0 0.039439570502417587 0.44016889882154447 0 0.055846149836862702 0.43889490050586683 0 0.044352211855280779 0.42435697566478181 0 0.039439570502417587 0.44016889882154447 0 0.044352211855280779 0.42435697566478181 0 0.029348552931666359 0.42650056435783129 0 0.024585063983693121 0.43937755350337049 0 0.039439570502417587 0.44016889882154447 0 0.029348552931666359 0.42650056435783129 0 0.024585063983693121 0.43937755350337049 0 0.029348552931666359 0.42650056435783129 0 0.01131617767293759 0.43066417693356068 0 0.029348552931666359 0.42650056435783129 0 0.019479081626689841 0.41692126840220728 0 0.01131617767293759 0.43066417693356068 0 0.031615607723292562 0.41237007764590089 0 0.029348552931666359 0.42650056435783129 0 0.019479081626689841 0.41692126840220728 0 0.031615607723292562 0.41237007764590089 0 0.019479081626689841 0.41692126840220728 0 0.02210553341445062 0.40298972327242938 0 0.019479081626689841 0.41692126840220728 0 0.0046995574085186929 0.41194005205042061 0 0.02210553341445062 0.40298972327242938 0 0.019479081626689841 0.41692126840220728 0 0.0046995574085186929 0.41194005205042061 0 0.01131617767293759 0.43066417693356068 0 -0.0044763741368290672 0.43313315307665529 0 0.0046995574085186929 0.41194005205042061 0 0.01131617767293759 0.43066417693356068 0 -0.0068648610501423502 0.39382000907293813 0 0.0053185270157129726 0.37689571945341471 0 0.0079727676898529512 0.39395805239723503 0 0.0053185270157129726 0.37689571945341471 0 0.0079727676898529512 0.39395805239723503 0 0.017055050774382831 0.3783760363496293 0 0.0053185270157129726 0.37689571945341471 0 0.017055050774382831 0.3783760363496293 0 0.014905446519761849 0.37011919055753012 0 -0.0068648610501423502 0.39382000907293813 0 0.0046995574085186929 0.41194005205042061 0 0.0079727676898529512 0.39395805239723503 0 0.0046995574085186929 0.41194005205042061 0 0.0079727676898529512 0.39395805239723503 0 0.02210553341445062 0.40298972327242938 0 0.0079727676898529512 0.39395805239723503 0 0.02210553341445062 0.40298972327242938 0 0.02735486101880703 0.39232044610694311 0 0.031615607723292562 0.41237007764590089 0 0.02210553341445062 0.40298972327242938 0 0.03492587150599015 0.39714318271575322 0 0.02210553341445062 0.40298972327242938 0 0.02735486101880703 0.39232044610694311 0 0.03492587150599015 0.39714318271575322 0 0.0079727676898529512 0.39395805239723503 0 0.02735486101880703 0.39232044610694311 0 0.033420514628485373 0.38302977191180709 0 0.017055050774382831 0.3783760363496293 0 0.033420514628485373 0.38302977191180709 0 0.023779055828078009 0.37097747554075361 0 0.0079727676898529512 0.39395805239723503 0 0.017055050774382831 0.3783760363496293 0 0.033420514628485373 0.38302977191180709 0 0.0079727676898529512 0.39395805239723503 0 0.033420514628485373 0.38302977191180709 0 0.02735486101880703 0.39232044610694311 0 0.032859848824407727 0.38560668074253002 0 0.033420514628485373 0.38302977191180709 0 0.02735486101880703 0.39232044610694311 0 0.032859848824407727 0.38560668074253002 0 0.032844630049655758 0.3911952656019041 0 0.033420514628485373 0.38302977191180709 0 0.040531910439000007 0.38820627445006711 0 0.055078026168592691 0.37372917012189599 0 0.033420514628485373 0.38302977191180709 0 0.055078026168592691 0.37372917012189599 0 0.032859848824407727 0.38560668074253002 0 0.033420514628485373 0.38302977191180709 0 0.032859848824407727 0.38560668074253002 0 0.040531910439000007 0.38820627445006711 0 0.032844630049655758 0.3911952656019041 0 0.032859848824407727 0.38560668074253002 0 0.033420514628485373 0.38302977191180709 0 0.040531910439000007 0.38820627445006711 0 0.031615607723292562 0.41237007764590089 0 0.03492587150599015 0.39714318271575322 0 0.042551786202842029 0.40583695196884878 0 0.040531910439000007 0.38820627445006711 0 0.03492587150599015 0.39714318271575322 0 0.032844630049655758 0.3911952656019041 0 0.02735486101880703 0.39232044610694311 0 0.03492587150599015 0.39714318271575322 0 0.032844630049655758 0.3911952656019041 0 0.040531910439000007 0.38820627445006711 0 0.03492587150599015 0.39714318271575322 0 0.044409534997012647 0.39663533348309749 0 0.040531910439000007 0.38820627445006711 0 0.044409534997012647 0.39663533348309749 0 0.05145831924276717 0.38983346997562462 0 0.044409534997012647 0.39663533348309749 0 0.042551786202842029 0.40583695196884878 0 0.052579787594463898 0.40215678830519391 0 0.03492587150599015 0.39714318271575322 0 0.044409534997012647 0.39663533348309749 0 0.042551786202842029 0.40583695196884878 0 0.052579787594463898 0.40215678830519391 0 0.065929237187869999 0.38841376689227869 0 0.065774511826563423 0.40583773171119408 0 0.044409534997012647 0.39663533348309749 0 0.052579787594463898 0.40215678830519391 0 0.05145831924276717 0.38983346997562462 0 0.052579787594463898 0.40215678830519391 0 0.05145831924276717 0.38983346997562462 0 0.065929237187869999 0.38841376689227869 0 0.05145831924276717 0.38983346997562462 0 0.065929237187869999 0.38841376689227869 0 0.055078026168592691 0.37372917012189599 0 0.040531910439000007 0.38820627445006711 0 0.05145831924276717 0.38983346997562462 0 0.055078026168592691 0.37372917012189599 0 0.065929237187869999 0.38841376689227869 0 0.07065435961583541 0.37741521318853999 0 0.055078026168592691 0.37372917012189599 0 0.065929237187869999 0.38841376689227869 0 0.07065435961583541 0.37741521318853999 0 0.084874637398179506 0.3830893474080016 0 0.065929237187869999 0.38841376689227869 0 0.084874637398179506 0.3830893474080016 0 0.078183007061163587 0.39730645121706609 0 0.084874637398179506 0.3830893474080016 0 0.09301373708766289 0.40175012648401748 0 0.1017514530376761 0.37456476915266362 0 0.084874637398179506 0.3830893474080016 0 0.1017514530376761 0.37456476915266362 0 0.089894590955766338 0.37016501712229671 0 0.084874637398179506 0.3830893474080016 0 0.09301373708766289 0.40175012648401748 0 0.084874637398179506 0.3830893474080016 0 0.09301373708766289 0.40175012648401748 0 0.078183007061163587 0.39730645121706609 0 0.09301373708766289 0.40175012648401748 0 0.078183007061163587 0.39730645121706609 0 0.0779125114683729 0.4107996813321716 0 0.065929237187869999 0.38841376689227869 0 0.078183007061163587 0.39730645121706609 0 0.065774511826563423 0.40583773171119408 0 0.078183007061163587 0.39730645121706609 0 0.065774511826563423 0.40583773171119408 0 0.0779125114683729 0.4107996813321716 0 0.065774511826563423 0.40583773171119408 0 0.0779125114683729 0.4107996813321716 0 0.065639666334966471 0.42409002317344818 0 0.0779125114683729 0.4107996813321716 0 0.065639666334966471 0.42409002317344818 0 0.085233479690329184 0.42595657570789891 0 0.077453222292990773 0.45016302493177879 0 0.065639666334966471 0.42409002317344818 0 0.085233479690329184 0.42595657570789891 0 0.09301373708766289 0.40175012648401748 0 0.085233479690329184 0.42595657570789891 0 0.09301373708766289 0.40175012648401748 0 0.0779125114683729 0.4107996813321716 0 0.085233479690329184 0.42595657570789891 0 0.09301373708766289 0.40175012648401748 0 0.085233479690329184 0.42595657570789891 0 0.096641093798834857 0.4103746730739769 0 0.096641093798834857 0.4103746730739769 0 0.106123573628292 0.43180747591342172 0 0.096641093798834857 0.4103746730739769 0 0.1162621503634904 0.41872732341568758 0 0.11303311796937431 0.39768424579749467 0 0.096641093798834857 0.4103746730739769 0 0.106123573628292 0.43180747591342172 0 0.1162621503634904 0.41872732341568758 0 0.096641093798834857 0.4103746730739769 0 0.1162621503634904 0.41872732341568758 0 0.085233479690329184 0.42595657570789891 0 0.096641093798834857 0.4103746730739769 0 0.106123573628292 0.43180747591342172 0 0.096722182691352548 0.44869154901932268 0 0.085233479690329184 0.42595657570789891 0 0.106123573628292 0.43180747591342172 0 0.1205619018159948 0.44674810255646558 0 0.1162621503634904 0.41872732341568758 0 0.1205619018159948 0.44674810255646558 0 0.106123573628292 0.43180747591342172 0 0.1162621503634904 0.41872732341568758 0 0.1162621503634904 0.41872732341568758 0 0.11303311796937431 0.39768424579749467 0 0.11303311796937431 0.39768424579749467 0 0.1231373165426977 0.3806134049577457 0 0.1271742827044339 0.39597619803598749 0 0.1162621503634904 0.41872732341568758 0 0.11303311796937431 0.39768424579749467 0 0.1271742827044339 0.39597619803598749 0 0.11303311796937431 0.39768424579749467 0 0.1098040855752573 0.37664116817930182 0 0.11303311796937431 0.39768424579749467 0 0.1098040855752573 0.37664116817930182 0 0.1231373165426977 0.3806134049577457 0 0.09301373708766289 0.40175012648401748 0 0.10162794664532369 0.38287681265592 0 0.1017514530376761 0.37456476915266362 0 0.11303311796937431 0.39768424579749467 0 0.1098040855752573 0.37664116817930182 0 0.10162794664532369 0.38287681265592 0 0.09301373708766289 0.40175012648401748 0 0.1017514530376761 0.37456476915266362 0 0.09301373708766289 0.40175012648401748 0 0.096641093798834857 0.4103746730739769 0 0.10162794664532369 0.38287681265592 0 0.096641093798834857 0.4103746730739769 0 0.10162794664532369 0.38287681265592 0 0.096641093798834857 0.4103746730739769 0 0.11303311796937431 0.39768424579749467 0 0.10162794664532369 0.38287681265592 0 0.09301373708766289 0.40175012648401748 0 0.096641093798834857 0.4103746730739769 0 0.10657505318114149 0.3555980905611088 0 0.1040837309638282 0.33936254988137232 0 0.10657505318114149 0.3555980905611088 0 0.096269577202366938 0.34885221845001108 0 0.090674694454237537 0.35844253683721511 0 0.10657505318114149 0.3555980905611088 0 0.1081370103155585 0.34698533999968961 0 0.1040837309638282 0.33936254988137232 0 0.10657505318114149 0.3555980905611088 0 0.096269577202366938 0.34885221845001108 0 0.1040837309638282 0.33936254988137232 0 0.10657505318114149 0.3555980905611088 0 0.1081370103155585 0.34698533999968961 0 0.1081370103155585 0.34698533999968961 0 0.1105857944332822 0.35159063999376577 0 0.10657505318114149 0.3555980905611088 0 0.1081370103155585 0.34698533999968961 0 0.1105857944332822 0.35159063999376577 0 0.10657505318114149 0.3555980905611088 0 0.097223947907205094 0.36469260341832099 0 0.090674694454237537 0.35844253683721511 0 0.1098040855752573 0.37664116817930182 0 0.10657505318114149 0.3555980905611088 0 0.1098040855752573 0.37664116817930182 0 0.10162794664532369 0.38287681265592 0 0.10657505318114149 0.3555980905611088 0 0.10657505318114149 0.3555980905611088 0 0.097223947907205094 0.36469260341832099 0 0.1017514530376761 0.37456476915266362 0 0.10162794664532369 0.38287681265592 0 0.10657505318114149 0.3555980905611088 0 0.10162794664532369 0.38287681265592 0 0.10657505318114149 0.3555980905611088 0 0.1017514530376761 0.37456476915266362 0 0.097223947907205094 0.36469260341832099 0 0.1017514530376761 0.37456476915266362 0 0.089894590955766338 0.37016501712229671 0 0.1231373165426977 0.3806134049577457 0 0.1176766025370503 0.36283148293627721 0 0.13271547193899449 0.36524458735671972 0 0.1098040855752573 0.37664116817930182 0 0.10657505318114149 0.3555980905611088 0 0.1176766025370503 0.36283148293627721 0 0.1098040855752573 0.37664116817930182 0 0.1231373165426977 0.3806134049577457 0 0.1176766025370503 0.36283148293627721 0 0.1176766025370503 0.36283148293627721 0 0.1232256624926347 0.35239419723674059 0 0.13271547193899449 0.36524458735671972 0 0.10657505318114149 0.3555980905611088 0 0.1176766025370503 0.36283148293627721 0 0.1105857944332822 0.35159063999376577 0 0.1176766025370503 0.36283148293627721 0 0.1232256624926347 0.35239419723674059 0 0.1105857944332822 0.35159063999376577 0 0.1081370103155585 0.34698533999968961 0 0.1105857944332822 0.35159063999376577 0 0.1168368962248217 0.34531303274388031 0 0.1232256624926347 0.35239419723674059 0 0.1105857944332822 0.35159063999376577 0 0.1168368962248217 0.34531303274388031 0 0.1232256624926347 0.35239419723674059 0 0.1168368962248217 0.34531303274388031 0 0.1260676383484185 0.3399282146226113 0 0.1081370103155585 0.34698533999968961 0 0.1173014636805894 0.33730338313169689 0 0.1117137236550247 0.32726307032677399 0 0.1081370103155585 0.34698533999968961 0 0.1117137236550247 0.32726307032677399 0 0.1168368962248217 0.34531303274388031 0 0.1173014636805894 0.33730338313169689 0 0.1260676383484185 0.3399282146226113 0 0.1173014636805894 0.33730338313169689 0 0.12375204985912221 0.32702725796552912 0 0.1260676383484185 0.3399282146226113 0 0.1173014636805894 0.33730338313169689 0 0.12375204985912221 0.32702725796552912 0 0.1117137236550247 0.32726307032677399 0 0.1081370103155585 0.34698533999968961 0 0.1168368962248217 0.34531303274388031 0 0.1173014636805894 0.33730338313169689 0 0.1117137236550247 0.32726307032677399 0 0.11529043699448981 0.30754080065385803 0 0.1117137236550247 0.32726307032677399 0 0.1095765413243488 0.31862098055757049 0 0.11529043699448981 0.30754080065385803 0 0.1214195525311879 0.31440901896845502 0 0.1117137236550247 0.32726307032677399 0 0.11529043699448981 0.30754080065385803 0 0.1214195525311879 0.31440901896845502 0 0.12375204985912221 0.32702725796552912 0 0.12817088130983889 0.317450689473041 0 0.1214195525311879 0.31440901896845502 0 0.12375204985912221 0.32702725796552912 0 0.1117137236550247 0.32726307032677399 0 0.1040837309638282 0.33936254988137232 0 0.090103400857782137 0.31307047550514489 0 0.1040837309638282 0.33936254988137232 0 0.1025673515982234 0.32948055280164651 0 0.090103400857782137 0.31307047550514489 0 0.10278173829001019 0.3206216626476312 0 0.1025673515982234 0.32948055280164651 0 0.090103400857782137 0.31307047550514489 0 0.1095765413243488 0.31862098055757049 0 0.10278173829001019 0.3206216626476312 0 0.099947674014671917 0.31467323404701991 0 0.1095765413243488 0.31862098055757049 0 0.099947674014671917 0.31467323404701991 0 0.09732687347400408 0.30507295899279041 0 0.1117137236550247 0.32726307032677399 0 0.1095765413243488 0.31862098055757049 0 0.10278173829001019 0.3206216626476312 0 0.1117137236550247 0.32726307032677399 0 0.10278173829001019 0.3206216626476312 0 0.1025673515982234 0.32948055280164651 0 0.10278173829001019 0.3206216626476312 0 0.099947674014671917 0.31467323404701991 0 0.090103400857782137 0.31307047550514489 0 0.096269577202366938 0.34885221845001108 0 0.1040837309638282 0.33936254988137232 0 0.085896102217652828 0.34083244099607402 0 0.1081370103155585 0.34698533999968961 0 0.1117137236550247 0.32726307032677399 0 0.1040837309638282 0.33936254988137232 0 0.1081370103155585 0.34698533999968961 0 0.1040837309638282 0.33936254988137232 0 0.1117137236550247 0.32726307032677399 0 0.1040837309638282 0.33936254988137232 0 0.1025673515982234 0.32948055280164651 0 0.1040837309638282 0.33936254988137232 0 0.1025673515982234 0.32948055280164651 0 0.1040837309638282 0.33936254988137232 0 0.085896102217652828 0.34083244099607402 0 0.090103400857782137 0.31307047550514489 0 0.085896102217652828 0.34083244099607402 0 0.090103400857782137 0.31307047550514489 0 0.073944851781294785 0.32640562720437011 0 0.073944851781294785 0.32640562720437011 0 0.05926959110604698 0.32438382341666039 0 0.066452600317618793 0.30933520022964911 0 0.090103400857782137 0.31307047550514489 0 0.073944851781294785 0.32640562720437011 0 0.066452600317618793 0.30933520022964911 0 0.068002564407373206 0.3444061958743222 0 0.05926959110604698 0.32438382341666039 0 0.085896102217652828 0.34083244099607402 0 0.073944851781294785 0.32640562720437011 0 0.068002564407373206 0.3444061958743222 0 0.073944851781294785 0.32640562720437011 0 0.068002564407373206 0.3444061958743222 0 0.05926959110604698 0.32438382341666039 0 0.068002564407373206 0.3444061958743222 0 0.081709153938225559 0.35166937446406898 0 0.076735537708699481 0.364428568331984 0 0.068002564407373206 0.3444061958743222 0 0.076735537708699481 0.364428568331984 0 0.068002564407373206 0.3444061958743222 0 0.076735537708699481 0.364428568331984 0 0.058880509289504487 0.35752542115937253 0 0.085896102217652828 0.34083244099607402 0 0.068002564407373206 0.3444061958743222 0 0.081709153938225559 0.35166937446406898 0 0.081709153938225559 0.35166937446406898 0 0.090674694454237537 0.35844253683721511 0 0.076735537708699481 0.364428568331984 0 0.096269577202366938 0.34885221845001108 0 0.081709153938225559 0.35166937446406898 0 0.090674694454237537 0.35844253683721511 0 0.096269577202366938 0.34885221845001108 0 0.085896102217652828 0.34083244099607402 0 0.081709153938225559 0.35166937446406898 0 0.084874637398179506 0.3830893474080016 0 0.089894590955766338 0.37016501712229671 0 0.076735537708699481 0.364428568331984 0 0.084874637398179506 0.3830893474080016 0 0.076735537708699481 0.364428568331984 0 0.097223947907205094 0.36469260341832099 0 0.090674694454237537 0.35844253683721511 0 0.089894590955766338 0.37016501712229671 0 0.090674694454237537 0.35844253683721511 0 0.089894590955766338 0.37016501712229671 0 0.076735537708699481 0.364428568331984 0 0.090674694454237537 0.35844253683721511 0 0.076735537708699481 0.364428568331984 0 0.076735537708699481 0.364428568331984 0 0.055078026168592691 0.37372917012189599 0 0.058880509289504487 0.35752542115937253 0 0.07065435961583541 0.37741521318853999 0 0.084874637398179506 0.3830893474080016 0 0.076735537708699481 0.364428568331984 0 0.07065435961583541 0.37741521318853999 0 0.076735537708699481 0.364428568331984 0 0.055078026168592691 0.37372917012189599 0 0.076735537708699481 0.364428568331984 0 0.055078026168592691 0.37372917012189599 0 0.055078026168592691 0.37372917012189599 0 0.058880509289504487 0.35752542115937253 0 0.039125882353897343 0.35680699826087081 0 0.068002564407373206 0.3444061958743222 0 0.058880509289504487 0.35752542115937253 0 0.05148455776782021 0.34576385860545072 0 0.058880509289504487 0.35752542115937253 0 0.05148455776782021 0.34576385860545072 0 0.039125882353897343 0.35680699826087081 0 0.039125882353897343 0.35680699826087081 0 0.031548662582759998 0.36398682567210089 0 0.025752053585936779 0.33511492304397028 0 0.05148455776782021 0.34576385860545072 0 0.039125882353897343 0.35680699826087081 0 0.044831250079309708 0.3305842246099347 0 0.033420514628485373 0.38302977191180709 0 0.039125882353897343 0.35680699826087081 0 0.031548662582759998 0.36398682567210089 0 0.033420514628485373 0.38302977191180709 0 0.055078026168592691 0.37372917012189599 0 0.039125882353897343 0.35680699826087081 0 0.033420514628485373 0.38302977191180709 0 0.039125882353897343 0.35680699826087081 0 0.033420514628485373 0.38302977191180709 0 0.031548662582759998 0.36398682567210089 0 0.023779055828078009 0.37097747554075361 0 0.017055050774382831 0.3783760363496293 0 0.023779055828078009 0.37097747554075361 0 0.014905446519761849 0.37011919055753012 0 0.023779055828078009 0.37097747554075361 0 0.019349684376360511 0.36318206543595072 0 0.014905446519761849 0.37011919055753012 0 0.031548662582759998 0.36398682567210089 0 0.019349684376360511 0.36318206543595072 0 0.019690074755218789 0.35178644121934483 0 0.031548662582759998 0.36398682567210089 0 0.023779055828078009 0.37097747554075361 0 0.019349684376360511 0.36318206543595072 0 0.031548662582759998 0.36398682567210089 0 0.025752053585936779 0.33511492304397028 0 0.031548662582759998 0.36398682567210089 0 0.019690074755218789 0.35178644121934483 0 0.025752053585936779 0.33511492304397028 0 0.019349684376360511 0.36318206543595072 0 0.019690074755218789 0.35178644121934483 0 0.0119730942360182 0.35563939605115702 0 0.0119730942360182 0.35563939605115702 0 0.0038095970876644218 0.35606187191015221 0 0.0077169544749549623 0.36306791211952738 0 -0.0077202170519437719 0.34710906184019069 0 0.0082446038140756572 0.34376242611402219 0 0.0038095970876644218 0.35606187191015221 0 0.0119730942360182 0.35563939605115702 0 0.0082446038140756572 0.34376242611402219 0 0.0038095970876644218 0.35606187191015221 0 0.019690074755218789 0.35178644121934483 0 0.0119730942360182 0.35563939605115702 0 0.0082446038140756572 0.34376242611402219 0 -0.0045677851665312944 0.36532665559408428 0 0.0038095970876644218 0.35606187191015221 0 0.0077169544749549623 0.36306791211952738 0 -0.0087141207398781558 0.37710904293520409 0 0.0053185270157129726 0.37689571945341471 0 0.0077169544749549623 0.36306791211952738 0 0.0053185270157129726 0.37689571945341471 0 0.0077169544749549623 0.36306791211952738 0 0.014905446519761849 0.37011919055753012 0 0.019349684376360511 0.36318206543595072 0 0.0077169544749549623 0.36306791211952738 0 0.014905446519761849 0.37011919055753012 0 0.019349684376360511 0.36318206543595072 0 0.0119730942360182 0.35563939605115702 0 0.0077169544749549623 0.36306791211952738 0 -0.009249588209606344 0.30814111102660002 0 0.0094307060340404689 0.32376070079746733 0 0.01995544458911469 0.30624302041583928 0 -0.005758602284471958 0.33512988219008361 0 0.0082446038140756572 0.34376242611402219 0 0.0094307060340404689 0.32376070079746733 0 0.0082446038140756572 0.34376242611402219 0 0.0094307060340404689 0.32376070079746733 0 0.025752053585936779 0.33511492304397028 0 0.019690074755218789 0.35178644121934483 0 0.0082446038140756572 0.34376242611402219 0 0.025752053585936779 0.33511492304397028 0 0.025752053585936779 0.33511492304397028 0 0.01995544458911469 0.30624302041583928 0 0.025752053585936779 0.33511492304397028 0 0.034898059553693392 0.31581284699138767 0 0.01995544458911469 0.30624302041583928 0 0.0094307060340404689 0.32376070079746733 0 0.025752053585936779 0.33511492304397028 0 0.01995544458911469 0.30624302041583928 0 0.034898059553693392 0.31581284699138767 0 0.044831250079309708 0.3305842246099347 0 0.05053661780472133 0.30436145095899841 0 0.025752053585936779 0.33511492304397028 0 0.034898059553693392 0.31581284699138767 0 0.044831250079309708 0.3305842246099347 0 0.039125882353897343 0.35680699826087081 0 0.025752053585936779 0.33511492304397028 0 0.044831250079309708 0.3305842246099347 0 0.039125882353897343 0.35680699826087081 0 0.044831250079309708 0.3305842246099347 0 0.068002564407373206 0.3444061958743222 0 0.05148455776782021 0.34576385860545072 0 0.05926959110604698 0.32438382341666039 0 0.05148455776782021 0.34576385860545072 0 0.044831250079309708 0.3305842246099347 0 0.05926959110604698 0.32438382341666039 0 0.044831250079309708 0.3305842246099347 0 0.05053661780472133 0.30436145095899841 0 0.044831250079309708 0.3305842246099347 0 0.05926959110604698 0.32438382341666039 0 0.05053661780472133 0.30436145095899841 0 0.05926959110604698 0.32438382341666039 0 0.05053661780472133 0.30436145095899841 0 0.05926959110604698 0.32438382341666039 0 0.05053661780472133 0.30436145095899841 0 0.066452600317618793 0.30933520022964911 0 0.059204269303370749 0.30137448027593422 0 0.05053661780472133 0.30436145095899841 0 0.066452600317618793 0.30933520022964911 0 0.04765756321016474 0.29776054867416191 0 0.05053661780472133 0.30436145095899841 0 0.052561166870736087 0.29505630281458828 0 0.059204269303370749 0.30137448027593422 0 0.05053661780472133 0.30436145095899841 0 0.052561166870736087 0.29505630281458828 0 0.05053661780472133 0.30436145095899841 0 0.052561166870736087 0.29505630281458828 0 0.04765756321016474 0.29776054867416191 0 0.05053661780472133 0.30436145095899841 0 0.052561166870736087 0.29505630281458828 0 0.036977033779240318 0.28312664447104818 0 0.062988366650143207 0.29302398426469728 0 0.036977033779240318 0.28312664447104818 0 0.048149862160842181 0.27985089866820428 0 0.062988366650143207 0.29302398426469728 0 0.036977033779240318 0.28312664447104818 0 0.062988366650143207 0.29302398426469728 0 0.048149862160842181 0.27985089866820428 0 0.054778979573680928 0.27715841955607551 0 0.062988366650143207 0.29302398426469728 0 0.059204269303370749 0.30137448027593422 0 0.052561166870736087 0.29505630281458828 0 0.062988366650143207 0.29302398426469728 0 0.04765756321016474 0.29776054867416191 0 0.036186098738389023 0.29603891009636157 0 0.036977033779240318 0.28312664447104818 0 0.04765756321016474 0.29776054867416191 0 0.052561166870736087 0.29505630281458828 0 0.036977033779240318 0.28312664447104818 0 0.036186098738389023 0.29603891009636157 0 0.036977033779240318 0.28312664447104818 0 0.027757552790527541 0.29644954410470781 0 0.034898059553693392 0.31581284699138767 0 0.05053661780472133 0.30436145095899841 0 0.039754971674175903 0.30430037111620312 0 0.04765756321016474 0.29776054867416191 0 0.05053661780472133 0.30436145095899841 0 0.039754971674175903 0.30430037111620312 0 0.04765756321016474 0.29776054867416191 0 0.036186098738389023 0.29603891009636157 0 0.039754971674175903 0.30430037111620312 0 0.036186098738389023 0.29603891009636157 0 0.039754971674175903 0.30430037111620312 0 0.028740536311392211 0.30567206060121932 0 0.034898059553693392 0.31581284699138767 0 0.039754971674175903 0.30430037111620312 0 0.028740536311392211 0.30567206060121932 0 0.034898059553693392 0.31581284699138767 0 0.028740536311392211 0.30567206060121932 0 0.01995544458911469 0.30624302041583928 0 0.028740536311392211 0.30567206060121932 0 0.01995544458911469 0.30624302041583928 0 0.01995544458911469 0.30624302041583928 0 0.027757552790527541 0.29644954410470781 0 0.016928650534501429 0.29116708493907051 0 0.01995544458911469 0.30624302041583928 0 0.016928650534501429 0.29116708493907051 0 0.036186098738389023 0.29603891009636157 0 0.028740536311392211 0.30567206060121932 0 0.027757552790527541 0.29644954410470781 0 0.028740536311392211 0.30567206060121932 0 0.01995544458911469 0.30624302041583928 0 0.027757552790527541 0.29644954410470781 0 0.036977033779240318 0.28312664447104818 0 0.016928650534501429 0.29116708493907051 0 0.013901856479889301 0.2760911494623014 0 0.036977033779240318 0.28312664447104818 0 0.027757552790527541 0.29644954410470781 0 0.016928650534501429 0.29116708493907051 0 0.016928650534501429 0.29116708493907051 0 0.0075090435902615098 0.27971283806045072 0 0.013901856479889301 0.2760911494623014 0 0.016928650534501429 0.29116708493907051 0 0.013901856479889301 0.2760911494623014 0 0.016928650534501429 0.29116708493907051 0 0.002380999114604244 0.28599596302517022 0 0.0075090435902615098 0.27971283806045072 0 0.016928650534501429 0.29116708493907051 0 0.002380999114604244 0.28599596302517022 0 0.0038021096493471361 0.29689124930627131 0 0.01995544458911469 0.30624302041583928 0 0.016928650534501429 0.29116708493907051 0 0.0038021096493471361 0.29689124930627131 0 -0.009249588209606344 0.30814111102660002 0 0.01995544458911469 0.30624302041583928 0 -0.009249588209606344 0.30814111102660002 0 0.01995544458911469 0.30624302041583928 0 0.0038021096493471361 0.29689124930627131 0 0.012944211518790589 0.24639919126045251 0 0.001894876929373096 0.24743045501984201 0 0.027350481215018482 0.26092432701142793 0 0.001894876929373096 0.24743045501984201 0 0.01235577794179212 0.26160751525750708 0 0.027350481215018482 0.26092432701142793 0 0.001894876929373096 0.24743045501984201 0 0.027350481215018482 0.26092432701142793 0 0.01235577794179212 0.26160751525750708 0 0.0066431973405819862 0.26423936680728111 0 0.01332705073189009 0.26743114199411 0 0.001894876929373096 0.24743045501984201 0 0.01235577794179212 0.26160751525750708 0 0.0027594708259384838 0.25829047161104352 0 0.01235577794179212 0.26160751525750708 0 0.0027594708259384838 0.25829047161104352 0 0.0066431973405819862 0.26423936680728111 0 -0.00067809962666212902 0.26216505597133072 0 0.0027594708259384838 0.25829047161104352 0 0.0066431973405819862 0.26423936680728111 0 -0.00067809962666212902 0.26216505597133072 0 0.0066431973405819862 0.26423936680728111 0 0.010965700908337589 0.27322930467739909 0 -0.001267499687089951 0.2776013217203892 0 0.0075090435902615098 0.27971283806045072 0 0.010965700908337589 0.27322930467739909 0 -0.001267499687089951 0.2776013217203892 0 0.002380999114604244 0.28599596302517022 0 0.0075090435902615098 0.27971283806045072 0 0.0075090435902615098 0.27971283806045072 0 0.013901856479889301 0.2760911494623014 0 0.010965700908337589 0.27322930467739909 0 0.010965700908337589 0.27322930467739909 0 0.01332705073189009 0.26743114199411 0 0.022419763759722669 0.26962443384228668 0 0.0066431973405819862 0.26423936680728111 0 0.010965700908337589 0.27322930467739909 0 0.01332705073189009 0.26743114199411 0 0.036977033779240318 0.28312664447104818 0 0.010965700908337589 0.27322930467739909 0 0.022419763759722669 0.26962443384228668 0 0.01235577794179212 0.26160751525750708 0 0.01332705073189009 0.26743114199411 0 0.022419763759722669 0.26962443384228668 0 0.036977033779240318 0.28312664447104818 0 0.013901856479889301 0.2760911494623014 0 0.010965700908337589 0.27322930467739909 0 0.036977033779240318 0.28312664447104818 0 0.010965700908337589 0.27322930467739909 0 0.036977033779240318 0.28312664447104818 0 0.022419763759722669 0.26962443384228668 0 0.032397819765571212 0.27218151163944088 0 0.022419763759722669 0.26962443384228668 0 0.027350481215018482 0.26092432701142793 0 0.032397819765571212 0.27218151163944088 0 0.018629400856135309 0.24429501886194191 0 0.012944211518790589 0.24639919126045251 0 0.027350481215018482 0.26092432701142793 0 0.018629400856135309 0.24429501886194191 0 0.027350481215018482 0.26092432701142793 0 0.02692674034290404 0.25134916217479408 0 0.01235577794179212 0.26160751525750708 0 0.022419763759722669 0.26962443384228668 0 0.027350481215018482 0.26092432701142793 0 0.027350481215018482 0.26092432701142793 0 0.02692674034290404 0.25134916217479408 0 0.036501911092354018 0.25177276941539839 0 0.027350481215018482 0.26092432701142793 0 0.036501911092354018 0.25177276941539839 0 0.052806085500663583 0.27441819900301412 0 0.036501911092354018 0.25177276941539839 0 0.052806085500663583 0.27441819900301412 0 0.027350481215018482 0.26092432701142793 0 0.039536256484267153 0.27410031615862712 0 0.052806085500663583 0.27441819900301412 0 0.027350481215018482 0.26092432701142793 0 0.052806085500663583 0.27441819900301412 0 0.036977033779240318 0.28312664447104818 0 0.032397819765571212 0.27218151163944088 0 0.039536256484267153 0.27410031615862712 0 0.027350481215018482 0.26092432701142793 0 0.032397819765571212 0.27218151163944088 0 0.039536256484267153 0.27410031615862712 0 0.039536256484267153 0.27410031615862712 0 0.048149862160842181 0.27985089866820428 0 0.052806085500663583 0.27441819900301412 0 0.036977033779240318 0.28312664447104818 0 0.039536256484267153 0.27410031615862712 0 0.048149862160842181 0.27985089866820428 0 0.052806085500663583 0.27441819900301412 0 0.051790667069154861 0.2547103276228454 0 0.069466372585565969 0.27425949764399721 0 0.052806085500663583 0.27441819900301412 0 0.054778979573680928 0.27715841955607551 0 0.076123070751733898 0.28677840112891878 0 0.048149862160842181 0.27985089866820428 0 0.052806085500663583 0.27441819900301412 0 0.054778979573680928 0.27715841955607551 0 0.052806085500663583 0.27441819900301412 0 0.054778979573680928 0.27715841955607551 0 0.051790667069154861 0.2547103276228454 0 0.069466372585565969 0.27425949764399721 0 0.036501911092354018 0.25177276941539839 0 0.052806085500663583 0.27441819900301412 0 0.051790667069154861 0.2547103276228454 0 0.051790667069154861 0.2547103276228454 0 0.062472563593505302 0.26110660749064829 0 0.069466372585565969 0.27425949764399721 0 0.051790667069154861 0.2547103276228454 0 0.062472563593505302 0.26110660749064829 0 0.063392491700480919 0.2510828642249095 0 0.07090317009537217 0.25886987532900169 0 0.089645379702363526 0.25980927980688501 0 0.066829182329119829 0.26693814307945207 0 0.063392491700480919 0.2510828642249095 0 0.07090317009537217 0.25886987532900169 0 0.074261774750864804 0.25289133929391111 0 0.062472563593505302 0.26110660749064829 0 0.063392491700480919 0.2510828642249095 0 0.07090317009537217 0.25886987532900169 0 0.062472563593505302 0.26110660749064829 0 0.07090317009537217 0.25886987532900169 0 0.066829182329119829 0.26693814307945207 0 0.07090317009537217 0.25886987532900169 0 0.074261774750864804 0.25289133929391111 0 0.089645379702363526 0.25980927980688501 0 0.072073934872957782 0.23900016577853919 0 0.074261774750864804 0.25289133929391111 0 0.089645379702363526 0.25980927980688501 0 0.089645379702363526 0.25980927980688501 0 0.066829182329119829 0.26693814307945207 0 0.089645379702363526 0.25980927980688501 0 0.084738505220855201 0.27427167124983992 0 0.066829182329119829 0.26693814307945207 0 0.084738505220855201 0.27427167124983992 0 0.069466372585565969 0.27425949764399721 0 0.085077205623658711 0.29152493742801078 0 0.084738505220855201 0.27427167124983992 0 0.095910340366493346 0.28464594086445177 0 0.099818528257267281 0.27185690653089678 0 0.089645379702363526 0.25980927980688501 0 0.084738505220855201 0.27427167124983992 0 0.099818528257267281 0.27185690653089678 0 0.084738505220855201 0.27427167124983992 0 0.066829182329119829 0.26693814307945207 0 0.069466372585565969 0.27425949764399721 0 0.052806085500663583 0.27441819900301412 0 0.069466372585565969 0.27425949764399721 0 0.076123070751733898 0.28677840112891878 0 0.052806085500663583 0.27441819900301412 0 0.076123070751733898 0.28677840112891878 0 0.069466372585565969 0.27425949764399721 0 0.076123070751733898 0.28677840112891878 0 0.062472563593505302 0.26110660749064829 0 0.069466372585565969 0.27425949764399721 0 0.062472563593505302 0.26110660749064829 0 0.066829182329119829 0.26693814307945207 0 0.069466372585565969 0.27425949764399721 0 0.069466372585565969 0.27425949764399721 0 0.085077205623658711 0.29152493742801078 0 0.069466372585565969 0.27425949764399721 0 0.076123070751733898 0.28677840112891878 0 0.085077205623658711 0.29152493742801078 0 0.062988366650143207 0.29302398426469728 0 0.076123070751733898 0.28677840112891878 0 0.066452600317618793 0.30933520022964911 0 0.054778979573680928 0.27715841955607551 0 0.062988366650143207 0.29302398426469728 0 0.076123070751733898 0.28677840112891878 0 0.090103400857782137 0.31307047550514489 0 0.076123070751733898 0.28677840112891878 0 0.066452600317618793 0.30933520022964911 0 0.059204269303370749 0.30137448027593422 0 0.062988366650143207 0.29302398426469728 0 0.066452600317618793 0.30933520022964911 0 0.090103400857782137 0.31307047550514489 0 0.076123070751733898 0.28677840112891878 0 0.085077205623658711 0.29152493742801078 0 0.090103400857782137 0.31307047550514489 0 0.076123070751733898 0.28677840112891878 0 0.090103400857782137 0.31307047550514489 0 0.085077205623658711 0.29152493742801078 0 0.09732687347400408 0.30507295899279041 0 0.085077205623658711 0.29152493742801078 0 0.09732687347400408 0.30507295899279041 0 0.084738505220855201 0.27427167124983992 0 0.085077205623658711 0.29152493742801078 0 0.095910340366493346 0.28464594086445177 0 0.076123070751733898 0.28677840112891878 0 0.085077205623658711 0.29152493742801078 0 0.085077205623658711 0.29152493742801078 0 0.095910340366493346 0.28464594086445177 0 0.10018382130907411 0.29953286904093468 0 0.085077205623658711 0.29152493742801078 0 0.10018382130907411 0.29953286904093468 0 0.095910340366493346 0.28464594086445177 0 0.10809736708577181 0.28553666446189058 0 0.10018382130907411 0.29953286904093468 0 0.10809736708577181 0.28553666446189058 0 0.10018382130907411 0.29953286904093468 0 0.10959494141679089 0.29761357018739809 0 0.099947674014671917 0.31467323404701991 0 0.090103400857782137 0.31307047550514489 0 0.09732687347400408 0.30507295899279041 0 0.085077205623658711 0.29152493742801078 0 0.09732687347400408 0.30507295899279041 0 0.10018382130907411 0.29953286904093468 0 0.09732687347400408 0.30507295899279041 0 0.10018382130907411 0.29953286904093468 0 0.1055944182754792 0.3076919023112884 0 0.10018382130907411 0.29953286904093468 0 0.11529043699448981 0.30754080065385803 0 0.10959494141679089 0.29761357018739809 0 0.10018382130907411 0.29953286904093468 0 0.11529043699448981 0.30754080065385803 0 0.1095765413243488 0.31862098055757049 0 0.09732687347400408 0.30507295899279041 0 0.1055944182754792 0.3076919023112884 0 0.10018382130907411 0.29953286904093468 0 0.1055944182754792 0.3076919023112884 0 0.11529043699448981 0.30754080065385803 0 0.1095765413243488 0.31862098055757049 0 0.09732687347400408 0.30507295899279041 0 0.1095765413243488 0.31862098055757049 0 0.1055944182754792 0.3076919023112884 0 0.11529043699448981 0.30754080065385803 0 0.11529043699448981 0.30754080065385803 0 0.11637637905870279 0.30155283343175482 0 0.11810871752106521 0.30621928700195911 0 0.11529043699448981 0.30754080065385803 0 0.10959494141679089 0.29761357018739809 0 0.11637637905870279 0.30155283343175482 0 0.10959494141679089 0.29761357018739809 0 0.11637637905870279 0.30155283343175482 0 0.1164892219926046 0.29243334627748818 0 0.11529043699448981 0.30754080065385803 0 0.11637637905870279 0.30155283343175482 0 0.11637637905870279 0.30155283343175482 0 0.1222906650571363 0.2985709440566281 0 0.1164892219926046 0.29243334627748818 0 0.1222906650571363 0.2985709440566281 0 0.1206025954822835 0.30378795350269022 0 0.1243783730770044 0.30485679470236721 0 0.11637637905870279 0.30155283343175482 0 0.1222906650571363 0.2985709440566281 0 0.1206025954822835 0.30378795350269022 0 0.11637637905870279 0.30155283343175482 0 0.1206025954822835 0.30378795350269022 0 0.11810871752106521 0.30621928700195911 0 0.1206025954822835 0.30378795350269022 0 0.11810871752106521 0.30621928700195911 0 0.1213521300308707 0.30775440284793348 0 0.11529043699448981 0.30754080065385803 0 0.11810871752106521 0.30621928700195911 0 0.11930841490252821 0.30912172642276631 0 0.11810871752106521 0.30621928700195911 0 0.1213521300308707 0.30775440284793348 0 0.11930841490252821 0.30912172642276631 0 0.1243783730770044 0.30485679470236721 0 0.1213521300308707 0.30775440284793348 0 0.1244342991148414 0.30898461385241399 0 0.1206025954822835 0.30378795350269022 0 0.1243783730770044 0.30485679470236721 0 0.1213521300308707 0.30775440284793348 0 0.1214195525311879 0.31440901896845502 0 0.1244342991148414 0.30898461385241399 0 0.12900107104525951 0.30968741412501871 0 0.1214195525311879 0.31440901896845502 0 0.1213521300308707 0.30775440284793348 0 0.1244342991148414 0.30898461385241399 0 0.1214195525311879 0.31440901896845502 0 0.11529043699448981 0.30754080065385803 0 0.11930841490252821 0.30912172642276631 0 0.1214195525311879 0.31440901896845502 0 0.1213521300308707 0.30775440284793348 0 0.11930841490252821 0.30912172642276631 0 0.10809736708577181 0.28553666446189058 0 0.1164892219926046 0.29243334627748818 0 0.1210835213650209 0.28058702695229848 0 0.10809736708577181 0.28553666446189058 0 0.10959494141679089 0.29761357018739809 0 0.1164892219926046 0.29243334627748818 0 0.1222906650571363 0.2985709440566281 0 0.1164892219926046 0.29243334627748818 0 0.12596292383497329 0.28976449579057961 0 0.1164892219926046 0.29243334627748818 0 0.1210835213650209 0.28058702695229848 0 0.12596292383497329 0.28976449579057961 0 0.10809736708577181 0.28553666446189058 0 0.1210835213650209 0.28058702695229848 0 0.1147979612748997 0.2707881575742877 0 0.1210835213650209 0.28058702695229848 0 0.1147979612748997 0.2707881575742877 0 0.12791172371537049 0.26609555254785411 0 0.1147979612748997 0.2707881575742877 0 0.116065923487036 0.25155424759680489 0 0.099818528257267281 0.27185690653089678 0 0.1147979612748997 0.2707881575742877 0 0.116065923487036 0.25155424759680489 0 0.12791172371537049 0.26609555254785411 0 0.089645379702363526 0.25980927980688501 0 0.116065923487036 0.25155424759680489 0 0.089645379702363526 0.25980927980688501 0 0.116065923487036 0.25155424759680489 0 0.099818528257267281 0.27185690653089678 0 0.089645379702363526 0.25980927980688501 0 0.099818528257267281 0.27185690653089678 0 0.095910340366493346 0.28464594086445177 0 0.10809736708577181 0.28553666446189058 0 0.099818528257267281 0.27185690653089678 0 0.10809736708577181 0.28553666446189058 0 0.1147979612748997 0.2707881575742877 0 0.099818528257267281 0.27185690653089678 0 0.14627836463393121 0.26809473379089088 0 0.14256315404166739 0.2804585798755338 0 0.1332419302865058 0.27890394506169119 0 0.14627836463393121 0.26809473379089088 0 0.14256315404166739 0.2804585798755338 0 0.15383705453569649 0.27951082009548711 0 0.14627836463393121 0.26809473379089088 0 0.15383705453569649 0.27951082009548711 0 0.1609818760820641 0.2708255403471686 0 0.14248646727170791 0.24329921538672239 0 0.14627836463393121 0.26809473379089088 0 0.1631161995596529 0.25657386530356069 0 0.14248646727170791 0.24329921538672239 0 0.116065923487036 0.25155424759680489 0 0.12791172371537049 0.26609555254785411 0 0.14248646727170791 0.24329921538672239 0 0.14627836463393121 0.26809473379089088 0 0.12791172371537049 0.26609555254785411 0 0.14627836463393121 0.26809473379089088 0 0.12791172371537049 0.26609555254785411 0 0.1332419302865058 0.27890394506169119 0 0.1210835213650209 0.28058702695229848 0 0.12791172371537049 0.26609555254785411 0 0.1332419302865058 0.27890394506169119 0 0.1332419302865058 0.27890394506169119 0 0.12596292383497329 0.28976449579057961 0 0.13463915166403909 0.29011289163129678 0 0.1210835213650209 0.28058702695229848 0 0.1332419302865058 0.27890394506169119 0 0.12596292383497329 0.28976449579057961 0 0.1222906650571363 0.2985709440566281 0 0.12596292383497329 0.28976449579057961 0 0.12923992476061211 0.29615108028493942 0 0.12596292383497329 0.28976449579057961 0 0.12923992476061211 0.29615108028493942 0 0.13463915166403909 0.29011289163129678 0 0.13463915166403909 0.29011289163129678 0 0.13544399911061031 0.29845687749894129 0 0.1416447250157222 0.29544082675589128 0 0.12923992476061211 0.29615108028493942 0 0.13463915166403909 0.29011289163129678 0 0.13544399911061031 0.29845687749894129 0 0.14256315404166739 0.2804585798755338 0 0.1332419302865058 0.27890394506169119 0 0.13463915166403909 0.29011289163129678 0 0.1243783730770044 0.30485679470236721 0 0.1244342991148414 0.30898461385241399 0 0.12900107104525951 0.30968741412501871 0 0.1243783730770044 0.30485679470236721 0 0.12900107104525951 0.30968741412501871 0 0.1290658347258283 0.30205966601357243 0 0.12900107104525951 0.30968741412501871 0 0.1290658347258283 0.30205966601357243 0 0.1340409753043473 0.30463488541353972 0 0.1222906650571363 0.2985709440566281 0 0.1243783730770044 0.30485679470236721 0 0.1290658347258283 0.30205966601357243 0 0.1222906650571363 0.2985709440566281 0 0.12923992476061211 0.29615108028493942 0 0.1290658347258283 0.30205966601357243 0 0.12923992476061211 0.29615108028493942 0 0.1290658347258283 0.30205966601357243 0 0.13544399911061031 0.29845687749894129 0 0.13544399911061031 0.29845687749894129 0 0.14170706289926879 0.30357921339911909 0 0.1416447250157222 0.29544082675589128 0 0.13544399911061031 0.29845687749894129 0 0.1340409753043473 0.30463488541353972 0 0.14170706289926879 0.30357921339911909 0 0.1290658347258283 0.30205966601357243 0 0.13544399911061031 0.29845687749894129 0 0.1340409753043473 0.30463488541353972 0 0.13598458437900529 0.30983158877234418 0 0.14130712994747449 0.31140798331507108 0 0.14170706289926879 0.30357921339911909 0 0.12900107104525951 0.30968741412501871 0 0.1340409753043473 0.30463488541353972 0 0.13598458437900529 0.30983158877234418 0 0.1340409753043473 0.30463488541353972 0 0.13598458437900529 0.30983158877234418 0 0.14170706289926879 0.30357921339911909 0 0.13598458437900529 0.30983158877234418 0 0.14130712994747449 0.31140798331507108 0 0.13528824775885559 0.3155805734405937 0 0.12900107104525951 0.30968741412501871 0 0.13598458437900529 0.30983158877234418 0 0.13528824775885559 0.3155805734405937 0 0.1483486037307668 0.31106151759990119 0 0.14130712994747449 0.31140798331507108 0 0.14170706289926879 0.30357921339911909 0 0.1483486037307668 0.31106151759990119 0 0.14170706289926879 0.30357921339911909 0 0.1513591925520972 0.30423422291399321 0 0.14170706289926879 0.30357921339911909 0 0.14924189349128261 0.29698436464102829 0 0.1513591925520972 0.30423422291399321 0 0.14170706289926879 0.30357921339911909 0 0.14924189349128261 0.29698436464102829 0 0.1416447250157222 0.29544082675589128 0 0.1513591925520972 0.30423422291399321 0 0.15847128754916129 0.30901971199088751 0 0.1567398971697517 0.30020769771567818 0 0.14924189349128261 0.29698436464102829 0 0.1513591925520972 0.30423422291399321 0 0.1567398971697517 0.30020769771567818 0 0.1483486037307668 0.31106151759990119 0 0.1513591925520972 0.30423422291399321 0 0.15847128754916129 0.30901971199088751 0 0.1483486037307668 0.31106151759990119 0 0.15847128754916129 0.30901971199088751 0 0.1531779528472626 0.31690967251270458 0 0.14256315404166739 0.2804585798755338 0 0.15383705453569649 0.27951082009548711 0 0.14728728951424691 0.28871625735014939 0 0.14256315404166739 0.2804585798755338 0 0.13463915166403909 0.29011289163129678 0 0.14728728951424691 0.28871625735014939 0 0.14924189349128261 0.29698436464102829 0 0.14728728951424691 0.28871625735014939 0 0.1416447250157222 0.29544082675589128 0 0.13463915166403909 0.29011289163129678 0 0.14728728951424691 0.28871625735014939 0 0.1416447250157222 0.29544082675589128 0 0.14924189349128261 0.29698436464102829 0 0.1576814993112734 0.29111844862325259 0 0.1567398971697517 0.30020769771567818 0 0.14924189349128261 0.29698436464102829 0 0.14728728951424691 0.28871625735014939 0 0.1576814993112734 0.29111844862325259 0 0.15383705453569649 0.27951082009548711 0 0.14728728951424691 0.28871625735014939 0 0.1576814993112734 0.29111844862325259 0 0.15383705453569649 0.27951082009548711 0 0.1576814993112734 0.29111844862325259 0 0.16532030222413041 0.28061774918364429 0 0.1576814993112734 0.29111844862325259 0 0.1689979645595176 0.28949488405725932 0 0.16532030222413041 0.28061774918364429 0 0.1576814993112734 0.29111844862325259 0 0.1689979645595176 0.28949488405725932 0 0.16694561294494401 0.29968174040922901 0 0.1689979645595176 0.28949488405725932 0 0.16694561294494401 0.29968174040922901 0 0.17866142019044989 0.29199773726540068 0 0.1689979645595176 0.28949488405725932 0 0.17498255083596301 0.28300150235233201 0 0.16532030222413041 0.28061774918364429 0 0.1576814993112734 0.29111844862325259 0 0.1567398971697517 0.30020769771567818 0 0.16694561294494401 0.29968174040922901 0 0.15847128754916129 0.30901971199088751 0 0.1567398971697517 0.30020769771567818 0 0.16694561294494401 0.29968174040922901 0 0.16694561294494401 0.29968174040922901 0 0.17666858027807311 0.3015349886251833 0 0.1707678241303611 0.31259989648156872 0 0.15847128754916129 0.30901971199088751 0 0.16694561294494401 0.29968174040922901 0 0.1707678241303611 0.31259989648156872 0 0.17666858027807311 0.3015349886251833 0 0.18371952992762389 0.30785332357736089 0 0.1707678241303611 0.31259989648156872 0 0.16694561294494401 0.29968174040922901 0 0.17666858027807311 0.3015349886251833 0 0.17866142019044989 0.29199773726540068 0 0.17666858027807311 0.3015349886251833 0 0.18371952992762389 0.30785332357736089 0 0.1898902111984884 0.29891268329407239 0 0.18371952992762389 0.30785332357736089 0 0.1898902111984884 0.29891268329407239 0 0.17666858027807311 0.3015349886251833 0 0.17866142019044989 0.29199773726540068 0 0.1898902111984884 0.29891268329407239 0 0.17498255083596301 0.28300150235233201 0 0.17866142019044989 0.29199773726540068 0 0.1849298445554361 0.28099903695767547 0 0.1689979645595176 0.28949488405725932 0 0.17498255083596301 0.28300150235233201 0 0.17866142019044989 0.29199773726540068 0 0.17866142019044989 0.29199773726540068 0 0.18677859260729601 0.28760164196875848 0 0.1898902111984884 0.29891268329407239 0 0.17866142019044989 0.29199773726540068 0 0.18677859260729601 0.28760164196875848 0 0.1849298445554361 0.28099903695767547 0 0.1849298445554361 0.28099903695767547 0 0.17528279401001801 0.2714166079934146 0 0.19094745617081291 0.27038549871767581 0 0.17528279401001801 0.2714166079934146 0 0.18564289691528729 0.25868749876629671 0 0.19094745617081291 0.27038549871767581 0 0.17498255083596301 0.28300150235233201 0 0.1849298445554361 0.28099903695767547 0 0.17528279401001801 0.2714166079934146 0 0.17528279401001801 0.2714166079934146 0 0.16532030222413041 0.28061774918364429 0 0.1609818760820641 0.2708255403471686 0 0.17498255083596301 0.28300150235233201 0 0.17528279401001801 0.2714166079934146 0 0.16532030222413041 0.28061774918364429 0 0.17528279401001801 0.2714166079934146 0 0.1609818760820641 0.2708255403471686 0 0.1631161995596529 0.25657386530356069 0 0.15383705453569649 0.27951082009548711 0 0.16532030222413041 0.28061774918364429 0 0.1609818760820641 0.2708255403471686 0 0.14627836463393121 0.26809473379089088 0 0.1609818760820641 0.2708255403471686 0 0.1631161995596529 0.25657386530356069 0 0.16890701105638031 0.23504418317664161 0 0.1631161995596529 0.25657386530356069 0 0.18564289691528729 0.25868749876629671 0 0.17528279401001801 0.2714166079934146 0 0.1631161995596529 0.25657386530356069 0 0.18564289691528729 0.25868749876629671 0 0.1956251304139873 0.24830732682566101 0 0.18564289691528729 0.25868749876629671 0 0.20465537480646501 0.25892384109831479 0 0.18564289691528729 0.25868749876629671 0 0.19094745617081291 0.27038549871767581 0 0.20465537480646501 0.25892384109831479 0 0.2050239072751949 0.2492833193895482 0 0.1956251304139873 0.24830732682566101 0 0.20465537480646501 0.25892384109831479 0 0.19094745617081291 0.27038549871767581 0 0.20212350544635149 0.27452240688285762 0 0.1917381003592612 0.28136787577326228 0 0.1849298445554361 0.28099903695767547 0 0.19094745617081291 0.27038549871767581 0 0.1917381003592612 0.28136787577326228 0 0.19094745617081291 0.27038549871767581 0 0.20212350544635149 0.27452240688285762 0 0.20465537480646501 0.25892384109831479 0 0.21559138507808229 0.27635001083075639 0 0.2170338530129477 0.25958452376210089 0 0.2223889939606305 0.26849190584137572 0 0.20212350544635149 0.27452240688285762 0 0.2170338530129477 0.25958452376210089 0 0.20037669147028589 0.28371892366973078 0 0.2170338530129477 0.25958452376210089 0 0.20037669147028589 0.28371892366973078 0 0.21559138507808229 0.27635001083075639 0 0.2170338530129477 0.25958452376210089 0 0.20037669147028589 0.28371892366973078 0 0.20212350544635149 0.27452240688285762 0 0.20465537480646501 0.25892384109831479 0 0.21458810326103989 0.25029177234766842 0 0.20212350544635149 0.27452240688285762 0 0.2170338530129477 0.25958452376210089 0 0.21458810326103989 0.25029177234766842 0 0.20212350544635149 0.27452240688285762 0 0.21458810326103989 0.25029177234766842 0 0.2050239072751949 0.2492833193895482 0 0.20465537480646501 0.25892384109831479 0 0.21458810326103989 0.25029177234766842 0 0.20465537480646501 0.25892384109831479 0 0.21458810326103989 0.25029177234766842 0 0.23169913173193779 0.25404958449575432 0 0.22942687348362151 0.26728355318502178 0 0.24090080429007341 0.26281353644332878 0 0.23169913173193779 0.25404958449575432 0 0.2249153238939712 0.26221153605608138 0 0.22942687348362151 0.26728355318502178 0 0.2170338530129477 0.25958452376210089 0 0.2249153238939712 0.26221153605608138 0 0.2223889939606305 0.26849190584137572 0 0.2170338530129477 0.25958452376210089 0 0.23169913173193779 0.25404958449575432 0 0.2249153238939712 0.26221153605608138 0 0.2223889939606305 0.26849190584137572 0 0.2255322572178127 0.27738204478537232 0 0.22942687348362151 0.26728355318502178 0 0.2249153238939712 0.26221153605608138 0 0.2223889939606305 0.26849190584137572 0 0.22942687348362151 0.26728355318502178 0 0.21559138507808229 0.27635001083075639 0 0.2255322572178127 0.27738204478537232 0 0.21985426169801439 0.28935406669317137 0 0.21559138507808229 0.27635001083075639 0 0.2223889939606305 0.26849190584137572 0 0.2255322572178127 0.27738204478537232 0 0.2255322572178127 0.27738204478537232 0 0.23621117140834261 0.27732665952701641 0 0.23095623596381579 0.2876536505458 0 0.2255322572178127 0.27738204478537232 0 0.22942687348362151 0.26728355318502178 0 0.23621117140834261 0.27732665952701641 0 0.23621117140834261 0.27732665952701641 0 0.24818821145747599 0.27522177653690871 0 0.24090080429007341 0.26281353644332878 0 0.22942687348362151 0.26728355318502178 0 0.23621117140834261 0.27732665952701641 0 0.24090080429007341 0.26281353644332878 0 0.24818821145747599 0.27522177653690871 0 0.24090080429007341 0.26281353644332878 0 0.25530776412370298 0.26639583896058622 0 0.23995652529561701 0.25039133628829258 0 0.24090080429007341 0.26281353644332878 0 0.25404003316197471 0.25208422786308371 0 0.23169913173193779 0.25404958449575432 0 0.23995652529561701 0.25039133628829258 0 0.24090080429007341 0.26281353644332878 0 0.23765651747073049 0.31117848176507701 0 0.2454028482605469 0.29267792886045368 0 0.25114017462525878 0.31153615041935723 0 0.23765651747073049 0.31117848176507701 0 0.2454028482605469 0.29267792886045368 0 0.2283396740985745 0.30195705682751389 0 0.2454028482605469 0.29267792886045368 0 0.23095623596381579 0.2876536505458 0 0.2283396740985745 0.30195705682751389 0 0.23621117140834261 0.27732665952701641 0 0.24818821145747599 0.27522177653690871 0 0.2454028482605469 0.29267792886045368 0 0.23621117140834261 0.27732665952701641 0 0.2454028482605469 0.29267792886045368 0 0.23095623596381579 0.2876536505458 0 0.2255322572178127 0.27738204478537232 0 0.23095623596381579 0.2876536505458 0 0.21985426169801439 0.28935406669317137 0 0.23095623596381579 0.2876536505458 0 0.21985426169801439 0.28935406669317137 0 0.2283396740985745 0.30195705682751389 0 0.2283396740985745 0.30195705682751389 0 0.2184758680590754 0.31184724711422762 0 0.22801070301179061 0.32060690690137728 0 0.21985426169801439 0.28935406669317137 0 0.2283396740985745 0.30195705682751389 0 0.21670572119465931 0.30172893354768798 0 0.23765651747073049 0.31117848176507701 0 0.2283396740985745 0.30195705682751389 0 0.22801070301179061 0.32060690690137728 0 0.2283396740985745 0.30195705682751389 0 0.2184758680590754 0.31184724711422762 0 0.21670572119465931 0.30172893354768798 0 0.2184758680590754 0.31184724711422762 0 0.21670572119465931 0.30172893354768798 0 0.20632342479934371 0.30585855598863948 0 0.21670572119465931 0.30172893354768798 0 0.20632342479934371 0.30585855598863948 0 0.21141614329998781 0.29390938293380992 0 0.20632342479934371 0.30585855598863948 0 0.21141614329998781 0.29390938293380992 0 0.2042452804315445 0.29308429151921322 0 0.21559138507808229 0.27635001083075639 0 0.21985426169801439 0.28935406669317137 0 0.2104384150331686 0.28649738738125968 0 0.21985426169801439 0.28935406669317137 0 0.21141614329998781 0.29390938293380992 0 0.2104384150331686 0.28649738738125968 0 0.21985426169801439 0.28935406669317137 0 0.21670572119465931 0.30172893354768798 0 0.21141614329998781 0.29390938293380992 0 0.21141614329998781 0.29390938293380992 0 0.2042452804315445 0.29308429151921322 0 0.2104384150331686 0.28649738738125968 0 0.2042452804315445 0.29308429151921322 0 0.2104384150331686 0.28649738738125968 0 0.20037669147028589 0.28371892366973078 0 0.21559138507808229 0.27635001083075639 0 0.2104384150331686 0.28649738738125968 0 0.20037669147028589 0.28371892366973078 0 0.20212350544635149 0.27452240688285762 0 0.20037669147028589 0.28371892366973078 0 0.1898902111984884 0.29891268329407239 0 0.18677859260729601 0.28760164196875848 0 0.1917381003592612 0.28136787577326228 0 0.1898902111984884 0.29891268329407239 0 0.20037669147028589 0.28371892366973078 0 0.1976595376627992 0.29976589533378561 0 0.1898902111984884 0.29891268329407239 0 0.2042452804315445 0.29308429151921322 0 0.20037669147028589 0.28371892366973078 0 0.1976595376627992 0.29976589533378561 0 0.20212350544635149 0.27452240688285762 0 0.1898902111984884 0.29891268329407239 0 0.20212350544635149 0.27452240688285762 0 0.1917381003592612 0.28136787577326228 0 0.1898902111984884 0.29891268329407239 0 0.20037669147028589 0.28371892366973078 0 0.1898902111984884 0.29891268329407239 0 0.18677859260729601 0.28760164196875848 0 0.1849298445554361 0.28099903695767547 0 0.1917381003592612 0.28136787577326228 0 0.20632342479934371 0.30585855598863948 0 0.19412409721151189 0.30848045781950378 0 0.19635424873152091 0.31866253726922511 0 0.20632342479934371 0.30585855598863948 0 0.1976595376627992 0.29976589533378561 0 0.19412409721151189 0.30848045781950378 0 0.20632342479934371 0.30585855598863948 0 0.2042452804315445 0.29308429151921322 0 0.1976595376627992 0.29976589533378561 0 0.18371952992762389 0.30785332357736089 0 0.1976595376627992 0.29976589533378561 0 0.1898902111984884 0.29891268329407239 0 0.18371952992762389 0.30785332357736089 0 0.19412409721151189 0.30848045781950378 0 0.19635424873152091 0.31866253726922511 0 0.18371952992762389 0.30785332357736089 0 0.1976595376627992 0.29976589533378561 0 0.19412409721151189 0.30848045781950378 0 0.19635424873152091 0.31866253726922511 0 0.19329834396814641 0.33328399686629978 0 0.21150607161232149 0.3245036863190196 0 0.19635424873152091 0.31866253726922511 0 0.19329834396814641 0.33328399686629978 0 0.1818581672390053 0.32281790922797782 0 0.19329834396814641 0.33328399686629978 0 0.20841238186686439 0.34472105417207632 0 0.1876990638134575 0.35190483133425488 0 0.19329834396814641 0.33328399686629978 0 0.21150607161232149 0.3245036863190196 0 0.20841238186686439 0.34472105417207632 0 0.21150607161232149 0.3245036863190196 0 0.22736457019319431 0.33776348264759248 0 0.20841238186686439 0.34472105417207632 0 0.20632342479934371 0.30585855598863948 0 0.19635424873152091 0.31866253726922511 0 0.21150607161232149 0.3245036863190196 0 0.2184758680590754 0.31184724711422762 0 0.20632342479934371 0.30585855598863948 0 0.21150607161232149 0.3245036863190196 0 0.21150607161232149 0.3245036863190196 0 0.22801070301179061 0.32060690690137728 0 0.22736457019319431 0.33776348264759248 0 0.2184758680590754 0.31184724711422762 0 0.21150607161232149 0.3245036863190196 0 0.22801070301179061 0.32060690690137728 0 0.22801070301179061 0.32060690690137728 0 0.22736457019319431 0.33776348264759248 0 0.24490867605631639 0.32967072069511189 0 0.22736457019319431 0.33776348264759248 0 0.24490867605631639 0.32967072069511189 0 0.24521693247762111 0.35027114815259558 0 0.23765651747073049 0.31117848176507701 0 0.22801070301179061 0.32060690690137728 0 0.24490867605631639 0.32967072069511189 0 0.23765651747073049 0.31117848176507701 0 0.24490867605631639 0.32967072069511189 0 0.25114017462525878 0.31153615041935723 0 0.24305895760768401 0.36641304215893011 0 0.24521693247762111 0.35027114815259558 0 0.22613265613425179 0.35680737964537468 0 0.22736457019319431 0.33776348264759248 0 0.24521693247762111 0.35027114815259558 0 0.22613265613425179 0.35680737964537468 0 0.22736457019319431 0.33776348264759248 0 0.22613265613425179 0.35680737964537468 0 0.20841238186686439 0.34472105417207632 0 0.22613265613425179 0.35680737964537468 0 0.20200890290724041 0.36500873302905812 0 0.22860253219506471 0.37841014948266538 0 0.24305895760768401 0.36641304215893011 0 0.22613265613425179 0.35680737964537468 0 0.22860253219506471 0.37841014948266538 0 0.20200890290724041 0.36500873302905812 0 0.22860253219506471 0.37841014948266538 0 0.22613265613425179 0.35680737964537468 0 0.20841238186686439 0.34472105417207632 0 0.20200890290724041 0.36500873302905812 0 0.20841238186686439 0.34472105417207632 0 0.1876990638134575 0.35190483133425488 0 0.20200890290724041 0.36500873302905812 0 0.1876990638134575 0.35190483133425488 0 0.20200890290724041 0.36500873302905812 0 0.17637045729064621 0.37495278481954358 0 0.1876990638134575 0.35190483133425488 0 0.17637045729064621 0.37495278481954358 0 0.16909864488713719 0.35514267549568418 0 0.15975417249048229 0.36968310563447321 0 0.16909864488713719 0.35514267549568418 0 0.14990537096685039 0.36070173528474042 0 0.17637045729064621 0.37495278481954358 0 0.15975417249048229 0.36968310563447321 0 0.16909864488713719 0.35514267549568418 0 0.16909864488713719 0.35514267549568418 0 0.1770056519607103 0.33831974362286749 0 0.1619384281755652 0.34052596047808847 0 0.16909864488713719 0.35514267549568418 0 0.14990537096685039 0.36070173528474042 0 0.15416632756111201 0.34898696826244741 0 0.16909864488713719 0.35514267549568418 0 0.1619384281755652 0.34052596047808847 0 0.15416632756111201 0.34898696826244741 0 0.1876990638134575 0.35190483133425488 0 0.16909864488713719 0.35514267549568418 0 0.1770056519607103 0.33831974362286749 0 0.19329834396814641 0.33328399686629978 0 0.1770056519607103 0.33831974362286749 0 0.1818581672390053 0.32281790922797782 0 0.19329834396814641 0.33328399686629978 0 0.1876990638134575 0.35190483133425488 0 0.1770056519607103 0.33831974362286749 0 0.1770056519607103 0.33831974362286749 0 0.1818581672390053 0.32281790922797782 0 0.1657389141743941 0.32607447656151611 0 0.1818581672390053 0.32281790922797782 0 0.1707678241303611 0.31259989648156872 0 0.1657389141743941 0.32607447656151611 0 0.18371952992762389 0.30785332357736089 0 0.19635424873152091 0.31866253726922511 0 0.1818581672390053 0.32281790922797782 0 0.18371952992762389 0.30785332357736089 0 0.1818581672390053 0.32281790922797782 0 0.1707678241303611 0.31259989648156872 0 0.1707678241303611 0.31259989648156872 0 0.1657389141743941 0.32607447656151611 0 0.16084478468494731 0.31759224325908281 0 0.1657389141743941 0.32607447656151611 0 0.15632698434060879 0.32309477146443721 0 0.16084478468494731 0.31759224325908281 0 0.1657389141743941 0.32607447656151611 0 0.15632698434060879 0.32309477146443721 0 0.1534459738215358 0.33116830427909388 0 0.15847128754916129 0.30901971199088751 0 0.1707678241303611 0.31259989648156872 0 0.16084478468494731 0.31759224325908281 0 0.15847128754916129 0.30901971199088751 0 0.16084478468494731 0.31759224325908281 0 0.1531779528472626 0.31690967251270458 0 0.15632698434060879 0.32309477146443721 0 0.16084478468494731 0.31759224325908281 0 0.1531779528472626 0.31690967251270458 0 0.1770056519607103 0.33831974362286749 0 0.1657389141743941 0.32607447656151611 0 0.1619384281755652 0.34052596047808847 0 0.1657389141743941 0.32607447656151611 0 0.1619384281755652 0.34052596047808847 0 0.1534459738215358 0.33116830427909388 0 0.1619384281755652 0.34052596047808847 0 0.14537830609435001 0.34101383565047871 0 0.15416632756111201 0.34898696826244741 0 0.1619384281755652 0.34052596047808847 0 0.1534459738215358 0.33116830427909388 0 0.14537830609435001 0.34101383565047871 0 0.1534459738215358 0.33116830427909388 0 0.1427633336259623 0.33140140495610498 0 0.14842729617490411 0.32372916070978858 0 0.1534459738215358 0.33116830427909388 0 0.1427633336259623 0.33140140495610498 0 0.14537830609435001 0.34101383565047871 0 0.1427633336259623 0.33140140495610498 0 0.14537830609435001 0.34101383565047871 0 0.13654253772275141 0.33890423694427602 0 0.1483486037307668 0.31106151759990119 0 0.1531779528472626 0.31690967251270458 0 0.14487070829517959 0.31682928085866202 0 0.1531779528472626 0.31690967251270458 0 0.14842729617490411 0.32372916070978858 0 0.14487070829517959 0.31682928085866202 0 0.15632698434060879 0.32309477146443721 0 0.1534459738215358 0.33116830427909388 0 0.14842729617490411 0.32372916070978858 0 0.15632698434060879 0.32309477146443721 0 0.1531779528472626 0.31690967251270458 0 0.14842729617490411 0.32372916070978858 0 0.1427633336259623 0.33140140495610498 0 0.14842729617490411 0.32372916070978858 0 0.1402378637359267 0.32270884290342983 0 0.14842729617490411 0.32372916070978858 0 0.14487070829517959 0.31682928085866202 0 0.1402378637359267 0.32270884290342983 0 0.1483486037307668 0.31106151759990119 0 0.14130712994747449 0.31140798331507108 0 0.14487070829517959 0.31682928085866202 0 0.14130712994747449 0.31140798331507108 0 0.14487070829517959 0.31682928085866202 0 0.13528824775885559 0.3155805734405937 0 0.14487070829517959 0.31682928085866202 0 0.13528824775885559 0.3155805734405937 0 0.1402378637359267 0.32270884290342983 0 0.13528824775885559 0.3155805734405937 0 0.1330765722643745 0.32249408610517011 0 0.1402378637359267 0.32270884290342983 0 0.1330765722643745 0.32249408610517011 0 0.1402378637359267 0.32270884290342983 0 0.13309473665224339 0.33072661256584468 0 0.12375204985912221 0.32702725796552912 0 0.1330765722643745 0.32249408610517011 0 0.13309473665224339 0.33072661256584468 0 0.12375204985912221 0.32702725796552912 0 0.1330765722643745 0.32249408610517011 0 0.12817088130983889 0.317450689473041 0 0.13528824775885559 0.3155805734405937 0 0.1330765722643745 0.32249408610517011 0 0.12817088130983889 0.317450689473041 0 0.1214195525311879 0.31440901896845502 0 0.12900107104525951 0.30968741412501871 0 0.12817088130983889 0.317450689473041 0 0.12900107104525951 0.30968741412501871 0 0.13528824775885559 0.3155805734405937 0 0.12817088130983889 0.317450689473041 0 0.14537830609435001 0.34101383565047871 0 0.13654253772275141 0.33890423694427602 0 0.13685475473781181 0.34959577292381833 0 0.13654253772275141 0.33890423694427602 0 0.1260676383484185 0.3399282146226113 0 0.13685475473781181 0.34959577292381833 0 0.1427633336259623 0.33140140495610498 0 0.13654253772275141 0.33890423694427602 0 0.13309473665224339 0.33072661256584468 0 0.1427633336259623 0.33140140495610498 0 0.1402378637359267 0.32270884290342983 0 0.13309473665224339 0.33072661256584468 0 0.12375204985912221 0.32702725796552912 0 0.13309473665224339 0.33072661256584468 0 0.1260676383484185 0.3399282146226113 0 0.13654253772275141 0.33890423694427602 0 0.13309473665224339 0.33072661256584468 0 0.1260676383484185 0.3399282146226113 0 0.1232256624926347 0.35239419723674059 0 0.13685475473781181 0.34959577292381833 0 0.13271547193899449 0.36524458735671972 0 0.1232256624926347 0.35239419723674059 0 0.1260676383484185 0.3399282146226113 0 0.13685475473781181 0.34959577292381833 0 0.13685475473781181 0.34959577292381833 0 0.13271547193899449 0.36524458735671972 0 0.14990537096685039 0.36070173528474042 0 0.13271547193899449 0.36524458735671972 0 0.14727668153694909 0.37350977329143831 0 0.1384203385310763 0.3853027474406937 0 0.13271547193899449 0.36524458735671972 0 0.14727668153694909 0.37350977329143831 0 0.14990537096685039 0.36070173528474042 0 0.15975417249048229 0.36968310563447321 0 0.14727668153694909 0.37350977329143831 0 0.14990537096685039 0.36070173528474042 0 0.14537830609435001 0.34101383565047871 0 0.13685475473781181 0.34959577292381833 0 0.15416632756111201 0.34898696826244741 0 0.13685475473781181 0.34959577292381833 0 0.14990537096685039 0.36070173528474042 0 0.15416632756111201 0.34898696826244741 0 0.15196678808574959 0.39634912392256672 0 0.1402717845598023 0.40641241395674649 0 0.16129649351817349 0.40676751558544272 0 0.15196678808574959 0.39634912392256672 0 0.1384203385310763 0.3853027474406937 0 0.1402717845598023 0.40641241395674649 0 0.15196678808574959 0.39634912392256672 0 0.15611970777082879 0.38410855928095938 0 0.1384203385310763 0.3853027474406937 0 0.14727668153694909 0.37350977329143831 0 0.15611970777082879 0.38410855928095938 0 0.1384203385310763 0.3853027474406937 0 0.15975417249048229 0.36968310563447321 0 0.14727668153694909 0.37350977329143831 0 0.15611970777082879 0.38410855928095938 0 0.1231373165426977 0.3806134049577457 0 0.13271547193899449 0.36524458735671972 0 0.1384203385310763 0.3853027474406937 0 0.1231373165426977 0.3806134049577457 0 0.1384203385310763 0.3853027474406937 0 0.1271742827044339 0.39597619803598749 0 0.1384203385310763 0.3853027474406937 0 0.1271742827044339 0.39597619803598749 0 0.1402717845598023 0.40641241395674649 0 0.1162621503634904 0.41872732341568758 0 0.1271742827044339 0.39597619803598749 0 0.1402717845598023 0.40641241395674649 0 0.1162621503634904 0.41872732341568758 0 0.1402717845598023 0.40641241395674649 0 0.14380353536204241 0.43078456768362461 0 0.1162621503634904 0.41872732341568758 0 0.14380353536204241 0.43078456768362461 0 0.1205619018159948 0.44674810255646558 0 0.1162621503634904 0.41872732341568758 0 0.13914808732176639 0.43525501877606959 0 0.1162621503634904 0.41872732341568758 0 0.13914808732176639 0.43525501877606959 0 0.14380353536204241 0.43078456768362461 0 0.1402717845598023 0.40641241395674649 0 0.16129649351817349 0.40676751558544272 0 0.1583102357697074 0.42239552662274649 0 0.1402717845598023 0.40641241395674649 0 0.14380353536204241 0.43078456768362461 0 0.1583102357697074 0.42239552662274649 0 0.16129649351817349 0.40676751558544272 0 0.17483444504792359 0.42517132393635743 0 0.1767108048052333 0.40648620419478521 0 0.16129649351817349 0.40676751558544272 0 0.1583102357697074 0.42239552662274649 0 0.17483444504792359 0.42517132393635743 0 0.1583102357697074 0.42239552662274649 0 0.17483444504792359 0.42517132393635743 0 0.1713449203605947 0.44284181195156158 0 0.14380353536204241 0.43078456768362461 0 0.1713449203605947 0.44284181195156158 0 0.14380353536204241 0.43078456768362461 0 0.1583102357697074 0.42239552662274649 0 0.1713449203605947 0.44284181195156158 0 0.17483444504792359 0.42517132393635743 0 0.18216746451451801 0.43740730714955978 0 0.1713449203605947 0.44284181195156158 0 0.17483444504792359 0.42517132393635743 0 0.1713449203605947 0.44284181195156158 0 0.17483444504792359 0.42517132393635743 0 0.1894098998784805 0.41329321868770491 0 0.19020123220431809 0.42989189963497759 0 0.17483444504792359 0.42517132393635743 0 0.18216746451451801 0.43740730714955978 0 0.19020123220431809 0.42989189963497759 0 0.17483444504792359 0.42517132393635743 0 0.1767108048052333 0.40648620419478521 0 0.1894098998784805 0.41329321868770491 0 0.1767108048052333 0.40648620419478521 0 0.16971698500113649 0.39319336099264368 0 0.18829620058045249 0.39400560177177729 0 0.1767108048052333 0.40648620419478521 0 0.18829620058045249 0.39400560177177729 0 0.1894098998784805 0.41329321868770491 0 0.15196678808574959 0.39634912392256672 0 0.15611970777082879 0.38410855928095938 0 0.16971698500113649 0.39319336099264368 0 0.15196678808574959 0.39634912392256672 0 0.16129649351817349 0.40676751558544272 0 0.16971698500113649 0.39319336099264368 0 0.16129649351817349 0.40676751558544272 0 0.1767108048052333 0.40648620419478521 0 0.16971698500113649 0.39319336099264368 0 0.17637045729064621 0.37495278481954358 0 0.15975417249048229 0.36968310563447321 0 0.15611970777082879 0.38410855928095938 0 0.17637045729064621 0.37495278481954358 0 0.15611970777082879 0.38410855928095938 0 0.16971698500113649 0.39319336099264368 0 0.17637045729064621 0.37495278481954358 0 0.16971698500113649 0.39319336099264368 0 0.18829620058045249 0.39400560177177729 0 0.20200890290724041 0.36500873302905812 0 0.18829620058045249 0.39400560177177729 0 0.21022739730807871 0.38998636848418261 0 0.20200890290724041 0.36500873302905812 0 0.17637045729064621 0.37495278481954358 0 0.18829620058045249 0.39400560177177729 0 0.18829620058045249 0.39400560177177729 0 0.21022739730807871 0.38998636848418261 0 0.20498907662426999 0.40636669370009521 0 0.18829620058045249 0.39400560177177729 0 0.20498907662426999 0.40636669370009521 0 0.1894098998784805 0.41329321868770491 0 0.21022739730807871 0.38998636848418261 0 0.225418264115859 0.4045632601918206 0 0.20498907662426999 0.40636669370009521 0 0.20200890290724041 0.36500873302905812 0 0.21022739730807871 0.38998636848418261 0 0.22860253219506471 0.37841014948266538 0 0.21022739730807871 0.38998636848418261 0 0.22860253219506471 0.37841014948266538 0 0.225418264115859 0.4045632601918206 0 0.225418264115859 0.4045632601918206 0 0.2490748840761759 0.41447913741323361 0 0.25519616148288887 0.39181156593627298 0 0.22860253219506471 0.37841014948266538 0 0.225418264115859 0.4045632601918206 0 0.25519616148288887 0.39181156593627298 0 0.22860253219506471 0.37841014948266538 0 0.25519616148288887 0.39181156593627298 0 0.24305895760768401 0.36641304215893011 0 0.22860253219506471 0.37841014948266538 0 0.25519616148288887 0.39181156593627298 0 0.2490748840761759 0.41447913741323361 0 0.23040520055063371 0.42472223384156732 0 0.24517769652138269 0.43868647355565088 0 0.225418264115859 0.4045632601918206 0 0.2490748840761759 0.41447913741323361 0 0.23040520055063371 0.42472223384156732 0 0.225418264115859 0.4045632601918206 0 0.23040520055063371 0.42472223384156732 0 0.20794960100346549 0.42683021087399747 0 0.23040520055063371 0.42472223384156732 0 0.20794960100346549 0.42683021087399747 0 0.2229924843016429 0.43948176305630821 0 0.23040520055063371 0.42472223384156732 0 0.2229924843016429 0.43948176305630821 0 0.24517769652138269 0.43868647355565088 0 0.225418264115859 0.4045632601918206 0 0.20794960100346549 0.42683021087399747 0 0.20498907662426999 0.40636669370009521 0 0.20794960100346549 0.42683021087399747 0 0.20498907662426999 0.40636669370009521 0 0.1894098998784805 0.41329321868770491 0 0.20794960100346549 0.42683021087399747 0 0.19020123220431809 0.42989189963497759 0 0.19426067079655579 0.44330707928475449 0 0.20794960100346549 0.42683021087399747 0 0.1894098998784805 0.41329321868770491 0 0.19020123220431809 0.42989189963497759 0 0.18216746451451801 0.43740730714955978 0 0.19020123220431809 0.42989189963497759 0 0.19426067079655579 0.44330707928475449 0 0.19426067079655579 0.44330707928475449 0 0.1940681668251448 0.45640187690020761 0 0.18254949088188149 0.4477470207382499 0 0.19426067079655579 0.44330707928475449 0 0.1940681668251448 0.45640187690020761 0 0.20814429074563079 0.44944136850783811 0 0.1940681668251448 0.45640187690020761 0 0.20814429074563079 0.44944136850783811 0 0.2039949308663013 0.472197178379127 0 0.1940681668251448 0.45640187690020761 0 0.2039949308663013 0.472197178379127 0 0.18608081776579821 0.46867989557539208 0 0.1940681668251448 0.45640187690020761 0 0.18608081776579821 0.46867989557539208 0 0.18254949088188149 0.4477470207382499 0 0.20814429074563079 0.44944136850783811 0 0.22852149564367849 0.45772005811557609 0 0.2039949308663013 0.472197178379127 0 0.20794960100346549 0.42683021087399747 0 0.19426067079655579 0.44330707928475449 0 0.20814429074563079 0.44944136850783811 0 0.20794960100346549 0.42683021087399747 0 0.20814429074563079 0.44944136850783811 0 0.2229924843016429 0.43948176305630821 0 0.2229924843016429 0.43948176305630821 0 0.22852149564367849 0.45772005811557609 0 0.24517769652138269 0.43868647355565088 0 0.20814429074563079 0.44944136850783811 0 0.2229924843016429 0.43948176305630821 0 0.22852149564367849 0.45772005811557609 0 0.22852149564367849 0.45772005811557609 0 0.2480713074063006 0.45455858161591112 0 0.2508124586903176 0.47172026355836871 0 0.22852149564367849 0.45772005811557609 0 0.2480713074063006 0.45455858161591112 0 0.24517769652138269 0.43868647355565088 0 0.24658834009167641 0.5 0 0.2268462464291012 0.47913099520174052 0 0.2508124586903176 0.47172026355836871 0 0.22852149564367849 0.45772005811557609 0 0.2268462464291012 0.47913099520174052 0 0.2508124586903176 0.47172026355836871 0 0.22852149564367849 0.45772005811557609 0 0.2268462464291012 0.47913099520174052 0 0.2039949308663013 0.472197178379127 0 0.24658834009167641 0.5 0 0.2268462464291012 0.47913099520174052 0 0.21774471386125249 0.5 0 0.2039949308663013 0.472197178379127 0 0.18890108763082861 0.5 0 0.18608081776579821 0.46867989557539208 0 0.21774471386125249 0.5 0 0.2039949308663013 0.472197178379127 0 0.18890108763082861 0.5 0 0.2268462464291012 0.47913099520174052 0 0.21774471386125249 0.5 0 0.2039949308663013 0.472197178379127 0 0.18890108763082861 0.5 0 0.16570119088049859 0.47142090597577962 0 0.18608081776579821 0.46867989557539208 0 0.18890108763082861 0.5 0 0.1600574614004048 0.499999999999998 0 0.16570119088049859 0.47142090597577962 0 0.1600574614004048 0.499999999999998 0 0.16570119088049859 0.47142090597577962 0 0.1600574614004048 0.499999999999998 0 0.16570119088049859 0.47142090597577962 0 0.1473140710794911 0.47841155746419622 0 0.16570119088049859 0.47142090597577962 0 0.18608081776579821 0.46867989557539208 0 0.18254949088188149 0.4477470207382499 0 0.16570119088049859 0.47142090597577962 0 0.18254949088188149 0.4477470207382499 0 0.1713449203605947 0.44284181195156158 0 0.18216746451451801 0.43740730714955978 0 0.19426067079655579 0.44330707928475449 0 0.18254949088188149 0.4477470207382499 0 0.18254949088188149 0.4477470207382499 0 0.1713449203605947 0.44284181195156158 0 0.18216746451451801 0.43740730714955978 0 0.18254949088188149 0.4477470207382499 0 0.1713449203605947 0.44284181195156158 0 0.16570119088049859 0.47142090597577962 0 0.1713449203605947 0.44284181195156158 0 0.16570119088049859 0.47142090597577962 0 0.1713449203605947 0.44284181195156158 0 0.15076126992746861 0.45128164001408699 0 0.16570119088049859 0.47142090597577962 0 0.14979107830043681 0.4659705410046826 0 0.15076126992746861 0.45128164001408699 0 0.14979107830043681 0.4659705410046826 0 0.15076126992746861 0.45128164001408699 0 0.13538778131428869 0.46276806056466779 0 0.13914808732176639 0.43525501877606959 0 0.14380353536204241 0.43078456768362461 0 0.15076126992746861 0.45128164001408699 0 0.14380353536204241 0.43078456768362461 0 0.1713449203605947 0.44284181195156158 0 0.15076126992746861 0.45128164001408699 0 0.13914808732176639 0.43525501877606959 0 0.15076126992746861 0.45128164001408699 0 0.13538778131428869 0.46276806056466779 0 0.13914808732176639 0.43525501877606959 0 0.13538778131428869 0.46276806056466779 0 0.1205619018159948 0.44674810255646558 0 0.13914808732176639 0.43525501877606959 0 0.13538778131428869 0.46276806056466779 0 0.1248616532684987 0.47476888169724352 0 0.1205619018159948 0.44674810255646558 0 0.13538778131428869 0.46276806056466779 0 0.13538778131428869 0.46276806056466779 0 0.13162747530681079 0.49028110235326611 0 0.1248616532684987 0.47476888169724352 0 0.13538778131428869 0.46276806056466779 0 0.13162747530681079 0.49028110235326611 0 0.13538778131428869 0.46276806056466779 0 0.13162747530681079 0.49028110235326611 0 0.1473140710794911 0.47841155746419622 0 0.1248616532684987 0.47476888169724352 0 0.13162747530681079 0.49028110235326611 0 0.1248616532684987 0.47476888169724352 0 0.1287333349596296 0.50000000000000233 0 0.1248616532684987 0.47476888169724352 0 0.13162747530681079 0.49028110235326611 0 0.1287333349596296 0.50000000000000233 0 0.13162747530681079 0.49028110235326611 0 0.1302991587401483 0.50000000000000044 0 0.13162747530681079 0.49028110235326611 0 0.1302991587401483 0.50000000000000044 0 0.13586647714571501 0.50000000000000044 0 0.13162747530681079 0.49028110235326611 0 0.1287333349596296 0.50000000000000233 0 0.1302991587401483 0.50000000000000044 0 0.13162747530681079 0.49028110235326611 0 0.13586647714571501 0.50000000000000044 0 0.14406777576738011 0.49099847585001533 0 0.13162747530681079 0.49028110235326611 0 0.13586647714571501 0.50000000000000044 0 0.1600574614004048 0.499999999999998 0 0.13586647714571501 0.50000000000000044 0 0.14406777576738011 0.49099847585001533 0 0.1600574614004048 0.499999999999998 0 0.14406777576738011 0.49099847585001533 0 0.1473140710794911 0.47841155746419622 0 0.13162747530681079 0.49028110235326611 0 0.14406777576738011 0.49099847585001533 0 0.1473140710794911 0.47841155746419622 0 0.16570119088049859 0.47142090597577962 0 0.14979107830043681 0.4659705410046826 0 0.1473140710794911 0.47841155746419622 0 0.14979107830043681 0.4659705410046826 0 0.13538778131428869 0.46276806056466779 0 0.1473140710794911 0.47841155746419622 0 0.3484716028812469 0.46927922019571022 0 0.3639431844790027 0.47792576209206161 0 0.36215729707138089 0.45952194433731441 0 0.3484716028812469 0.46927922019571022 0 0.34825454286986979 0.4866410253547736 0 0.3639431844790027 0.47792576209206161 0 0.34825454286986979 0.4866410253547736 0 0.36196284501337178 0.5 0 0.3639431844790027 0.47792576209206161 0 0.34825454286986979 0.4866410253547736 0 0.36196284501337178 0.5 0 0.33311921878294798 0.5 0 0.36196284501337178 0.5 0 0.3639431844790027 0.47792576209206161 0 0.38120033573297152 0.48442634992442057 0 0.3639431844790027 0.47792576209206161 0 0.37844435483634198 0.4675903904274426 0 0.38120033573297152 0.48442634992442057 0 0.3639431844790027 0.47792576209206161 0 0.36215729707138089 0.45952194433731441 0 0.37844435483634198 0.4675903904274426 0 0.36215729707138089 0.45952194433731441 0 0.37809165231809289 0.44568724501072521 0 0.37844435483634198 0.4675903904274426 0 0.36215729707138089 0.45952194433731441 0 0.35494335133579169 0.44207750056399991 0 0.37809165231809289 0.44568724501072521 0 0.35494335133579169 0.44207750056399991 0 0.365542703577178 0.42914551292816783 0 0.37809165231809289 0.44568724501072521 0 0.35494335133579169 0.44207750056399991 0 0.33746945485668051 0.4332718215327816 0 0.35494335133579169 0.44207750056399991 0 0.33933393763431879 0.44574212964051668 0 0.33746945485668051 0.4332718215327816 0 0.36215729707138089 0.45952194433731441 0 0.35494335133579169 0.44207750056399991 0 0.34904963657780902 0.45457154773394731 0 0.35494335133579169 0.44207750056399991 0 0.34904963657780902 0.45457154773394731 0 0.33933393763431879 0.44574212964051668 0 0.3484716028812469 0.46927922019571022 0 0.36215729707138089 0.45952194433731441 0 0.34904963657780902 0.45457154773394731 0 0.3484716028812469 0.46927922019571022 0 0.34904963657780902 0.45457154773394731 0 0.33768006752307722 0.45817683321967928 0 0.33768006752307722 0.45817683321967928 0 0.32516604183334019 0.44948070643492349 0 0.3263791186886712 0.4718105620932988 0 0.3484716028812469 0.46927922019571022 0 0.33768006752307722 0.45817683321967928 0 0.3263791186886712 0.4718105620932988 0 0.33933393763431879 0.44574212964051668 0 0.32516604183334019 0.44948070643492349 0 0.33457771181584611 0.43369686048393857 0 0.32516604183334019 0.44948070643492349 0 0.33457771181584611 0.43369686048393857 0 0.33933393763431879 0.44574212964051668 0 0.33457771181584611 0.43369686048393857 0 0.33746945485668051 0.4332718215327816 0 0.34904963657780902 0.45457154773394731 0 0.33768006752307722 0.45817683321967928 0 0.33933393763431879 0.44574212964051668 0 0.33768006752307722 0.45817683321967928 0 0.33933393763431879 0.44574212964051668 0 0.32516604183334019 0.44948070643492349 0 0.32516604183334019 0.44948070643492349 0 0.30610823095482448 0.43788140873538328 0 0.33457771181584611 0.43369686048393857 0 0.32516604183334019 0.44948070643492349 0 0.30909376894118562 0.45443190325323968 0 0.30610823095482448 0.43788140873538328 0 0.32516604183334019 0.44948070643492349 0 0.3263791186886712 0.4718105620932988 0 0.30909376894118562 0.45443190325323968 0 0.3263791186886712 0.4718105620932988 0 0.30059931196992168 0.47005809262963882 0 0.31153103284441203 0.48323920778459489 0 0.3484716028812469 0.46927922019571022 0 0.34825454286986979 0.4866410253547736 0 0.3263791186886712 0.4718105620932988 0 0.34825454286986979 0.4866410253547736 0 0.3263791186886712 0.4718105620932988 0 0.33311921878294798 0.5 0 0.3263791186886712 0.4718105620932988 0 0.33311921878294798 0.5 0 0.31153103284441203 0.48323920778459489 0 0.33311921878294798 0.5 0 0.30427559255252412 0.5 0 0.31153103284441203 0.48323920778459489 0 0.30427559255252412 0.5 0 0.31153103284441203 0.48323920778459489 0 0.29110307967174748 0.48580921065493432 0 0.30059931196992168 0.47005809262963882 0 0.31153103284441203 0.48323920778459489 0 0.29110307967174748 0.48580921065493432 0 0.30059931196992168 0.47005809262963882 0 0.29110307967174748 0.48580921065493432 0 0.27585954767988607 0.47408041721782612 0 0.30427559255252412 0.5 0 0.29110307967174748 0.48580921065493432 0 0.27543196632210021 0.5 0 0.27543196632210021 0.5 0 0.27585954767988607 0.47408041721782612 0 0.26198527678341299 0.48673919500437729 0 0.29110307967174748 0.48580921065493432 0 0.27543196632210021 0.5 0 0.27585954767988607 0.47408041721782612 0 0.27585954767988607 0.47408041721782612 0 0.2508124586903176 0.47172026355836871 0 0.26198527678341299 0.48673919500437729 0 0.24658834009167641 0.5 0 0.2508124586903176 0.47172026355836871 0 0.26198527678341299 0.48673919500437729 0 0.24658834009167641 0.5 0 0.27543196632210021 0.5 0 0.26198527678341299 0.48673919500437729 0 0.2480713074063006 0.45455858161591112 0 0.24517769652138269 0.43868647355565088 0 0.26777357876982372 0.45010753123404867 0 0.24517769652138269 0.43868647355565088 0 0.26777357876982372 0.45010753123404867 0 0.26600993858745892 0.42808938636359573 0 0.2480713074063006 0.45455858161591112 0 0.2508124586903176 0.47172026355836871 0 0.26777357876982372 0.45010753123404867 0 0.27585954767988607 0.47408041721782612 0 0.2508124586903176 0.47172026355836871 0 0.26777357876982372 0.45010753123404867 0 0.27585954767988607 0.47408041721782612 0 0.26777357876982372 0.45010753123404867 0 0.28975077836376328 0.45156795454144122 0 0.26777357876982372 0.45010753123404867 0 0.28975077836376328 0.45156795454144122 0 0.28607917402868899 0.43188291486824332 0 0.28975077836376328 0.45156795454144122 0 0.30610823095482448 0.43788140873538328 0 0.28607917402868899 0.43188291486824332 0 0.30059931196992168 0.47005809262963882 0 0.27585954767988607 0.47408041721782612 0 0.28975077836376328 0.45156795454144122 0 0.3263791186886712 0.4718105620932988 0 0.30059931196992168 0.47005809262963882 0 0.30909376894118562 0.45443190325323968 0 0.30059931196992168 0.47005809262963882 0 0.28975077836376328 0.45156795454144122 0 0.30909376894118562 0.45443190325323968 0 0.28975077836376328 0.45156795454144122 0 0.30909376894118562 0.45443190325323968 0 0.30610823095482448 0.43788140873538328 0 0.30610823095482448 0.43788140873538328 0 0.30869255759955722 0.41877018355733042 0 0.28607917402868899 0.43188291486824332 0 0.3075810200549029 0.4073564129674252 0 0.30869255759955722 0.41877018355733042 0 0.30232024370737348 0.40459188745546998 0 0.31142364564813352 0.41093370315849659 0 0.3075810200549029 0.4073564129674252 0 0.31015955469665918 0.40201373970895371 0 0.31142364564813352 0.41093370315849659 0 0.3075810200549029 0.4073564129674252 0 0.30869255759955722 0.41877018355733042 0 0.30869255759955722 0.41877018355733042 0 0.29605666041485018 0.40551048050067168 0 0.30232024370737348 0.40459188745546998 0 0.30869255759955722 0.41877018355733042 0 0.2819443595412231 0.40529087474680159 0 0.30869255759955722 0.41877018355733042 0 0.2819443595412231 0.40529087474680159 0 0.29605666041485018 0.40551048050067168 0 0.30869255759955722 0.41877018355733042 0 0.28607917402868899 0.43188291486824332 0 0.2819443595412231 0.40529087474680159 0 0.2490748840761759 0.41447913741323361 0 0.26600993858745892 0.42808938636359573 0 0.2819443595412231 0.40529087474680159 0 0.26777357876982372 0.45010753123404867 0 0.28607917402868899 0.43188291486824332 0 0.26600993858745892 0.42808938636359573 0 0.28607917402868899 0.43188291486824332 0 0.26600993858745892 0.42808938636359573 0 0.2819443595412231 0.40529087474680159 0 0.2490748840761759 0.41447913741323361 0 0.24517769652138269 0.43868647355565088 0 0.26600993858745892 0.42808938636359573 0 0.2490748840761759 0.41447913741323361 0 0.25519616148288887 0.39181156593627298 0 0.2819443595412231 0.40529087474680159 0 0.25519616148288887 0.39181156593627298 0 0.2618259464583832 0.36726095095448358 0 0.25519616148288887 0.39181156593627298 0 0.27405714121884811 0.38409687161834088 0 0.2618259464583832 0.36726095095448358 0 0.24305895760768401 0.36641304215893011 0 0.25519616148288887 0.39181156593627298 0 0.2618259464583832 0.36726095095448358 0 0.2490748840761759 0.41447913741323361 0 0.25519616148288887 0.39181156593627298 0 0.27405714121884811 0.38409687161834088 0 0.2819443595412231 0.40529087474680159 0 0.28762179706039948 0.39125587461843808 0 0.25519616148288887 0.39181156593627298 0 0.2819443595412231 0.40529087474680159 0 0.25519616148288887 0.39181156593627298 0 0.27405714121884811 0.38409687161834088 0 0.2819443595412231 0.40529087474680159 0 0.27405714121884811 0.38409687161834088 0 0.28403056220722062 0.37531448917755911 0 0.2737626695690904 0.37327007608818358 0 0.27405714121884811 0.38409687161834088 0 0.28403056220722062 0.37531448917755911 0 0.28762179706039948 0.39125587461843808 0 0.29405085274881382 0.37834813740539031 0 0.28762179706039948 0.39125587461843808 0 0.30049862001061489 0.39881078008944609 0 0.28403056220722062 0.37531448917755911 0 0.29405085274881382 0.37834813740539031 0 0.28762179706039948 0.39125587461843808 0 0.2819443595412231 0.40529087474680159 0 0.28762179706039948 0.39125587461843808 0 0.29316512877403511 0.40022580951085568 0 0.28762179706039948 0.39125587461843808 0 0.29316512877403511 0.40022580951085568 0 0.30049862001061489 0.39881078008944609 0 0.2819443595412231 0.40529087474680159 0 0.29316512877403511 0.40022580951085568 0 0.29605666041485018 0.40551048050067168 0 0.29316512877403511 0.40022580951085568 0 0.29605666041485018 0.40551048050067168 0 0.30042223720462058 0.4004666581126537 0 0.29605666041485018 0.40551048050067168 0 0.30232024370737348 0.40459188745546998 0 0.30042223720462058 0.4004666581126537 0 0.29316512877403511 0.40022580951085568 0 0.30042223720462058 0.4004666581126537 0 0.30049862001061489 0.39881078008944609 0 0.30042223720462058 0.4004666581126537 0 0.30049862001061489 0.39881078008944609 0 0.30232024370737348 0.40459188745546998 0 0.30049862001061489 0.39881078008944609 0 0.30232024370737348 0.40459188745546998 0 0.30049862001061489 0.39881078008944609 0 0.30430913302558388 0.40020258685778032 0 0.30232024370737348 0.40459188745546998 0 0.30042223720462058 0.4004666581126537 0 0.30049862001061489 0.39881078008944609 0 0.30049862001061489 0.39881078008944609 0 0.30098622665836988 0.38824011406760628 0 0.30049862001061489 0.39881078008944609 0 0.30430913302558388 0.40020258685778032 0 0.30098622665836988 0.38824011406760628 0 0.30098622665836988 0.38824011406760628 0 0.30110064445947421 0.38575968774854158 0 0.31262554991773928 0.39787599139405988 0 0.31015955469665918 0.40201373970895371 0 0.30098622665836988 0.38824011406760628 0 0.30110064445947421 0.38575968774854158 0 0.31262554991773928 0.39787599139405988 0 0.30430913302558388 0.40020258685778032 0 0.31015955469665918 0.40201373970895371 0 0.30098622665836988 0.38824011406760628 0 0.31015955469665918 0.40201373970895371 0 0.30098622665836988 0.38824011406760628 0 0.31262554991773928 0.39787599139405988 0 0.3075810200549029 0.4073564129674252 0 0.30232024370737348 0.40459188745546998 0 0.30430913302558388 0.40020258685778032 0 0.3075810200549029 0.4073564129674252 0 0.30430913302558388 0.40020258685778032 0 0.31015955469665918 0.40201373970895371 0 0.29405085274881382 0.37834813740539031 0 0.30049862001061489 0.39881078008944609 0 0.29405085274881382 0.37834813740539031 0 0.30049862001061489 0.39881078008944609 0 0.30098622665836988 0.38824011406760628 0 0.30110064445947421 0.38575968774854158 0 0.30177514978199971 0.3711373061071076 0 0.30110064445947421 0.38575968774854158 0 0.3104817065657739 0.3858680532317833 0 0.30177514978199971 0.3711373061071076 0 0.29405085274881382 0.37834813740539031 0 0.30110064445947421 0.38575968774854158 0 0.30177514978199971 0.3711373061071076 0 0.29405085274881382 0.37834813740539031 0 0.30110064445947421 0.38575968774854158 0 0.29405085274881382 0.37834813740539031 0 0.30098622665836988 0.38824011406760628 0 0.30110064445947421 0.38575968774854158 0 0.29405085274881382 0.37834813740539031 0 0.30098622665836988 0.38824011406760628 0 0.30098622665836988 0.38824011406760628 0 0.30110064445947421 0.38575968774854158 0 0.30110064445947421 0.38575968774854158 0 0.3104817065657739 0.3858680532317833 0 0.31262554991773928 0.39787599139405988 0 0.3104817065657739 0.3858680532317833 0 0.30177514978199971 0.3711373061071076 0 0.3104817065657739 0.3858680532317833 0 0.31717345926189522 0.3709258031848055 0 0.30177514978199971 0.3711373061071076 0 0.3104817065657739 0.3858680532317833 0 0.3376156911696272 0.37620073599141618 0 0.3104817065657739 0.3858680532317833 0 0.3376156911696272 0.37620073599141618 0 0.31717345926189522 0.3709258031848055 0 0.3104817065657739 0.3858680532317833 0 0.3376156911696272 0.37620073599141618 0 0.3351802944883514 0.39738750443412002 0 0.3376156911696272 0.37620073599141618 0 0.3351802944883514 0.39738750443412002 0 0.34879159400795012 0.38769315231290841 0 0.3351802944883514 0.39738750443412002 0 0.33658962428999861 0.41133204962483783 0 0.34988972217452752 0.40801784569160632 0 0.3351802944883514 0.39738750443412002 0 0.32415045537600512 0.40999229503957763 0 0.33658962428999861 0.41133204962483783 0 0.3351802944883514 0.39738750443412002 0 0.31909953512109351 0.40044867980609039 0 0.32415045537600512 0.40999229503957763 0 0.3104817065657739 0.3858680532317833 0 0.3351802944883514 0.39738750443412002 0 0.31909953512109351 0.40044867980609039 0 0.3104817065657739 0.3858680532317833 0 0.31909953512109351 0.40044867980609039 0 0.3104817065657739 0.3858680532317833 0 0.31262554991773928 0.39787599139405988 0 0.31909953512109351 0.40044867980609039 0 0.31262554991773928 0.39787599139405988 0 0.32415045537600512 0.40999229503957763 0 0.31015955469665918 0.40201373970895371 0 0.31262554991773928 0.39787599139405988 0 0.32415045537600512 0.40999229503957763 0 0.31262554991773928 0.39787599139405988 0 0.31909953512109351 0.40044867980609039 0 0.32415045537600512 0.40999229503957763 0 0.31015955469665918 0.40201373970895371 0 0.31933288273494848 0.41578736535030097 0 0.32415045537600512 0.40999229503957763 0 0.31142364564813352 0.41093370315849659 0 0.31015955469665918 0.40201373970895371 0 0.31933288273494848 0.41578736535030097 0 0.30869255759955722 0.41877018355733042 0 0.31933288273494848 0.41578736535030097 0 0.32906281765607392 0.42006619542527468 0 0.31015955469665918 0.40201373970895371 0 0.31933288273494848 0.41578736535030097 0 0.31142364564813352 0.41093370315849659 0 0.30869255759955722 0.41877018355733042 0 0.31933288273494848 0.41578736535030097 0 0.31933288273494848 0.41578736535030097 0 0.32415045537600512 0.40999229503957763 0 0.32906281765607392 0.42006619542527468 0 0.30869255759955722 0.41877018355733042 0 0.33457771181584611 0.43369686048393857 0 0.33544075565789128 0.43224949236785898 0 0.30869255759955722 0.41877018355733042 0 0.33544075565789128 0.43224949236785898 0 0.30610823095482448 0.43788140873538328 0 0.30869255759955722 0.41877018355733042 0 0.33457771181584611 0.43369686048393857 0 0.30869255759955722 0.41877018355733042 0 0.33544075565789128 0.43224949236785898 0 0.32906281765607392 0.42006619542527468 0 0.30610823095482448 0.43788140873538328 0 0.33457771181584611 0.43369686048393857 0 0.33457771181584611 0.43369686048393857 0 0.33544075565789128 0.43224949236785898 0 0.33746945485668051 0.4332718215327816 0 0.33457771181584611 0.43369686048393857 0 0.33544075565789128 0.43224949236785898 0 0.33544075565789128 0.43224949236785898 0 0.33746945485668051 0.4332718215327816 0 0.35001853239939229 0.42365555934674631 0 0.33544075565789128 0.43224949236785898 0 0.33746945485668051 0.4332718215327816 0 0.33457771181584611 0.43369686048393857 0 0.33746945485668051 0.4332718215327816 0 0.33544075565789128 0.43224949236785898 0 0.33658962428999861 0.41133204962483783 0 0.34988972217452752 0.40801784569160632 0 0.33544075565789128 0.43224949236785898 0 0.32906281765607392 0.42006619542527468 0 0.33658962428999861 0.41133204962483783 0 0.33544075565789128 0.43224949236785898 0 0.34988972217452752 0.40801784569160632 0 0.32415045537600512 0.40999229503957763 0 0.32906281765607392 0.42006619542527468 0 0.33658962428999861 0.41133204962483783 0 0.33544075565789128 0.43224949236785898 0 0.34988972217452752 0.40801784569160632 0 0.35001853239939229 0.42365555934674631 0 0.34988972217452752 0.40801784569160632 0 0.36165970526353591 0.41519797525725338 0 0.36412400085156282 0.39702719229323191 0 0.34988972217452752 0.40801784569160632 0 0.35001853239939229 0.42365555934674631 0 0.36165970526353591 0.41519797525725338 0 0.35494335133579169 0.44207750056399991 0 0.33746945485668051 0.4332718215327816 0 0.365542703577178 0.42914551292816783 0 0.33746945485668051 0.4332718215327816 0 0.35001853239939229 0.42365555934674631 0 0.365542703577178 0.42914551292816783 0 0.33746945485668051 0.4332718215327816 0 0.365542703577178 0.42914551292816783 0 0.35001853239939229 0.42365555934674631 0 0.365542703577178 0.42914551292816783 0 0.36165970526353591 0.41519797525725338 0 0.365542703577178 0.42914551292816783 0 0.36165970526353591 0.41519797525725338 0 0.37744029411777058 0.41252948965876268 0 0.36165970526353591 0.41519797525725338 0 0.36412400085156282 0.39702719229323191 0 0.37744029411777058 0.41252948965876268 0 0.36412400085156282 0.39702719229323191 0 0.38026367080056678 0.39066664182047522 0 0.37744029411777058 0.41252948965876268 0 0.34988972217452752 0.40801784569160632 0 0.36412400085156282 0.39702719229323191 0 0.36433868869116592 0.38378619901535488 0 0.36433868869116592 0.38378619901535488 0 0.3773824667175657 0.37546563606013739 0 0.38026367080056678 0.39066664182047522 0 0.36433868869116592 0.38378619901535488 0 0.36474967577348072 0.36653341875104961 0 0.3773824667175657 0.37546563606013739 0 0.36412400085156282 0.39702719229323191 0 0.36433868869116592 0.38378619901535488 0 0.38026367080056678 0.39066664182047522 0 0.36433868869116592 0.38378619901535488 0 0.36474967577348072 0.36653341875104961 0 0.36412400085156282 0.39702719229323191 0 0.36433868869116592 0.38378619901535488 0 0.3376156911696272 0.37620073599141618 0 0.34879159400795012 0.38769315231290841 0 0.36474967577348072 0.36653341875104961 0 0.36433868869116592 0.38378619901535488 0 0.34879159400795012 0.38769315231290841 0 0.36474967577348072 0.36653341875104961 0 0.3351802944883514 0.39738750443412002 0 0.34988972217452752 0.40801784569160632 0 0.34879159400795012 0.38769315231290841 0 0.34988972217452752 0.40801784569160632 0 0.36433868869116592 0.38378619901535488 0 0.34988972217452752 0.40801784569160632 0 0.36433868869116592 0.38378619901535488 0 0.34879159400795012 0.38769315231290841 0 0.34699100967064078 0.35539672769273539 0 0.36474967577348072 0.36653341875104961 0 0.36518945593320651 0.34509967395937191 0 0.34699100967064078 0.35539672769273539 0 0.36518945593320651 0.34509967395937191 0 0.348137396692076 0.34077307725183559 0 0.3376156911696272 0.37620073599141618 0 0.34699100967064078 0.35539672769273539 0 0.36474967577348072 0.36653341875104961 0 0.3376156911696272 0.37620073599141618 0 0.36474967577348072 0.36653341875104961 0 0.36474967577348072 0.36653341875104961 0 0.36518945593320651 0.34509967395937191 0 0.36474967577348072 0.36653341875104961 0 0.36518945593320651 0.34509967395937191 0 0.3855881021147175 0.35910908792858098 0 0.36518945593320651 0.34509967395937191 0 0.36562923609293069 0.32366592916769399 0 0.36518945593320651 0.34509967395937191 0 0.36562923609293069 0.32366592916769399 0 0.348137396692076 0.34077307725183559 0 0.36518945593320651 0.34509967395937191 0 0.36562923609293069 0.32366592916769399 0 0.38128435600444488 0.32837669887387311 0 0.36562923609293069 0.32366592916769399 0 0.36606901625265492 0.30223218437601618 0 0.38242981621443428 0.31397380775534678 0 0.36562923609293069 0.32366592916769399 0 0.36606901625265492 0.30223218437601618 0 0.36562923609293069 0.32366592916769399 0 0.34238706329751362 0.32476320095938682 0 0.35183379698966949 0.31056891257481539 0 0.36562923609293069 0.32366592916769399 0 0.348137396692076 0.34077307725183559 0 0.34238706329751362 0.32476320095938682 0 0.348137396692076 0.34077307725183559 0 0.33072504187423118 0.34237289876026822 0 0.34238706329751362 0.32476320095938682 0 0.33072504187423118 0.34237289876026822 0 0.34238706329751362 0.32476320095938682 0 0.32122702449841589 0.32177081607522939 0 0.34238706329751362 0.32476320095938682 0 0.33644502425256478 0.30910566618648461 0 0.35183379698966949 0.31056891257481539 0 0.34238706329751362 0.32476320095938682 0 0.32122702449841589 0.32177081607522939 0 0.33644502425256478 0.30910566618648461 0 0.32122702449841589 0.32177081607522939 0 0.31445651652981632 0.33878768779705848 0 0.30372390616191358 0.32889084998335888 0 0.33072504187423118 0.34237289876026822 0 0.32122702449841589 0.32177081607522939 0 0.31445651652981632 0.33878768779705848 0 0.33072504187423118 0.34237289876026822 0 0.31445651652981632 0.33878768779705848 0 0.31594857135045817 0.35062531106266931 0 0.33072504187423118 0.34237289876026822 0 0.31594857135045817 0.35062531106266931 0 0.32442852787466708 0.36030442639367111 0 0.31594857135045817 0.35062531106266931 0 0.32442852787466708 0.36030442639367111 0 0.31156622091740832 0.36111849420004938 0 0.34699100967064078 0.35539672769273539 0 0.348137396692076 0.34077307725183559 0 0.33072504187423118 0.34237289876026822 0 0.34699100967064078 0.35539672769273539 0 0.33072504187423118 0.34237289876026822 0 0.32442852787466708 0.36030442639367111 0 0.3376156911696272 0.37620073599141618 0 0.34699100967064078 0.35539672769273539 0 0.32442852787466708 0.36030442639367111 0 0.3376156911696272 0.37620073599141618 0 0.32442852787466708 0.36030442639367111 0 0.31717345926189522 0.3709258031848055 0 0.32442852787466708 0.36030442639367111 0 0.31717345926189522 0.3709258031848055 0 0.31156622091740832 0.36111849420004938 0 0.30177514978199971 0.3711373061071076 0 0.30274952797195698 0.35001407804523332 0 0.31717345926189522 0.3709258031848055 0 0.31156622091740832 0.36111849420004938 0 0.30177514978199971 0.3711373061071076 0 0.31156622091740832 0.36111849420004938 0 0.30177514978199971 0.3711373061071076 0 0.30274952797195698 0.35001407804523332 0 0.30177514978199971 0.3711373061071076 0 0.30274952797195698 0.35001407804523332 0 0.29106955940472562 0.3530243656434488 0 0.31445651652981632 0.33878768779705848 0 0.31594857135045817 0.35062531106266931 0 0.30274952797195698 0.35001407804523332 0 0.31594857135045817 0.35062531106266931 0 0.31156622091740832 0.36111849420004938 0 0.30274952797195698 0.35001407804523332 0 0.29106955940472562 0.3530243656434488 0 0.28705150305193838 0.35613499197806497 0 0.28036396902745148 0.33491142517978989 0 0.28705150305193838 0.35613499197806497 0 0.28036396902745148 0.33491142517978989 0 0.28705150305193838 0.35613499197806497 0 0.27644360280618341 0.34191623842927221 0 0.28036396902745148 0.33491142517978989 0 0.29106955940472562 0.3530243656434488 0 0.28036396902745148 0.33491142517978989 0 0.30274952797195698 0.35001407804523332 0 0.29106955940472562 0.3530243656434488 0 0.29374099595638509 0.3392252011883215 0 0.28705150305193838 0.35613499197806497 0 0.28458867991473008 0.36361942358965982 0 0.27543832275303448 0.34988028840297991 0 0.29405085274881382 0.37834813740539031 0 0.28705150305193838 0.35613499197806497 0 0.28458867991473008 0.36361942358965982 0 0.29405085274881382 0.37834813740539031 0 0.28705150305193838 0.35613499197806497 0 0.30177514978199971 0.3711373061071076 0 0.29106955940472562 0.3530243656434488 0 0.29405085274881382 0.37834813740539031 0 0.30177514978199971 0.3711373061071076 0 0.28705150305193838 0.35613499197806497 0 0.30177514978199971 0.3711373061071076 0 0.29106955940472562 0.3530243656434488 0 0.28705150305193838 0.35613499197806497 0 0.29405085274881382 0.37834813740539031 0 0.28458867991473008 0.36361942358965982 0 0.28403056220722062 0.37531448917755911 0 0.2815017213106239 0.3651550498314205 0 0.27898286169525299 0.37041503512408969 0 0.29405085274881382 0.37834813740539031 0 0.2815017213106239 0.3651550498314205 0 0.28403056220722062 0.37531448917755911 0 0.29405085274881382 0.37834813740539031 0 0.2815017213106239 0.3651550498314205 0 0.29405085274881382 0.37834813740539031 0 0.28458867991473008 0.36361942358965982 0 0.2815017213106239 0.3651550498314205 0 0.28403056220722062 0.37531448917755911 0 0.27898286169525299 0.37041503512408969 0 0.2737626695690904 0.37327007608818358 0 0.27663649369407689 0.36792052539919551 0 0.2737626695690904 0.37327007608818358 0 0.27125000512352843 0.36234153133647429 0 0.27405714121884811 0.38409687161834088 0 0.2737626695690904 0.37327007608818358 0 0.2618259464583832 0.36726095095448358 0 0.2815017213106239 0.3651550498314205 0 0.27898286169525299 0.37041503512408969 0 0.27663649369407689 0.36792052539919551 0 0.27898286169525299 0.37041503512408969 0 0.27663649369407689 0.36792052539919551 0 0.2737626695690904 0.37327007608818358 0 0.2737626695690904 0.37327007608818358 0 0.27125000512352843 0.36234153133647429 0 0.2618259464583832 0.36726095095448358 0 0.27125000512352843 0.36234153133647429 0 0.26895258987243392 0.3519619622574508 0 0.2618259464583832 0.36726095095448358 0 0.2815017213106239 0.3651550498314205 0 0.27125000512352843 0.36234153133647429 0 0.26895258987243392 0.3519619622574508 0 0.2815017213106239 0.3651550498314205 0 0.27663649369407689 0.36792052539919551 0 0.27125000512352843 0.36234153133647429 0 0.28458867991473008 0.36361942358965982 0 0.2815017213106239 0.3651550498314205 0 0.27543832275303448 0.34988028840297991 0 0.2815017213106239 0.3651550498314205 0 0.26895258987243392 0.3519619622574508 0 0.28458867991473008 0.36361942358965982 0 0.27543832275303448 0.34988028840297991 0 0.26895258987243392 0.3519619622574508 0 0.2618259464583832 0.36726095095448358 0 0.2684557314338783 0.34271033597269462 0 0.2815017213106239 0.3651550498314205 0 0.27543832275303448 0.34988028840297991 0 0.26895258987243392 0.3519619622574508 0 0.28705150305193838 0.35613499197806497 0 0.27543832275303448 0.34988028840297991 0 0.27644360280618341 0.34191623842927221 0 0.27543832275303448 0.34988028840297991 0 0.2684557314338783 0.34271033597269462 0 0.27644360280618341 0.34191623842927221 0 0.27543832275303448 0.34988028840297991 0 0.26895258987243392 0.3519619622574508 0 0.2684557314338783 0.34271033597269462 0 0.2618259464583832 0.36726095095448358 0 0.2684557314338783 0.34271033597269462 0 0.24521693247762111 0.35027114815259558 0 0.2618259464583832 0.36726095095448358 0 0.2684557314338783 0.34271033597269462 0 0.24305895760768401 0.36641304215893011 0 0.24521693247762111 0.35027114815259558 0 0.2618259464583832 0.36726095095448358 0 0.24490867605631639 0.32967072069511189 0 0.26050839607327853 0.32387463406168998 0 0.25114017462525878 0.31153615041935723 0 0.26050839607327853 0.32387463406168998 0 0.25114017462525878 0.31153615041935723 0 0.26342424027676908 0.31148804944983333 0 0.24490867605631639 0.32967072069511189 0 0.26050839607327853 0.32387463406168998 0 0.2684557314338783 0.34271033597269462 0 0.24490867605631639 0.32967072069511189 0 0.24521693247762111 0.35027114815259558 0 0.2684557314338783 0.34271033597269462 0 0.26050839607327853 0.32387463406168998 0 0.2684557314338783 0.34271033597269462 0 0.27508551640937329 0.31815972099090539 0 0.2684557314338783 0.34271033597269462 0 0.27508551640937329 0.31815972099090539 0 0.2684557314338783 0.34271033597269462 0 0.27787730485363338 0.33070420273373929 0 0.27508551640937329 0.31815972099090539 0 0.2684557314338783 0.34271033597269462 0 0.27644360280618341 0.34191623842927221 0 0.27787730485363338 0.33070420273373929 0 0.27644360280618341 0.34191623842927221 0 0.28036396902745148 0.33491142517978989 0 0.27787730485363338 0.33070420273373929 0 0.28036396902745148 0.33491142517978989 0 0.27787730485363338 0.33070420273373929 0 0.28036396902745148 0.33491142517978989 0 0.27787730485363338 0.33070420273373929 0 0.27508551640937329 0.31815972099090539 0 0.28036396902745148 0.33491142517978989 0 0.27508551640937329 0.31815972099090539 0 0.26050839607327853 0.32387463406168998 0 0.27508551640937329 0.31815972099090539 0 0.26342424027676908 0.31148804944983333 0 0.27584787744150779 0.31533663815394608 0 0.27508551640937329 0.31815972099090539 0 0.2839587577339367 0.31315639516335231 0 0.27584787744150779 0.31533663815394608 0 0.27508551640937329 0.31815972099090539 0 0.28036396902745148 0.33491142517978989 0 0.27508551640937329 0.31815972099090539 0 0.28884331716543121 0.32432796479040632 0 0.27508551640937329 0.31815972099090539 0 0.2839587577339367 0.31315639516335231 0 0.28884331716543121 0.32432796479040632 0 0.2839587577339367 0.31315639516335231 0 0.28884331716543121 0.32432796479040632 0 0.29436859405188742 0.31561290386725788 0 0.28884331716543121 0.32432796479040632 0 0.29436859405188742 0.31561290386725788 0 0.30372390616191358 0.32889084998335888 0 0.29106955940472562 0.3530243656434488 0 0.28036396902745148 0.33491142517978989 0 0.29374099595638509 0.3392252011883215 0 0.28036396902745148 0.33491142517978989 0 0.28884331716543121 0.32432796479040632 0 0.29374099595638509 0.3392252011883215 0 0.28884331716543121 0.32432796479040632 0 0.29374099595638509 0.3392252011883215 0 0.30372390616191358 0.32889084998335888 0 0.30274952797195698 0.35001407804523332 0 0.29374099595638509 0.3392252011883215 0 0.30372390616191358 0.32889084998335888 0 0.31445651652981632 0.33878768779705848 0 0.30274952797195698 0.35001407804523332 0 0.30372390616191358 0.32889084998335888 0 0.30274952797195698 0.35001407804523332 0 0.30372390616191358 0.32889084998335888 0 0.29436859405188742 0.31561290386725788 0 0.30372390616191358 0.32889084998335888 0 0.30469828435187041 0.30776762192148471 0 0.32122702449841589 0.32177081607522939 0 0.30372390616191358 0.32889084998335888 0 0.30469828435187041 0.30776762192148471 0 0.30372390616191358 0.32889084998335888 0 0.30469828435187041 0.30776762192148471 0 0.30469828435187041 0.30776762192148471 0 0.29887142377560671 0.29447355700322281 0 0.31975384086217118 0.29390073052843008 0 0.30469828435187041 0.30776762192148471 0 0.29887142377560671 0.29447355700322281 0 0.29061870484628499 0.30392168747768772 0 0.29887142377560671 0.29447355700322281 0 0.29803417524575498 0.27809430922643119 0 0.31975384086217118 0.29390073052843008 0 0.29887142377560671 0.29447355700322281 0 0.28125211357195179 0.28868343586208051 0 0.29803417524575498 0.27809430922643119 0 0.29887142377560671 0.29447355700322281 0 0.28125211357195179 0.28868343586208051 0 0.29061870484628499 0.30392168747768772 0 0.29436859405188742 0.31561290386725788 0 0.30469828435187041 0.30776762192148471 0 0.29061870484628499 0.30392168747768772 0 0.2839587577339367 0.31315639516335231 0 0.29436859405188742 0.31561290386725788 0 0.29061870484628499 0.30392168747768772 0 0.28125211357195179 0.28868343586208051 0 0.29061870484628499 0.30392168747768772 0 0.27979091010679558 0.3031930520058399 0 0.2839587577339367 0.31315639516335231 0 0.29061870484628499 0.30392168747768772 0 0.27979091010679558 0.3031930520058399 0 0.27584787744150779 0.31533663815394608 0 0.2839587577339367 0.31315639516335231 0 0.27979091010679558 0.3031930520058399 0 0.27584787744150779 0.31533663815394608 0 0.27979091010679558 0.3031930520058399 0 0.26696287399916629 0.2923816923273807 0 0.27508551640937329 0.31815972099090539 0 0.26696287399916629 0.2923816923273807 0 0.27508551640937329 0.31815972099090539 0 0.26696287399916629 0.2923816923273807 0 0.26342424027676908 0.31148804944983333 0 0.27584787744150779 0.31533663815394608 0 0.27508551640937329 0.31815972099090539 0 0.26696287399916629 0.2923816923273807 0 0.28125211357195179 0.28868343586208051 0 0.26696287399916629 0.2923816923273807 0 0.26185531842249993 0.2787869231154117 0 0.28125211357195179 0.28868343586208051 0 0.27979091010679558 0.3031930520058399 0 0.26696287399916629 0.2923816923273807 0 0.2454028482605469 0.29267792886045368 0 0.26696287399916629 0.2923816923273807 0 0.26185531842249993 0.2787869231154117 0 0.24818821145747599 0.27522177653690871 0 0.2454028482605469 0.29267792886045368 0 0.26185531842249993 0.2787869231154117 0 0.26696287399916629 0.2923816923273807 0 0.25114017462525878 0.31153615041935723 0 0.26342424027676908 0.31148804944983333 0 0.2454028482605469 0.29267792886045368 0 0.26696287399916629 0.2923816923273807 0 0.25114017462525878 0.31153615041935723 0 0.25404003316197471 0.25208422786308371 0 0.25530776412370298 0.26639583896058622 0 0.27103688063193948 0.26427270241964718 0 0.24090080429007341 0.26281353644332878 0 0.25404003316197471 0.25208422786308371 0 0.25530776412370298 0.26639583896058622 0 0.25530776412370298 0.26639583896058622 0 0.26185531842249993 0.2787869231154117 0 0.27103688063193948 0.26427270241964718 0 0.24818821145747599 0.27522177653690871 0 0.25530776412370298 0.26639583896058622 0 0.26185531842249993 0.2787869231154117 0 0.28125211357195179 0.28868343586208051 0 0.26185531842249993 0.2787869231154117 0 0.27103688063193948 0.26427270241964718 0 0.25404003316197471 0.25208422786308371 0 0.27103688063193948 0.26427270241964718 0 0.27355486584907379 0.24364475180805101 0 0.27103688063193948 0.26427270241964718 0 0.29692855903906679 0.25537037528416417 0 0.27355486584907379 0.24364475180805101 0 0.27103688063193948 0.26427270241964718 0 0.29803417524575498 0.27809430922643119 0 0.29692855903906679 0.25537037528416417 0 0.28125211357195179 0.28868343586208051 0 0.27103688063193948 0.26427270241964718 0 0.29803417524575498 0.27809430922643119 0 0.29803417524575498 0.27809430922643119 0 0.29692855903906679 0.25537037528416417 0 0.32239972953691409 0.26902358330948362 0 0.29692855903906679 0.25537037528416417 0 0.32239972953691409 0.26902358330948362 0 0.32448256229391081 0.244023600812113 0 0.34859232732963041 0.2656914204712259 0 0.32448256229391081 0.244023600812113 0 0.35052125483258301 0.2434514759103418 0 0.32239972953691409 0.26902358330948362 0 0.34859232732963041 0.2656914204712259 0 0.32448256229391081 0.244023600812113 0 0.32239972953691409 0.26902358330948362 0 0.34580587121379802 0.29027056413174801 0 0.34859232732963041 0.2656914204712259 0 0.32239972953691409 0.26902358330948362 0 0.34859232732963041 0.2656914204712259 0 0.29803417524575498 0.27809430922643119 0 0.32239972953691409 0.26902358330948362 0 0.31975384086217118 0.29390073052843008 0 0.32122702449841589 0.32177081607522939 0 0.30469828435187041 0.30776762192148471 0 0.31975384086217118 0.29390073052843008 0 0.32122702449841589 0.32177081607522939 0 0.31975384086217118 0.29390073052843008 0 0.33644502425256478 0.30910566618648461 0 0.31975384086217118 0.29390073052843008 0 0.33644502425256478 0.30910566618648461 0 0.34580587121379802 0.29027056413174801 0 0.32239972953691409 0.26902358330948362 0 0.31975384086217118 0.29390073052843008 0 0.34580587121379802 0.29027056413174801 0 0.34580587121379802 0.29027056413174801 0 0.35183379698966949 0.31056891257481539 0 0.36606901625265492 0.30223218437601618 0 0.33644502425256478 0.30910566618648461 0 0.34580587121379802 0.29027056413174801 0 0.35183379698966949 0.31056891257481539 0 0.36562923609293069 0.32366592916769399 0 0.35183379698966949 0.31056891257481539 0 0.36606901625265492 0.30223218437601618 0 0.36606901625265492 0.30223218437601618 0 0.37288852905391068 0.28307277276217568 0 0.38313639778678782 0.29894980138166888 0 0.34580587121379802 0.29027056413174801 0 0.36606901625265492 0.30223218437601618 0 0.37288852905391068 0.28307277276217568 0 0.37288852905391068 0.28307277276217568 0 0.37478492512234668 0.26235925763296819 0 0.34859232732963041 0.2656914204712259 0 0.37478492512234668 0.26235925763296819 0 0.34859232732963041 0.2656914204712259 0 0.37478492512234668 0.26235925763296819 0 0.34859232732963041 0.2656914204712259 0 0.35052125483258301 0.2434514759103418 0 0.34580587121379802 0.29027056413174801 0 0.37288852905391068 0.28307277276217568 0 0.34859232732963041 0.2656914204712259 0 0.40237095019481112 0.27711100542787093 0 0.40097752291506289 0.25902709479471048 0 0.38795285511664351 0.27501277358291848 0 0.40237095019481112 0.27711100542787093 0 0.38795285511664351 0.27501277358291848 0 0.39245341439736259 0.28869000139839213 0 0.37478492512234668 0.26235925763296819 0 0.40097752291506289 0.25902709479471048 0 0.37478492512234668 0.26235925763296819 0 0.40097752291506289 0.25902709479471048 0 0.38795285511664351 0.27501277358291848 0 0.37478492512234668 0.26235925763296819 0 0.40097752291506289 0.25902709479471048 0 0.39333580902427501 0.24081282939082621 0 0.37288852905391068 0.28307277276217568 0 0.37478492512234668 0.26235925763296819 0 0.38795285511664351 0.27501277358291848 0 0.37288852905391068 0.28307277276217568 0 0.38795285511664351 0.27501277358291848 0 0.39245341439736259 0.28869000139839213 0 0.37288852905391068 0.28307277276217568 0 0.38313639778678782 0.29894980138166888 0 0.39245341439736259 0.28869000139839213 0 0.38313639778678782 0.29894980138166888 0 0.40184121301557668 0.30678024061641418 0 0.38242981621443428 0.31397380775534678 0 0.36606901625265492 0.30223218437601618 0 0.38313639778678782 0.29894980138166888 0 0.38242981621443428 0.31397380775534678 0 0.38313639778678782 0.29894980138166888 0 0.40184121301557668 0.30678024061641418 0 0.39245341439736259 0.28869000139839213 0 0.40184121301557668 0.30678024061641418 0 0.39245341439736259 0.28869000139839213 0 0.4080647950624654 0.29173952990842672 0 0.40237095019481112 0.27711100542787093 0 0.39245341439736259 0.28869000139839213 0 0.4080647950624654 0.29173952990842672 0 0.4080647950624654 0.29173952990842672 0 0.42111158276914429 0.29961990628964941 0 0.41801819212357011 0.2740782959756311 0 0.42111158276914429 0.29961990628964941 0 0.41801819212357011 0.2740782959756311 0 0.42111158276914429 0.29961990628964941 0 0.41431845905081632 0.31211616404088999 0 0.42420497341471841 0.32516151660366771 0 0.40184121301557668 0.30678024061641418 0 0.41169384258873692 0.3030193229363472 0 0.41431845905081632 0.31211616404088999 0 0.4080647950624654 0.29173952990842672 0 0.41169384258873692 0.3030193229363472 0 0.42111158276914429 0.29961990628964941 0 0.40184121301557668 0.30678024061641418 0 0.4080647950624654 0.29173952990842672 0 0.41169384258873692 0.3030193229363472 0 0.41169384258873692 0.3030193229363472 0 0.42111158276914429 0.29961990628964941 0 0.41431845905081632 0.31211616404088999 0 0.42111158276914429 0.29961990628964941 0 0.42420497341471841 0.32516151660366771 0 0.42111158276914429 0.29961990628964941 0 0.42968026012840121 0.30115694743242971 0 0.43130474666914309 0.31304161877190062 0 0.42968026012840121 0.30115694743242971 0 0.44258646999382029 0.30990113159980692 0 0.42968026012840121 0.30115694743242971 0 0.44258646999382029 0.30990113159980692 0 0.43130474666914309 0.31304161877190062 0 0.42111158276914429 0.29961990628964941 0 0.42800801910193731 0.28582653817902792 0 0.41801819212357011 0.2740782959756311 0 0.42968026012840121 0.30115694743242971 0 0.42800801910193731 0.28582653817902792 0 0.44797459424715858 0.28113195035900113 0 0.42111158276914429 0.29961990628964941 0 0.42968026012840121 0.30115694743242971 0 0.42800801910193731 0.28582653817902792 0 0.4349067289361882 0.26981889711766149 0 0.41801819212357011 0.2740782959756311 0 0.42717012070777932 0.25569493195645271 0 0.42800801910193731 0.28582653817902792 0 0.4349067289361882 0.26981889711766149 0 0.44797459424715858 0.28113195035900113 0 0.42800801910193731 0.28582653817902792 0 0.4349067289361882 0.26981889711766149 0 0.41801819212357011 0.2740782959756311 0 0.40237095019481112 0.27711100542787093 0 0.4080647950624654 0.29173952990842672 0 0.41801819212357011 0.2740782959756311 0 0.40237095019481112 0.27711100542787093 0 0.40097752291506289 0.25902709479471048 0 0.41801819212357011 0.2740782959756311 0 0.40097752291506289 0.25902709479471048 0 0.42717012070777932 0.25569493195645271 0 0.40097752291506289 0.25902709479471048 0 0.41801819212357011 0.2740782959756311 0 0.42717012070777932 0.25569493195645271 0 0.40097752291506289 0.25902709479471048 0 0.42717012070777932 0.25569493195645271 0 0.41286841049430861 0.24788583003777651 0 0.42717012070777932 0.25569493195645271 0 0.45336271850049548 0.25236276911819511 0 0.42717012070777932 0.25569493195645271 0 0.45336271850049548 0.25236276911819511 0 0.44134696414428898 0.24814556957704689 0 0.4349067289361882 0.26981889711766149 0 0.42717012070777932 0.25569493195645271 0 0.45336271850049548 0.25236276911819511 0 0.44797459424715858 0.28113195035900113 0 0.45336271850049548 0.25236276911819511 0 0.4349067289361882 0.26981889711766149 0 0.44797459424715858 0.28113195035900113 0 0.45336271850049548 0.25236276911819511 0 0.44797459424715858 0.28113195035900113 0 0.46860043072286323 0.26090172283992602 0 0.47518926652314969 0.27560515809727743 0 0.44797459424715858 0.28113195035900113 0 0.45336271850049548 0.25236276911819511 0 0.46860043072286323 0.26090172283992602 0 0.45336271850049548 0.25236276911819511 0 0.46860043072286323 0.26090172283992602 0 0.48180965237011408 0.2487438147612096 0 0.45336271850049548 0.25236276911819511 0 0.48180965237011408 0.2487438147612096 0 0.46860043072286323 0.26090172283992602 0 0.48241006781490819 0.26268970127635521 0 0.48180965237011408 0.2487438147612096 0 0.46860043072286323 0.26090172283992602 0 0.48241006781490819 0.26268970127635521 0 0.47518926652314969 0.27560515809727743 0 0.48241006781490819 0.26268970127635521 0 0.47518926652314969 0.27560515809727743 0 0.48864569132575902 0.27555399191102209 0 0.48864569132575902 0.27555399191102209 0 0.5 0.25788891558126559 0 0.5 0.28784398070901179 0 0.48241006781490819 0.26268970127635521 0 0.5 0.25788891558126559 0 0.48180965237011408 0.2487438147612096 0 0.48241006781490819 0.26268970127635521 0 0.48864569132575902 0.27555399191102209 0 0.5 0.25788891558126559 0 0.49687855588093471 0.30562269631142192 0 0.5 0.28784398070901179 0 0.5 0.31779904583675789 0 0.48491490847636098 0.30901068293115042 0 0.49687855588093471 0.30562269631142192 0 0.48562912229073679 0.29374220389120048 0 0.48491490847636098 0.30901068293115042 0 0.49687855588093471 0.30562269631142192 0 0.48893996521802741 0.32077530068026477 0 0.48864569132575902 0.27555399191102209 0 0.5 0.28784398070901179 0 0.48562912229073679 0.29374220389120048 0 0.49687855588093471 0.30562269631142192 0 0.5 0.28784398070901179 0 0.48562912229073679 0.29374220389120048 0 0.47518926652314969 0.27560515809727743 0 0.48864569132575902 0.27555399191102209 0 0.48562912229073679 0.29374220389120048 0 0.47518926652314969 0.27560515809727743 0 0.48562912229073679 0.29374220389120048 0 0.46816558308298489 0.29083511245767268 0 0.48562912229073679 0.29374220389120048 0 0.47222103054853309 0.30536857664361422 0 0.46816558308298489 0.29083511245767268 0 0.48491490847636098 0.30901068293115042 0 0.48562912229073679 0.29374220389120048 0 0.47222103054853309 0.30536857664361422 0 0.48491490847636098 0.30901068293115042 0 0.47222103054853309 0.30536857664361422 0 0.47648252662976798 0.31886183994020412 0 0.47222103054853309 0.30536857664361422 0 0.45866337291811637 0.30169365927876157 0 0.46179392227446953 0.32291451832445861 0 0.45866337291811637 0.30169365927876157 0 0.44258646999382029 0.30990113159980692 0 0.46179392227446953 0.32291451832445861 0 0.47222103054853309 0.30536857664361422 0 0.45866337291811637 0.30169365927876157 0 0.46816558308298489 0.29083511245767268 0 0.44797459424715858 0.28113195035900113 0 0.45866337291811637 0.30169365927876157 0 0.46816558308298489 0.29083511245767268 0 0.44797459424715858 0.28113195035900113 0 0.47518926652314969 0.27560515809727743 0 0.46816558308298489 0.29083511245767268 0 0.44797459424715858 0.28113195035900113 0 0.44258646999382029 0.30990113159980692 0 0.42968026012840121 0.30115694743242971 0 0.44797459424715858 0.28113195035900113 0 0.44258646999382029 0.30990113159980692 0 0.44797459424715858 0.28113195035900113 0 0.45866337291811637 0.30169365927876157 0 0.44258646999382029 0.30990113159980692 0 0.44258646999382029 0.30990113159980692 0 0.46179392227446953 0.32291451832445861 0 0.44258646999382029 0.30990113159980692 0 0.43894044703962998 0.32936859193394902 0 0.46179392227446953 0.32291451832445861 0 0.44258646999382029 0.30990113159980692 0 0.43894044703962998 0.32936859193394902 0 0.44258646999382029 0.30990113159980692 0 0.43894044703962998 0.32936859193394902 0 0.43130474666914309 0.31304161877190062 0 0.43894044703962998 0.32936859193394902 0 0.45181909328986353 0.33594590439129729 0 0.43529442408543872 0.34883605226809089 0 0.43894044703962998 0.32936859193394902 0 0.45181909328986353 0.33594590439129729 0 0.46179392227446953 0.32291451832445861 0 0.45181909328986353 0.33594590439129729 0 0.46495921083649527 0.33796731498031379 0 0.45493863887308472 0.34850758154427958 0 0.45181909328986353 0.33594590439129729 0 0.46495921083649527 0.33796731498031379 0 0.46179392227446953 0.32291451832445861 0 0.47648252662976798 0.31886183994020412 0 0.48100137455512032 0.33592790504910791 0 0.48893996521802741 0.32077530068026477 0 0.46179392227446953 0.32291451832445861 0 0.47648252662976798 0.31886183994020412 0 0.48100137455512032 0.33592790504910791 0 0.47222103054853309 0.30536857664361422 0 0.46179392227446953 0.32291451832445861 0 0.47648252662976798 0.31886183994020412 0 0.48491490847636098 0.30901068293115042 0 0.47648252662976798 0.31886183994020412 0 0.48893996521802741 0.32077530068026477 0 0.46179392227446953 0.32291451832445861 0 0.48100137455512032 0.33592790504910791 0 0.46495921083649527 0.33796731498031379 0 0.48100137455512032 0.33592790504910791 0 0.47458285366073072 0.34817911082046721 0 0.46495921083649527 0.33796731498031379 0 0.46179392227446953 0.32291451832445861 0 0.48100137455512032 0.33592790504910791 0 0.48100137455512032 0.33592790504910791 0 0.47458285366073072 0.34817911082046721 0 0.48100137455512032 0.33592790504910791 0 0.48893996521802741 0.32077530068026477 0 0.48100137455512032 0.33592790504910791 0 0.4984937498586452 0.34777929695842291 0 0.5 0.31779904583675789 0 0.48893996521802741 0.32077530068026477 0 0.4984937498586452 0.34777929695842291 0 0.5 0.31779904583675789 0 0.4984937498586452 0.34777929695842291 0 0.50000000000000433 0.34775411096450393 0 0.48100137455512032 0.33592790504910791 0 0.48893996521802741 0.32077530068026477 0 0.4984937498586452 0.34777929695842291 0 0.49687855588093471 0.30562269631142192 0 0.48893996521802741 0.32077530068026477 0 0.49687855588093471 0.30562269631142192 0 0.5 0.31779904583675789 0 0.48893996521802741 0.32077530068026477 0 0.5 0.37175840028027313 0 0.48688174284785979 0.35971936811564431 0 0.50000000000000433 0.34775411096450393 0 0.5 0.37175840028027313 0 0.48688174284785979 0.35971936811564431 0 0.48177296974371542 0.3780796821533936 0 0.48100137455512032 0.33592790504910791 0 0.4984937498586452 0.34777929695842291 0 0.47458285366073072 0.34817911082046721 0 0.48688174284785979 0.35971936811564431 0 0.4984937498586452 0.34777929695842291 0 0.47458285366073072 0.34817911082046721 0 0.48688174284785979 0.35971936811564431 0 0.4984937498586452 0.34777929695842291 0 0.50000000000000433 0.34775411096450393 0 0.4984937498586452 0.34777929695842291 0 0.47458285366073072 0.34817911082046721 0 0.4984937498586452 0.34777929695842291 0 0.50000000000000433 0.34775411096450393 0 0.48688174284785979 0.35971936811564431 0 0.47458285366073072 0.34817911082046721 0 0.46644088382406917 0.36371991056145853 0 0.47458285366073072 0.34817911082046721 0 0.46644088382406917 0.36371991056145853 0 0.46644088382406917 0.36371991056145853 0 0.45829891398740957 0.37926071030245079 0 0.48177296974371542 0.3780796821533936 0 0.48688174284785979 0.35971936811564431 0 0.46644088382406917 0.36371991056145853 0 0.48177296974371542 0.3780796821533936 0 0.46644088382406917 0.36371991056145853 0 0.45829891398740957 0.37926071030245079 0 0.46644088382406917 0.36371991056145853 0 0.45450488254489102 0.36219879314378839 0 0.45829891398740957 0.37926071030245079 0 0.46495921083649527 0.33796731498031379 0 0.47458285366073072 0.34817911082046721 0 0.45493863887308472 0.34850758154427958 0 0.47458285366073072 0.34817911082046721 0 0.45493863887308472 0.34850758154427958 0 0.47458285366073072 0.34817911082046721 0 0.46644088382406917 0.36371991056145853 0 0.45493863887308472 0.34850758154427958 0 0.46644088382406917 0.36371991056145853 0 0.45450488254489102 0.36219879314378839 0 0.45493863887308472 0.34850758154427958 0 0.45181909328986353 0.33594590439129729 0 0.45493863887308472 0.34850758154427958 0 0.43529442408543872 0.34883605226809089 0 0.45493863887308472 0.34850758154427958 0 0.44448268479035308 0.35511800724889642 0 0.43529442408543872 0.34883605226809089 0 0.45493863887308472 0.34850758154427958 0 0.43529442408543872 0.34883605226809089 0 0.45450488254489102 0.36219879314378839 0 0.45493863887308472 0.34850758154427958 0 0.44448268479035308 0.35511800724889642 0 0.44448268479035308 0.35511800724889642 0 0.44279863902385319 0.36498191861006751 0 0.43487683942449812 0.35106569067825599 0 0.44448268479035308 0.35511800724889642 0 0.43529442408543872 0.34883605226809089 0 0.43487683942449812 0.35106569067825599 0 0.45450488254489102 0.36219879314378839 0 0.44279863902385319 0.36498191861006751 0 0.45829891398740957 0.37926071030245079 0 0.44279863902385319 0.36498191861006751 0 0.45829891398740957 0.37926071030245079 0 0.45450488254489102 0.36219879314378839 0 0.44448268479035308 0.35511800724889642 0 0.44279863902385319 0.36498191861006751 0 0.42892444364691579 0.3641293946929936 0 0.42225433889660879 0.37545697575276449 0 0.43605286711449009 0.38080977408974359 0 0.44279863902385319 0.36498191861006751 0 0.42892444364691579 0.3641293946929936 0 0.43605286711449009 0.38080977408974359 0 0.44279863902385319 0.36498191861006751 0 0.42892444364691579 0.3641293946929936 0 0.42729836406029548 0.35070312691768563 0 0.42892444364691579 0.3641293946929936 0 0.41660844069210962 0.35988002802349189 0 0.42225433889660879 0.37545697575276449 0 0.41660844069210962 0.35988002802349189 0 0.40918213701441342 0.3736144609854074 0 0.42225433889660879 0.37545697575276449 0 0.41660844069210962 0.35988002802349189 0 0.40918213701441342 0.3736144609854074 0 0.40205795884979889 0.36380219258680641 0 0.40642652845595439 0.35168475710611302 0 0.41593005466970517 0.35003896004439389 0 0.41338688547046137 0.33788792813028518 0 0.41660844069210962 0.35988002802349189 0 0.40642652845595439 0.35168475710611302 0 0.40205795884979889 0.36380219258680641 0 0.41660844069210962 0.35988002802349189 0 0.40642652845595439 0.35168475710611302 0 0.41593005466970517 0.35003896004439389 0 0.41660844069210962 0.35988002802349189 0 0.41593005466970517 0.35003896004439389 0 0.42729836406029548 0.35070312691768563 0 0.42729836406029548 0.35070312691768563 0 0.41338688547046137 0.33788792813028518 0 0.41593005466970517 0.35003896004439389 0 0.42729836406029548 0.35070312691768563 0 0.41338688547046137 0.33788792813028518 0 0.42892444364691579 0.3641293946929936 0 0.41660844069210962 0.35988002802349189 0 0.42729836406029548 0.35070312691768563 0 0.42892444364691579 0.3641293946929936 0 0.42729836406029548 0.35070312691768563 0 0.44279863902385319 0.36498191861006751 0 0.42729836406029548 0.35070312691768563 0 0.43487683942449812 0.35106569067825599 0 0.44279863902385319 0.36498191861006751 0 0.42729836406029548 0.35070312691768563 0 0.43109136567724748 0.3489063315667284 0 0.43529442408543872 0.34883605226809089 0 0.42729836406029548 0.35070312691768563 0 0.43109136567724748 0.3489063315667284 0 0.43487683942449812 0.35106569067825599 0 0.43109136567724748 0.3489063315667284 0 0.43529442408543872 0.34883605226809089 0 0.43487683942449812 0.35106569067825599 0 0.43529442408543872 0.34883605226809089 0 0.43487683942449812 0.35106569067825599 0 0.42729836406029548 0.35070312691768563 0 0.42420497341471841 0.32516151660366771 0 0.43894044703962998 0.32936859193394902 0 0.43529442408543872 0.34883605226809089 0 0.43894044703962998 0.32936859193394902 0 0.43109136567724748 0.3489063315667284 0 0.43529442408543872 0.34883605226809089 0 0.42729836406029548 0.35070312691768563 0 0.43109136567724748 0.3489063315667284 0 0.42420497341471841 0.32516151660366771 0 0.43894044703962998 0.32936859193394902 0 0.43109136567724748 0.3489063315667284 0 0.42420497341471841 0.32516151660366771 0 0.43894044703962998 0.32936859193394902 0 0.43130474666914309 0.31304161877190062 0 0.42420497341471841 0.32516151660366771 0 0.42111158276914429 0.29961990628964941 0 0.43130474666914309 0.31304161877190062 0 0.42420497341471841 0.32516151660366771 0 0.40184121301557668 0.30678024061641418 0 0.41431845905081632 0.31211616404088999 0 0.41140534993910638 0.32360132811636988 0 0.41431845905081632 0.31211616404088999 0 0.42420497341471841 0.32516151660366771 0 0.41140534993910638 0.32360132811636988 0 0.42729836406029548 0.35070312691768563 0 0.42420497341471841 0.32516151660366771 0 0.41338688547046137 0.33788792813028518 0 0.42420497341471841 0.32516151660366771 0 0.41140534993910638 0.32360132811636988 0 0.41338688547046137 0.33788792813028518 0 0.41140534993910638 0.32360132811636988 0 0.41338688547046137 0.33788792813028518 0 0.39947540688062583 0.32507272934288628 0 0.41338688547046137 0.33788792813028518 0 0.39947540688062583 0.32507272934288628 0 0.40642652845595439 0.35168475710611302 0 0.41338688547046137 0.33788792813028518 0 0.39105145014164849 0.3414869239971704 0 0.41338688547046137 0.33788792813028518 0 0.39105145014164849 0.3414869239971704 0 0.39947540688062583 0.32507272934288628 0 0.40184121301557668 0.30678024061641418 0 0.41140534993910638 0.32360132811636988 0 0.39947540688062583 0.32507272934288628 0 0.40184121301557668 0.30678024061641418 0 0.39947540688062583 0.32507272934288628 0 0.38242981621443428 0.31397380775534678 0 0.36562923609293069 0.32366592916769399 0 0.38242981621443428 0.31397380775534678 0 0.38128435600444488 0.32837669887387311 0 0.39947540688062583 0.32507272934288628 0 0.38242981621443428 0.31397380775534678 0 0.38128435600444488 0.32837669887387311 0 0.39105145014164849 0.3414869239971704 0 0.39947540688062583 0.32507272934288628 0 0.38128435600444488 0.32837669887387311 0 0.36518945593320651 0.34509967395937191 0 0.39105145014164849 0.3414869239971704 0 0.38128435600444488 0.32837669887387311 0 0.36518945593320651 0.34509967395937191 0 0.39105145014164849 0.3414869239971704 0 0.3855881021147175 0.35910908792858098 0 0.36474967577348072 0.36653341875104961 0 0.3855881021147175 0.35910908792858098 0 0.3855881021147175 0.35910908792858098 0 0.39248458597179969 0.37472262889043839 0 0.3773824667175657 0.37546563606013739 0 0.36474967577348072 0.36653341875104961 0 0.3855881021147175 0.35910908792858098 0 0.3773824667175657 0.37546563606013739 0 0.40918213701441342 0.3736144609854074 0 0.39248458597179969 0.37472262889043839 0 0.40205795884979889 0.36380219258680641 0 0.3855881021147175 0.35910908792858098 0 0.39248458597179969 0.37472262889043839 0 0.40205795884979889 0.36380219258680641 0 0.40642652845595439 0.35168475710611302 0 0.39105145014164849 0.3414869239971704 0 0.3855881021147175 0.35910908792858098 0 0.40642652845595439 0.35168475710611302 0 0.3855881021147175 0.35910908792858098 0 0.40642652845595439 0.35168475710611302 0 0.3855881021147175 0.35910908792858098 0 0.40205795884979889 0.36380219258680641 0 0.39221066862400811 0.40518894945558848 0 0.39940032860097008 0.38986983405391068 0 0.41033309730305728 0.40785957742124029 0 0.40918213701441342 0.3736144609854074 0 0.39248458597179969 0.37472262889043839 0 0.39940032860097008 0.38986983405391068 0 0.39248458597179969 0.37472262889043839 0 0.39940032860097008 0.38986983405391068 0 0.38026367080056678 0.39066664182047522 0 0.39248458597179969 0.37472262889043839 0 0.3773824667175657 0.37546563606013739 0 0.38026367080056678 0.39066664182047522 0 0.39221066862400811 0.40518894945558848 0 0.39940032860097008 0.38986983405391068 0 0.38026367080056678 0.39066664182047522 0 0.39221066862400811 0.40518894945558848 0 0.38026367080056678 0.39066664182047522 0 0.37744029411777058 0.41252948965876268 0 0.39221066862400811 0.40518894945558848 0 0.37744029411777058 0.41252948965876268 0 0.39361595229767549 0.42501920432355378 0 0.365542703577178 0.42914551292816783 0 0.39361595229767549 0.42501920432355378 0 0.37809165231809289 0.44568724501072521 0 0.365542703577178 0.42914551292816783 0 0.37744029411777058 0.41252948965876268 0 0.39361595229767549 0.42501920432355378 0 0.365542703577178 0.42914551292816783 0 0.39361595229767549 0.42501920432355378 0 0.39361595229767549 0.42501920432355378 0 0.41035062152962531 0.4256058815429955 0 0.40092741287151468 0.44093224530230651 0 0.39361595229767549 0.42501920432355378 0 0.40092741287151468 0.44093224530230651 0 0.37809165231809289 0.44568724501072521 0 0.39361595229767549 0.42501920432355378 0 0.41033309730305728 0.40785957742124029 0 0.41035062152962531 0.4256058815429955 0 0.39221066862400811 0.40518894945558848 0 0.39361595229767549 0.42501920432355378 0 0.41033309730305728 0.40785957742124029 0 0.41033309730305728 0.40785957742124029 0 0.41035062152962531 0.4256058815429955 0 0.42646345733135449 0.42088686527347441 0 0.41035062152962531 0.4256058815429955 0 0.4216403136361262 0.43569606407888728 0 0.42646345733135449 0.42088686527347441 0 0.41035062152962531 0.4256058815429955 0 0.4216403136361262 0.43569606407888728 0 0.40092741287151468 0.44093224530230651 0 0.43504649219903713 0.43385430946487219 0 0.42646345733135449 0.42088686527347441 0 0.44292677264660579 0.42392515796168401 0 0.4216403136361262 0.43569606407888728 0 0.43504649219903713 0.43385430946487219 0 0.42646345733135449 0.42088686527347441 0 0.4216403136361262 0.43569606407888728 0 0.43504649219903713 0.43385430946487219 0 0.4309855774719657 0.44262377444488737 0 0.41033309730305728 0.40785957742124029 0 0.42646345733135449 0.42088686527347441 0 0.43473852811684172 0.40482082561786309 0 0.42646345733135449 0.42088686527347441 0 0.43473852811684172 0.40482082561786309 0 0.44292677264660579 0.42392515796168401 0 0.43473852811684172 0.40482082561786309 0 0.42003555557297712 0.38799376876492359 0 0.43605286711449009 0.38080977408974359 0 0.41033309730305728 0.40785957742124029 0 0.43473852811684172 0.40482082561786309 0 0.42003555557297712 0.38799376876492359 0 0.39940032860097008 0.38986983405391068 0 0.41033309730305728 0.40785957742124029 0 0.42003555557297712 0.38799376876492359 0 0.40918213701441342 0.3736144609854074 0 0.39940032860097008 0.38986983405391068 0 0.42003555557297712 0.38799376876492359 0 0.40918213701441342 0.3736144609854074 0 0.42003555557297712 0.38799376876492359 0 0.42225433889660879 0.37545697575276449 0 0.42003555557297712 0.38799376876492359 0 0.42225433889660879 0.37545697575276449 0 0.43605286711449009 0.38080977408974359 0 0.44279863902385319 0.36498191861006751 0 0.43605286711449009 0.38080977408974359 0 0.45829891398740957 0.37926071030245079 0 0.43605286711449009 0.38080977408974359 0 0.44916269767969552 0.39669925538146661 0 0.45829891398740957 0.37926071030245079 0 0.43473852811684172 0.40482082561786309 0 0.43605286711449009 0.38080977408974359 0 0.44916269767969552 0.39669925538146661 0 0.43473852811684172 0.40482082561786309 0 0.44916269767969552 0.39669925538146661 0 0.45819524916971172 0.41557138043250991 0 0.44916269767969552 0.39669925538146661 0 0.47914945699370431 0.3984681476517854 0 0.45819524916971172 0.41557138043250991 0 0.44916269767969552 0.39669925538146661 0 0.45829891398740957 0.37926071030245079 0 0.47914945699370431 0.3984681476517854 0 0.45829891398740957 0.37926071030245079 0 0.47914945699370431 0.3984681476517854 0 0.44916269767969552 0.39669925538146661 0 0.45829891398740957 0.37926071030245079 0 0.45829891398740957 0.37926071030245079 0 0.48177296974371542 0.3780796821533936 0 0.47914945699370431 0.3984681476517854 0 0.47914945699370431 0.3984681476517854 0 0.5 0.39471699264069632 0 0.49999999999999928 0.41767558500111929 0 0.48177296974371542 0.3780796821533936 0 0.47914945699370431 0.3984681476517854 0 0.5 0.39471699264069632 0 0.5 0.37175840028027313 0 0.48177296974371542 0.3780796821533936 0 0.5 0.39471699264069632 0 0.48950419912568011 0.43203648207583117 0 0.49999999999999928 0.41767558500111929 0 0.47941257652712138 0.42859526255965119 0 0.48950419912568011 0.43203648207583117 0 0.49999999999999928 0.41767558500111929 0 0.50000000000000022 0.44212157098762489 0 0.49999999999999928 0.41767558500111929 0 0.47638758820359789 0.4177788365799131 0 0.47941257652712138 0.42859526255965119 0 0.47914945699370431 0.3984681476517854 0 0.49999999999999928 0.41767558500111929 0 0.47638758820359789 0.4177788365799131 0 0.47914945699370431 0.3984681476517854 0 0.49999999999999928 0.41767558500111929 0 0.47914945699370431 0.3984681476517854 0 0.47638758820359789 0.4177788365799131 0 0.45819524916971172 0.41557138043250991 0 0.47638758820359789 0.4177788365799131 0 0.46959145424244531 0.42892785421681912 0 0.47941257652712138 0.42859526255965119 0 0.48950419912568011 0.43203648207583117 0 0.47941257652712138 0.42859526255965119 0 0.47860421997559988 0.43975350975492877 0 0.46959145424244531 0.42892785421681912 0 0.47941257652712138 0.42859526255965119 0 0.47860421997559988 0.43975350975492877 0 0.46959145424244531 0.42892785421681912 0 0.45720843995119947 0.43738544852223271 0 0.45819524916971172 0.41557138043250991 0 0.46959145424244531 0.42892785421681912 0 0.45720843995119947 0.43738544852223271 0 0.47860421997559988 0.43975350975492877 0 0.47638758820359789 0.4177788365799131 0 0.46959145424244531 0.42892785421681912 0 0.45819524916971172 0.41557138043250991 0 0.43473852811684172 0.40482082561786309 0 0.45819524916971172 0.41557138043250991 0 0.44292677264660579 0.42392515796168401 0 0.45720843995119947 0.43738544852223271 0 0.45819524916971172 0.41557138043250991 0 0.44292677264660579 0.42392515796168401 0 0.45720843995119947 0.43738544852223271 0 0.44292677264660579 0.42392515796168401 0 0.44501475256406542 0.43710487641451851 0 0.43504649219903713 0.43385430946487219 0 0.44292677264660579 0.42392515796168401 0 0.44501475256406542 0.43710487641451851 0 0.44501475256406542 0.43710487641451851 0 0.44086930591740259 0.443703986550611 0 0.44426520485267701 0.44828521544284999 0 0.43504649219903713 0.43385430946487219 0 0.44501475256406542 0.43710487641451851 0 0.44086930591740259 0.443703986550611 0 0.44576605402647751 0.45131382091928901 0 0.43097115028835131 0.45382894378787952 0 0.4371491165808723 0.44919465112914592 0 0.44086930591740259 0.443703986550611 0 0.44106718496795649 0.44783878756079798 0 0.4371491165808723 0.44919465112914592 0 0.44106718496795649 0.44783878756079798 0 0.44576605402647751 0.45131382091928901 0 0.4371491165808723 0.44919465112914592 0 0.44086930591740259 0.443703986550611 0 0.44426520485267701 0.44828521544284999 0 0.44106718496795649 0.44783878756079798 0 0.44426520485267701 0.44828521544284999 0 0.44576605402647751 0.45131382091928901 0 0.44086930591740259 0.443703986550611 0 0.44106718496795649 0.44783878756079798 0 0.44426520485267701 0.44828521544284999 0 0.45720843995119947 0.43738544852223271 0 0.44501475256406542 0.43710487641451851 0 0.44426520485267701 0.44828521544284999 0 0.44576605402647751 0.45131382091928901 0 0.44334270512280699 0.46695283516179431 0 0.45751300038554987 0.46615712058798953 0 0.44426520485267701 0.44828521544284999 0 0.45751300038554987 0.46615712058798953 0 0.44576605402647751 0.45131382091928901 0 0.44334270512280699 0.46695283516179431 0 0.42744619309891668 0.4675425472795256 0 0.44426520485267701 0.44828521544284999 0 0.44576605402647751 0.45131382091928901 0 0.45751300038554987 0.46615712058798953 0 0.44426520485267701 0.44828521544284999 0 0.45751300038554987 0.46615712058798953 0 0.47213260242633898 0.44992772785007767 0 0.44426520485267701 0.44828521544284999 0 0.47213260242633898 0.44992772785007767 0 0.45720843995119947 0.43738544852223271 0 0.47860421997559988 0.43975350975492877 0 0.45720843995119947 0.43738544852223271 0 0.44426520485267701 0.44828521544284999 0 0.47213260242633898 0.44992772785007767 0 0.47213260242633898 0.44992772785007767 0 0.47860421997559988 0.43975350975492877 0 0.50000000000000067 0.45157024025730719 0 0.45720843995119947 0.43738544852223271 0 0.47213260242633898 0.44992772785007767 0 0.47860421997559988 0.43975350975492877 0 0.47213260242633898 0.44992772785007767 0 0.48064266697128027 0.4673483066551633 0 0.50000000000000067 0.45157024025730719 0 0.45751300038554987 0.46615712058798953 0 0.47213260242633898 0.44992772785007767 0 0.48064266697128027 0.4673483066551633 0 0.48064266697128027 0.4673483066551633 0 0.5 0.46843982966384828 0 0.50000000000000067 0.45157024025730719 0 0.47860421997559988 0.43975350975492877 0 0.50000000000000022 0.44212157098762489 0 0.47860421997559988 0.43975350975492877 0 0.50000000000000067 0.45157024025730719 0 0.50000000000000022 0.44212157098762489 0 0.47213260242633898 0.44992772785007767 0 0.50000000000000067 0.45157024025730719 0 0.48950419912568011 0.43203648207583117 0 0.47860421997559988 0.43975350975492877 0 0.50000000000000022 0.44212157098762489 0 0.48834007405180069 0.49233461120087918 0 0.50000000000000222 0.48530941907038949 0 0.47076079591842229 0.48402902573312923 0 0.48834007405180069 0.49233461120087918 0 0.5 0.5 0 0.48259950028877657 0.49999999999999922 0 0.50000000000000222 0.48530941907038949 0 0.47076079591842229 0.48402902573312923 0 0.48834007405180069 0.49233461120087918 0 0.5 0.5 0 0.50000000000000222 0.48530941907038949 0 0.50000000000000222 0.48530941907038949 0 0.48785086572242647 0.47628164528063233 0 0.47076079591842229 0.48402902573312923 0 0.48064266697128027 0.4673483066551633 0 0.5 0.46843982966384828 0 0.48785086572242647 0.47628164528063233 0 0.5 0.46843982966384828 0 0.50000000000000222 0.48530941907038949 0 0.48785086572242647 0.47628164528063233 0 0.45751300038554987 0.46615712058798953 0 0.48064266697128027 0.4673483066551633 0 0.47076079591842229 0.48402902573312923 0 0.48064266697128027 0.4673483066551633 0 0.48785086572242647 0.47628164528063233 0 0.47076079591842229 0.48402902573312923 0 0.47076079591842229 0.48402902573312923 0 0.48259950028877657 0.49999999999999922 0 0.45965124302753141 0.5 0 0.48834007405180069 0.49233461120087918 0 0.47076079591842229 0.48402902573312923 0 0.48259950028877657 0.49999999999999922 0 0.47076079591842229 0.48402902573312923 0 0.48259950028877657 0.49999999999999922 0 0.47076079591842229 0.48402902573312923 0 0.45965124302753141 0.5 0 0.44264557298028417 0.48279785186037327 0 0.45751300038554987 0.46615712058798953 0 0.47076079591842229 0.48402902573312923 0 0.47076079591842229 0.48402902573312923 0 0.44264557298028417 0.48279785186037327 0 0.45751300038554987 0.46615712058798953 0 0.47076079591842229 0.48402902573312923 0 0.44264557298028417 0.48279785186037327 0 0.44334270512280699 0.46695283516179431 0 0.44264557298028417 0.48279785186037327 0 0.42744619309891668 0.4675425472795256 0 0.44334270512280699 0.46695283516179431 0 0.45751300038554987 0.46615712058798953 0 0.44264557298028417 0.48279785186037327 0 0.45965124302753141 0.5 0 0.44264557298028417 0.48279785186037327 0 0.43670298576628619 0.5 0 0.44264557298028417 0.48279785186037327 0 0.42814010978677508 0.48883471415535268 0 0.41453035004214622 0.48156667798761449 0 0.43670298576628619 0.5 0 0.42814010978677508 0.48883471415535268 0 0.41868153035838401 0.49097432677342312 0 0.44264557298028417 0.48279785186037327 0 0.43670298576628619 0.5 0 0.42814010978677508 0.48883471415535268 0 0.43670298576628619 0.5 0 0.41375472850504103 0.5 0 0.41868153035838401 0.49097432677342312 0 0.41375472850504103 0.5 0 0.41868153035838401 0.49097432677342312 0 0.40912633217135602 0.48377127363976219 0 0.42814010978677508 0.48883471415535268 0 0.41868153035838401 0.49097432677342312 0 0.41453035004214622 0.48156667798761449 0 0.41868153035838401 0.49097432677342312 0 0.40912633217135602 0.48377127363976219 0 0.41453035004214622 0.48156667798761449 0 0.40882198151684829 0.470458307354371 0 0.40912633217135602 0.48377127363976219 0 0.42744619309891668 0.4675425472795256 0 0.40912633217135602 0.48377127363976219 0 0.42744619309891668 0.4675425472795256 0 0.40912633217135602 0.48377127363976219 0 0.41453035004214622 0.48156667798761449 0 0.42744619309891668 0.4675425472795256 0 0.40882198151684829 0.470458307354371 0 0.40912633217135602 0.48377127363976219 0 0.40257181831080802 0.47789339995616598 0 0.44264557298028417 0.48279785186037327 0 0.41453035004214622 0.48156667798761449 0 0.44264557298028417 0.48279785186037327 0 0.41453035004214622 0.48156667798761449 0 0.42744619309891668 0.4675425472795256 0 0.44576605402647751 0.45131382091928901 0 0.42744619309891668 0.4675425472795256 0 0.44576605402647751 0.45131382091928901 0 0.43097115028835131 0.45382894378787952 0 0.42744619309891668 0.4675425472795256 0 0.43097115028835131 0.45382894378787952 0 0.42744619309891668 0.4675425472795256 0 0.41709851720120961 0.46055572465752248 0 0.44086930591740259 0.443703986550611 0 0.4309855774719657 0.44262377444488737 0 0.4371491165808723 0.44919465112914592 0 0.43504649219903713 0.43385430946487219 0 0.44086930591740259 0.443703986550611 0 0.4309855774719657 0.44262377444488737 0 0.43097115028835131 0.45382894378787952 0 0.4309855774719657 0.44262377444488737 0 0.4371491165808723 0.44919465112914592 0 0.43097115028835131 0.45382894378787952 0 0.4309855774719657 0.44262377444488737 0 0.41665312800777271 0.44940921386284588 0 0.4216403136361262 0.43569606407888728 0 0.4309855774719657 0.44262377444488737 0 0.41665312800777271 0.44940921386284588 0 0.41665312800777271 0.44940921386284588 0 0.4029362549212489 0.45832899449672349 0 0.40092741287151468 0.44093224530230651 0 0.4216403136361262 0.43569606407888728 0 0.41665312800777271 0.44940921386284588 0 0.40092741287151468 0.44093224530230651 0 0.40882198151684829 0.470458307354371 0 0.42744619309891668 0.4675425472795256 0 0.41709851720120961 0.46055572465752248 0 0.43097115028835131 0.45382894378787952 0 0.41665312800777271 0.44940921386284588 0 0.41709851720120961 0.46055572465752248 0 0.41665312800777271 0.44940921386284588 0 0.41709851720120961 0.46055572465752248 0 0.4029362549212489 0.45832899449672349 0 0.40882198151684829 0.470458307354371 0 0.41709851720120961 0.46055572465752248 0 0.4029362549212489 0.45832899449672349 0 0.40882198151684829 0.470458307354371 0 0.4029362549212489 0.45832899449672349 0 0.3944208343110962 0.47305259584339332 0 0.4029362549212489 0.45832899449672349 0 0.38943508825963058 0.45629052964312111 0 0.3944208343110962 0.47305259584339332 0 0.4029362549212489 0.45832899449672349 0 0.40092741287151468 0.44093224530230651 0 0.38943508825963058 0.45629052964312111 0 0.40092741287151468 0.44093224530230651 0 0.37809165231809289 0.44568724501072521 0 0.38943508825963058 0.45629052964312111 0 0.37809165231809289 0.44568724501072521 0 0.38943508825963058 0.45629052964312111 0 0.37844435483634198 0.4675903904274426 0 0.38943508825963058 0.45629052964312111 0 0.37844435483634198 0.4675903904274426 0 0.3944208343110962 0.47305259584339332 0 0.37844435483634198 0.4675903904274426 0 0.38120033573297152 0.48442634992442057 0 0.3944208343110962 0.47305259584339332 0 0.38120033573297152 0.48442634992442057 0 0.3944208343110962 0.47305259584339332 0 0.39562515835400552 0.48382872387274839 0 0.36196284501337178 0.5 0 0.38120033573297152 0.48442634992442057 0 0.39080647124379558 0.49999999999999922 0 0.38120033573297152 0.48442634992442057 0 0.39080647124379558 0.49999999999999922 0 0.39562515835400552 0.48382872387274839 0 0.40912633217135602 0.48377127363976219 0 0.39080647124379558 0.49999999999999922 0 0.40912633217135602 0.48377127363976219 0 0.39080647124379558 0.49999999999999922 0 0.39562515835400552 0.48382872387274839 0 0.41375472850504103 0.5 0 0.40912633217135602 0.48377127363976219 0 0.39080647124379558 0.49999999999999922 0 0.40912633217135602 0.48377127363976219 0 0.40257181831080802 0.47789339995616598 0 0.39562515835400552 0.48382872387274839 0 0.40882198151684829 0.470458307354371 0 0.40257181831080802 0.47789339995616598 0 0.3944208343110962 0.47305259584339332 0 0.40257181831080802 0.47789339995616598 0 0.3944208343110962 0.47305259584339332 0 0.39562515835400552 0.48382872387274839 0 0.34137977846588119 0.091947059702449957 0 0.3184977734976509 0.082531855017860187 0 0.34137977846588119 0.091947059702449957 0 0.33853514524224232 0.092154422351098803 0 0.3184977734976509 0.082531855017860187 0 0.33853514524224232 0.092154422351098803 0 0.3184977734976509 0.082531855017860187 0 0.3305269393921435 0.093893314460775035 0 0.34137977846588119 0.091947059702449957 0 0.33488127772135701 0.070909675734900868 0 0.3184977734976509 0.082531855017860187 0 0.33488127772135701 0.070909675734900868 0 0.35624300874513559 0.071190975121652081 0 0.33828509493208109 0.051113002016081502 0 0.3184977734976509 0.082531855017860187 0 0.31750720709783492 0.060828210965220328 0 0.30506359630307739 0.067813250175554993 0 0.33488127772135701 0.070909675734900868 0 0.32846421329825382 0.059059627678852658 0 0.31750720709783492 0.060828210965220328 0 0.33488127772135701 0.070909675734900868 0 0.3184977734976509 0.082531855017860187 0 0.31750720709783492 0.060828210965220328 0 0.3184977734976509 0.082531855017860187 0 0.3254096333834442 0.096971455496547829 0 0.3305269393921435 0.093893314460775035 0 0.3184977734976509 0.082531855017860187 0 0.3254096333834442 0.096971455496547829 0 0.31111548734401751 0.094174984339189319 0 0.3254096333834442 0.096971455496547829 0 0.33219394353324039 0.1121017755840282 0 0.31111548734401751 0.094174984339189319 0 0.33219394353324039 0.1121017755840282 0 0.31111548734401751 0.094174984339189319 0 0.33219394353324039 0.1121017755840282 0 0.31151194808720201 0.1150643222194616 0 0.31111548734401751 0.094174984339189319 0 0.33219394353324039 0.1121017755840282 0 0.31151194808720201 0.1150643222194616 0 0.32387679174541939 0.1297141718462434 0 0.33219394353324039 0.1121017755840282 0 0.32387679174541939 0.1297141718462434 0 0.35327239972246333 0.1300285668288671 0 0.33219394353324039 0.1121017755840282 0 0.35327239972246333 0.1300285668288671 0 0.33219394353324039 0.1121017755840282 0 0.34279585490336462 0.1026082003979065 0 0.35159211237321392 0.11222190062690381 0 0.33853514524224232 0.092154422351098803 0 0.3305269393921435 0.093893314460775035 0 0.33650548478629722 0.09727411407467923 0 0.3254096333834442 0.096971455496547829 0 0.33351858274250701 0.1005678965871936 0 0.3305269393921435 0.093893314460775035 0 0.33351858274250701 0.1005678965871936 0 0.3305269393921435 0.093893314460775035 0 0.33650548478629722 0.09727411407467923 0 0.3254096333834442 0.096971455496547829 0 0.33219394353324039 0.1121017755840282 0 0.33351858274250701 0.1005678965871936 0 0.33219394353324039 0.1121017755840282 0 0.33351858274250701 0.1005678965871936 0 0.34279585490336462 0.1026082003979065 0 0.33351858274250701 0.1005678965871936 0 0.34279585490336462 0.1026082003979065 0 0.33650548478629722 0.09727411407467923 0 0.33853514524224232 0.092154422351098803 0 0.34279585490336462 0.1026082003979065 0 0.33650548478629722 0.09727411407467923 0 0.34279585490336462 0.1026082003979065 0 0.35159211237321392 0.11222190062690381 0 0.36426178343411147 0.1013622643870397 0 0.33853514524224232 0.092154422351098803 0 0.34279585490336462 0.1026082003979065 0 0.36426178343411147 0.1013622643870397 0 0.34137977846588119 0.091947059702449957 0 0.33853514524224232 0.092154422351098803 0 0.36426178343411147 0.1013622643870397 0 0.33853514524224232 0.092154422351098803 0 0.36426178343411147 0.1013622643870397 0 0.34137977846588119 0.091947059702449957 0 0.36426178343411147 0.1013622643870397 0 0.33219394353324039 0.1121017755840282 0 0.35159211237321392 0.11222190062690381 0 0.35327239972246333 0.1300285668288671 0 0.35159211237321392 0.11222190062690381 0 0.36649271172908648 0.1176987398754743 0 0.35327239972246333 0.1300285668288671 0 0.35159211237321392 0.11222190062690381 0 0.36649271172908648 0.1176987398754743 0 0.36426178343411147 0.1013622643870397 0 0.36649271172908648 0.1176987398754743 0 0.36938385952287339 0.13266757129752671 0 0.38138511069115272 0.12353481432135879 0 0.36649271172908648 0.1176987398754743 0 0.36426178343411147 0.1013622643870397 0 0.3795225325030368 0.1068242515199407 0 0.36426178343411147 0.1013622643870397 0 0.3795225325030368 0.1068242515199407 0 0.36426178343411147 0.1013622643870397 0 0.3742009225581896 0.091268948227223284 0 0.3795225325030368 0.1068242515199407 0 0.3742009225581896 0.091268948227223284 0 0.35754778501084228 0.087847667021068221 0 0.35624300874513559 0.071190975121652081 0 0.36426178343411147 0.1013622643870397 0 0.3742009225581896 0.091268948227223284 0 0.35754778501084228 0.087847667021068221 0 0.3742009225581896 0.091268948227223284 0 0.35624300874513559 0.071190975121652081 0 0.34137977846588119 0.091947059702449957 0 0.35754778501084228 0.087847667021068221 0 0.35624300874513559 0.071190975121652081 0 0.34137977846588119 0.091947059702449957 0 0.36426178343411147 0.1013622643870397 0 0.35754778501084228 0.087847667021068221 0 0.34137977846588119 0.091947059702449957 0 0.33488127772135701 0.070909675734900868 0 0.35624300874513559 0.071190975121652081 0 0.3742009225581896 0.091268948227223284 0 0.35624300874513559 0.071190975121652081 0 0.37575225644292037 0.071709270247263784 0 0.35624300874513559 0.071190975121652081 0 0.36737709041569239 0.056764699852256018 0 0.37575225644292037 0.071709270247263784 0 0.36737709041569239 0.056764699852256018 0 0.36443667806580698 0.054513224756226962 0 0.39058826119953283 0.057913447496371839 0 0.36443667806580698 0.054513224756226962 0 0.36984281421283938 0.03924660656396721 0 0.37608467898805159 0.048096788967416412 0 0.36984281421283938 0.03924660656396721 0 0.35576481933353549 0.041718099984820838 0 0.3798040161112804 0.028996110171619349 0 0.35576481933353549 0.041718099984820838 0 0.36136411866671431 0.026161729739540451 0 0.37786156531075732 0.02725125369877367 0 0.35576481933353549 0.041718099984820838 0 0.3798040161112804 0.028996110171619349 0 0.37786156531075732 0.02725125369877367 0 0.35576481933353549 0.041718099984820838 0 0.3798040161112804 0.028996110171619349 0 0.36984281421283938 0.03924660656396721 0 0.37726993283737248 0.041439113600633092 0 0.37608467898805159 0.048096788967416412 0 0.36984281421283938 0.03924660656396721 0 0.37675727284589372 0.036323400775862158 0 0.37726993283737248 0.041439113600633092 0 0.36443667806580698 0.054513224756226962 0 0.36984281421283938 0.03924660656396721 0 0.35576481933353549 0.041718099984820838 0 0.35576481933353549 0.041718099984820838 0 0.36136411866671431 0.026161729739540451 0 0.34099279295720591 0.031691385536231111 0 0.35576481933353549 0.041718099984820838 0 0.34539840685914608 0.044617690611648012 0 0.34099279295720591 0.031691385536231111 0 0.35624300874513559 0.071190975121652081 0 0.34416591963185211 0.055615952208139578 0 0.33828509493208109 0.051113002016081502 0 0.36443667806580698 0.054513224756226962 0 0.34416591963185211 0.055615952208139578 0 0.33828509493208109 0.051113002016081502 0 0.36737709041569239 0.056764699852256018 0 0.34416591963185211 0.055615952208139578 0 0.35624300874513559 0.071190975121652081 0 0.33828509493208109 0.051113002016081502 0 0.35624300874513559 0.071190975121652081 0 0.36737709041569239 0.056764699852256018 0 0.34416591963185211 0.055615952208139578 0 0.36443667806580698 0.054513224756226962 0 0.33828509493208109 0.051113002016081502 0 0.36443667806580698 0.054513224756226962 0 0.34539840685914608 0.044617690611648012 0 0.33828509493208109 0.051113002016081502 0 0.36443667806580698 0.054513224756226962 0 0.35576481933353549 0.041718099984820838 0 0.34539840685914608 0.044617690611648012 0 0.36737709041569239 0.056764699852256018 0 0.36443667806580698 0.054513224756226962 0 0.34416591963185211 0.055615952208139578 0 0.35686418876597309 0.010252504770385159 0 0.37537418671591988 0.012891754799621079 0 0.3700201466167648 -0.002195575246397889 0 0.35686418876597309 0.010252504770385159 0 0.37786156531075732 0.02725125369877367 0 0.36136411866671431 0.026161729739540451 0 0.35686418876597309 0.010252504770385159 0 0.37786156531075732 0.02725125369877367 0 0.35686418876597309 0.010252504770385159 0 0.37537418671591988 0.012891754799621079 0 0.37786156531075732 0.02725125369877367 0 0.36136411866671431 0.026161729739540451 0 0.35686418876597309 0.010252504770385159 0 0.34167945108238768 0.015605415956853899 0 0.36136411866671431 0.026161729739540451 0 0.34167945108238768 0.015605415956853899 0 0.34099279295720591 0.031691385536231111 0 0.35686418876597309 0.010252504770385159 0 0.34167945108238768 0.015605415956853899 0 0.33586681222118892 -0.0067462441580033658 0 0.35686418876597309 0.010252504770385159 0 0.33586681222118892 -0.0067462441580033658 0 0.34167945108238768 0.015605415956853899 0 0.32490055802469708 0.021190940670656921 0 0.33586681222118892 -0.0067462441580033658 0 0.34167945108238768 0.015605415956853899 0 0.32490055802469708 0.021190940670656921 0 0.34099279295720591 0.031691385536231111 0 0.32490055802469708 0.021190940670656921 0 0.34099279295720591 0.031691385536231111 0 0.32801258046435111 0.036170166979635328 0 0.32490055802469708 0.021190940670656921 0 0.31497710433926901 0.036033128519756527 0 0.30595588987094691 0.026092456194660541 0 0.32490055802469708 0.021190940670656921 0 0.31046320235639918 0.0067575729804437252 0 0.30595588987094691 0.026092456194660541 0 0.32490055802469708 0.021190940670656921 0 0.32801258046435111 0.036170166979635328 0 0.31497710433926901 0.036033128519756527 0 0.32490055802469708 0.021190940670656921 0 0.31046320235639918 0.0067575729804437252 0 0.33586681222118892 -0.0067462441580033658 0 0.33488127772135701 0.070909675734900868 0 0.32846421329825382 0.059059627678852658 0 0.33828509493208109 0.051113002016081502 0 0.33828509493208109 0.051113002016081502 0 0.33632782521092219 0.048924662700562782 0 0.31456469921871788 0.048028881697348168 0 0.34539840685914608 0.044617690611648012 0 0.33828509493208109 0.051113002016081502 0 0.33632782521092219 0.048924662700562782 0 0.33828509493208109 0.051113002016081502 0 0.33632782521092219 0.048924662700562782 0 0.34539840685914608 0.044617690611648012 0 0.33609782728063148 0.04111054955314445 0 0.34099279295720591 0.031691385536231111 0 0.34539840685914608 0.044617690611648012 0 0.33632782521092219 0.048924662700562782 0 0.33609782728063148 0.04111054955314445 0 0.33609782728063148 0.04111054955314445 0 0.34099279295720591 0.031691385536231111 0 0.32801258046435111 0.036170166979635328 0 0.33632782521092219 0.048924662700562782 0 0.33609782728063148 0.04111054955314445 0 0.33051084790212298 0.042529329228536181 0 0.33632782521092219 0.048924662700562782 0 0.33051084790212298 0.042529329228536181 0 0.32327528761916352 0.043108517346294839 0 0.33609782728063148 0.04111054955314445 0 0.33051084790212298 0.042529329228536181 0 0.32801258046435111 0.036170166979635328 0 0.33632782521092219 0.048924662700562782 0 0.32327528761916352 0.043108517346294839 0 0.31456469921871788 0.048028881697348168 0 0.33051084790212298 0.042529329228536181 0 0.32327528761916352 0.043108517346294839 0 0.32801258046435111 0.036170166979635328 0 0.32327528761916352 0.043108517346294839 0 0.32801258046435111 0.036170166979635328 0 0.31497710433926901 0.036033128519756527 0 0.32327528761916352 0.043108517346294839 0 0.31497710433926901 0.036033128519756527 0 0.31456469921871788 0.048028881697348168 0 0.33828509493208109 0.051113002016081502 0 0.31456469921871788 0.048028881697348168 0 0.32846421329825382 0.059059627678852658 0 0.33828509493208109 0.051113002016081502 0 0.31456469921871788 0.048028881697348168 0 0.32846421329825382 0.059059627678852658 0 0.31456469921871788 0.048028881697348168 0 0.31750720709783492 0.060828210965220328 0 0.31456469921871788 0.048028881697348168 0 0.31750720709783492 0.060828210965220328 0 0.30386903740065402 0.05697431224277244 0 0.31750720709783492 0.060828210965220328 0 0.30386903740065402 0.05697431224277244 0 0.30506359630307739 0.067813250175554993 0 0.31456469921871788 0.048028881697348168 0 0.30386903740065402 0.05697431224277244 0 0.29084430350535467 0.044944761378613682 0 0.30386903740065402 0.05697431224277244 0 0.29325963230024937 0.057606978803657879 0 0.29690158384745241 0.06457818982176422 0 0.31456469921871788 0.048028881697348168 0 0.30257644158749403 0.037675663858353942 0 0.29084430350535467 0.044944761378613682 0 0.31456469921871788 0.048028881697348168 0 0.29084430350535467 0.044944761378613682 0 0.30257644158749403 0.037675663858353942 0 0.28728110375769011 0.032980092644635972 0 0.30595588987094691 0.026092456194660541 0 0.31497710433926901 0.036033128519756527 0 0.31456469921871788 0.048028881697348168 0 0.30257644158749403 0.037675663858353942 0 0.31497710433926901 0.036033128519756527 0 0.30257644158749403 0.037675663858353942 0 0.30595588987094691 0.026092456194660541 0 0.28728110375769011 0.032980092644635972 0 0.28354425329012439 0.021068516806879451 0 0.27754771987688809 0.040797440569893019 0 0.30257644158749403 0.037675663858353942 0 0.29084430350535467 0.044944761378613682 0 0.28728110375769011 0.032980092644635972 0 0.28728110375769011 0.032980092644635972 0 0.2844924432277231 0.043204628682168907 0 0.27754771987688809 0.040797440569893019 0 0.29084430350535467 0.044944761378613682 0 0.28728110375769011 0.032980092644635972 0 0.2844924432277231 0.043204628682168907 0 0.2844924432277231 0.043204628682168907 0 0.28229664577095948 0.054096220135532967 0 0.27754771987688809 0.040797440569893019 0 0.29084430350535467 0.044944761378613682 0 0.2844924432277231 0.043204628682168907 0 0.28229664577095948 0.054096220135532967 0 0.29084430350535467 0.044944761378613682 0 0.28229664577095948 0.054096220135532967 0 0.29325963230024937 0.057606978803657879 0 0.28229664577095948 0.054096220135532967 0 0.28695696052130792 0.062426000594819037 0 0.29325963230024937 0.057606978803657879 0 0.28229664577095948 0.054096220135532967 0 0.28695696052130792 0.062426000594819037 0 0.27961998430175328 0.060695812266760227 0 0.28695696052130792 0.062426000594819037 0 0.29325963230024937 0.057606978803657879 0 0.29690158384745241 0.06457818982176422 0 0.30386903740065402 0.05697431224277244 0 0.29084430350535467 0.044944761378613682 0 0.29325963230024937 0.057606978803657879 0 0.31046320235639918 0.0067575729804437252 0 0.29633736445586178 0.016145334388179639 0 0.2895407867033607 0.0013395930438658619 0 0.31046320235639918 0.0067575729804437252 0 0.30595588987094691 0.026092456194660541 0 0.29633736445586178 0.016145334388179639 0 0.28728110375769011 0.032980092644635972 0 0.29633736445586178 0.016145334388179639 0 0.28354425329012439 0.021068516806879451 0 0.28728110375769011 0.032980092644635972 0 0.30595588987094691 0.026092456194660541 0 0.29633736445586178 0.016145334388179639 0 0.29633736445586178 0.016145334388179639 0 0.28354425329012439 0.021068516806879451 0 0.2895407867033607 0.0013395930438658619 0 0.28354425329012439 0.021068516806879451 0 0.2895407867033607 0.0013395930438658619 0 0.27605408581287011 0.0090157940159830471 0 0.28354425329012439 0.021068516806879451 0 0.2895407867033607 0.0013395930438658619 0 0.2895407867033607 0.0013395930438658619 0 0.27605408581287011 0.0090157940159830471 0 0.26778398551549509 -0.0036893303100333872 0 0.27605408581287011 0.0090157940159830471 0 0.26417056773795178 0.0090152440179189393 0 0.26778398551549509 -0.0036893303100333872 0 0.27605408581287011 0.0090157940159830471 0 0.26936383070045983 0.02007531215695801 0 0.26417056773795178 0.0090152440179189393 0 0.28354425329012439 0.021068516806879451 0 0.27754771987688809 0.040797440569893019 0 0.28354425329012439 0.021068516806879451 0 0.27605408581287011 0.0090157940159830471 0 0.26936383070045983 0.02007531215695801 0 0.28354425329012439 0.021068516806879451 0 0.26936383070045983 0.02007531215695801 0 0.27332262009486957 0.033728107725222278 0 0.26936383070045983 0.02007531215695801 0 0.26667678125960848 0.028969541142501901 0 0.27332262009486957 0.033728107725222278 0 0.26936383070045983 0.02007531215695801 0 0.26667678125960848 0.028969541142501901 0 0.25978705670837199 0.02772172808684556 0 0.26667678125960848 0.028969541142501901 0 0.25978705670837199 0.02772172808684556 0 0.26423361753473251 0.034353016600981737 0 0.24818833723327199 0.02644705719899533 0 0.25978705670837199 0.02772172808684556 0 0.25442723867738032 0.016379625870619269 0 0.24818833723327199 0.02644705719899533 0 0.25978705670837199 0.02772172808684556 0 0.25704478259505842 0.035809011079610743 0 0.26936383070045983 0.02007531215695801 0 0.25978705670837199 0.02772172808684556 0 0.25442723867738032 0.016379625870619269 0 0.26936383070045983 0.02007531215695801 0 0.25442723867738032 0.016379625870619269 0 0.26417056773795178 0.0090152440179189393 0 0.25442723867738032 0.016379625870619269 0 0.26417056773795178 0.0090152440179189393 0 0.25322369798355371 0.0032948183560677501 0 0.26417056773795178 0.0090152440179189393 0 0.25322369798355371 0.0032948183560677501 0 0.26778398551549509 -0.0036893303100333872 0 0.28229664577095948 0.054096220135532967 0 0.27155118646365262 0.060526364332906778 0 0.27754771987688809 0.040797440569893019 0 0.26803735397675288 0.057537922442449492 0 0.27155118646365262 0.060526364332906778 0 0.27754771987688809 0.040797440569893019 0 0.27155118646365262 0.060526364332906778 0 0.27754771987688809 0.040797440569893019 0 0.26803735397675288 0.057537922442449492 0 0.26717674565759131 0.061414912581717808 0 0.27155118646365262 0.060526364332906778 0 0.26803735397675288 0.057537922442449492 0 0.26717674565759131 0.061414912581717808 0 0.26717674565759131 0.061414912581717808 0 0.27082486665434358 0.062915996334918609 0 0.26717674565759131 0.061414912581717808 0 0.27155118646365262 0.060526364332906778 0 0.27082486665434358 0.062915996334918609 0 0.27155118646365262 0.060526364332906778 0 0.27082486665434358 0.062915996334918609 0 0.26803735397675288 0.057537922442449492 0 0.27155118646365262 0.060526364332906778 0 0.27155118646365262 0.060526364332906778 0 0.27961998430175328 0.060695812266760227 0 0.27767514445109232 0.065734664003783444 0 0.28229664577095948 0.054096220135532967 0 0.27155118646365262 0.060526364332906778 0 0.27961998430175328 0.060695812266760227 0 0.28354425329012439 0.021068516806879451 0 0.27754771987688809 0.040797440569893019 0 0.27332262009486957 0.033728107725222278 0 0.26803735397675288 0.057537922442449492 0 0.27754771987688809 0.040797440569893019 0 0.27332262009486957 0.033728107725222278 0 0.26803735397675288 0.057537922442449492 0 0.27332262009486957 0.033728107725222278 0 0.26337349528673171 0.044011131262296957 0 0.26803735397675288 0.057537922442449492 0 0.27332262009486957 0.033728107725222278 0 0.26667678125960848 0.028969541142501901 0 0.27332262009486957 0.033728107725222278 0 0.26423361753473251 0.034353016600981737 0 0.27332262009486957 0.033728107725222278 0 0.26337349528673171 0.044011131262296957 0 0.26423361753473251 0.034353016600981737 0 0.25978705670837199 0.02772172808684556 0 0.26423361753473251 0.034353016600981737 0 0.25704478259505842 0.035809011079610743 0 0.26337349528673171 0.044011131262296957 0 0.26423361753473251 0.034353016600981737 0 0.25704478259505842 0.035809011079610743 0 0.2492733855269578 0.041579555173777823 0 0.24818833723327199 0.02644705719899533 0 0.25704478259505842 0.035809011079610743 0 0.2492733855269578 0.041579555173777823 0 0.26337349528673171 0.044011131262296957 0 0.25704478259505842 0.035809011079610743 0 0.2492733855269578 0.041579555173777823 0 0.26803735397675288 0.057537922442449492 0 0.26337349528673171 0.044011131262296957 0 0.2492733855269578 0.041579555173777823 0 0.26803735397675288 0.057537922442449492 0 0.24629062771517271 0.052820950830226497 0 0.2492733855269578 0.041579555173777823 0 0.26803735397675288 0.057537922442449492 0 0.24874122334595 0.07170785510379532 0 0.24629062771517271 0.052820950830226497 0 0.26717674565759131 0.061414912581717808 0 0.24629062771517271 0.052820950830226497 0 0.26717674565759131 0.061414912581717808 0 0.24629062771517271 0.052820950830226497 0 0.26803735397675288 0.057537922442449492 0 0.26717674565759131 0.061414912581717808 0 0.24874122334595 0.07170785510379532 0 0.26717674565759131 0.061414912581717808 0 0.26207170159221099 0.084412837492877896 0 0.26717674565759131 0.061414912581717808 0 0.26207170159221099 0.084412837492877896 0 0.26717674565759131 0.061414912581717808 0 0.26459661937193729 0.083407271434054076 0 0.26207170159221099 0.084412837492877896 0 0.24736227196270541 0.090270970101712061 0 0.24874122334595 0.07170785510379532 0 0.26207170159221099 0.084412837492877896 0 0.24736227196270541 0.090270970101712061 0 0.26207170159221099 0.084412837492877896 0 0.24736227196270541 0.090270970101712061 0 0.26016144869860108 0.09301841504440217 0 0.25459763100830068 0.096141582858552177 0 0.24736227196270541 0.090270970101712061 0 0.26207170159221099 0.084412837492877896 0 0.26016144869860108 0.09301841504440217 0 0.24736227196270541 0.090270970101712061 0 0.25459763100830068 0.096141582858552177 0 0.26459661937193729 0.083407271434054076 0 0.26207170159221099 0.084412837492877896 0 0.26207170159221099 0.084412837492877896 0 0.26016144869860108 0.09301841504440217 0 0.26459661937193729 0.083407271434054076 0 0.2619867778419176 0.09199379318438361 0 0.26207170159221099 0.084412837492877896 0 0.2619867778419176 0.09199379318438361 0 0.26016144869860108 0.09301841504440217 0 0.26459661937193729 0.083407271434054076 0 0.26207170159221099 0.084412837492877896 0 0.2619867778419176 0.09199379318438361 0 0.2619867778419176 0.09199379318438361 0 0.26016144869860108 0.09301841504440217 0 0.26459661937193729 0.083407271434054076 0 0.28765643041333783 0.074223541376674432 0 0.26459661937193729 0.083407271434054076 0 0.27601190449835611 0.084120993139366301 0 0.28765643041333783 0.074223541376674432 0 0.2619867778419176 0.09199379318438361 0 0.27601190449835611 0.084120993139366301 0 0.27597760534302263 0.093816081557894046 0 0.2619867778419176 0.09199379318438361 0 0.27601190449835611 0.084120993139366301 0 0.26459661937193729 0.083407271434054076 0 0.2619867778419176 0.09199379318438361 0 0.27601190449835611 0.084120993139366301 0 0.27601190449835611 0.084120993139366301 0 0.28527214605629803 0.093542631019163408 0 0.27597760534302263 0.093816081557894046 0 0.26459661937193729 0.083407271434054076 0 0.27082486665434358 0.062915996334918609 0 0.26717674565759131 0.061414912581717808 0 0.26459661937193729 0.083407271434054076 0 0.27082486665434358 0.062915996334918609 0 0.26459661937193729 0.083407271434054076 0 0.27082486665434358 0.062915996334918609 0 0.27767514445109232 0.065734664003783444 0 0.26459661937193729 0.083407271434054076 0 0.27767514445109232 0.065734664003783444 0 0.28765643041333783 0.074223541376674432 0 0.27155118646365262 0.060526364332906778 0 0.27082486665434358 0.062915996334918609 0 0.27767514445109232 0.065734664003783444 0 0.27082486665434358 0.062915996334918609 0 0.27767514445109232 0.065734664003783444 0 0.27155118646365262 0.060526364332906778 0 0.27767514445109232 0.065734664003783444 0 0.27767514445109232 0.065734664003783444 0 0.28765643041333783 0.074223541376674432 0 0.27767514445109232 0.065734664003783444 0 0.29306802488508721 0.072068336257275281 0 0.28695696052130792 0.062426000594819037 0 0.27961998430175328 0.060695812266760227 0 0.27767514445109232 0.065734664003783444 0 0.28695696052130792 0.062426000594819037 0 0.27767514445109232 0.065734664003783444 0 0.29306802488508721 0.072068336257275281 0 0.28695696052130792 0.062426000594819037 0 0.29306802488508721 0.072068336257275281 0 0.29690158384745241 0.06457818982176422 0 0.29561576852942001 0.073116650333272012 0 0.29306802488508721 0.072068336257275281 0 0.29561576852942001 0.073116650333272012 0 0.29306802488508721 0.072068336257275281 0 0.29003703115479512 0.076248193094349867 0 0.29306802488508721 0.072068336257275281 0 0.28765643041333783 0.074223541376674432 0 0.29306802488508721 0.072068336257275281 0 0.29003703115479512 0.076248193094349867 0 0.28765643041333783 0.074223541376674432 0 0.29561576852942001 0.073116650333272012 0 0.29003703115479512 0.076248193094349867 0 0.27767514445109232 0.065734664003783444 0 0.29306802488508721 0.072068336257275281 0 0.28765643041333783 0.074223541376674432 0 0.29003703115479512 0.076248193094349867 0 0.28765643041333783 0.074223541376674432 0 0.27601190449835611 0.084120993139366301 0 0.29003703115479512 0.076248193094349867 0 0.27601190449835611 0.084120993139366301 0 0.29003703115479512 0.076248193094349867 0 0.28765643041333783 0.074223541376674432 0 0.27601190449835611 0.084120993139366301 0 0.29003703115479512 0.076248193094349867 0 0.28870857493654689 0.086239244916881869 0 0.27601190449835611 0.084120993139366301 0 0.28870857493654689 0.086239244916881869 0 0.28527214605629803 0.093542631019163408 0 0.28870857493654689 0.086239244916881869 0 0.28527214605629803 0.093542631019163408 0 0.29246213629446111 0.095768124011444758 0 0.28870857493654689 0.086239244916881869 0 0.29698271976236568 0.089899813846382556 0 0.29246213629446111 0.095768124011444758 0 0.29003703115479512 0.076248193094349867 0 0.28870857493654689 0.086239244916881869 0 0.29698271976236568 0.089899813846382556 0 0.29561576852942001 0.073116650333272012 0 0.29003703115479512 0.076248193094349867 0 0.31111548734401751 0.094174984339189319 0 0.29003703115479512 0.076248193094349867 0 0.31111548734401751 0.094174984339189319 0 0.29003703115479512 0.076248193094349867 0 0.29698271976236568 0.089899813846382556 0 0.31111548734401751 0.094174984339189319 0 0.3184977734976509 0.082531855017860187 0 0.29561576852942001 0.073116650333272012 0 0.31111548734401751 0.094174984339189319 0 0.3184977734976509 0.082531855017860187 0 0.29561576852942001 0.073116650333272012 0 0.3184977734976509 0.082531855017860187 0 0.29561576852942001 0.073116650333272012 0 0.30506359630307739 0.067813250175554993 0 0.31750720709783492 0.060828210965220328 0 0.30506359630307739 0.067813250175554993 0 0.29306802488508721 0.072068336257275281 0 0.30506359630307739 0.067813250175554993 0 0.29690158384745241 0.06457818982176422 0 0.30386903740065402 0.05697431224277244 0 0.30506359630307739 0.067813250175554993 0 0.29690158384745241 0.06457818982176422 0 0.29306802488508721 0.072068336257275281 0 0.30506359630307739 0.067813250175554993 0 0.29561576852942001 0.073116650333272012 0 0.30506359630307739 0.067813250175554993 0 0.29561576852942001 0.073116650333272012 0 0.29306802488508721 0.072068336257275281 0 0.30506359630307739 0.067813250175554993 0 0.31151194808720201 0.1150643222194616 0 0.30247500772594699 0.1071381656543656 0 0.29129275041579278 0.1172303442398579 0 0.31151194808720201 0.1150643222194616 0 0.29622008012258699 0.12991313160987961 0 0.32387679174541939 0.1297141718462434 0 0.31151194808720201 0.1150643222194616 0 0.29129275041579278 0.1172303442398579 0 0.29622008012258699 0.12991313160987961 0 0.31151194808720201 0.1150643222194616 0 0.31111548734401751 0.094174984339189319 0 0.30247500772594699 0.1071381656543656 0 0.31111548734401751 0.094174984339189319 0 0.30128354362195031 0.098124169066782854 0 0.30247500772594699 0.1071381656543656 0 0.29698271976236568 0.089899813846382556 0 0.30128354362195031 0.098124169066782854 0 0.29246213629446111 0.095768124011444758 0 0.29698271976236568 0.089899813846382556 0 0.31111548734401751 0.094174984339189319 0 0.30128354362195031 0.098124169066782854 0 0.30128354362195031 0.098124169066782854 0 0.30247500772594699 0.1071381656543656 0 0.29260899031297011 0.10538418601464609 0 0.29260899031297011 0.10538418601464609 0 0.29246213629446111 0.095768124011444758 0 0.28702757351663483 0.1001100210532227 0 0.30128354362195031 0.098124169066782854 0 0.29260899031297011 0.10538418601464609 0 0.29246213629446111 0.095768124011444758 0 0.28527214605629803 0.093542631019163408 0 0.29246213629446111 0.095768124011444758 0 0.28702757351663483 0.1001100210532227 0 0.28527214605629803 0.093542631019163408 0 0.28702757351663483 0.1001100210532227 0 0.28108272677848523 0.099874609951530163 0 0.29260899031297011 0.10538418601464609 0 0.28356239405763972 0.106033323917978 0 0.28664880997705461 0.11131452551203889 0 0.29260899031297011 0.10538418601464609 0 0.28702757351663483 0.1001100210532227 0 0.28356239405763972 0.106033323917978 0 0.28702757351663483 0.1001100210532227 0 0.28356239405763972 0.106033323917978 0 0.28108272677848523 0.099874609951530163 0 0.28356239405763972 0.106033323917978 0 0.2814598539497668 0.10990299155730229 0 0.28664880997705461 0.11131452551203889 0 0.27786688771157569 0.1150217509861922 0 0.29622008012258699 0.12991313160987961 0 0.28664880997705461 0.11131452551203889 0 0.29129275041579278 0.1172303442398579 0 0.27786688771157569 0.1150217509861922 0 0.27786688771157569 0.1150217509861922 0 0.27913813953766042 0.12972245958528131 0 0.29622008012258699 0.12991313160987961 0 0.29129275041579278 0.1172303442398579 0 0.27786688771157569 0.1150217509861922 0 0.29622008012258699 0.12991313160987961 0 0.2814598539497668 0.10990299155730229 0 0.28664880997705461 0.11131452551203889 0 0.27786688771157569 0.1150217509861922 0 0.30247500772594699 0.1071381656543656 0 0.29260899031297011 0.10538418601464609 0 0.29129275041579278 0.1172303442398579 0 0.29260899031297011 0.10538418601464609 0 0.28664880997705461 0.11131452551203889 0 0.29129275041579278 0.1172303442398579 0 0.27418517611644572 0.1163335826691398 0 0.26638390190257438 0.1102685147937751 0 0.25655208948606423 0.10927836717886751 0 0.27786688771157569 0.1150217509861922 0 0.27418517611644572 0.1163335826691398 0 0.27913813953766042 0.12972245958528131 0 0.27418517611644572 0.1163335826691398 0 0.27248198541775659 0.12784311929978001 0 0.27913813953766042 0.12972245958528131 0 0.2814598539497668 0.10990299155730229 0 0.27786688771157569 0.1150217509861922 0 0.27702128122739278 0.10689832557857171 0 0.27786688771157569 0.1150217509861922 0 0.27418517611644572 0.1163335826691398 0 0.26638390190257438 0.1102685147937751 0 0.27418517611644572 0.1163335826691398 0 0.26888095198589312 0.11979825388229511 0 0.26487973471170051 0.1148861259760711 0 0.27418517611644572 0.1163335826691398 0 0.26888095198589312 0.11979825388229511 0 0.27248198541775659 0.12784311929978001 0 0.26888095198589312 0.11979825388229511 0 0.26519442307348812 0.1188177922564181 0 0.26487973471170051 0.1148861259760711 0 0.26888095198589312 0.11979825388229511 0 0.26562400985315288 0.1251654340079911 0 0.27248198541775659 0.12784311929978001 0 0.26888095198589312 0.11979825388229511 0 0.26519442307348812 0.1188177922564181 0 0.26562400985315288 0.1251654340079911 0 0.27786688771157569 0.1150217509861922 0 0.26638390190257438 0.1102685147937751 0 0.25872482925013801 0.09949030162923457 0 0.27786688771157569 0.1150217509861922 0 0.25872482925013801 0.09949030162923457 0 0.27786688771157569 0.1150217509861922 0 0.27150352658480642 0.1040925172930806 0 0.25872482925013801 0.09949030162923457 0 0.28527214605629803 0.093542631019163408 0 0.27597760534302263 0.093816081557894046 0 0.28108272677848523 0.099874609951530163 0 0.27597760534302263 0.093816081557894046 0 0.28108272677848523 0.099874609951530163 0 0.27461357126647679 0.10027579108255071 0 0.27786688771157569 0.1150217509861922 0 0.27702128122739278 0.10689832557857171 0 0.27150352658480642 0.1040925172930806 0 0.27461357126647679 0.10027579108255071 0 0.27702128122739278 0.10689832557857171 0 0.27150352658480642 0.1040925172930806 0 0.28356239405763972 0.106033323917978 0 0.28108272677848523 0.099874609951530163 0 0.27702128122739278 0.10689832557857171 0 0.28108272677848523 0.099874609951530163 0 0.27461357126647679 0.10027579108255071 0 0.27702128122739278 0.10689832557857171 0 0.28356239405763972 0.106033323917978 0 0.2814598539497668 0.10990299155730229 0 0.27702128122739278 0.10689832557857171 0 0.2619867778419176 0.09199379318438361 0 0.27597760534302263 0.093816081557894046 0 0.26850219741802223 0.0981363484555835 0 0.27150352658480642 0.1040925172930806 0 0.26850219741802223 0.0981363484555835 0 0.25872482925013801 0.09949030162923457 0 0.27461357126647679 0.10027579108255071 0 0.27150352658480642 0.1040925172930806 0 0.26850219741802223 0.0981363484555835 0 0.27597760534302263 0.093816081557894046 0 0.27461357126647679 0.10027579108255071 0 0.26850219741802223 0.0981363484555835 0 0.2619867778419176 0.09199379318438361 0 0.26850219741802223 0.0981363484555835 0 0.25872482925013801 0.09949030162923457 0 0.2619867778419176 0.09199379318438361 0 0.26016144869860108 0.09301841504440217 0 0.25872482925013801 0.09949030162923457 0 0.2619867778419176 0.09199379318438361 0 0.25872482925013801 0.09949030162923457 0 0.26016144869860108 0.09301841504440217 0 0.25872482925013801 0.09949030162923457 0 0.26016144869860108 0.09301841504440217 0 0.25872482925013801 0.09949030162923457 0 0.25459763100830068 0.096141582858552177 0 0.26638390190257438 0.1102685147937751 0 0.25872482925013801 0.09949030162923457 0 0.26054083413963042 0.1068609537315081 0 0.26638390190257438 0.1102685147937751 0 0.26054083413963042 0.1068609537315081 0 0.25655208948606423 0.10927836717886751 0 0.25872482925013801 0.09949030162923457 0 0.258042440935632 0.10497087790269199 0 0.26054083413963042 0.1068609537315081 0 0.25872482925013801 0.09949030162923457 0 0.258042440935632 0.10497087790269199 0 0.258042440935632 0.10497087790269199 0 0.26054083413963042 0.1068609537315081 0 0.25655208948606423 0.10927836717886751 0 0.25872482925013801 0.09949030162923457 0 0.25655208948606423 0.10927836717886751 0 0.25872482925013801 0.09949030162923457 0 0.25655208948606423 0.10927836717886751 0 0.25459763100830068 0.096141582858552177 0 0.24174744587836799 0.1033548466348798 0 0.25655208948606423 0.10927836717886751 0 0.25459763100830068 0.096141582858552177 0 0.25872482925013801 0.09949030162923457 0 0.258042440935632 0.10497087790269199 0 0.25655208948606423 0.10927836717886751 0 0.25872482925013801 0.09949030162923457 0 0.25459763100830068 0.096141582858552177 0 0.26016144869860108 0.09301841504440217 0 0.25459763100830068 0.096141582858552177 0 0.27418517611644572 0.1163335826691398 0 0.25655208948606423 0.10927836717886751 0 0.26487973471170051 0.1148861259760711 0 0.27418517611644572 0.1163335826691398 0 0.25655208948606423 0.10927836717886751 0 0.2613903323121034 0.11972876860365821 0 0.25824300399834771 0.11754386918627879 0 0.25813574029091341 0.12532111527980791 0 0.2613903323121034 0.11972876860365821 0 0.25824300399834771 0.11754386918627879 0 0.26064106818342869 0.11649387083006101 0 0.2613903323121034 0.11972876860365821 0 0.26303182906276251 0.1167652494283456 0 0.26064106818342869 0.11649387083006101 0 0.2613903323121034 0.11972876860365821 0 0.25813574029091341 0.12532111527980791 0 0.26562400985315288 0.1251654340079911 0 0.2613903323121034 0.11972876860365821 0 0.26519442307348812 0.1188177922564181 0 0.26562400985315288 0.1251654340079911 0 0.2613903323121034 0.11972876860365821 0 0.26519442307348812 0.1188177922564181 0 0.26303182906276251 0.1167652494283456 0 0.26487973471170051 0.1148861259760711 0 0.2618287337373767 0.1148464313763837 0 0.2589676606418963 0.1122376160430168 0 0.25655208948606423 0.10927836717886751 0 0.26487973471170051 0.1148861259760711 0 0.2589676606418963 0.1122376160430168 0 0.26519442307348812 0.1188177922564181 0 0.26487973471170051 0.1148861259760711 0 0.26303182906276251 0.1167652494283456 0 0.26487973471170051 0.1148861259760711 0 0.2618287337373767 0.1148464313763837 0 0.26303182906276251 0.1167652494283456 0 0.2618287337373767 0.1148464313763837 0 0.26303182906276251 0.1167652494283456 0 0.26064106818342869 0.11649387083006101 0 0.2618287337373767 0.1148464313763837 0 0.26064106818342869 0.11649387083006101 0 0.26015078570541528 0.1146524558252945 0 0.2618287337373767 0.1148464313763837 0 0.2589676606418963 0.1122376160430168 0 0.26015078570541528 0.1146524558252945 0 0.2589676606418963 0.1122376160430168 0 0.26015078570541528 0.1146524558252945 0 0.25777400528710798 0.1147846643059361 0 0.25824300399834771 0.11754386918627879 0 0.26015078570541528 0.1146524558252945 0 0.25777400528710798 0.1147846643059361 0 0.25824300399834771 0.11754386918627879 0 0.26064106818342869 0.11649387083006101 0 0.26015078570541528 0.1146524558252945 0 0.24646482385440791 0.1109165710353929 0 0.25655208948606423 0.10927836717886751 0 0.255186127323073 0.11543194682551421 0 0.25824300399834771 0.11754386918627879 0 0.25777400528710798 0.1147846643059361 0 0.255186127323073 0.11543194682551421 0 0.2589676606418963 0.1122376160430168 0 0.25777400528710798 0.1147846643059361 0 0.255186127323073 0.11543194682551421 0 0.25655208948606423 0.10927836717886751 0 0.255186127323073 0.11543194682551421 0 0.25655208948606423 0.10927836717886751 0 0.2589676606418963 0.1122376160430168 0 0.255186127323073 0.11543194682551421 0 0.255186127323073 0.11543194682551421 0 0.25238596385504641 0.12804651946228041 0 0.24420216851797599 0.1292372680552665 0 0.255186127323073 0.11543194682551421 0 0.25238596385504641 0.12804651946228041 0 0.255186127323073 0.11543194682551421 0 0.25238596385504641 0.12804651946228041 0 0.25813574029091341 0.12532111527980791 0 0.25824300399834771 0.11754386918627879 0 0.255186127323073 0.11543194682551421 0 0.25813574029091341 0.12532111527980791 0 0.25238596385504641 0.12804651946228041 0 0.25813574029091341 0.12532111527980791 0 0.26818611498992623 0.1403022215883418 0 0.24420216851797599 0.1292372680552665 0 0.26818611498992623 0.1403022215883418 0 0.24301228879775941 0.13939302681245261 0 0.24420216851797599 0.1292372680552665 0 0.26818611498992623 0.1403022215883418 0 0.24420216851797599 0.1292372680552665 0 0.25238596385504641 0.12804651946228041 0 0.26818611498992623 0.1403022215883418 0 0.25813574029091341 0.12532111527980791 0 0.26562400985315288 0.1251654340079911 0 0.26818611498992623 0.1403022215883418 0 0.27248198541775659 0.12784311929978001 0 0.26818611498992623 0.1403022215883418 0 0.27913813953766042 0.12972245958528131 0 0.26562400985315288 0.1251654340079911 0 0.27248198541775659 0.12784311929978001 0 0.26818611498992623 0.1403022215883418 0 0.26818611498992623 0.1403022215883418 0 0.27913813953766042 0.12972245958528131 0 0.28414721419066807 0.1482284927670183 0 0.26818611498992623 0.1403022215883418 0 0.26583546295036609 0.16369396270660089 0 0.28414721419066807 0.1482284927670183 0 0.26818611498992623 0.1403022215883418 0 0.25486404381895789 0.1523024957907583 0 0.26583546295036609 0.16369396270660089 0 0.24301228879775941 0.13939302681245261 0 0.26818611498992623 0.1403022215883418 0 0.25486404381895789 0.1523024957907583 0 0.2424223085377801 0.16582077205563811 0 0.25486404381895789 0.1523024957907583 0 0.26583546295036609 0.16369396270660089 0 0.2424223085377801 0.16582077205563811 0 0.26032431562704572 0.18342712708893841 0 0.26583546295036609 0.16369396270660089 0 0.26032431562704572 0.18342712708893841 0 0.27712404590978218 0.18082877805207789 0 0.26583546295036609 0.16369396270660089 0 0.27712404590978218 0.18082877805207789 0 0.26583546295036609 0.16369396270660089 0 0.28977860037431658 0.16805367250728201 0 0.26583546295036609 0.16369396270660089 0 0.28977860037431658 0.16805367250728201 0 0.28414721419066807 0.1482284927670183 0 0.27712404590978218 0.18082877805207789 0 0.28977860037431658 0.16805367250728201 0 0.29478084704188562 0.18627619782702401 0 0.28977860037431658 0.16805367250728201 0 0.29478084704188562 0.18627619782702401 0 0.31259037162619269 0.16725562300018509 0 0.29478084704188562 0.18627619782702401 0 0.31732062797233113 0.1926592597090995 0 0.31259037162619269 0.16725562300018509 0 0.28977860037431658 0.16805367250728201 0 0.29946190776947251 0.15165108642358641 0 0.31259037162619269 0.16725562300018509 0 0.29946190776947251 0.15165108642358641 0 0.31457327253359829 0.14480451223356691 0 0.31259037162619269 0.16725562300018509 0 0.29946190776947251 0.15165108642358641 0 0.29622008012258699 0.12991313160987961 0 0.31457327253359829 0.14480451223356691 0 0.29622008012258699 0.12991313160987961 0 0.31457327253359829 0.14480451223356691 0 0.29622008012258699 0.12991313160987961 0 0.32387679174541939 0.1297141718462434 0 0.31457327253359829 0.14480451223356691 0 0.27913813953766042 0.12972245958528131 0 0.29622008012258699 0.12991313160987961 0 0.28414721419066807 0.1482284927670183 0 0.29946190776947251 0.15165108642358641 0 0.29622008012258699 0.12991313160987961 0 0.28414721419066807 0.1482284927670183 0 0.28977860037431658 0.16805367250728201 0 0.29946190776947251 0.15165108642358641 0 0.28414721419066807 0.1482284927670183 0 0.27355486584907379 0.24364475180805101 0 0.25452501640087027 0.2374112721999547 0 0.26408278890255732 0.22479217687295791 0 0.25404003316197471 0.25208422786308371 0 0.27355486584907379 0.24364475180805101 0 0.25452501640087027 0.2374112721999547 0 0.24523436150048811 0.24199469982198529 0 0.25404003316197471 0.25208422786308371 0 0.25452501640087027 0.2374112721999547 0 0.24868260911088891 0.2303107595792985 0 0.2471090749199483 0.2357199094212839 0 0.25452501640087027 0.2374112721999547 0 0.24868260911088891 0.2303107595792985 0 0.25452501640087027 0.2374112721999547 0 0.26408278890255732 0.22479217687295791 0 0.24868260911088891 0.2303107595792985 0 0.26408278890255732 0.22479217687295791 0 0.25357276657721323 0.21641202867955539 0 0.27355486584907379 0.24364475180805101 0 0.26408278890255732 0.22479217687295791 0 0.28109637724199782 0.22150209212538899 0 0.26408278890255732 0.22479217687295791 0 0.28109637724199782 0.22150209212538899 0 0.27306509823529962 0.19947215684549871 0 0.26408278890255732 0.22479217687295791 0 0.25357276657721323 0.21641202867955539 0 0.27306509823529962 0.19947215684549871 0 0.25357276657721323 0.21641202867955539 0 0.25471258750952741 0.20148162901819469 0 0.27306509823529962 0.19947215684549871 0 0.25357276657721323 0.21641202867955539 0 0.27306509823529962 0.19947215684549871 0 0.2418323282778008 0.1922485172988235 0 0.26032431562704572 0.18342712708893841 0 0.25471258750952741 0.20148162901819469 0 0.26032431562704572 0.18342712708893841 0 0.25471258750952741 0.20148162901819469 0 0.27306509823529962 0.19947215684549871 0 0.26032431562704572 0.18342712708893841 0 0.27712404590978218 0.18082877805207789 0 0.27306509823529962 0.19947215684549871 0 0.29478084704188562 0.18627619782702401 0 0.27306509823529962 0.19947215684549871 0 0.29788838547339219 0.20777731020547871 0 0.27712404590978218 0.18082877805207789 0 0.29478084704188562 0.18627619782702401 0 0.27306509823529962 0.19947215684549871 0 0.29478084704188562 0.18627619782702401 0 0.29788838547339219 0.20777731020547871 0 0.31732062797233113 0.1926592597090995 0 0.29788838547339219 0.20777731020547871 0 0.31916040529159301 0.2166328624030785 0 0.31732062797233113 0.1926592597090995 0 0.28109637724199782 0.22150209212538899 0 0.27306509823529962 0.19947215684549871 0 0.29788838547339219 0.20777731020547871 0 0.28109637724199782 0.22150209212538899 0 0.29788838547339219 0.20777731020547871 0 0.29668368374297521 0.23238313674276659 0 0.27355486584907379 0.24364475180805101 0 0.28109637724199782 0.22150209212538899 0 0.29668368374297521 0.23238313674276659 0 0.29788838547339219 0.20777731020547871 0 0.29668368374297521 0.23238313674276659 0 0.31916040529159301 0.2166328624030785 0 0.29692855903906679 0.25537037528416417 0 0.29668368374297521 0.23238313674276659 0 0.32448256229391081 0.244023600812113 0 0.29692855903906679 0.25537037528416417 0 0.27355486584907379 0.24364475180805101 0 0.29668368374297521 0.23238313674276659 0 0.32448256229391081 0.244023600812113 0 0.33724611662768478 0.226971671205 0 0.35052125483258301 0.2434514759103418 0 0.32448256229391081 0.244023600812113 0 0.33724611662768478 0.226971671205 0 0.31916040529159301 0.2166328624030785 0 0.29668368374297521 0.23238313674276659 0 0.32448256229391081 0.244023600812113 0 0.31916040529159301 0.2166328624030785 0 0.33724611662768478 0.226971671205 0 0.31916040529159301 0.2166328624030785 0 0.34036716376080012 0.20191553243135291 0 0.31916040529159301 0.2166328624030785 0 0.31732062797233113 0.1926592597090995 0 0.34036716376080012 0.20191553243135291 0 0.31732062797233113 0.1926592597090995 0 0.34036716376080012 0.20191553243135291 0 0.33327910971122948 0.1769249887409369 0 0.34036716376080012 0.20191553243135291 0 0.33327910971122948 0.1769249887409369 0 0.35363051640006049 0.1838751638919715 0 0.34036716376080012 0.20191553243135291 0 0.36940151407566268 0.20038014978660379 0 0.35363051640006049 0.1838751638919715 0 0.36940151407566268 0.20038014978660379 0 0.35418005050780299 0.2186338278764331 0 0.36970064025412291 0.2313836502337521 0 0.34036716376080012 0.20191553243135291 0 0.36940151407566268 0.20038014978660379 0 0.35418005050780299 0.2186338278764331 0 0.33724611662768478 0.226971671205 0 0.34036716376080012 0.20191553243135291 0 0.35418005050780299 0.2186338278764331 0 0.33724611662768478 0.226971671205 0 0.35418005050780299 0.2186338278764331 0 0.35052125483258301 0.2434514759103418 0 0.35418005050780299 0.2186338278764331 0 0.36970064025412291 0.2313836502337521 0 0.35052125483258301 0.2434514759103418 0 0.37478492512234668 0.26235925763296819 0 0.36970064025412291 0.2313836502337521 0 0.35052125483258301 0.2434514759103418 0 0.33497932682518311 0.1519205034936916 0 0.32387679174541939 0.1297141718462434 0 0.35327239972246333 0.1300285668288671 0 0.33497932682518311 0.1519205034936916 0 0.31457327253359829 0.14480451223356691 0 0.31259037162619269 0.16725562300018509 0 0.33497932682518311 0.1519205034936916 0 0.32387679174541939 0.1297141718462434 0 0.31457327253359829 0.14480451223356691 0 0.33497932682518311 0.1519205034936916 0 0.31259037162619269 0.16725562300018509 0 0.33327910971122948 0.1769249887409369 0 0.31732062797233113 0.1926592597090995 0 0.31259037162619269 0.16725562300018509 0 0.33327910971122948 0.1769249887409369 0 0.33497932682518311 0.1519205034936916 0 0.33327910971122948 0.1769249887409369 0 0.34907151432127381 0.16521020144779211 0 0.34907151432127381 0.16521020144779211 0 0.35363051640006049 0.1838751638919715 0 0.37277469716236061 0.17385369407461371 0 0.33327910971122948 0.1769249887409369 0 0.34907151432127381 0.16521020144779211 0 0.35363051640006049 0.1838751638919715 0 0.36940151407566268 0.20038014978660379 0 0.35363051640006049 0.1838751638919715 0 0.37277469716236061 0.17385369407461371 0 0.37277469716236061 0.17385369407461371 0 0.36285879787080821 0.15032831482926681 0 0.3843829660287168 0.1587008111838667 0 0.34907151432127381 0.16521020144779211 0 0.37277469716236061 0.17385369407461371 0 0.36285879787080821 0.15032831482926681 0 0.36285879787080821 0.15032831482926681 0 0.36938385952287339 0.13266757129752671 0 0.38232915319187621 0.14145147187989651 0 0.33497932682518311 0.1519205034936916 0 0.36285879787080821 0.15032831482926681 0 0.35327239972246333 0.1300285668288671 0 0.33497932682518311 0.1519205034936916 0 0.34907151432127381 0.16521020144779211 0 0.36285879787080821 0.15032831482926681 0 0.36649271172908648 0.1176987398754743 0 0.35327239972246333 0.1300285668288671 0 0.36938385952287339 0.13266757129752671 0 0.36285879787080821 0.15032831482926681 0 0.35327239972246333 0.1300285668288671 0 0.36938385952287339 0.13266757129752671 0 0.39421974672685411 0.13240309148155921 0 0.38232915319187621 0.14145147187989651 0 0.38138511069115272 0.12353481432135879 0 0.36938385952287339 0.13266757129752671 0 0.38232915319187621 0.14145147187989651 0 0.38138511069115272 0.12353481432135879 0 0.39421974672685411 0.13240309148155921 0 0.41199731756477831 0.13352747615702071 0 0.3942733283070321 0.11371104406223111 0 0.39421974672685411 0.13240309148155921 0 0.40120830104283178 0.15077536395034899 0 0.41199731756477831 0.13352747615702071 0 0.39421974672685411 0.13240309148155921 0 0.40120830104283178 0.15077536395034899 0 0.38232915319187621 0.14145147187989651 0 0.36285879787080821 0.15032831482926681 0 0.38232915319187621 0.14145147187989651 0 0.3843829660287168 0.1587008111838667 0 0.40120830104283178 0.15077536395034899 0 0.38232915319187621 0.14145147187989651 0 0.3843829660287168 0.1587008111838667 0 0.37277469716236061 0.17385369407461371 0 0.3843829660287168 0.1587008111838667 0 0.39936082591505218 0.176604797209717 0 0.37277469716236061 0.17385369407461371 0 0.39936082591505218 0.176604797209717 0 0.38992891259608609 0.19548318162929729 0 0.40120830104283178 0.15077536395034899 0 0.39936082591505218 0.176604797209717 0 0.41410660213767347 0.1652382216241598 0 0.40120830104283178 0.15077536395034899 0 0.3843829660287168 0.1587008111838667 0 0.39936082591505218 0.176604797209717 0 0.40120830104283178 0.15077536395034899 0 0.41410660213767347 0.1652382216241598 0 0.42972130682252457 0.1533439082518103 0 0.39936082591505218 0.176604797209717 0 0.41410660213767347 0.1652382216241598 0 0.42626679864566441 0.18172907206941921 0 0.42626679864566441 0.18172907206941921 0 0.42972130682252457 0.1533439082518103 0 0.45055708181009879 0.1690731760043504 0 0.41410660213767347 0.1652382216241598 0 0.42626679864566441 0.18172907206941921 0 0.42972130682252457 0.1533439082518103 0 0.42972130682252457 0.1533439082518103 0 0.43054248402473921 0.1250848439374013 0 0.44904083753606949 0.1441389705362057 0 0.42972130682252457 0.1533439082518103 0 0.43054248402473921 0.1250848439374013 0 0.41199731756477831 0.13352747615702071 0 0.43054248402473921 0.1250848439374013 0 0.41199731756477831 0.13352747615702071 0 0.41135066019799099 0.1182158826350982 0 0.40120830104283178 0.15077536395034899 0 0.42972130682252457 0.1533439082518103 0 0.41199731756477831 0.13352747615702071 0 0.42972130682252457 0.1533439082518103 0 0.41199731756477831 0.13352747615702071 0 0.40097752291506289 0.25902709479471048 0 0.39333580902427501 0.24081282939082621 0 0.41286841049430861 0.24788583003777651 0 0.37478492512234668 0.26235925763296819 0 0.36970064025412291 0.2313836502337521 0 0.39333580902427501 0.24081282939082621 0 0.36970064025412291 0.2313836502337521 0 0.39333580902427501 0.24081282939082621 0 0.39338333076520482 0.2163019563834182 0 0.39338333076520482 0.2163019563834182 0 0.41736514745474701 0.23222376298023259 0 0.39333580902427501 0.24081282939082621 0 0.39338333076520482 0.2163019563834182 0 0.41736514745474701 0.23222376298023259 0 0.39338333076520482 0.2163019563834182 0 0.38992891259608609 0.19548318162929729 0 0.41508715600771068 0.20488700545500521 0 0.36940151407566268 0.20038014978660379 0 0.39338333076520482 0.2163019563834182 0 0.36940151407566268 0.20038014978660379 0 0.39338333076520482 0.2163019563834182 0 0.38992891259608609 0.19548318162929729 0 0.36940151407566268 0.20038014978660379 0 0.36970064025412291 0.2313836502337521 0 0.39338333076520482 0.2163019563834182 0 0.36940151407566268 0.20038014978660379 0 0.37277469716236061 0.17385369407461371 0 0.38992891259608609 0.19548318162929729 0 0.39936082591505218 0.176604797209717 0 0.38992891259608609 0.19548318162929729 0 0.41508715600771068 0.20488700545500521 0 0.39936082591505218 0.176604797209717 0 0.42626679864566441 0.18172907206941921 0 0.41508715600771068 0.20488700545500521 0 0.42626679864566441 0.18172907206941921 0 0.44140000057487638 0.20455834627575151 0 0.44473765559285833 0.18692520255949671 0 0.42626679864566441 0.18172907206941921 0 0.41508715600771068 0.20488700545500521 0 0.44140000057487638 0.20455834627575151 0 0.41508715600771068 0.20488700545500521 0 0.43790507610234408 0.2273079216372012 0 0.44140000057487638 0.20455834627575151 0 0.39338333076520482 0.2163019563834182 0 0.41508715600771068 0.20488700545500521 0 0.41736514745474701 0.23222376298023259 0 0.41508715600771068 0.20488700545500521 0 0.41736514745474701 0.23222376298023259 0 0.43790507610234408 0.2273079216372012 0 0.42717012070777932 0.25569493195645271 0 0.41736514745474701 0.23222376298023259 0 0.44134696414428898 0.24814556957704689 0 0.41736514745474701 0.23222376298023259 0 0.44134696414428898 0.24814556957704689 0 0.41736514745474701 0.23222376298023259 0 0.44134696414428898 0.24814556957704689 0 0.43790507610234408 0.2273079216372012 0 0.39333580902427501 0.24081282939082621 0 0.41736514745474701 0.23222376298023259 0 0.41286841049430861 0.24788583003777651 0 0.42717012070777932 0.25569493195645271 0 0.41736514745474701 0.23222376298023259 0 0.41286841049430861 0.24788583003777651 0 0.45336271850049548 0.25236276911819511 0 0.45602225988021539 0.23816249748875179 0 0.48180965237011408 0.2487438147612096 0 0.45336271850049548 0.25236276911819511 0 0.45602225988021539 0.23816249748875179 0 0.44134696414428898 0.24814556957704689 0 0.44600400848591359 0.23698591979390529 0 0.43790507610234408 0.2273079216372012 0 0.45336271850049548 0.25236276911819511 0 0.44134696414428898 0.24814556957704689 0 0.44600400848591359 0.23698591979390529 0 0.45336271850049548 0.25236276911819511 0 0.45602225988021539 0.23816249748875179 0 0.44600400848591359 0.23698591979390529 0 0.45602225988021539 0.23816249748875179 0 0.44600400848591359 0.23698591979390529 0 0.45492939023952461 0.2194397610932603 0 0.44600400848591359 0.23698591979390529 0 0.43790507610234408 0.2273079216372012 0 0.45492939023952461 0.2194397610932603 0 0.45602225988021539 0.23816249748875179 0 0.45492939023952461 0.2194397610932603 0 0.47419086539053962 0.2296972043723752 0 0.45492939023952461 0.2194397610932603 0 0.46072674134079361 0.19234021588846559 0 0.47847088324409548 0.2092058758105422 0 0.45492939023952461 0.2194397610932603 0 0.44140000057487638 0.20455834627575151 0 0.46072674134079361 0.19234021588846559 0 0.43790507610234408 0.2273079216372012 0 0.45492939023952461 0.2194397610932603 0 0.44140000057487638 0.20455834627575151 0 0.44140000057487638 0.20455834627575151 0 0.46072674134079361 0.19234021588846559 0 0.44473765559285833 0.18692520255949671 0 0.46072674134079361 0.19234021588846559 0 0.4812983336831132 0.1885899983914231 0 0.47847088324409548 0.2092058758105422 0 0.4812983336831132 0.1885899983914231 0 0.5 0.19797878532577309 0 0.47847088324409548 0.2092058758105422 0 0.5 0.19797878532577309 0 0.47847088324409548 0.2092058758105422 0 0.5 0.22793385045351919 0 0.47847088324409548 0.2092058758105422 0 0.47419086539053962 0.2296972043723752 0 0.5 0.22793385045351919 0 0.45492939023952461 0.2194397610932603 0 0.47847088324409548 0.2092058758105422 0 0.47419086539053962 0.2296972043723752 0 0.5 0.25788891558126559 0 0.5 0.22793385045351919 0 0.48180965237011408 0.2487438147612096 0 0.47419086539053962 0.2296972043723752 0 0.5 0.22793385045351919 0 0.48180965237011408 0.2487438147612096 0 0.45602225988021539 0.23816249748875179 0 0.47419086539053962 0.2296972043723752 0 0.48180965237011408 0.2487438147612096 0 0.46287167922105149 0.15545842773829099 0 0.44904083753606949 0.1441389705362057 0 0.45055708181009879 0.1690731760043504 0 0.46287167922105149 0.15545842773829099 0 0.46355845200513762 0.13850516077978961 0 0.47909635670674228 0.14767892477560191 0 0.46287167922105149 0.15545842773829099 0 0.46355845200513762 0.13850516077978961 0 0.44904083753606949 0.1441389705362057 0 0.46355845200513762 0.13850516077978961 0 0.47795750643906171 0.12649365297180731 0 0.4559740449914913 0.1245921335342187 0 0.46355845200513762 0.13850516077978961 0 0.44904083753606949 0.1441389705362057 0 0.4559740449914913 0.1245921335342187 0 0.43054248402473921 0.1250848439374013 0 0.44904083753606949 0.1441389705362057 0 0.4559740449914913 0.1245921335342187 0 0.42972130682252457 0.1533439082518103 0 0.44904083753606949 0.1441389705362057 0 0.45055708181009879 0.1690731760043504 0 0.42626679864566441 0.18172907206941921 0 0.45055708181009879 0.1690731760043504 0 0.44473765559285833 0.18692520255949671 0 0.46072674134079361 0.19234021588846559 0 0.45055708181009879 0.1690731760043504 0 0.44473765559285833 0.18692520255949671 0 0.46072674134079361 0.19234021588846559 0 0.45055708181009879 0.1690731760043504 0 0.4752785409050499 0.1685484481011886 0 0.46287167922105149 0.15545842773829099 0 0.45055708181009879 0.1690731760043504 0 0.4752785409050499 0.1685484481011886 0 0.45055708181009879 0.1690731760043504 0 0.4752785409050499 0.1685484481011886 0 0.46287167922105149 0.15545842773829099 0 0.4752785409050499 0.1685484481011886 0 0.47909635670674228 0.14767892477560191 0 0.46072674134079361 0.19234021588846559 0 0.4812983336831132 0.1885899983914231 0 0.4752785409050499 0.1685484481011886 0 0.4812983336831132 0.1885899983914231 0 0.4752785409050499 0.1685484481011886 0 0.50000000000000111 0.1680237201980268 0 0.4812983336831132 0.1885899983914231 0 0.5 0.19797878532577309 0 0.50000000000000111 0.1680237201980268 0 0.4752785409050499 0.1685484481011886 0 0.50000000000000111 0.1680237201980268 0 0.4752785409050499 0.1685484481011886 0 0.50000000000000111 0.1680237201980268 0 0.47909635670674228 0.14767892477560191 0 0.50000000000000111 0.1680237201980268 0 0.5 0.14405257421324749 0 0.47909635670674228 0.14767892477560191 0 0.46355845200513762 0.13850516077978961 0 0.47909635670674228 0.14767892477560191 0 0.47795750643906171 0.12649365297180731 0 0.5 0.14405257421324749 0 0.47795750643906171 0.12649365297180731 0 0.5 0.12008142822846821 0 0.5 0.14405257421324749 0 0.47909635670674228 0.14767892477560191 0 0.47795750643906171 0.12649365297180731 0 0.47795750643906171 0.12649365297180731 0 0.5 0.12008142822846821 0 0.48437617198066579 0.1083096126220475 0 0.48437617198066579 0.1083096126220475 0 0.5 0.096110282243688894 0 0.4787628640296252 0.09057766153942011 0 0.5 0.12008142822846821 0 0.48437617198066579 0.1083096126220475 0 0.5 0.096110282243688894 0 0.48437617198066579 0.1083096126220475 0 0.4787628640296252 0.09057766153942011 0 0.46516048943464161 0.10828503812685281 0 0.47795750643906171 0.12649365297180731 0 0.48437617198066579 0.1083096126220475 0 0.46516048943464161 0.10828503812685281 0 0.49999999999999389 0.072139136258909636 0 0.47264706529987838 0.068582714068275596 0 0.5 0.096110282243688894 0 0.49999999999999389 0.072139136258909636 0 0.4787628640296252 0.09057766153942011 0 0.49999999999999389 0.072139136258909636 0 0.4787628640296252 0.09057766153942011 0 0.47264706529987838 0.068582714068275596 0 0.47264706529987838 0.068582714068275596 0 0.44529413059976319 0.065026291877640793 0 0.47264706529987838 0.068582714068275596 0 0.45009241250792742 0.089848104882156193 0 0.44529413059976319 0.065026291877640793 0 0.4787628640296252 0.09057766153942011 0 0.47264706529987838 0.068582714068275596 0 0.45009241250792742 0.089848104882156193 0 0.45009241250792742 0.089848104882156193 0 0.44529413059976319 0.065026291877640793 0 0.42710943965072512 0.080764761008918995 0 0.4559740449914913 0.1245921335342187 0 0.46516048943464161 0.10828503812685281 0 0.44660059903698529 0.1095612823054605 0 0.47795750643906171 0.12649365297180731 0 0.4559740449914913 0.1245921335342187 0 0.46516048943464161 0.10828503812685281 0 0.45009241250792742 0.089848104882156193 0 0.46516048943464161 0.10828503812685281 0 0.44660059903698529 0.1095612823054605 0 0.4787628640296252 0.09057766153942011 0 0.45009241250792742 0.089848104882156193 0 0.46516048943464161 0.10828503812685281 0 0.45009241250792742 0.089848104882156193 0 0.44660059903698529 0.1095612823054605 0 0.42999027194599682 0.1018780191517587 0 0.43054248402473921 0.1250848439374013 0 0.4559740449914913 0.1245921335342187 0 0.44660059903698529 0.1095612823054605 0 0.43054248402473921 0.1250848439374013 0 0.44660059903698529 0.1095612823054605 0 0.42999027194599682 0.1018780191517587 0 0.43054248402473921 0.1250848439374013 0 0.41661501870526302 0.10782610780512 0 0.42999027194599682 0.1018780191517587 0 0.43054248402473921 0.1250848439374013 0 0.41135066019799099 0.1182158826350982 0 0.41661501870526302 0.10782610780512 0 0.43054248402473921 0.1250848439374013 0 0.41135066019799099 0.1182158826350982 0 0.41135066019799099 0.1182158826350982 0 0.41661501870526302 0.10782610780512 0 0.40605193543095291 0.1101899923625959 0 0.41199731756477831 0.13352747615702071 0 0.40856435551682457 0.1195913393650266 0 0.41135066019799099 0.1182158826350982 0 0.41661501870526302 0.10782610780512 0 0.42999027194599682 0.1018780191517587 0 0.41050144950628809 0.092342992232264526 0 0.41661501870526302 0.10782610780512 0 0.41050144950628809 0.092342992232264526 0 0.40408322644931421 0.10337105767737099 0 0.41661501870526302 0.10782610780512 0 0.40605193543095291 0.1101899923625959 0 0.40408322644931421 0.10337105767737099 0 0.45009241250792742 0.089848104882156193 0 0.42999027194599682 0.1018780191517587 0 0.42710943965072512 0.080764761008918995 0 0.42999027194599682 0.1018780191517587 0 0.42710943965072512 0.080764761008918995 0 0.41050144950628809 0.092342992232264526 0 0.44529413059976319 0.065026291877640793 0 0.42710943965072512 0.080764761008918995 0 0.41794119589964812 0.061469869687005997 0 0.44529413059976319 0.065026291877640793 0 0.41794119589964812 0.061469869687005997 0 0.42710943965072512 0.080764761008918995 0 0.40780427562880051 0.074340584248736047 0 0.41794119589964812 0.061469869687005997 0 0.42710943965072512 0.080764761008918995 0 0.40780427562880051 0.074340584248736047 0 0.41050144950628809 0.092342992232264526 0 0.41050144950628809 0.092342992232264526 0 0.39288103188780799 0.079211850819119467 0 0.39173805803946632 0.094638931286680023 0 0.40780427562880051 0.074340584248736047 0 0.41050144950628809 0.092342992232264526 0 0.39288103188780799 0.079211850819119467 0 0.40780427562880051 0.074340584248736047 0 0.39058826119953283 0.057913447496371839 0 0.41794119589964812 0.061469869687005997 0 0.40780427562880051 0.074340584248736047 0 0.39288103188780799 0.079211850819119467 0 0.39058826119953283 0.057913447496371839 0 0.39288103188780799 0.079211850819119467 0 0.37575225644292037 0.071709270247263784 0 0.39058826119953283 0.057913447496371839 0 0.3742009225581896 0.091268948227223284 0 0.39288103188780799 0.079211850819119467 0 0.39173805803946632 0.094638931286680023 0 0.3742009225581896 0.091268948227223284 0 0.39288103188780799 0.079211850819119467 0 0.37575225644292037 0.071709270247263784 0 0.3742009225581896 0.091268948227223284 0 0.39215883637124299 0.11134692133279479 0 0.39173805803946632 0.094638931286680023 0 0.3742009225581896 0.091268948227223284 0 0.39215883637124299 0.11134692133279479 0 0.3742009225581896 0.091268948227223284 0 0.3795225325030368 0.1068242515199407 0 0.39215883637124299 0.11134692133279479 0 0.3795225325030368 0.1068242515199407 0 0.39215883637124299 0.11134692133279479 0 0.3795225325030368 0.1068242515199407 0 0.38138511069115272 0.12353481432135879 0 0.3942733283070321 0.11371104406223111 0 0.36649271172908648 0.1176987398754743 0 0.3795225325030368 0.1068242515199407 0 0.38138511069115272 0.12353481432135879 0 0.39421974672685411 0.13240309148155921 0 0.38138511069115272 0.12353481432135879 0 0.3942733283070321 0.11371104406223111 0 0.3795225325030368 0.1068242515199407 0 0.3942733283070321 0.11371104406223111 0 0.3795225325030368 0.1068242515199407 0 0.39215883637124299 0.11134692133279479 0 0.3942733283070321 0.11371104406223111 0 0.41135066019799099 0.1182158826350982 0 0.39215883637124299 0.11134692133279479 0 0.40605193543095291 0.1101899923625959 0 0.41135066019799099 0.1182158826350982 0 0.39215883637124299 0.11134692133279479 0 0.3942733283070321 0.11371104406223111 0 0.41135066019799099 0.1182158826350982 0 0.39215883637124299 0.11134692133279479 0 0.41199731756477831 0.13352747615702071 0 0.40856435551682457 0.1195913393650266 0 0.3942733283070321 0.11371104406223111 0 0.41199731756477831 0.13352747615702071 0 0.3942733283070321 0.11371104406223111 0 0.40856435551682457 0.1195913393650266 0 0.41135066019799099 0.1182158826350982 0 0.3942733283070321 0.11371104406223111 0 0.39215883637124299 0.11134692133279479 0 0.3942733283070321 0.11371104406223111 0 0.40856435551682457 0.1195913393650266 0 0.3942733283070321 0.11371104406223111 0 0.39215883637124299 0.11134692133279479 0 0.40408322644931421 0.10337105767737099 0 0.39173805803946632 0.094638931286680023 0 0.39215883637124299 0.11134692133279479 0 0.40605193543095291 0.1101899923625959 0 0.40408322644931421 0.10337105767737099 0 0.41050144950628809 0.092342992232264526 0 0.40408322644931421 0.10337105767737099 0 0.39173805803946632 0.094638931286680023 0 0.4038432128890253 0.016274120358417851 0 0.39452024459155199 0.029629145094844 0 0.3798040161112804 0.028996110171619349 0 0.4038432128890253 0.016274120358417851 0 0.39452024459155199 0.029629145094844 0 0.40714332068978548 0.032011032787191827 0 0.4038432128890253 0.016274120358417851 0 0.3798040161112804 0.028996110171619349 0 0.4038432128890253 0.016274120358417851 0 0.39390920682105918 0.0040204267233196643 0 0.38813729234829519 0.016219836643301819 0 0.4038432128890253 0.016274120358417851 0 0.39390920682105918 0.0040204267233196643 0 0.40369857438468087 -0.0060371637805465179 0 0.39390920682105918 0.0040204267233196643 0 0.38212023564171321 0.001094655884648786 0 0.38813729234829519 0.016219836643301819 0 0.38212023564171321 0.001094655884648786 0 0.37537418671591988 0.012891754799621079 0 0.3700201466167648 -0.002195575246397889 0 0.38212023564171321 0.001094655884648786 0 0.37537418671591988 0.012891754799621079 0 0.38813729234829519 0.016219836643301819 0 0.38029426512156322 0.021339738828328979 0 0.38813729234829519 0.016219836643301819 0 0.3798040161112804 0.028996110171619349 0 0.4038432128890253 0.016274120358417851 0 0.38813729234829519 0.016219836643301819 0 0.3798040161112804 0.028996110171619349 0 0.37537418671591988 0.012891754799621079 0 0.38029426512156322 0.021339738828328979 0 0.37786156531075732 0.02725125369877367 0 0.37537418671591988 0.012891754799621079 0 0.38029426512156322 0.021339738828328979 0 0.38813729234829519 0.016219836643301819 0 0.39452024459155199 0.029629145094844 0 0.3798040161112804 0.028996110171619349 0 0.384792923869274 0.033192425096464057 0 0.38029426512156322 0.021339738828328979 0 0.3798040161112804 0.028996110171619349 0 0.37786156531075732 0.02725125369877367 0 0.36984281421283938 0.03924660656396721 0 0.3798040161112804 0.028996110171619349 0 0.37675727284589372 0.036323400775862158 0 0.3798040161112804 0.028996110171619349 0 0.38012370578730592 0.033949837724153123 0 0.37675727284589372 0.036323400775862158 0 0.3798040161112804 0.028996110171619349 0 0.38012370578730592 0.033949837724153123 0 0.384792923869274 0.033192425096464057 0 0.38012370578730592 0.033949837724153123 0 0.38115894465086869 0.037510150111343843 0 0.384792923869274 0.033192425096464057 0 0.38012370578730592 0.033949837724153123 0 0.38115894465086869 0.037510150111343843 0 0.37675727284589372 0.036323400775862158 0 0.38115894465086869 0.037510150111343843 0 0.37675727284589372 0.036323400775862158 0 0.37726993283737248 0.041439113600633092 0 0.37726993283737248 0.041439113600633092 0 0.38325871491723518 0.0441773091346798 0 0.37608467898805159 0.048096788967416412 0 0.38115894465086869 0.037510150111343843 0 0.37726993283737248 0.041439113600633092 0 0.38325871491723518 0.0441773091346798 0 0.38115894465086869 0.037510150111343843 0 0.38325871491723518 0.0441773091346798 0 0.38884635116990662 0.036871995634108659 0 0.38325871491723518 0.0441773091346798 0 0.38884635116990662 0.036871995634108659 0 0.39118926401298038 0.043344116461786472 0 0.39452024459155199 0.029629145094844 0 0.38884635116990662 0.036871995634108659 0 0.384792923869274 0.033192425096464057 0 0.38115894465086869 0.037510150111343843 0 0.38884635116990662 0.036871995634108659 0 0.384792923869274 0.033192425096464057 0 0.36737709041569239 0.056764699852256018 0 0.39058826119953283 0.057913447496371839 0 0.36443667806580698 0.054513224756226962 0 0.37608467898805159 0.048096788967416412 0 0.39058826119953283 0.057913447496371839 0 0.36737709041569239 0.056764699852256018 0 0.37575225644292037 0.071709270247263784 0 0.39058826119953283 0.057913447496371839 0 0.36443667806580698 0.054513224756226962 0 0.39058826119953283 0.057913447496371839 0 0.38325871491723518 0.0441773091346798 0 0.37608467898805159 0.048096788967416412 0 0.39058826119953283 0.057913447496371839 0 0.38325871491723518 0.0441773091346798 0 0.39058826119953283 0.057913447496371839 0 0.39118926401298038 0.043344116461786472 0 0.39058826119953283 0.057913447496371839 0 0.39917917489280202 0.048669550515315511 0 0.40824027372044169 0.058787065978875973 0 0.39058826119953283 0.057913447496371839 0 0.40824027372044169 0.058787065978875973 0 0.39058826119953283 0.057913447496371839 0 0.41794119589964812 0.061469869687005997 0 0.40824027372044169 0.058787065978875973 0 0.39058826119953283 0.057913447496371839 0 0.41794119589964812 0.061469869687005997 0 0.39058826119953283 0.057913447496371839 0 0.39917917489280202 0.048669550515315511 0 0.39118926401298038 0.043344116461786472 0 0.39917917489280202 0.048669550515315511 0 0.40803146459590139 0.044566129264659721 0 0.40824027372044169 0.058787065978875973 0 0.39452024459155199 0.029629145094844 0 0.38884635116990662 0.036871995634108659 0 0.39784661093515339 0.038736993374884177 0 0.39917917489280202 0.048669550515315511 0 0.39784661093515339 0.038736993374884177 0 0.39118926401298038 0.043344116461786472 0 0.38884635116990662 0.036871995634108659 0 0.39784661093515339 0.038736993374884177 0 0.39118926401298038 0.043344116461786472 0 0.39917917489280202 0.048669550515315511 0 0.39784661093515339 0.038736993374884177 0 0.40803146459590139 0.044566129264659721 0 0.39452024459155199 0.029629145094844 0 0.39784661093515339 0.038736993374884177 0 0.40714332068978548 0.032011032787191827 0 0.39784661093515339 0.038736993374884177 0 0.40714332068978548 0.032011032787191827 0 0.40803146459590139 0.044566129264659721 0 0.40714332068978548 0.032011032787191827 0 0.40803146459590139 0.044566129264659721 0 0.41964440497126981 0.040250358009145122 0 0.40803146459590139 0.044566129264659721 0 0.41964440497126981 0.040250358009145122 0 0.41733432138732551 0.050785193364838402 0 0.40714332068978548 0.032011032787191827 0 0.41964440497126981 0.040250358009145122 0 0.41891932927970088 0.026081136014491389 0 0.40824027372044169 0.058787065978875973 0 0.41733432138732551 0.050785193364838402 0 0.42589228624135061 0.059660684461379461 0 0.40824027372044169 0.058787065978875973 0 0.42589228624135061 0.059660684461379461 0 0.41794119589964812 0.061469869687005997 0 0.40824027372044169 0.058787065978875973 0 0.42589228624135061 0.059660684461379461 0 0.40803146459590139 0.044566129264659721 0 0.40824027372044169 0.058787065978875973 0 0.41733432138732551 0.050785193364838402 0 0.41964440497126981 0.040250358009145122 0 0.41733432138732551 0.050785193364838402 0 0.42647272639553008 0.050672874727357403 0 0.44529413059976319 0.065026291877640793 0 0.42589228624135061 0.059660684461379461 0 0.43583307009461808 0.053135938561971199 0 0.44529413059976319 0.065026291877640793 0 0.41794119589964812 0.061469869687005997 0 0.42589228624135061 0.059660684461379461 0 0.42589228624135061 0.059660684461379461 0 0.42647272639553008 0.050672874727357403 0 0.43583307009461808 0.053135938561971199 0 0.41733432138732551 0.050785193364838402 0 0.42589228624135061 0.059660684461379461 0 0.42647272639553008 0.050672874727357403 0 0.42647272639553008 0.050672874727357403 0 0.43583307009461808 0.053135938561971199 0 0.4340740022190257 0.043822740937536728 0 0.41964440497126981 0.040250358009145122 0 0.42987588244635011 0.033334548906864728 0 0.41891932927970088 0.026081136014491389 0 0.41964440497126981 0.040250358009145122 0 0.4340740022190257 0.043822740937536728 0 0.42987588244635011 0.033334548906864728 0 0.41964440497126981 0.040250358009145122 0 0.42647272639553008 0.050672874727357403 0 0.4340740022190257 0.043822740937536728 0 0.4340740022190257 0.043822740937536728 0 0.42987588244635011 0.033334548906864728 0 0.44528176508543132 0.032905620831071007 0 0.42987588244635011 0.033334548906864728 0 0.43184963590009789 0.021236349906575389 0 0.44528176508543132 0.032905620831071007 0 0.43184963590009789 0.021236349906575389 0 0.42259879527057942 0.015927249454054739 0 0.43188165484739188 0.01287087804949661 0 0.43184963590009789 0.021236349906575389 0 0.42259879527057942 0.015927249454054739 0 0.41891932927970088 0.026081136014491389 0 0.42987588244635011 0.033334548906864728 0 0.43184963590009789 0.021236349906575389 0 0.41891932927970088 0.026081136014491389 0 0.4038432128890253 0.016274120358417851 0 0.42259879527057942 0.015927249454054739 0 0.41891932927970088 0.026081136014491389 0 0.4038432128890253 0.016274120358417851 0 0.40714332068978548 0.032011032787191827 0 0.41891932927970088 0.026081136014491389 0 0.4038432128890253 0.016274120358417851 0 0.41402040698134779 -0.0025911497673051101 0 0.40369857438468087 -0.0060371637805465179 0 0.4038432128890253 0.016274120358417851 0 0.42788240966677021 0.003552130545216341 0 0.4038432128890253 0.016274120358417851 0 0.42101935538117791 0.0050386314779034547 0 0.41402040698134779 -0.0025911497673051101 0 0.4038432128890253 0.016274120358417851 0 0.42259879527057942 0.015927249454054739 0 0.42788240966677021 0.003552130545216341 0 0.4038432128890253 0.016274120358417851 0 0.42101935538117791 0.0050386314779034547 0 0.42788240966677021 0.003552130545216341 0 0.42788240966677021 0.003552130545216341 0 0.43188165484739188 0.01287087804949661 0 0.44740740452026229 0.01137317045841814 0 0.42259879527057942 0.015927249454054739 0 0.42788240966677021 0.003552130545216341 0 0.43188165484739188 0.01287087804949661 0 0.43184963590009789 0.021236349906575389 0 0.43188165484739188 0.01287087804949661 0 0.44740740452026229 0.01137317045841814 0 0.42788240966677021 0.003552130545216341 0 0.44740740452026229 0.01137317045841814 0 0.45192160644451512 -0.0091698592679851504 0 0.43184963590009789 0.021236349906575389 0 0.44740740452026229 0.01137317045841814 0 0.44528176508543132 0.032905620831071007 0 0.44740740452026229 0.01137317045841814 0 0.44528176508543132 0.032905620831071007 0 0.46875558315454652 0.02621282055229885 0 0.44740740452026229 0.01137317045841814 0 0.4740075662235973 0.0028935560396234419 0 0.46875558315454652 0.02621282055229885 0 0.44740740452026229 0.01137317045841814 0 0.4740075662235973 0.0028935560396234419 0 0.45192160644451512 -0.0091698592679851504 0 0.44529413059976319 0.065026291877640793 0 0.44587589901867808 0.047550444472131762 0 0.4614262583005877 0.04791767975015173 0 0.44529413059976319 0.065026291877640793 0 0.43583307009461808 0.053135938561971199 0 0.44587589901867808 0.047550444472131762 0 0.43583307009461808 0.053135938561971199 0 0.4340740022190257 0.043822740937536728 0 0.44587589901867808 0.047550444472131762 0 0.44587589901867808 0.047550444472131762 0 0.44528176508543132 0.032905620831071007 0 0.4614262583005877 0.04791767975015173 0 0.4340740022190257 0.043822740937536728 0 0.44587589901867808 0.047550444472131762 0 0.44528176508543132 0.032905620831071007 0 0.44528176508543132 0.032905620831071007 0 0.4614262583005877 0.04791767975015173 0 0.46875558315454652 0.02621282055229885 0 0.47264706529987838 0.068582714068275596 0 0.44529413059976319 0.065026291877640793 0 0.4614262583005877 0.04791767975015173 0 0.47264706529987838 0.068582714068275596 0 0.4614262583005877 0.04791767975015173 0 0.48053199367993171 0.043851827509569327 0 0.4614262583005877 0.04791767975015173 0 0.48053199367993171 0.043851827509569327 0 0.46875558315454652 0.02621282055229885 0 0.48053199367993171 0.043851827509569327 0 0.5 0.04545089247058498 0 0.5 0.018762648682260189 0 0.49999999999999389 0.072139136258909636 0 0.47264706529987838 0.068582714068275596 0 0.48053199367993171 0.043851827509569327 0 0.49999999999999389 0.072139136258909636 0 0.48053199367993171 0.043851827509569327 0 0.5 0.04545089247058498 0 0.48053199367993171 0.043851827509569327 0 0.46875558315454652 0.02621282055229885 0 0.5 0.018762648682260189 0 0.4740075662235973 0.0028935560396234419 0 0.46875558315454652 0.02621282055229885 0 0.5 0.018762648682260189 0 0.4740075662235973 0.0028935560396234419 0 0.5 0.018762648682260189 0 0.5 -0.0079255951060647756 0 0.4740075662235973 0.0028935560396234419 0 0.5 -0.0079255951060647756 0 0.47596080322225992 -0.02189184908118659 0 0.47596080322225992 -0.02189184908118659 0 0.50000000000000377 -0.034613838894389633 0 0.5 -0.0079255951060647756 0 0.47596080322225992 -0.02189184908118659 0 0.50000000000000377 -0.034613838894389633 0 0.47596080322225992 -0.02189184908118659 0 0.50000000000000377 -0.034613838894389633 0 0.48339532061042467 -0.042675677639817791 0 0.50000000000000377 -0.034613838894389633 0 0.5 -0.052291970509826757 0 0.48339532061042467 -0.042675677639817791 0 0.5 -0.052291970509826757 0 0.48378938215607542 -0.060491629721736481 0 0.49999999999999678 -0.069970102125263903 0 0.5 -0.052291970509826757 0 0.48378938215607542 -0.060491629721736481 0 0.48339532061042467 -0.042675677639817791 0 0.48378938215607542 -0.060491629721736481 0 0.47035919737641452 -0.05083356829212015 0 0.48339532061042467 -0.042675677639817791 0 0.48378938215607542 -0.060491629721736481 0 0.47035919737641452 -0.05083356829212015 0 0.46263532094350251 -0.0655193079319734 0 0.47596080322225992 -0.02189184908118659 0 0.48339532061042467 -0.042675677639817791 0 0.46122373864745198 -0.034064038759572521 0 0.47035919737641452 -0.05083356829212015 0 0.48339532061042467 -0.042675677639817791 0 0.46122373864745198 -0.034064038759572521 0 0.46122373864745198 -0.034064038759572521 0 0.45641225836005789 -0.05051217933658872 0 0.44483042593949818 -0.041063070916932051 0 0.47035919737641452 -0.05083356829212015 0 0.46122373864745198 -0.034064038759572521 0 0.45641225836005789 -0.05051217933658872 0 0.45641225836005789 -0.05051217933658872 0 0.44526353314296241 -0.062107813217869068 0 0.46263532094350251 -0.0655193079319734 0 0.47035919737641452 -0.05083356829212015 0 0.45641225836005789 -0.05051217933658872 0 0.46263532094350251 -0.0655193079319734 0 0.45641225836005789 -0.05051217933658872 0 0.44526353314296241 -0.062107813217869068 0 0.44483042593949818 -0.041063070916932051 0 0.44526353314296241 -0.062107813217869068 0 0.44483042593949818 -0.041063070916932051 0 0.42768193525564641 -0.052738548234870043 0 0.46122373864745198 -0.034064038759572521 0 0.44483042593949818 -0.041063070916932051 0 0.44260817666721519 -0.025216613737701819 0 0.44483042593949818 -0.041063070916932051 0 0.44260817666721519 -0.025216613737701819 0 0.43454865465473302 -0.032105158367880783 0 0.46122373864745198 -0.034064038759572521 0 0.44260817666721519 -0.025216613737701819 0 0.45192160644451512 -0.0091698592679851504 0 0.42788240966677021 0.003552130545216341 0 0.45192160644451512 -0.0091698592679851504 0 0.44260817666721519 -0.025216613737701819 0 0.45192160644451512 -0.0091698592679851504 0 0.43543049063324413 -0.012350052332502739 0 0.42788240966677021 0.003552130545216341 0 0.45192160644451512 -0.0091698592679851504 0 0.43543049063324413 -0.012350052332502739 0 0.4740075662235973 0.0028935560396234419 0 0.47596080322225992 -0.02189184908118659 0 0.45192160644451512 -0.0091698592679851504 0 0.47596080322225992 -0.02189184908118659 0 0.45192160644451512 -0.0091698592679851504 0 0.47596080322225992 -0.02189184908118659 0 0.46122373864745198 -0.034064038759572521 0 0.45192160644451512 -0.0091698592679851504 0 0.47621403880257929 -0.099362679963144546 0 0.45825176112352212 -0.1171944005084963 0 0.47461064769812122 -0.12772964805397971 0 0.50000000000000433 -0.1143432737178363 0 0.47621403880257929 -0.099362679963144546 0 0.47461064769812122 -0.12772964805397971 0 0.50000000000000433 -0.1143432737178363 0 0.47461064769812122 -0.12772964805397971 0 0.49999999999998102 -0.1000967699598443 0 0.47621403880257929 -0.099362679963144546 0 0.49999999999998102 -0.1000967699598443 0 0.47621403880257929 -0.099362679963144546 0 0.48785951469139027 -0.086657123706384981 0 0.50000000000000433 -0.1143432737178363 0 0.49999999999998102 -0.1000967699598443 0 0.47621403880257929 -0.099362679963144546 0 0.47621403880257929 -0.099362679963144546 0 0.48785951469139027 -0.086657123706384981 0 0.47522401996300467 -0.077198942777287505 0 0.47621403880257929 -0.099362679963144546 0 0.47522401996300467 -0.077198942777287505 0 0.46460819440086443 -0.0896918568577834 0 0.49999999999998102 -0.1000967699598443 0 0.48785951469139027 -0.086657123706384981 0 0.49999999999999678 -0.069970102125263903 0 0.49999999999999678 -0.069970102125263903 0 0.47522401996300467 -0.077198942777287505 0 0.48785951469139027 -0.086657123706384981 0 0.49999999999999678 -0.069970102125263903 0 0.47522401996300467 -0.077198942777287505 0 0.48378938215607542 -0.060491629721736481 0 0.49999999999999678 -0.069970102125263903 0 0.47522401996300467 -0.077198942777287505 0 0.48378938215607542 -0.060491629721736481 0 0.47522401996300467 -0.077198942777287505 0 0.46263532094350251 -0.0655193079319734 0 0.47522401996300467 -0.077198942777287505 0 0.46263532094350251 -0.0655193079319734 0 0.4504480399260129 -0.084427783429311939 0 0.44526353314296241 -0.062107813217869068 0 0.46263532094350251 -0.0655193079319734 0 0.4504480399260129 -0.084427783429311939 0 0.44526353314296241 -0.062107813217869068 0 0.4504480399260129 -0.084427783429311939 0 0.43069868055782679 -0.078899440675300136 0 0.4504480399260129 -0.084427783429311939 0 0.45242807760517778 -0.098628589966444233 0 0.42864211640777627 -0.097894499969741214 0 0.4504480399260129 -0.084427783429311939 0 0.42567205988902129 -0.091656624081337568 0 0.47522401996300467 -0.077198942777287505 0 0.4504480399260129 -0.084427783429311939 0 0.47522401996300467 -0.077198942777287505 0 0.4504480399260129 -0.084427783429311939 0 0.46460819440086443 -0.0896918568577834 0 0.4504480399260129 -0.084427783429311939 0 0.46460819440086443 -0.0896918568577834 0 0.45242807760517778 -0.098628589966444233 0 0.47621403880257929 -0.099362679963144546 0 0.45242807760517778 -0.098628589966444233 0 0.45825176112352212 -0.1171944005084963 0 0.47621403880257929 -0.099362679963144546 0 0.45242807760517778 -0.098628589966444233 0 0.47621403880257929 -0.099362679963144546 0 0.46460819440086443 -0.0896918568577834 0 0.45242807760517778 -0.098628589966444233 0 0.45242807760517778 -0.098628589966444233 0 0.42864211640777627 -0.097894499969741214 0 0.45242807760517778 -0.098628589966444233 0 0.43893170590200609 -0.1195052611799315 0 0.42864211640777627 -0.097894499969741214 0 0.45242807760517778 -0.098628589966444233 0 0.43893170590200609 -0.1195052611799315 0 0.45825176112352212 -0.1171944005084963 0 0.42080162445294911 -0.1170697999396166 0 0.40604313277712428 -0.1171380761358455 0 0.41368108829086198 -0.13554811058748131 0 0.42080162445294911 -0.1170697999396166 0 0.40662173914453831 -0.097214899993173481 0 0.40604313277712428 -0.1171380761358455 0 0.43893170590200609 -0.1195052611799315 0 0.42080162445294911 -0.1170697999396166 0 0.430889964195386 -0.135117951771525 0 0.43893170590200609 -0.1195052611799315 0 0.42080162445294911 -0.1170697999396166 0 0.42864211640777627 -0.097894499969741214 0 0.43893170590200609 -0.1195052611799315 0 0.42864211640777627 -0.097894499969741214 0 0.42864211640777627 -0.097894499969741214 0 0.42567205988902129 -0.091656624081337568 0 0.42864211640777627 -0.097894499969741214 0 0.40662173914453831 -0.097214899993173481 0 0.42567205988902129 -0.091656624081337568 0 0.42080162445294911 -0.1170697999396166 0 0.42864211640777627 -0.097894499969741214 0 0.40662173914453831 -0.097214899993173481 0 0.42864211640777627 -0.097894499969741214 0 0.40662173914453831 -0.097214899993173481 0 0.40662173914453831 -0.097214899993173481 0 0.42567205988902129 -0.091656624081337568 0 0.40662173914453831 -0.097214899993173481 0 0.41829766411352998 -0.087706900461061957 0 0.42567205988902129 -0.091656624081337568 0 0.40662173914453831 -0.097214899993173481 0 0.41020628866808312 -0.08357079425946129 0 0.41829766411352998 -0.087706900461061957 0 0.41020628866808312 -0.08357079425946129 0 0.42012861486432151 -0.07981881462850364 0 0.41094109939792961 -0.074512111623280808 0 0.41020628866808312 -0.08357079425946129 0 0.41094109939792961 -0.074512111623280808 0 0.40556094342569721 -0.078918860306745137 0 0.41020628866808312 -0.08357079425946129 0 0.42012861486432151 -0.07981881462850364 0 0.41829766411352998 -0.087706900461061957 0 0.42012861486432151 -0.07981881462850364 0 0.41829766411352998 -0.087706900461061957 0 0.42254342745458301 -0.084546146485576762 0 0.41829766411352998 -0.087706900461061957 0 0.42461385466063262 -0.08943412331831832 0 0.42254342745458301 -0.084546146485576762 0 0.42567205988902129 -0.091656624081337568 0 0.42461385466063262 -0.08943412331831832 0 0.43069868055782679 -0.078899440675300136 0 0.4504480399260129 -0.084427783429311939 0 0.42567205988902129 -0.091656624081337568 0 0.43069868055782679 -0.078899440675300136 0 0.4504480399260129 -0.084427783429311939 0 0.42864211640777627 -0.097894499969741214 0 0.42567205988902129 -0.091656624081337568 0 0.42567205988902129 -0.091656624081337568 0 0.42461385466063262 -0.08943412331831832 0 0.41829766411352998 -0.087706900461061957 0 0.42567205988902129 -0.091656624081337568 0 0.42461385466063262 -0.08943412331831832 0 0.42012861486432151 -0.07981881462850364 0 0.43069868055782679 -0.078899440675300136 0 0.42254342745458301 -0.084546146485576762 0 0.42461385466063262 -0.08943412331831832 0 0.43069868055782679 -0.078899440675300136 0 0.42254342745458301 -0.084546146485576762 0 0.43069868055782679 -0.078899440675300136 0 0.42085386234523608 -0.065266903626460593 0 0.41911482919747139 -0.073234494934215744 0 0.43069868055782679 -0.078899440675300136 0 0.42085386234523608 -0.065266903626460593 0 0.42768193525564641 -0.052738548234870043 0 0.44526353314296241 -0.062107813217869068 0 0.43069868055782679 -0.078899440675300136 0 0.42768193525564641 -0.052738548234870043 0 0.43069868055782679 -0.078899440675300136 0 0.42768193525564641 -0.052738548234870043 0 0.42012861486432151 -0.07981881462850364 0 0.43069868055782679 -0.078899440675300136 0 0.41911482919747139 -0.073234494934215744 0 0.42085386234523608 -0.065266903626460593 0 0.41911482919747139 -0.073234494934215744 0 0.41247118756252621 -0.068972059658544485 0 0.41911482919747139 -0.073234494934215744 0 0.41094109939792961 -0.074512111623280808 0 0.41247118756252621 -0.068972059658544485 0 0.42012861486432151 -0.07981881462850364 0 0.41911482919747139 -0.073234494934215744 0 0.41094109939792961 -0.074512111623280808 0 0.41094109939792961 -0.074512111623280808 0 0.41247118756252621 -0.068972059658544485 0 0.40519344017519737 -0.069697512887539489 0 0.42085386234523608 -0.065266903626460593 0 0.41247118756252621 -0.068972059658544485 0 0.40625270669679608 -0.06214927522122575 0 0.41247118756252621 -0.068972059658544485 0 0.40519344017519737 -0.069697512887539489 0 0.40625270669679608 -0.06214927522122575 0 0.40519344017519737 -0.069697512887539489 0 0.3909339432522656 -0.07145852807871525 0 0.40625270669679608 -0.06214927522122575 0 0.41094109939792961 -0.074512111623280808 0 0.40094221169150912 -0.074554002884685597 0 0.40556094342569721 -0.078918860306745137 0 0.40519344017519737 -0.069697512887539489 0 0.40094221169150912 -0.074554002884685597 0 0.3909339432522656 -0.07145852807871525 0 0.41094109939792961 -0.074512111623280808 0 0.40519344017519737 -0.069697512887539489 0 0.40094221169150912 -0.074554002884685597 0 0.40094221169150912 -0.074554002884685597 0 0.3909339432522656 -0.07145852807871525 0 0.39616481607021642 -0.077435810443283751 0 0.3909339432522656 -0.07145852807871525 0 0.39616481607021642 -0.077435810443283751 0 0.39262893539182381 -0.080692178350181262 0 0.39181446083091098 -0.066763706552935329 0 0.38421934743036401 -0.068446750892908373 0 0.38398729378694407 -0.058429379279077209 0 0.38421934743036401 -0.068446750892908373 0 0.37813424473731178 -0.068262582352726586 0 0.38398729378694407 -0.058429379279077209 0 0.37813424473731178 -0.068262582352726586 0 0.38294139036628899 -0.080331335386894381 0 0.37353404377441052 -0.075370636612477671 0 0.38421934743036401 -0.068446750892908373 0 0.37813424473731178 -0.068262582352726586 0 0.38294139036628899 -0.080331335386894381 0 0.39181446083091098 -0.066763706552935329 0 0.38294139036628899 -0.080331335386894381 0 0.39181446083091098 -0.066763706552935329 0 0.38421934743036401 -0.068446750892908373 0 0.38294139036628899 -0.080331335386894381 0 0.3909339432522656 -0.07145852807871525 0 0.39181446083091098 -0.066763706552935329 0 0.38294139036628899 -0.080331335386894381 0 0.38598565568847482 -0.085166122563822014 0 0.39289996883908601 -0.089154852807517448 0 0.39262893539182381 -0.080692178350181262 0 0.3909339432522656 -0.07145852807871525 0 0.38598565568847482 -0.085166122563822014 0 0.39262893539182381 -0.080692178350181262 0 0.3909339432522656 -0.07145852807871525 0 0.37406831990166722 -0.093898964220853504 0 0.3909339432522656 -0.07145852807871525 0 0.38598565568847482 -0.085166122563822014 0 0.37406831990166722 -0.093898964220853504 0 0.3909339432522656 -0.07145852807871525 0 0.38294139036628899 -0.080331335386894381 0 0.37406831990166722 -0.093898964220853504 0 0.38294139036628899 -0.080331335386894381 0 0.37406831990166722 -0.093898964220853504 0 0.38598565568847482 -0.085166122563822014 0 0.38240509603332101 -0.092127683864182172 0 0.37406831990166722 -0.093898964220853504 0 0.38240509603332101 -0.092127683864182172 0 0.39289996883908601 -0.089154852807517448 0 0.38960421283109031 -0.096689699614190994 0 0.38598565568847482 -0.085166122563822014 0 0.38240509603332101 -0.092127683864182172 0 0.39289996883908601 -0.089154852807517448 0 0.39289996883908601 -0.089154852807517448 0 0.39262893539182381 -0.080692178350181262 0 0.40015417394526698 -0.083038532459552866 0 0.39616481607021642 -0.077435810443283751 0 0.39262893539182381 -0.080692178350181262 0 0.40015417394526698 -0.083038532459552866 0 0.40094221169150912 -0.074554002884685597 0 0.40556094342569721 -0.078918860306745137 0 0.40015417394526698 -0.083038532459552866 0 0.40094221169150912 -0.074554002884685597 0 0.39616481607021642 -0.077435810443283751 0 0.40015417394526698 -0.083038532459552866 0 0.41020628866808312 -0.08357079425946129 0 0.40556094342569721 -0.078918860306745137 0 0.40015417394526698 -0.083038532459552866 0 0.40662173914453831 -0.097214899993173481 0 0.39289996883908601 -0.089154852807517448 0 0.40015417394526698 -0.083038532459552866 0 0.40662173914453831 -0.097214899993173481 0 0.41020628866808312 -0.08357079425946129 0 0.40015417394526698 -0.083038532459552866 0 0.40662173914453831 -0.097214899993173481 0 0.3851668720105898 -0.10347474583943909 0 0.38960421283109031 -0.096689699614190994 0 0.40662173914453831 -0.097214899993173481 0 0.3851668720105898 -0.10347474583943909 0 0.40662173914453831 -0.097214899993173481 0 0.39289996883908601 -0.089154852807517448 0 0.38960421283109031 -0.096689699614190994 0 0.40662173914453831 -0.097214899993173481 0 0.38960421283109031 -0.096689699614190994 0 0.40662173914453831 -0.097214899993173481 0 0.3851668720105898 -0.10347474583943909 0 0.39374350655696688 -0.1137959578468639 0 0.38960421283109031 -0.096689699614190994 0 0.37237061700676077 -0.09615783082836224 0 0.3851668720105898 -0.10347474583943909 0 0.38960421283109031 -0.096689699614190994 0 0.37237061700676077 -0.09615783082836224 0 0.38240509603332101 -0.092127683864182172 0 0.38960421283109031 -0.096689699614190994 0 0.37237061700676077 -0.09615783082836224 0 0.38240509603332101 -0.092127683864182172 0 0.37406831990166722 -0.093898964220853504 0 0.37237061700676077 -0.09615783082836224 0 0.3785150876385216 -0.1195111518185689 0 0.39374350655696688 -0.1137959578468639 0 0.39237070121405998 -0.13164091544729051 0 0.3851668720105898 -0.10347474583943909 0 0.3785150876385216 -0.1195111518185689 0 0.36371200487664068 -0.10973459168570281 0 0.3851668720105898 -0.10347474583943909 0 0.3785150876385216 -0.1195111518185689 0 0.39374350655696688 -0.1137959578468639 0 0.40662173914453831 -0.097214899993173481 0 0.39374350655696688 -0.1137959578468639 0 0.40604313277712428 -0.1171380761358455 0 0.39374350655696688 -0.1137959578468639 0 0.40604313277712428 -0.1171380761358455 0 0.39237070121405998 -0.13164091544729051 0 0.41728163952739061 -0.019334187549187701 0 0.42284227266732188 -0.010769512158268201 0 0.42466518995346408 -0.026577655794440151 0 0.41728163952739061 -0.019334187549187701 0 0.41227128108974659 -0.029924501558089681 0 0.42466518995346408 -0.026577655794440151 0 0.41227128108974659 -0.029924501558089681 0 0.40863720631140932 -0.019892986955346081 0 0.40014031603924488 -0.033106741091830219 0 0.41728163952739061 -0.019334187549187701 0 0.41227128108974659 -0.029924501558089681 0 0.40863720631140932 -0.019892986955346081 0 0.41728163952739061 -0.019334187549187701 0 0.40863720631140932 -0.019892986955346081 0 0.41436166681859882 -0.01226683791037885 0 0.40863720631140932 -0.019892986955346081 0 0.41436166681859882 -0.01226683791037885 0 0.40369857438468087 -0.0060371637805465179 0 0.42101935538117791 0.0050386314779034547 0 0.41402040698134779 -0.0025911497673051101 0 0.42284227266732188 -0.010769512158268201 0 0.41402040698134779 -0.0025911497673051101 0 0.41436166681859882 -0.01226683791037885 0 0.40369857438468087 -0.0060371637805465179 0 0.41402040698134779 -0.0025911497673051101 0 0.41436166681859882 -0.01226683791037885 0 0.42284227266732188 -0.010769512158268201 0 0.41728163952739061 -0.019334187549187701 0 0.41436166681859882 -0.01226683791037885 0 0.42284227266732188 -0.010769512158268201 0 0.42284227266732188 -0.010769512158268201 0 0.43543049063324413 -0.012350052332502739 0 0.42769414368384923 -0.02254750278133769 0 0.42101935538117791 0.0050386314779034547 0 0.42284227266732188 -0.010769512158268201 0 0.42101935538117791 0.0050386314779034547 0 0.42788240966677021 0.003552130545216341 0 0.42284227266732188 -0.010769512158268201 0 0.42788240966677021 0.003552130545216341 0 0.42284227266732188 -0.010769512158268201 0 0.43543049063324413 -0.012350052332502739 0 0.42284227266732188 -0.010769512158268201 0 0.42466518995346408 -0.026577655794440151 0 0.42284227266732188 -0.010769512158268201 0 0.42769414368384923 -0.02254750278133769 0 0.42466518995346408 -0.026577655794440151 0 0.44260817666721519 -0.025216613737701819 0 0.43543049063324413 -0.012350052332502739 0 0.42769414368384923 -0.02254750278133769 0 0.42769414368384923 -0.02254750278133769 0 0.42466518995346408 -0.026577655794440151 0 0.43454865465473302 -0.032105158367880783 0 0.42769414368384923 -0.02254750278133769 0 0.42466518995346408 -0.026577655794440151 0 0.44260817666721519 -0.025216613737701819 0 0.42769414368384923 -0.02254750278133769 0 0.43454865465473302 -0.032105158367880783 0 0.42466518995346408 -0.026577655794440151 0 0.43454865465473302 -0.032105158367880783 0 0.42768193525564641 -0.052738548234870043 0 0.42466518995346408 -0.026577655794440151 0 0.42768193525564641 -0.052738548234870043 0 0.44483042593949818 -0.041063070916932051 0 0.43454865465473302 -0.032105158367880783 0 0.42768193525564641 -0.052738548234870043 0 0.42085386234523608 -0.065266903626460593 0 0.42768193525564641 -0.052738548234870043 0 0.40779956660286398 -0.049018091936576927 0 0.42085386234523608 -0.065266903626460593 0 0.40779956660286398 -0.049018091936576927 0 0.40625270669679608 -0.06214927522122575 0 0.42466518995346408 -0.026577655794440151 0 0.42768193525564641 -0.052738548234870043 0 0.40779956660286398 -0.049018091936576927 0 0.42466518995346408 -0.026577655794440151 0 0.40779956660286398 -0.049018091936576927 0 0.41227128108974659 -0.029924501558089681 0 0.42466518995346408 -0.026577655794440151 0 0.40779956660286398 -0.049018091936576927 0 0.41227128108974659 -0.029924501558089681 0 0.40779956660286398 -0.049018091936576927 0 0.40014031603924488 -0.033106741091830219 0 0.40779956660286398 -0.049018091936576927 0 0.40014031603924488 -0.033106741091830219 0 0.3912967176308087 -0.04756724484766426 0 0.40014031603924488 -0.033106741091830219 0 0.3912967176308087 -0.04756724484766426 0 0.38547037370043469 -0.032308846426106139 0 0.3909339432522656 -0.07145852807871525 0 0.40779956660286398 -0.049018091936576927 0 0.40625270669679608 -0.06214927522122575 0 0.3909339432522656 -0.07145852807871525 0 0.39181446083091098 -0.066763706552935329 0 0.40779956660286398 -0.049018091936576927 0 0.39181446083091098 -0.066763706552935329 0 0.40779956660286398 -0.049018091936576927 0 0.3912967176308087 -0.04756724484766426 0 0.3909339432522656 -0.07145852807871525 0 0.40779956660286398 -0.049018091936576927 0 0.3912967176308087 -0.04756724484766426 0 0.38398729378694407 -0.058429379279077209 0 0.37514153202862571 -0.045861082966856079 0 0.39181446083091098 -0.066763706552935329 0 0.3912967176308087 -0.04756724484766426 0 0.38398729378694407 -0.058429379279077209 0 0.38398729378694407 -0.058429379279077209 0 0.37514153202862571 -0.045861082966856079 0 0.37192531576168952 -0.05914395824800911 0 0.37813424473731178 -0.068262582352726586 0 0.38398729378694407 -0.058429379279077209 0 0.37192531576168952 -0.05914395824800911 0 0.3912967176308087 -0.04756724484766426 0 0.38547037370043469 -0.032308846426106139 0 0.37514153202862571 -0.045861082966856079 0 0.38547037370043469 -0.032308846426106139 0 0.37514153202862571 -0.045861082966856079 0 0.36877413775607049 -0.02995327657106206 0 0.38547037370043469 -0.032308846426106139 0 0.37927030083329177 -0.015743113788958679 0 0.36877413775607049 -0.02995327657106206 0 0.38547037370043469 -0.032308846426106139 0 0.37927030083329177 -0.015743113788958679 0 0.39536675090020662 -0.019928774827198261 0 0.40014031603924488 -0.033106741091830219 0 0.38547037370043469 -0.032308846426106139 0 0.39536675090020662 -0.019928774827198261 0 0.40863720631140932 -0.019892986955346081 0 0.40014031603924488 -0.033106741091830219 0 0.39536675090020662 -0.019928774827198261 0 0.40863720631140932 -0.019892986955346081 0 0.39536675090020662 -0.019928774827198261 0 0.40369857438468087 -0.0060371637805465179 0 0.39536675090020662 -0.019928774827198261 0 0.40369857438468087 -0.0060371637805465179 0 0.39174671884158141 -0.0074493154892236006 0 0.39390920682105918 0.0040204267233196643 0 0.40369857438468087 -0.0060371637805465179 0 0.39174671884158141 -0.0074493154892236006 0 0.38212023564171321 0.001094655884648786 0 0.37927030083329177 -0.015743113788958679 0 0.39174671884158141 -0.0074493154892236006 0 0.38212023564171321 0.001094655884648786 0 0.37927030083329177 -0.015743113788958679 0 0.3700201466167648 -0.002195575246397889 0 0.37927030083329177 -0.015743113788958679 0 0.39536675090020662 -0.019928774827198261 0 0.39174671884158141 -0.0074493154892236006 0 0.39390920682105918 0.0040204267233196643 0 0.38212023564171321 0.001094655884648786 0 0.39174671884158141 -0.0074493154892236006 0 0.35686418876597309 0.010252504770385159 0 0.3700201466167648 -0.002195575246397889 0 0.35727920934793722 -0.0129667368589869 0 0.37927030083329177 -0.015743113788958679 0 0.3700201466167648 -0.002195575246397889 0 0.35727920934793722 -0.0129667368589869 0 0.36877413775607049 -0.02995327657106206 0 0.35727920934793722 -0.0129667368589869 0 0.35227314840285812 -0.03152257084722427 0 0.37927030083329177 -0.015743113788958679 0 0.36877413775607049 -0.02995327657106206 0 0.35727920934793722 -0.0129667368589869 0 0.35727920934793722 -0.0129667368589869 0 0.33875503928457851 -0.02222753562310531 0 0.35227314840285812 -0.03152257084722427 0 0.35727920934793722 -0.0129667368589869 0 0.33586681222118892 -0.0067462441580033658 0 0.33875503928457851 -0.02222753562310531 0 0.35686418876597309 0.010252504770385159 0 0.35727920934793722 -0.0129667368589869 0 0.33586681222118892 -0.0067462441580033658 0 0.33586681222118892 -0.0067462441580033658 0 0.33875503928457851 -0.02222753562310531 0 0.31486943567640469 -0.023744993086391868 0 0.33875503928457851 -0.02222753562310531 0 0.31486943567640469 -0.023744993086391868 0 0.33348659077450338 -0.036157133164920148 0 0.33875503928457851 -0.02222753562310531 0 0.33348659077450338 -0.036157133164920148 0 0.35227314840285812 -0.03152257084722427 0 0.31046320235639918 0.0067575729804437252 0 0.33586681222118892 -0.0067462441580033658 0 0.3153830815233527 -0.0087530987426132929 0 0.33586681222118892 -0.0067462441580033658 0 0.31486943567640469 -0.023744993086391868 0 0.3153830815233527 -0.0087530987426132929 0 0.33586681222118892 -0.0067462441580033658 0 0.31486943567640469 -0.023744993086391868 0 0.32115491610998381 -0.052976688016941227 0 0.32092150739102382 -0.073097043805500014 0 0.30601744289912669 -0.055409131432484229 0 0.32115491610998381 -0.052976688016941227 0 0.31197137499350902 -0.041008225260955711 0 0.30601744289912669 -0.055409131432484229 0 0.31486943567640469 -0.023744993086391868 0 0.33348659077450338 -0.036157133164920148 0 0.31197137499350902 -0.041008225260955711 0 0.32115491610998381 -0.052976688016941227 0 0.33348659077450338 -0.036157133164920148 0 0.31197137499350902 -0.041008225260955711 0 0.33348659077450338 -0.036157133164920148 0 0.3363568723602065 -0.050864743298462772 0 0.35116628403686417 -0.048621598638038131 0 0.32115491610998381 -0.052976688016941227 0 0.33348659077450338 -0.036157133164920148 0 0.3363568723602065 -0.050864743298462772 0 0.32115491610998381 -0.052976688016941227 0 0.3363568723602065 -0.050864743298462772 0 0.33388625794764348 -0.064812423232177271 0 0.3363568723602065 -0.050864743298462772 0 0.34794047334546518 -0.063974584280765273 0 0.33388625794764348 -0.064812423232177271 0 0.3363568723602065 -0.050864743298462772 0 0.35116628403686417 -0.048621598638038131 0 0.34794047334546518 -0.063974584280765273 0 0.35116628403686417 -0.048621598638038131 0 0.35914505774559541 -0.060409417065886872 0 0.36392372675137458 -0.051574144679805103 0 0.35116628403686417 -0.048621598638038131 0 0.36240463436463582 -0.041692596330413237 0 0.36392372675137458 -0.051574144679805103 0 0.35116628403686417 -0.048621598638038131 0 0.35914505774559541 -0.060409417065886872 0 0.34794047334546518 -0.063974584280765273 0 0.35116628403686417 -0.048621598638038131 0 0.35227314840285812 -0.03152257084722427 0 0.36240463436463582 -0.041692596330413237 0 0.33348659077450338 -0.036157133164920148 0 0.35116628403686417 -0.048621598638038131 0 0.35227314840285812 -0.03152257084722427 0 0.37514153202862571 -0.045861082966856079 0 0.36877413775607049 -0.02995327657106206 0 0.36240463436463582 -0.041692596330413237 0 0.36877413775607049 -0.02995327657106206 0 0.35227314840285812 -0.03152257084722427 0 0.36240463436463582 -0.041692596330413237 0 0.37514153202862571 -0.045861082966856079 0 0.36240463436463582 -0.041692596330413237 0 0.36392372675137458 -0.051574144679805103 0 0.35914505774559541 -0.060409417065886872 0 0.36392372675137458 -0.051574144679805103 0 0.37192531576168952 -0.05914395824800911 0 0.37514153202862571 -0.045861082966856079 0 0.36392372675137458 -0.051574144679805103 0 0.37192531576168952 -0.05914395824800911 0 0.37813424473731178 -0.068262582352726586 0 0.37192531576168952 -0.05914395824800911 0 0.3680772617285144 -0.06977757947088653 0 0.35914505774559541 -0.060409417065886872 0 0.37192531576168952 -0.05914395824800911 0 0.3680772617285144 -0.06977757947088653 0 0.35914505774559541 -0.060409417065886872 0 0.3680772617285144 -0.06977757947088653 0 0.35837286676988928 -0.071968688592424085 0 0.3680772617285144 -0.06977757947088653 0 0.36498327826552668 -0.083111049239403226 0 0.35837286676988928 -0.071968688592424085 0 0.3680772617285144 -0.06977757947088653 0 0.37353404377441052 -0.075370636612477671 0 0.36498327826552668 -0.083111049239403226 0 0.37813424473731178 -0.068262582352726586 0 0.3680772617285144 -0.06977757947088653 0 0.37353404377441052 -0.075370636612477671 0 0.38294139036628899 -0.080331335386894381 0 0.37353404377441052 -0.075370636612477671 0 0.36498327826552668 -0.083111049239403226 0 0.36498327826552668 -0.083111049239403226 0 0.37237061700676077 -0.09615783082836224 0 0.34241852099989789 -0.095233439592861846 0 0.38294139036628899 -0.080331335386894381 0 0.36498327826552668 -0.083111049239403226 0 0.37406831990166722 -0.093898964220853504 0 0.36498327826552668 -0.083111049239403226 0 0.37406831990166722 -0.093898964220853504 0 0.37237061700676077 -0.09615783082836224 0 0.36498327826552668 -0.083111049239403226 0 0.3449175019875389 -0.076917716904771144 0 0.34241852099989789 -0.095233439592861846 0 0.36498327826552668 -0.083111049239403226 0 0.3449175019875389 -0.076917716904771144 0 0.35837286676988928 -0.071968688592424085 0 0.3449175019875389 -0.076917716904771144 0 0.34794047334546518 -0.063974584280765273 0 0.35837286676988928 -0.071968688592424085 0 0.35914505774559541 -0.060409417065886872 0 0.34794047334546518 -0.063974584280765273 0 0.35837286676988928 -0.071968688592424085 0 0.36371200487664068 -0.10973459168570281 0 0.35664352332635268 -0.13060513793896061 0 0.36779594019891898 -0.12729788290040461 0 0.3785150876385216 -0.1195111518185689 0 0.36371200487664068 -0.10973459168570281 0 0.36779594019891898 -0.12729788290040461 0 0.36371200487664068 -0.10973459168570281 0 0.37237061700676077 -0.09615783082836224 0 0.34241852099989789 -0.095233439592861846 0 0.3851668720105898 -0.10347474583943909 0 0.36371200487664068 -0.10973459168570281 0 0.37237061700676077 -0.09615783082836224 0 0.3851668720105898 -0.10347474583943909 0 0.36371200487664068 -0.10973459168570281 0 0.36371200487664068 -0.10973459168570281 0 0.37237061700676077 -0.09615783082836224 0 0.37406831990166722 -0.093898964220853504 0 0.37237061700676077 -0.09615783082836224 0 0.36371200487664068 -0.10973459168570281 0 0.34332012240242971 -0.1020930362129598 0 0.34241852099989789 -0.095233439592861846 0 0.36371200487664068 -0.10973459168570281 0 0.35002252173753962 -0.112446561286345 0 0.34332012240242971 -0.1020930362129598 0 0.37237061700676077 -0.09615783082836224 0 0.34241852099989789 -0.095233439592861846 0 0.35002252173753962 -0.112446561286345 0 0.34025414842832208 -0.11782241666052221 0 0.34332012240242971 -0.1020930362129598 0 0.36371200487664068 -0.10973459168570281 0 0.35355367174401742 -0.1211945845718113 0 0.34779048707731292 -0.1340798558009649 0 0.36371200487664068 -0.10973459168570281 0 0.35664352332635268 -0.13060513793896061 0 0.34779048707731292 -0.1340798558009649 0 0.36371200487664068 -0.10973459168570281 0 0.34779048707731292 -0.1340798558009649 0 0.36371200487664068 -0.10973459168570281 0 0.35002252173753962 -0.112446561286345 0 0.35355367174401742 -0.1211945845718113 0 0.36371200487664068 -0.10973459168570281 0 0.35355367174401742 -0.1211945845718113 0 0.35002252173753962 -0.112446561286345 0 0.35355367174401742 -0.1211945845718113 0 0.34025414842832208 -0.11782241666052221 0 0.35355367174401742 -0.1211945845718113 0 0.34025414842832208 -0.11782241666052221 0 0.34381162934489939 -0.12854128697128539 0 0.33094534805706732 -0.1177437606496905 0 0.31854024801571379 -0.1183964408803808 0 0.33718817445421712 -0.13355179710808501 0 0.34025414842832208 -0.11782241666052221 0 0.33378984816934337 -0.1086297847084315 0 0.34332012240242971 -0.1020930362129598 0 0.33094534805706732 -0.1177437606496905 0 0.34025414842832208 -0.11782241666052221 0 0.33718817445421712 -0.13355179710808501 0 0.34025414842832208 -0.11782241666052221 0 0.34332012240242971 -0.1020930362129598 0 0.33094534805706732 -0.1177437606496905 0 0.33378984816934337 -0.1086297847084315 0 0.32495432121773932 -0.110318363891034 0 0.33094534805706732 -0.1177437606496905 0 0.34025414842832208 -0.11782241666052221 0 0.33378984816934337 -0.1086297847084315 0 0.33378984816934337 -0.1086297847084315 0 0.32725903490077729 -0.10071499943534749 0 0.32495432121773932 -0.110318363891034 0 0.33378984816934337 -0.1086297847084315 0 0.33669688161811212 -0.1016678149874002 0 0.32725903490077729 -0.10071499943534749 0 0.33378984816934337 -0.1086297847084315 0 0.34332012240242971 -0.1020930362129598 0 0.33669688161811212 -0.1016678149874002 0 0.34332012240242971 -0.1020930362129598 0 0.33669688161811212 -0.1016678149874002 0 0.34241852099989789 -0.095233439592861846 0 0.33669688161811212 -0.1016678149874002 0 0.34241852099989789 -0.095233439592861846 0 0.32725903490077729 -0.10071499943534749 0 0.34241852099989789 -0.095233439592861846 0 0.31246642499303512 -0.0943090483573608 0 0.34241852099989789 -0.095233439592861846 0 0.32725903490077729 -0.10071499943534749 0 0.31246642499303512 -0.0943090483573608 0 0.32725903490077729 -0.10071499943534749 0 0.31716114910448651 -0.10565591717263 0 0.31246642499303512 -0.0943090483573608 0 0.32725903490077729 -0.10071499943534749 0 0.31716114910448651 -0.10565591717263 0 0.32495432121773932 -0.110318363891034 0 0.33094534805706732 -0.1177437606496905 0 0.32495432121773932 -0.110318363891034 0 0.31854024801571379 -0.1183964408803808 0 0.31716114910448651 -0.10565591717263 0 0.32495432121773932 -0.110318363891034 0 0.31854024801571379 -0.1183964408803808 0 0.31716114910448651 -0.10565591717263 0 0.31854024801571379 -0.1183964408803808 0 0.30531265091832138 -0.10738965970164049 0 0.3449175019875389 -0.076917716904771144 0 0.33388625794764348 -0.064812423232177271 0 0.32092150739102382 -0.073097043805500014 0 0.3449175019875389 -0.076917716904771144 0 0.34794047334546518 -0.063974584280765273 0 0.33388625794764348 -0.064812423232177271 0 0.3449175019875389 -0.076917716904771144 0 0.34241852099989789 -0.095233439592861846 0 0.32092150739102382 -0.073097043805500014 0 0.34241852099989789 -0.095233439592861846 0 0.32092150739102382 -0.073097043805500014 0 0.31246642499303512 -0.0943090483573608 0 0.32115491610998381 -0.052976688016941227 0 0.33388625794764348 -0.064812423232177271 0 0.32092150739102382 -0.073097043805500014 0 0.32092150739102382 -0.073097043805500014 0 0.28819319405889499 -0.06706419956831737 0 0.31246642499303512 -0.0943090483573608 0 0.32092150739102382 -0.073097043805500014 0 0.28819319405889499 -0.06706419956831737 0 0.30601744289912669 -0.055409131432484229 0 0.28251432898617262 -0.093384657121855619 0 0.28819319405889499 -0.06706419956831737 0 0.31246642499303512 -0.0943090483573608 0 0.28251432898617262 -0.093384657121855619 0 0.28819319405889499 -0.06706419956831737 0 0.28251432898617262 -0.093384657121855619 0 0.28819319405889499 -0.06706419956831737 0 0.2788070763813692 -0.075616481315712358 0 0.30531265091832138 -0.10738965970164049 0 0.29209333803684512 -0.1204183792118467 0 0.30316218715013699 -0.13585617877411299 0 0.31854024801571379 -0.1183964408803808 0 0.30531265091832138 -0.10738965970164049 0 0.30316218715013699 -0.13585617877411299 0 0.30531265091832138 -0.10738965970164049 0 0.30316218715013699 -0.13585617877411299 0 0.30531265091832138 -0.10738965970164049 0 0.31246642499303512 -0.0943090483573608 0 0.2913954051317153 -0.1063448066268642 0 0.28251432898617262 -0.093384657121855619 0 0.31246642499303512 -0.0943090483573608 0 0.31716114910448651 -0.10565591717263 0 0.30531265091832138 -0.10738965970164049 0 0.31246642499303512 -0.0943090483573608 0 0.28251432898617262 -0.093384657121855619 0 0.31246642499303512 -0.0943090483573608 0 0.2913954051317153 -0.1063448066268642 0 0.28251432898617262 -0.093384657121855619 0 0.2913954051317153 -0.1063448066268642 0 0.27794998204403759 -0.11453953550188679 0 0.30531265091832138 -0.10738965970164049 0 0.2913954051317153 -0.1063448066268642 0 0.29209333803684512 -0.1204183792118467 0 0.2913954051317153 -0.1063448066268642 0 0.29209333803684512 -0.1204183792118467 0 0.27794998204403759 -0.11453953550188679 0 0.27794998204403759 -0.11453953550188679 0 0.25915390151091949 -0.11811210275817149 0 0.27338563510190422 -0.1356944138819183 0 0.29209333803684512 -0.1204183792118467 0 0.27794998204403759 -0.11453953550188679 0 0.27338563510190422 -0.1356944138819183 0 0.28251432898617262 -0.093384657121855619 0 0.27794998204403759 -0.11453953550188679 0 0.25666672159796139 -0.092586939936295867 0 0.28251432898617262 -0.093384657121855619 0 0.27794998204403759 -0.11453953550188679 0 0.25915390151091949 -0.11811210275817149 0 0.25666672159796139 -0.092586939936295867 0 0.23839025179526999 -0.1151992729885977 0 0.27794998204403759 -0.11453953550188679 0 0.25915390151091949 -0.11811210275817149 0 0.25666672159796139 -0.092586939936295867 0 0.28819319405889499 -0.06706419956831737 0 0.27512965144911827 -0.070681904186227995 0 0.27783686619476677 -0.05372527893061739 0 0.26897876163713708 -0.070467118147906876 0 0.27512965144911827 -0.070681904186227995 0 0.27783686619476677 -0.05372527893061739 0 0.26897876163713708 -0.070467118147906876 0 0.26180167325791431 -0.066706815846455908 0 0.27783686619476677 -0.05372527893061739 0 0.27067132333055188 -0.076788874412469815 0 0.26897876163713708 -0.070467118147906876 0 0.26145119023330071 -0.079000043976386408 0 0.27067132333055188 -0.076788874412469815 0 0.26897876163713708 -0.070467118147906876 0 0.2788070763813692 -0.075616481315712358 0 0.26897876163713708 -0.070467118147906876 0 0.27512965144911827 -0.070681904186227995 0 0.28819319405889499 -0.06706419956831737 0 0.2788070763813692 -0.075616481315712358 0 0.27512965144911827 -0.070681904186227995 0 0.26897876163713708 -0.070467118147906876 0 0.2788070763813692 -0.075616481315712358 0 0.26897876163713708 -0.070467118147906876 0 0.2788070763813692 -0.075616481315712358 0 0.27512965144911827 -0.070681904186227995 0 0.28251432898617262 -0.093384657121855619 0 0.25666672159796139 -0.092586939936295867 0 0.28251432898617262 -0.093384657121855619 0 0.27051227275229911 -0.08315566172012806 0 0.25666672159796139 -0.092586939936295867 0 0.28251432898617262 -0.093384657121855619 0 0.2788070763813692 -0.075616481315712358 0 0.27051227275229911 -0.08315566172012806 0 0.27067132333055188 -0.076788874412469815 0 0.27051227275229911 -0.08315566172012806 0 0.26145119023330071 -0.079000043976386408 0 0.27067132333055188 -0.076788874412469815 0 0.2788070763813692 -0.075616481315712358 0 0.27051227275229911 -0.08315566172012806 0 0.26145119023330071 -0.079000043976386408 0 0.25666672159796139 -0.092586939936295867 0 0.24423239209720191 -0.080930297464084477 0 0.27051227275229911 -0.08315566172012806 0 0.26145119023330071 -0.079000043976386408 0 0.25666672159796139 -0.092586939936295867 0 0.26180167325791431 -0.066706815846455908 0 0.25764566998465072 -0.070071372177431313 0 0.24120587699226881 -0.055916030502087773 0 0.26145119023330071 -0.079000043976386408 0 0.25764566998465072 -0.070071372177431313 0 0.24423239209720191 -0.080930297464084477 0 0.25764566998465072 -0.070071372177431313 0 0.24423239209720191 -0.080930297464084477 0 0.26897876163713708 -0.070467118147906876 0 0.26145119023330071 -0.079000043976386408 0 0.25764566998465072 -0.070071372177431313 0 0.26897876163713708 -0.070467118147906876 0 0.26180167325791431 -0.066706815846455908 0 0.25764566998465072 -0.070071372177431313 0 0.26897876163713708 -0.070467118147906876 0 0.25764566998465072 -0.070071372177431313 0 0.26897876163713708 -0.070467118147906876 0 0.26180167325791431 -0.066706815846455908 0 0.26180167325791431 -0.066706815846455908 0 0.25764566998465072 -0.070071372177431313 0 0.26180167325791431 -0.066706815846455908 0 0.26029261894245981 -0.048826031507571623 0 0.24120587699226881 -0.055916030502087773 0 0.26180167325791431 -0.066706815846455908 0 0.24120587699226881 -0.055916030502087773 0 0.26180167325791431 -0.066706815846455908 0 0.26029261894245981 -0.048826031507571623 0 0.27783686619476677 -0.05372527893061739 0 0.26180167325791431 -0.066706815846455908 0 0.27783686619476677 -0.05372527893061739 0 0.26029261894245981 -0.048826031507571623 0 0.27783686619476677 -0.05372527893061739 0 0.27031708646619812 -0.033638605470610219 0 0.27783686619476677 -0.05372527893061739 0 0.27031708646619812 -0.033638605470610219 0 0.28437966209514692 -0.033534114227583768 0 0.26029261894245981 -0.048826031507571623 0 0.27031708646619812 -0.033638605470610219 0 0.25030159180115191 -0.034143426788088307 0 0.26029261894245981 -0.048826031507571623 0 0.25030159180115191 -0.034143426788088307 0 0.24120587699226881 -0.055916030502087773 0 0.25030159180115191 -0.034143426788088307 0 0.26299580833271302 -0.019789195105520681 0 0.2464198669495459 -0.012097030270161889 0 0.27031708646619812 -0.033638605470610219 0 0.25030159180115191 -0.034143426788088307 0 0.26299580833271302 -0.019789195105520681 0 0.25322369798355371 0.0032948183560677501 0 0.26778398551549509 -0.0036893303100333872 0 0.2464198669495459 -0.012097030270161889 0 0.26299580833271302 -0.019789195105520681 0 0.26778398551549509 -0.0036893303100333872 0 0.2464198669495459 -0.012097030270161889 0 0.26299580833271302 -0.019789195105520681 0 0.26778398551549509 -0.0036893303100333872 0 0.28231604015163769 -0.018351258625531171 0 0.2895407867033607 0.0013395930438658619 0 0.26778398551549509 -0.0036893303100333872 0 0.28231604015163769 -0.018351258625531171 0 0.27031708646619812 -0.033638605470610219 0 0.26299580833271302 -0.019789195105520681 0 0.28231604015163769 -0.018351258625531171 0 0.27031708646619812 -0.033638605470610219 0 0.28231604015163769 -0.018351258625531171 0 0.28437966209514692 -0.033534114227583768 0 0.28231604015163769 -0.018351258625531171 0 0.29600028882747859 -0.03087980289019443 0 0.28437966209514692 -0.033534114227583768 0 0.28231604015163769 -0.018351258625531171 0 0.29600028882747859 -0.03087980289019443 0 0.30132541624728598 -0.01217829343577128 0 0.2895407867033607 0.0013395930438658619 0 0.28231604015163769 -0.018351258625531171 0 0.30132541624728598 -0.01217829343577128 0 0.31046320235639918 0.0067575729804437252 0 0.2895407867033607 0.0013395930438658619 0 0.30132541624728598 -0.01217829343577128 0 0.31046320235639918 0.0067575729804437252 0 0.3153830815233527 -0.0087530987426132929 0 0.30132541624728598 -0.01217829343577128 0 0.31486943567640469 -0.023744993086391868 0 0.3153830815233527 -0.0087530987426132929 0 0.30132541624728598 -0.01217829343577128 0 0.31486943567640469 -0.023744993086391868 0 0.29600028882747859 -0.03087980289019443 0 0.30132541624728598 -0.01217829343577128 0 0.31486943567640469 -0.023744993086391868 0 0.31197137499350902 -0.041008225260955711 0 0.29387205913161968 -0.04074374201477949 0 0.31486943567640469 -0.023744993086391868 0 0.29600028882747859 -0.03087980289019443 0 0.29387205913161968 -0.04074374201477949 0 0.31486943567640469 -0.023744993086391868 0 0.29387205913161968 -0.04074374201477949 0 0.31197137499350902 -0.041008225260955711 0 0.30601744289912669 -0.055409131432484229 0 0.29387205913161968 -0.04074374201477949 0 0.28819319405889499 -0.06706419956831737 0 0.27783686619476677 -0.05372527893061739 0 0.29387205913161968 -0.04074374201477949 0 0.28819319405889499 -0.06706419956831737 0 0.29387205913161968 -0.04074374201477949 0 0.27783686619476677 -0.05372527893061739 0 0.29387205913161968 -0.04074374201477949 0 0.28819319405889499 -0.06706419956831737 0 0.30601744289912669 -0.055409131432484229 0 0.29387205913161968 -0.04074374201477949 0 0.27783686619476677 -0.05372527893061739 0 0.28437966209514692 -0.033534114227583768 0 0.29387205913161968 -0.04074374201477949 0 0.29600028882747859 -0.03087980289019443 0 0.28437966209514692 -0.033534114227583768 0 0.29387205913161968 -0.04074374201477949 0 0.29600028882747859 -0.03087980289019443 0 0.29387205913161968 -0.04074374201477949 0 0.28925369461552242 -0.21547475378801551 0 0.29798535605087828 -0.20438389051808681 0 0.27851755886665591 -0.20371457102860641 0 0.28925369461552242 -0.21547475378801551 0 0.28465086540799672 -0.2254021489655588 0 0.27851755886665591 -0.20371457102860641 0 0.28925369461552242 -0.21547475378801551 0 0.29798535605087828 -0.20438389051808681 0 0.29625974568445868 -0.22722646109941139 0 0.28994099481116897 -0.19128490440727269 0 0.29798535605087828 -0.20438389051808681 0 0.29971096641729777 -0.18154131993676231 0 0.28994099481116897 -0.19128490440727269 0 0.27851755886665591 -0.20371457102860641 0 0.28355009790984409 -0.17549983614563519 0 0.28994099481116897 -0.19128490440727269 0 0.29798535605087828 -0.20438389051808681 0 0.27851755886665591 -0.20371457102860641 0 0.30866677822314281 -0.19370433905286669 0 0.29798535605087828 -0.20438389051808681 0 0.29971096641729777 -0.18154131993676231 0 0.29798535605087828 -0.20438389051808681 0 0.29971096641729777 -0.18154131993676231 0 0.30866677822314281 -0.19370433905286669 0 0.30817512199612251 -0.208018461664154 0 0.29798535605087828 -0.20438389051808681 0 0.29798535605087828 -0.20438389051808681 0 0.29625974568445868 -0.22722646109941139 0 0.30367267472900389 -0.2178556058656746 0 0.31200739898088131 -0.22851072207886541 0 0.31883562653249692 -0.20986103607638071 0 0.29798535605087828 -0.20438389051808681 0 0.30367267472900389 -0.2178556058656746 0 0.29625974568445868 -0.22722646109941139 0 0.30817512199612251 -0.208018461664154 0 0.29798535605087828 -0.20438389051808681 0 0.30367267472900389 -0.2178556058656746 0 0.30817512199612251 -0.208018461664154 0 0.30367267472900389 -0.2178556058656746 0 0.31883562653249692 -0.20986103607638071 0 0.30367267472900389 -0.2178556058656746 0 0.31883562653249692 -0.20986103607638071 0 0.31200739898088131 -0.22851072207886541 0 0.30517917142926537 -0.24716040808135001 0 0.29625974568445868 -0.22722646109941139 0 0.30367267472900389 -0.2178556058656746 0 0.31200739898088131 -0.22851072207886541 0 0.29625974568445868 -0.22722646109941139 0 0.31200739898088131 -0.22851072207886541 0 0.30517917142926537 -0.24716040808135001 0 0.30517917142926537 -0.24716040808135001 0 0.28765229627979871 -0.24304032400626949 0 0.29625974568445868 -0.22722646109941139 0 0.28765229627979871 -0.24304032400626949 0 0.29625974568445868 -0.22722646109941139 0 0.28465086540799672 -0.2254021489655588 0 0.28765229627979871 -0.24304032400626949 0 0.28465086540799672 -0.2254021489655588 0 0.27348501982346762 -0.23192930591157759 0 0.28925369461552242 -0.21547475378801551 0 0.29625974568445868 -0.22722646109941139 0 0.28465086540799672 -0.2254021489655588 0 0.28465086540799672 -0.2254021489655588 0 0.27348501982346762 -0.23192930591157759 0 0.27851755886665591 -0.20371457102860641 0 0.27348501982346762 -0.23192930591157759 0 0.25787859859726192 -0.24372773219337371 0 0.26845248078028039 -0.26014404079454911 0 0.28765229627979871 -0.24304032400626949 0 0.27348501982346762 -0.23192930591157759 0 0.26845248078028039 -0.26014404079454911 0 0.27348501982346762 -0.23192930591157759 0 0.26845248078028039 -0.26014404079454911 0 0.27348501982346762 -0.23192930591157759 0 0.25787859859726192 -0.24372773219337371 0 0.2485278721491469 -0.22983386195931649 0 0.27348501982346762 -0.23192930591157759 0 0.25806059678156651 -0.21160485628964759 0 0.2485278721491469 -0.22983386195931649 0 0.27348501982346762 -0.23192930591157759 0 0.27851755886665591 -0.20371457102860641 0 0.27348501982346762 -0.23192930591157759 0 0.25806059678156651 -0.21160485628964759 0 0.27851755886665591 -0.20371457102860641 0 0.27851755886665591 -0.20371457102860641 0 0.26140201073716351 -0.19316186481753209 0 0.27335445324682811 -0.1824409541049711 0 0.25806059678156651 -0.21160485628964759 0 0.27851755886665591 -0.20371457102860641 0 0.26140201073716351 -0.19316186481753209 0 0.27851755886665591 -0.20371457102860641 0 0.28355009790984409 -0.17549983614563519 0 0.25806059678156651 -0.21160485628964759 0 0.26140201073716351 -0.19316186481753209 0 0.24624710011957149 -0.19756578472926509 0 0.26140201073716351 -0.19316186481753209 0 0.25030889548151403 -0.1837077448593728 0 0.24624710011957149 -0.19756578472926509 0 0.25969225384889538 -0.18295045636353721 0 0.2550208565069661 -0.17514012483034949 0 0.27335445324682811 -0.1824409541049711 0 0.26140201073716351 -0.19316186481753209 0 0.25030889548151403 -0.1837077448593728 0 0.25969225384889538 -0.18295045636353721 0 0.25030889548151403 -0.1837077448593728 0 0.25969225384889538 -0.18295045636353721 0 0.2550208565069661 -0.17514012483034949 0 0.2550208565069661 -0.17514012483034949 0 0.2530488896403309 -0.16079061319898569 0 0.27335445324682811 -0.1824409541049711 0 0.26140201073716351 -0.19316186481753209 0 0.25969225384889538 -0.18295045636353721 0 0.27335445324682811 -0.1824409541049711 0 0.2530488896403309 -0.16079061319898569 0 0.272260185211738 -0.168331689764908 0 0.26878477807763418 -0.16016356734556891 0 0.2530488896403309 -0.16079061319898569 0 0.26878477807763418 -0.16016356734556891 0 0.26293682869207591 -0.15391070786642169 0 0.2530488896403309 -0.16079061319898569 0 0.27335445324682811 -0.1824409541049711 0 0.272260185211738 -0.168331689764908 0 0.27899515764395177 -0.15443660918041571 0 0.28355009790984409 -0.17549983614563519 0 0.2530488896403309 -0.16079061319898569 0 0.272260185211738 -0.168331689764908 0 0.27335445324682811 -0.1824409541049711 0 0.272260185211738 -0.168331689764908 0 0.26878477807763418 -0.16016356734556891 0 0.27899515764395177 -0.15443660918041571 0 0.272260185211738 -0.168331689764908 0 0.27335445324682811 -0.1824409541049711 0 0.28355009790984409 -0.17549983614563519 0 0.27851755886665591 -0.20371457102860641 0 0.27335445324682811 -0.1824409541049711 0 0.28355009790984409 -0.17549983614563519 0 0.25915390151091949 -0.11811210275817149 0 0.25133622254172122 -0.13557462765415079 0 0.27338563510190422 -0.1356944138819183 0 0.25133622254172122 -0.13557462765415079 0 0.27338563510190422 -0.1356944138819183 0 0.25133622254172122 -0.13557462765415079 0 0.25208407187516418 -0.1419613505697605 0 0.27338563510190422 -0.1356944138819183 0 0.26557247671991108 -0.14774187414890411 0 0.25208407187516418 -0.1419613505697605 0 0.27142481771649529 -0.14478242884651979 0 0.25208407187516418 -0.1419613505697605 0 0.27142481771649529 -0.14478242884651979 0 0.2530488896403309 -0.16079061319898569 0 0.25208407187516418 -0.1419613505697605 0 0.26293682869207591 -0.15391070786642169 0 0.26557247671991108 -0.14774187414890411 0 0.25208407187516418 -0.1419613505697605 0 0.26293682869207591 -0.15391070786642169 0 0.27899515764395177 -0.15443660918041571 0 0.27142481771649529 -0.14478242884651979 0 0.28858263695303038 -0.1472851012626637 0 0.25208407187516418 -0.1419613505697605 0 0.27142481771649529 -0.14478242884651979 0 0.27338563510190422 -0.1356944138819183 0 0.27142481771649529 -0.14478242884651979 0 0.28858263695303038 -0.1472851012626637 0 0.27142481771649529 -0.14478242884651979 0 0.27338563510190422 -0.1356944138819183 0 0.28952553314766588 -0.14199879033185039 0 0.26878477807763418 -0.16016356734556891 0 0.27009527632936597 -0.15279308215900331 0 0.27899515764395177 -0.15443660918041571 0 0.26557247671991108 -0.14774187414890411 0 0.27009527632936597 -0.15279308215900331 0 0.27142481771649529 -0.14478242884651979 0 0.26878477807763418 -0.16016356734556891 0 0.26293682869207591 -0.15391070786642169 0 0.27009527632936597 -0.15279308215900331 0 0.26557247671991108 -0.14774187414890411 0 0.26293682869207591 -0.15391070786642169 0 0.27009527632936597 -0.15279308215900331 0 0.27009527632936597 -0.15279308215900331 0 0.27899515764395177 -0.15443660918041571 0 0.27142481771649529 -0.14478242884651979 0 0.27794998204403759 -0.11453953550188679 0 0.27338563510190422 -0.1356944138819183 0 0.27142481771649529 -0.14478242884651979 0 0.27338563510190422 -0.1356944138819183 0 0.27338563510190422 -0.1356944138819183 0 0.30316218715013699 -0.13585617877411299 0 0.29209333803684512 -0.1204183792118467 0 0.27338563510190422 -0.1356944138819183 0 0.30316218715013699 -0.13585617877411299 0 0.27338563510190422 -0.1356944138819183 0 0.28952553314766588 -0.14199879033185039 0 0.30316218715013699 -0.13585617877411299 0 0.27142481771649529 -0.14478242884651979 0 0.28952553314766588 -0.14199879033185039 0 0.28858263695303038 -0.1472851012626637 0 0.28858263695303038 -0.1472851012626637 0 0.30013596324633868 -0.14897029159077979 0 0.28952553314766588 -0.14199879033185039 0 0.28858263695303038 -0.1472851012626637 0 0.30013596324633868 -0.14897029159077979 0 0.28952553314766588 -0.14199879033185039 0 0.28858263695303038 -0.1472851012626637 0 0.28858263695303038 -0.1472851012626637 0 0.30013596324633868 -0.14897029159077979 0 0.29372711844303928 -0.1600295372122347 0 0.30316218715013699 -0.13585617877411299 0 0.30143657678371732 -0.15869874935543771 0 0.30013596324633868 -0.14897029159077979 0 0.30316218715013699 -0.13585617877411299 0 0.30143657678371732 -0.15869874935543771 0 0.30316218715013699 -0.13585617877411299 0 0.30143657678371732 -0.15869874935543771 0 0.31253980123811259 -0.14771969478669131 0 0.30013596324633868 -0.14897029159077979 0 0.29372711844303928 -0.1600295372122347 0 0.30143657678371732 -0.15869874935543771 0 0.30143657678371732 -0.15869874935543771 0 0.31557079919726838 -0.1590044961535387 0 0.31253980123811259 -0.14771969478669131 0 0.28952553314766588 -0.14199879033185039 0 0.30013596324633868 -0.14897029159077979 0 0.30316218715013699 -0.13585617877411299 0 0.30316218715013699 -0.13585617877411299 0 0.31993283661344418 -0.13594728745244961 0 0.31253980123811259 -0.14771969478669131 0 0.30316218715013699 -0.13585617877411299 0 0.31993283661344418 -0.13594728745244961 0 0.28994099481116897 -0.19128490440727269 0 0.28355009790984409 -0.17549983614563519 0 0.29971096641729777 -0.18154131993676231 0 0.28355009790984409 -0.17549983614563519 0 0.29493031732226571 -0.16969370770665679 0 0.29971096641729777 -0.18154131993676231 0 0.27899515764395177 -0.15443660918041571 0 0.28858263695303038 -0.1472851012626637 0 0.28355009790984409 -0.17549983614563519 0 0.28858263695303038 -0.1472851012626637 0 0.28355009790984409 -0.17549983614563519 0 0.28858263695303038 -0.1472851012626637 0 0.28355009790984409 -0.17549983614563519 0 0.29372711844303928 -0.1600295372122347 0 0.29372711844303928 -0.1600295372122347 0 0.29493031732226571 -0.16969370770665679 0 0.30143657678371732 -0.15869874935543771 0 0.28355009790984409 -0.17549983614563519 0 0.29372711844303928 -0.1600295372122347 0 0.29493031732226571 -0.16969370770665679 0 0.30143657678371732 -0.15869874935543771 0 0.29971096641729777 -0.18154131993676231 0 0.30143657678371732 -0.15869874935543771 0 0.30809610970482848 -0.16795036279156811 0 0.29971096641729777 -0.18154131993676231 0 0.29493031732226571 -0.16969370770665679 0 0.30143657678371732 -0.15869874935543771 0 0.29971096641729777 -0.18154131993676231 0 0.30143657678371732 -0.15869874935543771 0 0.30809610970482848 -0.16795036279156811 0 0.31557079919726838 -0.1590044961535387 0 0.29971096641729777 -0.18154131993676231 0 0.31498869866721663 -0.1848028620899877 0 0.3156660964210305 -0.17255688572053399 0 0.30809610970482848 -0.16795036279156811 0 0.29971096641729777 -0.18154131993676231 0 0.3156660964210305 -0.17255688572053399 0 0.30866677822314281 -0.19370433905286669 0 0.29971096641729777 -0.18154131993676231 0 0.31498869866721663 -0.1848028620899877 0 0.32729102930978993 -0.18432716657830939 0 0.3156660964210305 -0.17255688572053399 0 0.33199725769327038 -0.160182781354547 0 0.31498869866721663 -0.1848028620899877 0 0.32729102930978993 -0.18432716657830939 0 0.3156660964210305 -0.17255688572053399 0 0.3156660964210305 -0.17255688572053399 0 0.31557079919726838 -0.1590044961535387 0 0.33199725769327038 -0.160182781354547 0 0.30809610970482848 -0.16795036279156811 0 0.3156660964210305 -0.17255688572053399 0 0.31557079919726838 -0.1590044961535387 0 0.32729102930978993 -0.18432716657830939 0 0.34572674800851178 -0.17666980330527179 0 0.34152908302092871 -0.19789605564194099 0 0.32729102930978993 -0.18432716657830939 0 0.33199725769327038 -0.160182781354547 0 0.34572674800851178 -0.17666980330527179 0 0.32729102930978993 -0.18432716657830939 0 0.33199725769327038 -0.160182781354547 0 0.31854024801571379 -0.1183964408803808 0 0.30316218715013699 -0.13585617877411299 0 0.31993283661344418 -0.13594728745244961 0 0.31993283661344418 -0.13594728745244961 0 0.32334883616376942 -0.1477785311756023 0 0.33670348607675138 -0.13603839613078461 0 0.31854024801571379 -0.1183964408803808 0 0.31993283661344418 -0.13594728745244961 0 0.33718817445421712 -0.13355179710808501 0 0.31854024801571379 -0.1183964408803808 0 0.33718817445421712 -0.13355179710808501 0 0.31557079919726838 -0.1590044961535387 0 0.33199725769327038 -0.160182781354547 0 0.32334883616376942 -0.1477785311756023 0 0.31993283661344418 -0.13594728745244961 0 0.32334883616376942 -0.1477785311756023 0 0.31253980123811259 -0.14771969478669131 0 0.31557079919726838 -0.1590044961535387 0 0.32334883616376942 -0.1477785311756023 0 0.31253980123811259 -0.14771969478669131 0 0.33199725769327038 -0.160182781354547 0 0.34027166502062639 -0.13605778071504529 0 0.33670348607675138 -0.13603839613078461 0 0.33199725769327038 -0.160182781354547 0 0.32334883616376942 -0.1477785311756023 0 0.33670348607675138 -0.13603839613078461 0 0.33199725769327038 -0.160182781354547 0 0.33670348607675138 -0.13603839613078461 0 0.31993283661344418 -0.13594728745244961 0 0.33670348607675138 -0.13603839613078461 0 0.31993283661344418 -0.13594728745244961 0 0.33670348607675138 -0.13603839613078461 0 0.33718817445421712 -0.13355179710808501 0 0.34025414842832208 -0.11782241666052221 0 0.33718817445421712 -0.13355179710808501 0 0.34381162934489939 -0.12854128697128539 0 0.34025414842832208 -0.11782241666052221 0 0.33718817445421712 -0.13355179710808501 0 0.34027166502062639 -0.13605778071504529 0 0.33670348607675138 -0.13603839613078461 0 0.33718817445421712 -0.13355179710808501 0 0.34027166502062639 -0.13605778071504529 0 0.33718817445421712 -0.13355179710808501 0 0.34027166502062639 -0.13605778071504529 0 0.33670348607675138 -0.13603839613078461 0 0.33670348607675138 -0.13603839613078461 0 0.33718817445421712 -0.13355179710808501 0 0.34027166502062639 -0.13605778071504529 0 0.33718817445421712 -0.13355179710808501 0 0.34381162934489939 -0.12854128697128539 0 0.33199725769327038 -0.160182781354547 0 0.34027166502062639 -0.13605778071504529 0 0.36359383050920879 -0.15501193774405861 0 0.35355367174401742 -0.1211945845718113 0 0.34381162934489939 -0.12854128697128539 0 0.34779048707731292 -0.1340798558009649 0 0.34027166502062639 -0.13605778071504529 0 0.34884821061351562 -0.13610437388577321 0 0.35664352332635268 -0.13060513793896061 0 0.34779048707731292 -0.1340798558009649 0 0.34884821061351562 -0.13610437388577321 0 0.34027166502062639 -0.13605778071504529 0 0.34779048707731292 -0.1340798558009649 0 0.34884821061351562 -0.13610437388577321 0 0.34027166502062639 -0.13605778071504529 0 0.34381162934489939 -0.12854128697128539 0 0.34779048707731292 -0.1340798558009649 0 0.35664352332635268 -0.13060513793896061 0 0.34884821061351562 -0.13610437388577321 0 0.36374720336072303 -0.13810563056468389 0 0.34884821061351562 -0.13610437388577321 0 0.36359383050920879 -0.15501193774405861 0 0.36374720336072303 -0.13810563056468389 0 0.34027166502062639 -0.13605778071504529 0 0.36359383050920879 -0.15501193774405861 0 0.34027166502062639 -0.13605778071504529 0 0.34884821061351562 -0.13610437388577321 0 0.36359383050920879 -0.15501193774405861 0 0.36359383050920879 -0.15501193774405861 0 0.36374720336072303 -0.13810563056468389 0 0.37656812491251679 -0.13846106794218549 0 0.3785150876385216 -0.1195111518185689 0 0.36779594019891898 -0.12729788290040461 0 0.37656812491251679 -0.13846106794218549 0 0.36374720336072303 -0.13810563056468389 0 0.36779594019891898 -0.12729788290040461 0 0.37656812491251679 -0.13846106794218549 0 0.35664352332635268 -0.13060513793896061 0 0.36374720336072303 -0.13810563056468389 0 0.36779594019891898 -0.12729788290040461 0 0.33199725769327038 -0.160182781354547 0 0.36359383050920879 -0.15501193774405861 0 0.34572674800851178 -0.17666980330527179 0 0.34572674800851178 -0.17666980330527179 0 0.36422253950936112 -0.1859310752075029 0 0.34152908302092871 -0.19789605564194099 0 0.36359383050920879 -0.15501193774405861 0 0.34572674800851178 -0.17666980330527179 0 0.36422253950936112 -0.1859310752075029 0 0.36359383050920879 -0.15501193774405861 0 0.36422253950936112 -0.1859310752075029 0 0.38691599599779503 -0.1739660947730671 0 0.36422253950936112 -0.1859310752075029 0 0.37220629557919183 -0.19612338441269381 0 0.37910290544765168 -0.18685571494790659 0 0.36422253950936112 -0.1859310752075029 0 0.37220629557919183 -0.19612338441269381 0 0.35685044422528578 -0.20027094664828951 0 0.37220629557919183 -0.19612338441269381 0 0.3556522221671049 -0.2162457527497984 0 0.35685044422528578 -0.20027094664828951 0 0.37220629557919183 -0.19612338441269381 0 0.3556522221671049 -0.2162457527497984 0 0.37273333868611941 -0.2093978965492076 0 0.3556522221671049 -0.2162457527497984 0 0.3731990688381891 -0.2228302363117915 0 0.37220629557919183 -0.19612338441269381 0 0.37273333868611941 -0.2093978965492076 0 0.3556522221671049 -0.2162457527497984 0 0.34913249600123192 -0.20719712371303781 0 0.34152908302092871 -0.19789605564194099 0 0.34144894007629428 -0.2139395960038605 0 0.3556522221671049 -0.2162457527497984 0 0.34913249600123192 -0.20719712371303781 0 0.35685044422528578 -0.20027094664828951 0 0.3556522221671049 -0.2162457527497984 0 0.34913249600123192 -0.20719712371303781 0 0.34144894007629428 -0.2139395960038605 0 0.36422253950936112 -0.1859310752075029 0 0.35685044422528578 -0.20027094664828951 0 0.34152908302092871 -0.19789605564194099 0 0.36422253950936112 -0.1859310752075029 0 0.34152908302092871 -0.19789605564194099 0 0.34913249600123192 -0.20719712371303781 0 0.35685044422528578 -0.20027094664828951 0 0.34152908302092871 -0.19789605564194099 0 0.32729102930978993 -0.18432716657830939 0 0.34152908302092871 -0.19789605564194099 0 0.32289957828838461 -0.19876131457419149 0 0.34152908302092871 -0.19789605564194099 0 0.31883562653249692 -0.20986103607638071 0 0.34152908302092871 -0.19789605564194099 0 0.34144894007629428 -0.2139395960038605 0 0.31883562653249692 -0.20986103607638071 0 0.34144894007629428 -0.2139395960038605 0 0.31883562653249692 -0.20986103607638071 0 0.32331405575278033 -0.23055000204260581 0 0.31883562653249692 -0.20986103607638071 0 0.32289957828838461 -0.19876131457419149 0 0.30817512199612251 -0.208018461664154 0 0.31883562653249692 -0.20986103607638071 0 0.32289957828838461 -0.19876131457419149 0 0.30866677822314281 -0.19370433905286669 0 0.30817512199612251 -0.208018461664154 0 0.32289957828838461 -0.19876131457419149 0 0.34152908302092871 -0.19789605564194099 0 0.31883562653249692 -0.20986103607638071 0 0.32289957828838461 -0.19876131457419149 0 0.30866677822314281 -0.19370433905286669 0 0.31498869866721663 -0.1848028620899877 0 0.32289957828838461 -0.19876131457419149 0 0.31498869866721663 -0.1848028620899877 0 0.32729102930978993 -0.18432716657830939 0 0.32289957828838461 -0.19876131457419149 0 0.30517917142926537 -0.24716040808135001 0 0.32331405575278033 -0.23055000204260581 0 0.30517917142926537 -0.24716040808135001 0 0.32331405575278033 -0.23055000204260581 0 0.322544075342931 -0.25649048942400782 0 0.31200739898088131 -0.22851072207886541 0 0.30517917142926537 -0.24716040808135001 0 0.32331405575278033 -0.23055000204260581 0 0.31200739898088131 -0.22851072207886541 0 0.31883562653249692 -0.20986103607638071 0 0.31200739898088131 -0.22851072207886541 0 0.31883562653249692 -0.20986103607638071 0 0.32331405575278033 -0.23055000204260581 0 0.34144894007629428 -0.2139395960038605 0 0.32331405575278033 -0.23055000204260581 0 0.34144894007629428 -0.2139395960038605 0 0.32331405575278033 -0.23055000204260581 0 0.33909814875501798 -0.23636812108690311 0 0.33909814875501798 -0.23636812108690311 0 0.322544075342931 -0.25649048942400782 0 0.32331405575278033 -0.23055000204260581 0 0.33909814875501798 -0.23636812108690311 0 0.322544075342931 -0.25649048942400782 0 0.33909814875501798 -0.23636812108690311 0 0.35007299243335749 -0.24785688602667111 0 0.33700232267718733 -0.25494009872172468 0 0.33909814875501798 -0.23636812108690311 0 0.322544075342931 -0.25649048942400782 0 0.33700232267718733 -0.25494009872172468 0 0.33909814875501798 -0.23636812108690311 0 0.35007299243335749 -0.24785688602667111 0 0.35471840821638012 -0.232162972911199 0 0.35007299243335749 -0.24785688602667111 0 0.35471840821638012 -0.232162972911199 0 0.36225179838031341 -0.2439392928582107 0 0.35007299243335749 -0.24785688602667111 0 0.36225179838031341 -0.2439392928582107 0 0.36124693131331159 -0.25807728632712912 0 0.3556522221671049 -0.2162457527497984 0 0.33909814875501798 -0.23636812108690311 0 0.3556522221671049 -0.2162457527497984 0 0.33909814875501798 -0.23636812108690311 0 0.35471840821638012 -0.232162972911199 0 0.3556522221671049 -0.2162457527497984 0 0.34144894007629428 -0.2139395960038605 0 0.33909814875501798 -0.23636812108690311 0 0.35471840821638012 -0.232162972911199 0 0.3731990688381891 -0.2228302363117915 0 0.36225179838031341 -0.2439392928582107 0 0.3556522221671049 -0.2162457527497984 0 0.35471840821638012 -0.232162972911199 0 0.3731990688381891 -0.2228302363117915 0 0.3731990688381891 -0.2228302363117915 0 0.36225179838031341 -0.2439392928582107 0 0.3731990688381891 -0.2228302363117915 0 0.36225179838031341 -0.2439392928582107 0 0.38186963046980549 -0.2367879359972051 0 0.36225179838031341 -0.2439392928582107 0 0.38186963046980549 -0.2367879359972051 0 0.37510228513818711 -0.25237727586059511 0 0.38186963046980549 -0.2367879359972051 0 0.39206528024080278 -0.24921397013056479 0 0.37510228513818711 -0.25237727586059511 0 0.39206528024080278 -0.24921397013056479 0 0.40137725565661481 -0.22692044649349019 0 0.4148006158986044 -0.24103970595398019 0 0.39206528024080278 -0.24921397013056479 0 0.4148006158986044 -0.24103970595398019 0 0.40884184876520419 -0.25890250189124958 0 0.38186963046980549 -0.2367879359972051 0 0.39206528024080278 -0.24921397013056479 0 0.40137725565661481 -0.22692044649349019 0 0.40137725565661481 -0.22692044649349019 0 0.39915185452682361 -0.21610044156742811 0 0.41396763236883027 -0.21470461273584779 0 0.40137725565661481 -0.22692044649349019 0 0.38700545273377529 -0.2233412248148075 0 0.39915185452682361 -0.21610044156742811 0 0.38186963046980549 -0.2367879359972051 0 0.40137725565661481 -0.22692044649349019 0 0.38700545273377529 -0.2233412248148075 0 0.3731990688381891 -0.2228302363117915 0 0.38186963046980549 -0.2367879359972051 0 0.38700545273377529 -0.2233412248148075 0 0.3731990688381891 -0.2228302363117915 0 0.38414633929606479 -0.2017211797653724 0 0.37273333868611941 -0.2093978965492076 0 0.3731990688381891 -0.2228302363117915 0 0.38414633929606479 -0.2017211797653724 0 0.3731990688381891 -0.2228302363117915 0 0.38675328488958288 -0.2095276895359276 0 0.38414633929606479 -0.2017211797653724 0 0.3731990688381891 -0.2228302363117915 0 0.38700545273377529 -0.2233412248148075 0 0.38675328488958288 -0.2095276895359276 0 0.38675328488958288 -0.2095276895359276 0 0.38414633929606479 -0.2017211797653724 0 0.39287005569986072 -0.20314648074516001 0 0.38414633929606479 -0.2017211797653724 0 0.38373621375160438 -0.1885238144486111 0 0.39509360975394031 -0.18061212321895309 0 0.38414633929606479 -0.2017211797653724 0 0.39509360975394031 -0.18061212321895309 0 0.37999921147615667 -0.19503406661491049 0 0.38373621375160438 -0.1885238144486111 0 0.37910290544765168 -0.18685571494790659 0 0.37999921147615667 -0.19503406661491049 0 0.38414633929606479 -0.2017211797653724 0 0.38373621375160438 -0.1885238144486111 0 0.37220629557919183 -0.19612338441269381 0 0.37999921147615667 -0.19503406661491049 0 0.37910290544765168 -0.18685571494790659 0 0.37220629557919183 -0.19612338441269381 0 0.37273333868611941 -0.2093978965492076 0 0.38414633929606479 -0.2017211797653724 0 0.37220629557919183 -0.19612338441269381 0 0.37999921147615667 -0.19503406661491049 0 0.38414633929606479 -0.2017211797653724 0 0.38414633929606479 -0.2017211797653724 0 0.39694758591794982 -0.18886739411602391 0 0.39509360975394031 -0.18061212321895309 0 0.39694758591794982 -0.18886739411602391 0 0.3969424320709618 -0.1972324897541754 0 0.40101572763622523 -0.19231380306325679 0 0.38414633929606479 -0.2017211797653724 0 0.39694758591794982 -0.18886739411602391 0 0.3969424320709618 -0.1972324897541754 0 0.38414633929606479 -0.2017211797653724 0 0.3969424320709618 -0.1972324897541754 0 0.39287005569986072 -0.20314648074516001 0 0.3969424320709618 -0.1972324897541754 0 0.400612395600416 -0.20053006859666331 0 0.39287005569986072 -0.20314648074516001 0 0.3969424320709618 -0.1972324897541754 0 0.4059814476455269 -0.19573306963025069 0 0.400612395600416 -0.20053006859666331 0 0.4059814476455269 -0.19573306963025069 0 0.400612395600416 -0.20053006859666331 0 0.40665564698531481 -0.2060082342570673 0 0.3969424320709618 -0.1972324897541754 0 0.4059814476455269 -0.19573306963025069 0 0.40101572763622523 -0.19231380306325679 0 0.4059814476455269 -0.19573306963025069 0 0.40101572763622523 -0.19231380306325679 0 0.40419144491046238 -0.1874222587525772 0 0.39694758591794982 -0.18886739411602391 0 0.40101572763622523 -0.19231380306325679 0 0.40419144491046238 -0.1874222587525772 0 0.38675328488958288 -0.2095276895359276 0 0.40665564698531481 -0.2060082342570673 0 0.38675328488958288 -0.2095276895359276 0 0.39915185452682361 -0.21610044156742811 0 0.40665564698531481 -0.2060082342570673 0 0.38675328488958288 -0.2095276895359276 0 0.39287005569986072 -0.20314648074516001 0 0.40665564698531481 -0.2060082342570673 0 0.38700545273377529 -0.2233412248148075 0 0.38675328488958288 -0.2095276895359276 0 0.39915185452682361 -0.21610044156742811 0 0.400612395600416 -0.20053006859666331 0 0.39287005569986072 -0.20314648074516001 0 0.40665564698531481 -0.2060082342570673 0 0.41396763236883027 -0.21470461273584779 0 0.40665564698531481 -0.2060082342570673 0 0.42655800908104652 -0.20248877897820619 0 0.40665564698531481 -0.2060082342570673 0 0.42655800908104652 -0.20248877897820619 0 0.39915185452682361 -0.21610044156742811 0 0.41396763236883027 -0.21470461273584779 0 0.40665564698531481 -0.2060082342570673 0 0.41396763236883027 -0.21470461273584779 0 0.42655800908104652 -0.20248877897820619 0 0.40665564698531481 -0.2060082342570673 0 0.41640017291144837 -0.19588579121564459 0 0.42655800908104652 -0.20248877897820619 0 0.4059814476455269 -0.19573306963025069 0 0.41640017291144837 -0.19588579121564459 0 0.41453364601533049 -0.1862870086825022 0 0.4059814476455269 -0.19573306963025069 0 0.40419144491046238 -0.1874222587525772 0 0.41453364601533049 -0.1862870086825022 0 0.4059814476455269 -0.19573306963025069 0 0.40665564698531481 -0.2060082342570673 0 0.41640017291144837 -0.19588579121564459 0 0.41640017291144837 -0.19588579121564459 0 0.42581299264578848 -0.18832250896932939 0 0.41453364601533049 -0.1862870086825022 0 0.42655800908104652 -0.20248877897820619 0 0.444302871767289 -0.18527179670816579 0 0.42581299264578848 -0.18832250896932939 0 0.42655800908104652 -0.20248877897820619 0 0.444302871767289 -0.18527179670816579 0 0.41640017291144837 -0.19588579121564459 0 0.42581299264578848 -0.18832250896932939 0 0.42655800908104652 -0.20248877897820619 0 0.42655800908104652 -0.20248877897820619 0 0.43237997939727391 -0.21969514264188619 0 0.44995934289594253 -0.19835057932979169 0 0.41396763236883027 -0.21470461273584779 0 0.42655800908104652 -0.20248877897820619 0 0.43237997939727391 -0.21969514264188619 0 0.43237997939727391 -0.21969514264188619 0 0.43199948472716282 -0.23703470349933331 0 0.4148006158986044 -0.24103970595398019 0 0.43237997939727391 -0.21969514264188619 0 0.4148006158986044 -0.24103970595398019 0 0.43199948472716282 -0.23703470349933331 0 0.4148006158986044 -0.24103970595398019 0 0.42892204251950339 -0.2594807324876427 0 0.43199948472716282 -0.23703470349933331 0 0.44338493428344739 -0.24574379201886831 0 0.42892204251950339 -0.2594807324876427 0 0.43237997939727391 -0.21969514264188619 0 0.4148006158986044 -0.24103970595398019 0 0.41563137083033092 -0.22558997695630109 0 0.41396763236883027 -0.21470461273584779 0 0.43237997939727391 -0.21969514264188619 0 0.41563137083033092 -0.22558997695630109 0 0.40137725565661481 -0.22692044649349019 0 0.4148006158986044 -0.24103970595398019 0 0.41563137083033092 -0.22558997695630109 0 0.40137725565661481 -0.22692044649349019 0 0.41396763236883027 -0.21470461273584779 0 0.40137725565661481 -0.22692044649349019 0 0.41396763236883027 -0.21470461273584779 0 0.41563137083033092 -0.22558997695630109 0 0.39237070121405998 -0.13164091544729051 0 0.39988799210863701 -0.14408364481314989 0 0.41368108829086198 -0.13554811058748131 0 0.40604313277712428 -0.1171380761358455 0 0.39237070121405998 -0.13164091544729051 0 0.41368108829086198 -0.13554811058748131 0 0.39237070121405998 -0.13164091544729051 0 0.37656812491251679 -0.13846106794218549 0 0.38605620033535121 -0.1499684147877679 0 0.3785150876385216 -0.1195111518185689 0 0.39237070121405998 -0.13164091544729051 0 0.37656812491251679 -0.13846106794218549 0 0.36359383050920879 -0.15501193774405861 0 0.37656812491251679 -0.13846106794218549 0 0.38605620033535121 -0.1499684147877679 0 0.39237070121405998 -0.13164091544729051 0 0.38605620033535121 -0.1499684147877679 0 0.39988799210863701 -0.14408364481314989 0 0.38605620033535121 -0.1499684147877679 0 0.39988799210863701 -0.14408364481314989 0 0.39700055726989097 -0.15664682800685811 0 0.39988799210863701 -0.14408364481314989 0 0.39700055726989097 -0.15664682800685811 0 0.40766935758353628 -0.1563629578155839 0 0.40291487034120532 -0.16553079014728059 0 0.39700055726989097 -0.15664682800685811 0 0.38691599599779503 -0.1739660947730671 0 0.40291487034120532 -0.16553079014728059 0 0.38691599599779503 -0.1739660947730671 0 0.40291487034120532 -0.16553079014728059 0 0.39700055726989097 -0.15664682800685811 0 0.40766935758353628 -0.1563629578155839 0 0.40291487034120532 -0.16553079014728059 0 0.40766935758353628 -0.1563629578155839 0 0.38605620033535121 -0.1499684147877679 0 0.39700055726989097 -0.15664682800685811 0 0.38691599599779503 -0.1739660947730671 0 0.36359383050920879 -0.15501193774405861 0 0.38691599599779503 -0.1739660947730671 0 0.36359383050920879 -0.15501193774405861 0 0.38605620033535121 -0.1499684147877679 0 0.38691599599779503 -0.1739660947730671 0 0.36422253950936112 -0.1859310752075029 0 0.38691599599779503 -0.1739660947730671 0 0.37910290544765168 -0.18685571494790659 0 0.36422253950936112 -0.1859310752075029 0 0.38691599599779503 -0.1739660947730671 0 0.38691599599779503 -0.1739660947730671 0 0.38753717637180268 -0.18155585423065651 0 0.39509360975394031 -0.18061212321895309 0 0.38373621375160438 -0.1885238144486111 0 0.38753717637180268 -0.18155585423065651 0 0.39509360975394031 -0.18061212321895309 0 0.38691599599779503 -0.1739660947730671 0 0.37910290544765168 -0.18685571494790659 0 0.38753717637180268 -0.18155585423065651 0 0.38373621375160438 -0.1885238144486111 0 0.37910290544765168 -0.18685571494790659 0 0.38753717637180268 -0.18155585423065651 0 0.40291487034120532 -0.16553079014728059 0 0.38691599599779503 -0.1739660947730671 0 0.39509360975394031 -0.18061212321895309 0 0.39694758591794982 -0.18886739411602391 0 0.39665445354372708 -0.18451779314135289 0 0.39509360975394031 -0.18061212321895309 0 0.39694758591794982 -0.18886739411602391 0 0.39665445354372708 -0.18451779314135289 0 0.40021252966215071 -0.18382207331845951 0 0.39665445354372708 -0.18451779314135289 0 0.39509360975394031 -0.18061212321895309 0 0.40021252966215071 -0.18382207331845951 0 0.38691599599779503 -0.1739660947730671 0 0.39509360975394031 -0.18061212321895309 0 0.40291487034120532 -0.16553079014728059 0 0.39509360975394031 -0.18061212321895309 0 0.40549068313545528 -0.17742909809594989 0 0.40291487034120532 -0.16553079014728059 0 0.39509360975394031 -0.18061212321895309 0 0.40549068313545528 -0.17742909809594989 0 0.40419144491046238 -0.1874222587525772 0 0.40021252966215071 -0.18382207331845951 0 0.39509360975394031 -0.18061212321895309 0 0.40549068313545528 -0.17742909809594989 0 0.40021252966215071 -0.18382207331845951 0 0.39694758591794982 -0.18886739411602391 0 0.40419144491046238 -0.1874222587525772 0 0.40021252966215071 -0.18382207331845951 0 0.42581299264578848 -0.18832250896932939 0 0.41453364601533049 -0.1862870086825022 0 0.42235201908535791 -0.17050045814039369 0 0.40549068313545528 -0.17742909809594989 0 0.41453364601533049 -0.1862870086825022 0 0.42235201908535791 -0.17050045814039369 0 0.40549068313545528 -0.17742909809594989 0 0.40419144491046238 -0.1874222587525772 0 0.41453364601533049 -0.1862870086825022 0 0.42235201908535791 -0.17050045814039369 0 0.44127751826325029 -0.16493106072254701 0 0.444302871767289 -0.18527179670816579 0 0.42581299264578848 -0.18832250896932939 0 0.42235201908535791 -0.17050045814039369 0 0.444302871767289 -0.18527179670816579 0 0.42235201908535791 -0.17050045814039369 0 0.42606808286872072 -0.1533234062687002 0 0.44127751826325029 -0.16493106072254701 0 0.40291487034120532 -0.16553079014728059 0 0.40766935758353628 -0.1563629578155839 0 0.42606808286872072 -0.1533234062687002 0 0.40291487034120532 -0.16553079014728059 0 0.42606808286872072 -0.1533234062687002 0 0.40291487034120532 -0.16553079014728059 0 0.42235201908535791 -0.17050045814039369 0 0.42606808286872072 -0.1533234062687002 0 0.40291487034120532 -0.16553079014728059 0 0.40549068313545528 -0.17742909809594989 0 0.42235201908535791 -0.17050045814039369 0 0.41182663021293903 -0.1473295298712288 0 0.42606808286872072 -0.1533234062687002 0 0.41368108829086198 -0.13554811058748131 0 0.40766935758353628 -0.1563629578155839 0 0.41182663021293903 -0.1473295298712288 0 0.42606808286872072 -0.1533234062687002 0 0.39988799210863701 -0.14408364481314989 0 0.40766935758353628 -0.1563629578155839 0 0.41182663021293903 -0.1473295298712288 0 0.39988799210863701 -0.14408364481314989 0 0.41182663021293903 -0.1473295298712288 0 0.41368108829086198 -0.13554811058748131 0 0.42606808286872072 -0.1533234062687002 0 0.430889964195386 -0.135117951771525 0 0.44922129539623712 -0.14111602239012119 0 0.42606808286872072 -0.1533234062687002 0 0.430889964195386 -0.135117951771525 0 0.41368108829086198 -0.13554811058748131 0 0.42080162445294911 -0.1170697999396166 0 0.430889964195386 -0.135117951771525 0 0.41368108829086198 -0.13554811058748131 0 0.45825176112352212 -0.1171944005084963 0 0.44922129539623712 -0.14111602239012119 0 0.47461064769812122 -0.12772964805397971 0 0.44922129539623712 -0.14111602239012119 0 0.47461064769812122 -0.12772964805397971 0 0.44922129539623712 -0.14111602239012119 0 0.47041229806123103 -0.14236165737458781 0 0.47461064769812122 -0.12772964805397971 0 0.43893170590200609 -0.1195052611799315 0 0.430889964195386 -0.135117951771525 0 0.44922129539623712 -0.14111602239012119 0 0.43893170590200609 -0.1195052611799315 0 0.45825176112352212 -0.1171944005084963 0 0.44922129539623712 -0.14111602239012119 0 0.43893170590200609 -0.1195052611799315 0 0.44922129539623712 -0.14111602239012119 0 0.42606808286872072 -0.1533234062687002 0 0.44922129539623712 -0.14111602239012119 0 0.44127751826325029 -0.16493106072254701 0 0.42606808286872072 -0.1533234062687002 0 0.44922129539623712 -0.14111602239012119 0 0.44922129539623712 -0.14111602239012119 0 0.46204773445353348 -0.16805481443812731 0 0.44922129539623712 -0.14111602239012119 0 0.46204773445353348 -0.16805481443812731 0 0.47041229806123103 -0.14236165737458781 0 0.44922129539623712 -0.14111602239012119 0 0.46204773445353348 -0.16805481443812731 0 0.44127751826325029 -0.16493106072254701 0 0.46204773445353348 -0.16805481443812731 0 0.44127751826325029 -0.16493106072254701 0 0.444302871767289 -0.18527179670816579 0 0.46204773445353348 -0.16805481443812731 0 0.444302871767289 -0.18527179670816579 0 0.46675991992270621 -0.1779516052682695 0 0.47013600328087812 -0.185042241033678 0 0.44995934289594253 -0.19835057932979169 0 0.444302871767289 -0.18527179670816579 0 0.46675991992270621 -0.1779516052682695 0 0.44995934289594253 -0.19835057932979169 0 0.46204773445353348 -0.16805481443812731 0 0.444302871767289 -0.18527179670816579 0 0.46675991992270621 -0.1779516052682695 0 0.46204773445353348 -0.16805481443812731 0 0.46675991992270621 -0.1779516052682695 0 0.46675991992270621 -0.1779516052682695 0 0.47013600328087812 -0.185042241033678 0 0.46675991992270621 -0.1779516052682695 0 0.48388214138120561 -0.17390417728894431 0 0.47927416581767118 -0.18397687174081401 0 0.46675991992270621 -0.1779516052682695 0 0.47013600328087812 -0.185042241033678 0 0.47927416581767118 -0.18397687174081401 0 0.48388214138120561 -0.17390417728894431 0 0.47927416581767118 -0.18397687174081401 0 0.48987334582395858 -0.18140433091368091 0 0.48987334582395858 -0.18140433091368091 0 0.5 -0.16492372169971509 0 0.5 -0.19225537639104809 0 0.48388214138120561 -0.17390417728894431 0 0.48987334582395858 -0.18140433091368091 0 0.5 -0.16492372169971509 0 0.47927416581767118 -0.18397687174081401 0 0.48987334582395858 -0.18140433091368091 0 0.48552241192915191 -0.19206174635411891 0 0.48388214138120561 -0.17390417728894431 0 0.5 -0.16492372169971509 0 0.48337995996135552 -0.1577718361383266 0 0.46675991992270621 -0.1779516052682695 0 0.48388214138120561 -0.17390417728894431 0 0.48337995996135552 -0.1577718361383266 0 0.46204773445353348 -0.16805481443812731 0 0.46675991992270621 -0.1779516052682695 0 0.48337995996135552 -0.1577718361383266 0 0.46204773445353348 -0.16805481443812731 0 0.48337995996135552 -0.1577718361383266 0 0.47713463147989749 -0.15341672773068571 0 0.46675991992270621 -0.1779516052682695 0 0.48337995996135552 -0.1577718361383266 0 0.46204773445353348 -0.16805481443812731 0 0.47713463147989749 -0.15341672773068571 0 0.46204773445353348 -0.16805481443812731 0 0.47041229806123103 -0.14236165737458781 0 0.47713463147989749 -0.15341672773068571 0 0.48337995996135552 -0.1577718361383266 0 0.47713463147989749 -0.15341672773068571 0 0.48456351921585428 -0.1397192317593817 0 0.47041229806123103 -0.14236165737458781 0 0.47713463147989749 -0.15341672773068571 0 0.48456351921585428 -0.1397192317593817 0 0.48337995996135552 -0.1577718361383266 0 0.50000000000000311 -0.1375920670083822 0 0.48456351921585428 -0.1397192317593817 0 0.5 -0.16492372169971509 0 0.48337995996135552 -0.1577718361383266 0 0.50000000000000311 -0.1375920670083822 0 0.48337995996135552 -0.1577718361383266 0 0.50000000000000311 -0.1375920670083822 0 0.50000000000000433 -0.1143432737178363 0 0.50000000000000311 -0.1375920670083822 0 0.48456351921585428 -0.1397192317593817 0 0.50000000000000433 -0.1143432737178363 0 0.48456351921585428 -0.1397192317593817 0 0.47461064769812122 -0.12772964805397971 0 0.47041229806123103 -0.14236165737458781 0 0.48456351921585428 -0.1397192317593817 0 0.47461064769812122 -0.12772964805397971 0 0.46695018322910392 -0.22473955239466681 0 0.44975785303280541 -0.2255898949688982 0 0.46528918090086291 -0.2095084705765255 0 0.46695018322910392 -0.22473955239466681 0 0.46086119099944728 -0.24298014516654151 0 0.44975785303280541 -0.2255898949688982 0 0.46086119099944728 -0.24298014516654151 0 0.44338493428344739 -0.24574379201886831 0 0.44975785303280541 -0.2255898949688982 0 0.43199948472716282 -0.23703470349933331 0 0.44338493428344739 -0.24574379201886831 0 0.44975785303280541 -0.2255898949688982 0 0.46086119099944728 -0.24298014516654151 0 0.44338493428344739 -0.24574379201886831 0 0.45165913482636821 -0.26068325523694041 0 0.43237997939727391 -0.21969514264188619 0 0.43199948472716282 -0.23703470349933331 0 0.44975785303280541 -0.2255898949688982 0 0.43237997939727391 -0.21969514264188619 0 0.44975785303280541 -0.2255898949688982 0 0.44995934289594253 -0.19835057932979169 0 0.43237997939727391 -0.21969514264188619 0 0.44995934289594253 -0.19835057932979169 0 0.42655800908104652 -0.20248877897820619 0 0.444302871767289 -0.18527179670816579 0 0.44995934289594253 -0.19835057932979169 0 0.42655800908104652 -0.20248877897820619 0 0.44995934289594253 -0.19835057932979169 0 0.46675991992270621 -0.1779516052682695 0 0.44995934289594253 -0.19835057932979169 0 0.44995934289594253 -0.19835057932979169 0 0.46774087741254722 -0.19520616284195491 0 0.47013600328087812 -0.185042241033678 0 0.44995934289594253 -0.19835057932979169 0 0.46774087741254722 -0.19520616284195491 0 0.44995934289594253 -0.19835057932979169 0 0.46774087741254722 -0.19520616284195491 0 0.46528918090086291 -0.2095084705765255 0 0.44975785303280541 -0.2255898949688982 0 0.44995934289594253 -0.19835057932979169 0 0.46528918090086291 -0.2095084705765255 0 0.46695018322910392 -0.22473955239466681 0 0.46528918090086291 -0.2095084705765255 0 0.48029579162163721 -0.21558854579597769 0 0.46528918090086291 -0.2095084705765255 0 0.47801733861628259 -0.20339364304417529 0 0.48029579162163721 -0.21558854579597769 0 0.47801733861628259 -0.20339364304417529 0 0.48029579162163721 -0.21558854579597769 0 0.48876710843341442 -0.20457726853354019 0 0.46774087741254722 -0.19520616284195491 0 0.47801733861628259 -0.20339364304417529 0 0.48552241192915191 -0.19206174635411891 0 0.47927416581767118 -0.18397687174081401 0 0.46774087741254722 -0.19520616284195491 0 0.48552241192915191 -0.19206174635411891 0 0.46774087741254722 -0.19520616284195491 0 0.48552241192915191 -0.19206174635411891 0 0.47013600328087812 -0.185042241033678 0 0.47927416581767118 -0.18397687174081401 0 0.46774087741254722 -0.19520616284195491 0 0.46774087741254722 -0.19520616284195491 0 0.46528918090086291 -0.2095084705765255 0 0.47801733861628259 -0.20339364304417529 0 0.47801733861628259 -0.20339364304417529 0 0.48552241192915191 -0.19206174635411891 0 0.48876710843341442 -0.20457726853354019 0 0.48987334582395858 -0.18140433091368091 0 0.48552241192915191 -0.19206174635411891 0 0.5 -0.19225537639104809 0 0.48552241192915191 -0.19206174635411891 0 0.5 -0.19225537639104809 0 0.48876710843341442 -0.20457726853354019 0 0.5 -0.19225537639104809 0 0.48876710843341442 -0.20457726853354019 0 0.5 -0.21958703108238101 0 0.48029579162163721 -0.21558854579597769 0 0.48876710843341442 -0.20457726853354019 0 0.5 -0.21958703108238101 0 0.5 -0.21958703108238101 0 0.48033598971293961 -0.23536730169414519 0 0.5 -0.24691868577371379 0 0.48029579162163721 -0.21558854579597769 0 0.5 -0.21958703108238101 0 0.48033598971293961 -0.23536730169414519 0 0.46695018322910392 -0.22473955239466681 0 0.46086119099944728 -0.24298014516654151 0 0.48033598971293961 -0.23536730169414519 0 0.46695018322910392 -0.22473955239466681 0 0.48029579162163721 -0.21558854579597769 0 0.48033598971293961 -0.23536730169414519 0 0.46086119099944728 -0.24298014516654151 0 0.48033598971293961 -0.23536730169414519 0 0.47450143065275591 -0.2599846894272051 0 0.48033598971293961 -0.23536730169414519 0 0.5 -0.24691868577371379 0 0.47450143065275591 -0.2599846894272051 0 0.5 -0.24691868577371379 0 0.50000000000000222 -0.27425034046504659 0 0.47450143065275591 -0.2599846894272051 0 0.50000000000000222 -0.27425034046504659 0 0.47605513413645029 -0.28008102786359129 0 0.47450143065275591 -0.2599846894272051 0 0.47605513413645029 -0.28008102786359129 0 0.47450143065275591 -0.2599846894272051 0 0.45931845050930209 -0.27772900618102819 0 0.46086119099944728 -0.24298014516654151 0 0.47450143065275591 -0.2599846894272051 0 0.45165913482636821 -0.26068325523694041 0 0.47450143065275591 -0.2599846894272051 0 0.45931845050930209 -0.27772900618102819 0 0.45165913482636821 -0.26068325523694041 0 0.45931845050930209 -0.27772900618102819 0 0.44355941821905998 -0.27577600561597132 0 0.45165913482636821 -0.26068325523694041 0 0.44338493428344739 -0.24574379201886831 0 0.45165913482636821 -0.26068325523694041 0 0.42892204251950339 -0.2594807324876427 0 0.44355941821905998 -0.27577600561597132 0 0.45165913482636821 -0.26068325523694041 0 0.42892204251950339 -0.2594807324876427 0 0.44743457629936911 -0.29125199491084608 0 0.45088585771739531 -0.31517042999936162 0 0.43686388954492023 -0.30206384222820981 0 0.45088585771739531 -0.31517042999936162 0 0.43602078127065758 -0.31524868357114688 0 0.43686388954492023 -0.30206384222820981 0 0.45931845050930209 -0.27772900618102819 0 0.44355941821905998 -0.27577600561597132 0 0.44743457629936911 -0.29125199491084608 0 0.44355941821905998 -0.27577600561597132 0 0.44743457629936911 -0.29125199491084608 0 0.42611848489587972 -0.28658767974219163 0 0.47605513413645029 -0.28008102786359129 0 0.45931845050930209 -0.27772900618102819 0 0.46516191830632447 -0.295844547827811 0 0.45931845050930209 -0.27772900618102819 0 0.44743457629936911 -0.29125199491084608 0 0.46516191830632447 -0.295844547827811 0 0.44743457629936911 -0.29125199491084608 0 0.46516191830632447 -0.295844547827811 0 0.45088585771739531 -0.31517042999936162 0 0.46516191830632447 -0.295844547827811 0 0.47218478901913252 -0.31616939882945228 0 0.45088585771739531 -0.31517042999936162 0 0.4860923945095682 -0.29520986964724988 0 0.47218478901913252 -0.31616939882945228 0 0.50000000000000222 -0.27425034046504659 0 0.4860923945095682 -0.29520986964724988 0 0.5 -0.307151228172029 0 0.46516191830632447 -0.295844547827811 0 0.4860923945095682 -0.29520986964724988 0 0.47218478901913252 -0.31616939882945228 0 0.47605513413645029 -0.28008102786359129 0 0.46516191830632447 -0.295844547827811 0 0.4860923945095682 -0.29520986964724988 0 0.50000000000000222 -0.27425034046504659 0 0.47605513413645029 -0.28008102786359129 0 0.4860923945095682 -0.29520986964724988 0 0.50000000000000222 -0.27425034046504659 0 0.4860923945095682 -0.29520986964724988 0 0.4860923945095682 -0.29520986964724988 0 0.5 -0.307151228172029 0 0.47218478901913252 -0.31616939882945228 0 0.5 -0.307151228172029 0 0.47500442815187882 -0.33618410333150461 0 0.5 -0.35237408365171952 0 0.5 -0.307151228172029 0 0.47500442815187882 -0.33618410333150461 0 0.47218478901913252 -0.31616939882945228 0 0.47500442815187882 -0.33618410333150461 0 0.5 -0.35237408365171952 0 0.46252966193221051 -0.36479181955861489 0 0.5 -0.35237408365171952 0 0.46252966193221051 -0.36479181955861489 0 0.4680243894331878 -0.39009447735167219 0 0.46252966193221051 -0.36479181955861489 0 0.44439653888602387 -0.37108278870097211 0 0.45518384933885458 -0.37953704158418422 0 0.46252966193221051 -0.36479181955861489 0 0.4490308344886651 -0.35295870566956811 0 0.45703493443123322 -0.33948916176555749 0 0.47500442815187882 -0.33618410333150461 0 0.46252966193221051 -0.36479181955861489 0 0.45703493443123322 -0.33948916176555749 0 0.46252966193221051 -0.36479181955861489 0 0.45703493443123322 -0.33948916176555749 0 0.4490308344886651 -0.35295870566956811 0 0.44439653888602387 -0.37108278870097211 0 0.43547581015886039 -0.35374612963373181 0 0.44432011104097457 -0.34600420025309703 0 0.4490308344886651 -0.35295870566956811 0 0.45042795048268808 -0.34263813410543531 0 0.4490308344886651 -0.35295870566956811 0 0.45703493443123322 -0.33948916176555749 0 0.45042795048268808 -0.34263813410543531 0 0.44432011104097457 -0.34600420025309703 0 0.4490308344886651 -0.35295870566956811 0 0.43547581015886039 -0.35374612963373181 0 0.44432011104097457 -0.34600420025309703 0 0.43877314986606192 -0.33818418946214152 0 0.43547581015886039 -0.35374612963373181 0 0.46252966193221051 -0.36479181955861489 0 0.4490308344886651 -0.35295870566956811 0 0.44439653888602387 -0.37108278870097211 0 0.47218478901913252 -0.31616939882945228 0 0.45845081404400378 -0.32484725803309861 0 0.45088585771739531 -0.31517042999936162 0 0.47218478901913252 -0.31616939882945228 0 0.45845081404400378 -0.32484725803309861 0 0.45827718352869679 -0.33712892801165451 0 0.47218478901913252 -0.31616939882945228 0 0.45827718352869679 -0.33712892801165451 0 0.45845081404400378 -0.32484725803309861 0 0.45465012105844921 -0.33200612518688721 0 0.44755831468875862 -0.32470483606049327 0 0.47500442815187882 -0.33618410333150461 0 0.45703493443123322 -0.33948916176555749 0 0.45827718352869679 -0.33712892801165451 0 0.47500442815187882 -0.33618410333150461 0 0.47218478901913252 -0.31616939882945228 0 0.45827718352869679 -0.33712892801165451 0 0.45703493443123322 -0.33948916176555749 0 0.4547926195999189 -0.33699511694280199 0 0.45042795048268808 -0.34263813410543531 0 0.45703493443123322 -0.33948916176555749 0 0.45827718352869679 -0.33712892801165451 0 0.4547926195999189 -0.33699511694280199 0 0.45845081404400378 -0.32484725803309861 0 0.45827718352869679 -0.33712892801165451 0 0.45465012105844921 -0.33200612518688721 0 0.4547926195999189 -0.33699511694280199 0 0.45465012105844921 -0.33200612518688721 0 0.45190540097192972 -0.33615439765103378 0 0.45827718352869679 -0.33712892801165451 0 0.4547926195999189 -0.33699511694280199 0 0.45465012105844921 -0.33200612518688721 0 0.45465012105844921 -0.33200612518688721 0 0.44749393872662357 -0.33307274595813069 0 0.44755831468875862 -0.32470483606049327 0 0.45465012105844921 -0.33200612518688721 0 0.44749393872662357 -0.33307274595813069 0 0.45190540097192972 -0.33615439765103378 0 0.4547926195999189 -0.33699511694280199 0 0.45042795048268808 -0.34263813410543531 0 0.45190540097192972 -0.33615439765103378 0 0.45042795048268808 -0.34263813410543531 0 0.45190540097192972 -0.33615439765103378 0 0.44691761172297523 -0.33872250108465612 0 0.44749393872662357 -0.33307274595813069 0 0.45190540097192972 -0.33615439765103378 0 0.44691761172297523 -0.33872250108465612 0 0.44432011104097457 -0.34600420025309703 0 0.45042795048268808 -0.34263813410543531 0 0.44691761172297523 -0.33872250108465612 0 0.44432011104097457 -0.34600420025309703 0 0.44691761172297523 -0.33872250108465612 0 0.43877314986606192 -0.33818418946214152 0 0.44749393872662357 -0.33307274595813069 0 0.44691761172297523 -0.33872250108465612 0 0.43877314986606192 -0.33818418946214152 0 0.44749393872662357 -0.33307274595813069 0 0.43877314986606192 -0.33818418946214152 0 0.43784837531542259 -0.32788377361433518 0 0.44749393872662357 -0.33307274595813069 0 0.43784837531542259 -0.32788377361433518 0 0.44755831468875862 -0.32470483606049327 0 0.43784837531542259 -0.32788377361433518 0 0.44755831468875862 -0.32470483606049327 0 0.43602078127065758 -0.31524868357114688 0 0.45845081404400378 -0.32484725803309861 0 0.44755831468875862 -0.32470483606049327 0 0.45088585771739531 -0.31517042999936162 0 0.44755831468875862 -0.32470483606049327 0 0.45088585771739531 -0.31517042999936162 0 0.43602078127065758 -0.31524868357114688 0 0.43784837531542259 -0.32788377361433518 0 0.42583518759170652 -0.33528639298719382 0 0.41775460495295358 -0.31793141321765611 0 0.43784837531542259 -0.32788377361433518 0 0.43602078127065758 -0.31524868357114688 0 0.41775460495295358 -0.31793141321765611 0 0.43877314986606192 -0.33818418946214152 0 0.43784837531542259 -0.32788377361433518 0 0.42583518759170652 -0.33528639298719382 0 0.43877314986606192 -0.33818418946214152 0 0.42583518759170652 -0.33528639298719382 0 0.43547581015886039 -0.35374612963373181 0 0.41250416259223432 -0.33960725990233392 0 0.41775460495295358 -0.31793141321765611 0 0.39805431729583179 -0.33510365622952631 0 0.41250416259223432 -0.33960725990233392 0 0.41775460495295358 -0.31793141321765611 0 0.42583518759170652 -0.33528639298719382 0 0.41250416259223432 -0.33960725990233392 0 0.41775460495295358 -0.31793141321765611 0 0.42583518759170652 -0.33528639298719382 0 0.41250416259223432 -0.33960725990233392 0 0.42034794007649889 -0.35298104146800569 0 0.43547581015886039 -0.35374612963373181 0 0.42034794007649889 -0.35298104146800569 0 0.42578668388574042 -0.37577956855813549 0 0.44439653888602387 -0.37108278870097211 0 0.43547581015886039 -0.35374612963373181 0 0.42578668388574042 -0.37577956855813549 0 0.42583518759170652 -0.33528639298719382 0 0.43547581015886039 -0.35374612963373181 0 0.42034794007649889 -0.35298104146800569 0 0.41250416259223432 -0.33960725990233392 0 0.42034794007649889 -0.35298104146800569 0 0.40725372023151529 -0.36128310658701179 0 0.41250416259223432 -0.33960725990233392 0 0.40725372023151529 -0.36128310658701179 0 0.40725372023151529 -0.36128310658701179 0 0.42578668388574042 -0.37577956855813549 0 0.40193856510946419 -0.3832261124550107 0 0.40725372023151529 -0.36128310658701179 0 0.42578668388574042 -0.37577956855813549 0 0.42034794007649889 -0.35298104146800569 0 0.40725372023151529 -0.36128310658701179 0 0.42578668388574042 -0.37577956855813549 0 0.40725372023151529 -0.36128310658701179 0 0.39425043507280438 -0.36432915978129837 0 0.40193856510946419 -0.3832261124550107 0 0.40725372023151529 -0.36128310658701179 0 0.40193856510946419 -0.3832261124550107 0 0.39425043507280438 -0.36432915978129837 0 0.38081427771294768 -0.36737052156009248 0 0.40193856510946419 -0.3832261124550107 0 0.40725372023151529 -0.36128310658701179 0 0.38699517723729038 -0.34543689852307891 0 0.39805431729583179 -0.33510365622952631 0 0.40725372023151529 -0.36128310658701179 0 0.39425043507280438 -0.36432915978129837 0 0.38699517723729038 -0.34543689852307891 0 0.40725372023151529 -0.36128310658701179 0 0.38699517723729038 -0.34543689852307891 0 0.41250416259223432 -0.33960725990233392 0 0.40725372023151529 -0.36128310658701179 0 0.39805431729583179 -0.33510365622952631 0 0.38699517723729038 -0.34543689852307891 0 0.38081427771294768 -0.36737052156009248 0 0.37640125955739012 -0.35149107478397351 0 0.38465179156333151 -0.34360390505586791 0 0.36805061276354478 -0.3427907498460791 0 0.39425043507280438 -0.36432915978129837 0 0.38699517723729038 -0.34543689852307891 0 0.38081427771294768 -0.36737052156009248 0 0.38699517723729038 -0.34543689852307891 0 0.37640125955739012 -0.35149107478397351 0 0.38081427771294768 -0.36737052156009248 0 0.38699517723729038 -0.34543689852307891 0 0.38465179156333151 -0.34360390505586791 0 0.38699517723729038 -0.34543689852307891 0 0.37640125955739012 -0.35149107478397351 0 0.38465179156333151 -0.34360390505586791 0 0.41775460495295358 -0.31793141321765611 0 0.39401776620237461 -0.32051644503610022 0 0.39805431729583179 -0.33510365622952631 0 0.38699517723729038 -0.34543689852307891 0 0.39401776620237461 -0.32051644503610022 0 0.39805431729583179 -0.33510365622952631 0 0.38699517723729038 -0.34543689852307891 0 0.39401776620237461 -0.32051644503610022 0 0.38465179156333151 -0.34360390505586791 0 0.37858644206980091 -0.32769985780377792 0 0.36805061276354478 -0.3427907498460791 0 0.38699517723729038 -0.34543689852307891 0 0.39401776620237461 -0.32051644503610022 0 0.38465179156333151 -0.34360390505586791 0 0.39401776620237461 -0.32051644503610022 0 0.38465179156333151 -0.34360390505586791 0 0.37858644206980091 -0.32769985780377792 0 0.39401776620237461 -0.32051644503610022 0 0.37858644206980091 -0.32769985780377792 0 0.37861767820969228 -0.30691821554646831 0 0.41775460495295358 -0.31793141321765611 0 0.39401776620237461 -0.32051644503610022 0 0.40104035516745928 -0.29559599154912142 0 0.39401776620237461 -0.32051644503610022 0 0.37861767820969228 -0.30691821554646831 0 0.40104035516745928 -0.29559599154912142 0 0.39401776620237461 -0.32051644503610022 0 0.40104035516745928 -0.29559599154912142 0 0.40104035516745928 -0.29559599154912142 0 0.38498320530945151 -0.287592927137584 0 0.39655653748852282 -0.27284147297554762 0 0.38498320530945151 -0.287592927137584 0 0.37764450162479901 -0.26965755496232408 0 0.36873774536035581 -0.28861226174546889 0 0.37861767820969228 -0.30691821554646831 0 0.40104035516745928 -0.29559599154912142 0 0.38498320530945151 -0.287592927137584 0 0.37861767820969228 -0.30691821554646831 0 0.38498320530945151 -0.287592927137584 0 0.36873774536035581 -0.28861226174546889 0 0.38498320530945151 -0.287592927137584 0 0.37764450162479901 -0.26965755496232408 0 0.39655653748852282 -0.27284147297554762 0 0.39206528024080278 -0.24921397013056479 0 0.37764450162479901 -0.26965755496232408 0 0.39655653748852282 -0.27284147297554762 0 0.39206528024080278 -0.24921397013056479 0 0.37764450162479901 -0.26965755496232408 0 0.37510228513818711 -0.25237727586059511 0 0.39206528024080278 -0.24921397013056479 0 0.39655653748852282 -0.27284147297554762 0 0.40884184876520419 -0.25890250189124958 0 0.40104035516745928 -0.29559599154912142 0 0.39655653748852282 -0.27284147297554762 0 0.4136044294752057 -0.2739163227279473 0 0.39655653748852282 -0.27284147297554762 0 0.4136044294752057 -0.2739163227279473 0 0.40884184876520419 -0.25890250189124958 0 0.4148006158986044 -0.24103970595398019 0 0.40884184876520419 -0.25890250189124958 0 0.42892204251950339 -0.2594807324876427 0 0.4136044294752057 -0.2739163227279473 0 0.40884184876520419 -0.25890250189124958 0 0.42892204251950339 -0.2594807324876427 0 0.4136044294752057 -0.2739163227279473 0 0.42892204251950339 -0.2594807324876427 0 0.42611848489587972 -0.28658767974219163 0 0.44355941821905998 -0.27577600561597132 0 0.42892204251950339 -0.2594807324876427 0 0.42611848489587972 -0.28658767974219163 0 0.44743457629936911 -0.29125199491084608 0 0.42611848489587972 -0.28658767974219163 0 0.43686388954492023 -0.30206384222820981 0 0.43602078127065758 -0.31524868357114688 0 0.41775460495295358 -0.31793141321765611 0 0.42179240152309172 -0.30222108271158582 0 0.42611848489587972 -0.28658767974219163 0 0.43686388954492023 -0.30206384222820981 0 0.42179240152309172 -0.30222108271158582 0 0.43602078127065758 -0.31524868357114688 0 0.43686388954492023 -0.30206384222820981 0 0.42179240152309172 -0.30222108271158582 0 0.41775460495295358 -0.31793141321765611 0 0.40104035516745928 -0.29559599154912142 0 0.42179240152309172 -0.30222108271158582 0 0.40104035516745928 -0.29559599154912142 0 0.4136044294752057 -0.2739163227279473 0 0.42611848489587972 -0.28658767974219163 0 0.40104035516745928 -0.29559599154912142 0 0.42611848489587972 -0.28658767974219163 0 0.42179240152309172 -0.30222108271158582 0 0.5 -0.5 0 0.478892924595126 -0.45923392689990328 0 0.5 -0.41454166856117469 0 0.5 -0.5 0 0.47943423265092072 -0.49342116463239621 0 0.40014079662082208 -0.5 0 0.43983937115661631 -0.46972557693384148 0 0.47943423265092072 -0.49342116463239621 0 0.40014079662082208 -0.5 0 0.43983937115661631 -0.46972557693384148 0 0.46715606132834708 -0.47012790102379598 0 0.47943423265092072 -0.49342116463239621 0 0.5 -0.5 0 0.47943423265092072 -0.49342116463239621 0 0.478892924595126 -0.45923392689990328 0 0.46715606132834708 -0.47012790102379598 0 0.47943423265092072 -0.49342116463239621 0 0.478892924595126 -0.45923392689990328 0 0.46715606132834708 -0.47012790102379598 0 0.47943423265092072 -0.49342116463239621 0 0.478892924595126 -0.45923392689990328 0 0.45487789000577361 -0.44683463741519602 0 0.47188936358571532 -0.4304781897668572 0 0.46715606132834708 -0.47012790102379598 0 0.45487789000577361 -0.44683463741519602 0 0.46715606132834708 -0.47012790102379598 0 0.478892924595126 -0.45923392689990328 0 0.45487789000577361 -0.44683463741519602 0 0.43983937115661631 -0.46972557693384148 0 0.46715606132834708 -0.47012790102379598 0 0.45487789000577361 -0.44683463741519602 0 0.43983937115661631 -0.46972557693384148 0 0.45487789000577361 -0.44683463741519602 0 0.43095981599733307 -0.44753658110846528 0 0.45487789000577361 -0.44683463741519602 0 0.43408281430989271 -0.43319973453275151 0 0.43095981599733307 -0.44753658110846528 0 0.45487789000577361 -0.44683463741519602 0 0.44259971868320003 -0.42354137380659601 0 0.45487789000577361 -0.44683463741519602 0 0.44259971868320003 -0.42354137380659601 0 0.43408281430989271 -0.43319973453275151 0 0.45487789000577361 -0.44683463741519602 0 0.44259971868320003 -0.42354137380659601 0 0.45959372781066021 -0.42263882295877442 0 0.44259971868320003 -0.42354137380659601 0 0.45186952978880229 -0.40983589673226128 0 0.45959372781066021 -0.42263882295877442 0 0.44259971868320003 -0.42354137380659601 0 0.45186952978880229 -0.40983589673226128 0 0.44161148704613862 -0.40579593671517361 0 0.44259971868320003 -0.42354137380659601 0 0.44161148704613862 -0.40579593671517361 0 0.43098246877755192 -0.41858878846052949 0 0.45186952978880229 -0.40983589673226128 0 0.45959372781066021 -0.42263882295877442 0 0.46285261119418991 -0.40477249250038388 0 0.45959372781066021 -0.42263882295877442 0 0.4735191169341651 -0.41539713514472942 0 0.46285261119418991 -0.40477249250038388 0 0.45959372781066021 -0.42263882295877442 0 0.47188936358571532 -0.4304781897668572 0 0.4735191169341651 -0.41539713514472942 0 0.45487789000577361 -0.44683463741519602 0 0.45959372781066021 -0.42263882295877442 0 0.47188936358571532 -0.4304781897668572 0 0.5 -0.41454166856117469 0 0.4735191169341651 -0.41539713514472942 0 0.4680243894331878 -0.39009447735167219 0 0.478892924595126 -0.45923392689990328 0 0.47188936358571532 -0.4304781897668572 0 0.5 -0.41454166856117469 0 0.47188936358571532 -0.4304781897668572 0 0.5 -0.41454166856117469 0 0.4735191169341651 -0.41539713514472942 0 0.5 -0.35237408365171952 0 0.5 -0.41454166856117469 0 0.4680243894331878 -0.39009447735167219 0 0.4735191169341651 -0.41539713514472942 0 0.4680243894331878 -0.39009447735167219 0 0.46252966193221051 -0.36479181955861489 0 0.45518384933885458 -0.37953704158418422 0 0.4680243894331878 -0.39009447735167219 0 0.45518384933885458 -0.37953704158418422 0 0.4680243894331878 -0.39009447735167219 0 0.44431964753996511 -0.39027603052925969 0 0.46252966193221051 -0.36479181955861489 0 0.4680243894331878 -0.39009447735167219 0 0.4735191169341651 -0.41539713514472942 0 0.4680243894331878 -0.39009447735167219 0 0.46285261119418991 -0.40477249250038388 0 0.4680243894331878 -0.39009447735167219 0 0.46285261119418991 -0.40477249250038388 0 0.44431964753996511 -0.39027603052925969 0 0.46285261119418991 -0.40477249250038388 0 0.44431964753996511 -0.39027603052925969 0 0.45186952978880229 -0.40983589673226128 0 0.44161148704613862 -0.40579593671517361 0 0.44431964753996511 -0.39027603052925969 0 0.45186952978880229 -0.40983589673226128 0 0.46285261119418991 -0.40477249250038388 0 0.44431964753996511 -0.39027603052925969 0 0.44439653888602387 -0.37108278870097211 0 0.44431964753996511 -0.39027603052925969 0 0.42578668388574042 -0.37577956855813549 0 0.44439653888602387 -0.37108278870097211 0 0.45518384933885458 -0.37953704158418422 0 0.44431964753996511 -0.39027603052925969 0 0.44431964753996511 -0.39027603052925969 0 0.42578668388574042 -0.37577956855813549 0 0.42627525148907153 -0.39512359141131242 0 0.44431964753996511 -0.39027603052925969 0 0.42578668388574042 -0.37577956855813549 0 0.44161148704613862 -0.40579593671517361 0 0.44431964753996511 -0.39027603052925969 0 0.42627525148907153 -0.39512359141131242 0 0.44161148704613862 -0.40579593671517361 0 0.42627525148907153 -0.39512359141131242 0 0.41380476734409732 -0.40903711363024231 0 0.41288573556315727 -0.39366710087554208 0 0.39662340998741341 -0.40516911832300972 0 0.41380476734409732 -0.40903711363024231 0 0.42627525148907153 -0.39512359141131242 0 0.41288573556315727 -0.39366710087554208 0 0.41380476734409732 -0.40903711363024231 0 0.42578668388574042 -0.37577956855813549 0 0.41288573556315727 -0.39366710087554208 0 0.40193856510946419 -0.3832261124550107 0 0.42578668388574042 -0.37577956855813549 0 0.42627525148907153 -0.39512359141131242 0 0.41288573556315727 -0.39366710087554208 0 0.38081427771294768 -0.36737052156009248 0 0.37463337818860382 -0.38930414459710588 0 0.3737028077843495 -0.38742295831448542 0 0.38081427771294768 -0.36737052156009248 0 0.38897026210220897 -0.39170162293651239 0 0.37463337818860382 -0.38930414459710588 0 0.38081427771294768 -0.36737052156009248 0 0.37463337818860382 -0.38930414459710588 0 0.38081427771294768 -0.36737052156009248 0 0.40193856510946419 -0.3832261124550107 0 0.38897026210220897 -0.39170162293651239 0 0.38599804764205609 -0.41227829054531151 0 0.37463337818860382 -0.38930414459710588 0 0.38897026210220897 -0.39170162293651239 0 0.39662340998741341 -0.40516911832300972 0 0.38599804764205609 -0.41227829054531151 0 0.38599804764205609 -0.41227829054531151 0 0.36755341006792419 -0.41442821452601158 0 0.37463337818860382 -0.38930414459710588 0 0.38897026210220897 -0.39170162293651239 0 0.38599804764205609 -0.41227829054531151 0 0.37463337818860382 -0.38930414459710588 0 0.40193856510946419 -0.3832261124550107 0 0.38897026210220897 -0.39170162293651239 0 0.39662340998741341 -0.40516911832300972 0 0.41288573556315727 -0.39366710087554208 0 0.40193856510946419 -0.3832261124550107 0 0.39662340998741341 -0.40516911832300972 0 0.40193856510946419 -0.3832261124550107 0 0.39662340998741341 -0.40516911832300972 0 0.38599804764205609 -0.41227829054531151 0 0.41380476734409732 -0.40903711363024231 0 0.39662340998741341 -0.40516911832300972 0 0.38599804764205609 -0.41227829054531151 0 0.41380476734409732 -0.40903711363024231 0 0.40147331832312588 -0.42054231308375889 0 0.38599804764205609 -0.41227829054531151 0 0.41380476734409732 -0.40903711363024231 0 0.38599804764205609 -0.41227829054531151 0 0.36755341006792419 -0.41442821452601158 0 0.38599804764205609 -0.41227829054531151 0 0.37837193070639508 -0.43074191130029282 0 0.36755341006792419 -0.41442821452601158 0 0.38599804764205609 -0.41227829054531151 0 0.37837193070639508 -0.43074191130029282 0 0.39716653888589531 -0.43485585418744782 0 0.37837193070639508 -0.43074191130029282 0 0.39716653888589531 -0.43485585418744782 0 0.38455236834147782 -0.44235831893697952 0 0.38599804764205609 -0.41227829054531151 0 0.39716653888589531 -0.43485585418744782 0 0.40147331832312588 -0.42054231308375889 0 0.38599804764205609 -0.41227829054531151 0 0.39716653888589531 -0.43485585418744782 0 0.40147331832312588 -0.42054231308375889 0 0.39716653888589531 -0.43485585418744782 0 0.40988830344794153 -0.42850982814637428 0 0.39716653888589531 -0.43485585418744782 0 0.40988830344794153 -0.42850982814637428 0 0.41424956646142452 -0.44145335337101582 0 0.40988830344794153 -0.42850982814637428 0 0.42255857874347952 -0.42798536962106742 0 0.41424956646142452 -0.44145335337101582 0 0.40147331832312588 -0.42054231308375889 0 0.40988830344794153 -0.42850982814637428 0 0.41380476734409732 -0.40903711363024231 0 0.40988830344794153 -0.42850982814637428 0 0.41380476734409732 -0.40903711363024231 0 0.42255857874347952 -0.42798536962106742 0 0.44161148704613862 -0.40579593671517361 0 0.41380476734409732 -0.40903711363024231 0 0.43098246877755192 -0.41858878846052949 0 0.44161148704613862 -0.40579593671517361 0 0.41380476734409732 -0.40903711363024231 0 0.41380476734409732 -0.40903711363024231 0 0.43098246877755192 -0.41858878846052949 0 0.42255857874347952 -0.42798536962106742 0 0.43408281430989271 -0.43319973453275151 0 0.42255857874347952 -0.42798536962106742 0 0.43095981599733307 -0.44753658110846528 0 0.44259971868320003 -0.42354137380659601 0 0.43098246877755192 -0.41858878846052949 0 0.43408281430989271 -0.43319973453275151 0 0.43098246877755192 -0.41858878846052949 0 0.43408281430989271 -0.43319973453275151 0 0.42255857874347952 -0.42798536962106742 0 0.42255857874347952 -0.42798536962106742 0 0.43095981599733307 -0.44753658110846528 0 0.41424956646142452 -0.44145335337101582 0 0.43983937115661631 -0.46972557693384148 0 0.42706067288056998 -0.45966910190407051 0 0.41707216494033877 -0.46659444091922031 0 0.43983937115661631 -0.46972557693384148 0 0.43095981599733307 -0.44753658110846528 0 0.42706067288056998 -0.45966910190407051 0 0.43095981599733307 -0.44753658110846528 0 0.42706067288056998 -0.45966910190407051 0 0.42037133942799187 -0.45481980865475502 0 0.42037133942799187 -0.45481980865475502 0 0.41707216494033877 -0.46659444091922031 0 0.40833503012973449 -0.45743341782958391 0 0.42706067288056998 -0.45966910190407051 0 0.42037133942799187 -0.45481980865475502 0 0.41707216494033877 -0.46659444091922031 0 0.41707216494033877 -0.46659444091922031 0 0.40833503012973449 -0.45743341782958391 0 0.39424227281986102 -0.46676003377889269 0 0.43095981599733307 -0.44753658110846528 0 0.42037133942799187 -0.45481980865475502 0 0.41424956646142452 -0.44145335337101582 0 0.42037133942799187 -0.45481980865475502 0 0.40833503012973449 -0.45743341782958391 0 0.41424956646142452 -0.44145335337101582 0 0.39716653888589531 -0.43485585418744782 0 0.40833503012973449 -0.45743341782958391 0 0.41424956646142452 -0.44145335337101582 0 0.39716653888589531 -0.43485585418744782 0 0.39345157537004599 -0.45057062730194619 0 0.38455236834147782 -0.44235831893697952 0 0.39716653888589531 -0.43485585418744782 0 0.40833503012973449 -0.45743341782958391 0 0.39345157537004599 -0.45057062730194619 0 0.39716653888589531 -0.43485585418744782 0 0.40833503012973449 -0.45743341782958391 0 0.39345157537004599 -0.45057062730194619 0 0.38455236834147782 -0.44235831893697952 0 0.38182359321740972 -0.45292134106576409 0 0.38455236834147782 -0.44235831893697952 0 0.38182359321740972 -0.45292134106576409 0 0.37194820352764257 -0.4427018608294464 0 0.37837193070639508 -0.43074191130029282 0 0.38455236834147782 -0.44235831893697952 0 0.37194820352764257 -0.4427018608294464 0 0.38182359321740972 -0.45292134106576409 0 0.39424227281986102 -0.46676003377889269 0 0.37141238069938332 -0.46692562663856529 0 0.39345157537004599 -0.45057062730194619 0 0.38182359321740972 -0.45292134106576409 0 0.39424227281986102 -0.46676003377889269 0 0.39424227281986102 -0.46676003377889269 0 0.37141238069938332 -0.46692562663856529 0 0.40833503012973449 -0.45743341782958391 0 0.39345157537004599 -0.45057062730194619 0 0.39424227281986102 -0.46676003377889269 0 0.41707216494033877 -0.46659444091922031 0 0.39424227281986102 -0.46676003377889269 0 0.41707216494033877 -0.46659444091922031 0 0.39424227281986102 -0.46676003377889269 0 0.40014079662082208 -0.5 0 0.39424227281986102 -0.46676003377889269 0 0.40014079662082208 -0.5 0 0.37141238069938332 -0.46692562663856529 0 0.43983937115661631 -0.46972557693384148 0 0.41707216494033877 -0.46659444091922031 0 0.40014079662082208 -0.5 0 0.40014079662082208 -0.5 0 0.32546065004022617 -0.5 0 0.3462765218470546 -0.48033279556006703 0 0.32546065004022617 -0.5 0 0.3462765218470546 -0.48033279556006703 0 0.30631021868456298 -0.48072311486568892 0 0.3462765218470546 -0.48033279556006703 0 0.32575259645842791 -0.46725681235791028 0 0.30631021868456298 -0.48072311486568892 0 0.3462765218470546 -0.48033279556006703 0 0.3485824885789055 -0.46709121949823779 0 0.32575259645842791 -0.46725681235791028 0 0.40014079662082208 -0.5 0 0.3462765218470546 -0.48033279556006703 0 0.37141238069938332 -0.46692562663856529 0 0.3462765218470546 -0.48033279556006703 0 0.3485824885789055 -0.46709121949823779 0 0.37141238069938332 -0.46692562663856529 0 0.3485824885789055 -0.46709121949823779 0 0.37141238069938332 -0.46692562663856529 0 0.35324569388809701 -0.44989359131069062 0 0.3485824885789055 -0.46709121949823779 0 0.35324569388809701 -0.44989359131069062 0 0.33806214337105372 -0.45777686618061397 0 0.38182359321740972 -0.45292134106576409 0 0.37141238069938332 -0.46692562663856529 0 0.35324569388809701 -0.44989359131069062 0 0.3485824885789055 -0.46709121949823779 0 0.37141238069938332 -0.46692562663856529 0 0.36060935802898147 -0.43906997082244181 0 0.37194820352764257 -0.4427018608294464 0 0.35324569388809701 -0.44989359131069062 0 0.38182359321740972 -0.45292134106576409 0 0.35324569388809701 -0.44989359131069062 0 0.37837193070639508 -0.43074191130029282 0 0.36060935802898147 -0.43906997082244181 0 0.37194820352764257 -0.4427018608294464 0 0.38182359321740972 -0.45292134106576409 0 0.37194820352764257 -0.4427018608294464 0 0.35324569388809701 -0.44989359131069062 0 0.36060935802898147 -0.43906997082244181 0 0.35324569388809701 -0.44989359131069062 0 0.34315104194743368 -0.43483422324315929 0 0.32466779455878442 -0.44686584155561709 0 0.32761501992215097 -0.43116249501185328 0 0.34315104194743368 -0.43483422324315929 0 0.35324569388809701 -0.44989359131069062 0 0.33806214337105372 -0.45777686618061397 0 0.32466779455878442 -0.44686584155561709 0 0.35324569388809701 -0.44989359131069062 0 0.32466779455878442 -0.44686584155561709 0 0.34315104194743368 -0.43483422324315929 0 0.35324569388809701 -0.44989359131069062 0 0.32466779455878442 -0.44686584155561709 0 0.3485824885789055 -0.46709121949823779 0 0.32575259645842791 -0.46725681235791028 0 0.3485824885789055 -0.46709121949823779 0 0.33806214337105372 -0.45777686618061397 0 0.32575259645842791 -0.46725681235791028 0 0.33806214337105372 -0.45777686618061397 0 0.32575259645842791 -0.46725681235791028 0 0.32466779455878442 -0.44686584155561709 0 0.32575259645842791 -0.46725681235791028 0 0.30904716904302271 -0.45792120175055678 0 0.30631021868456298 -0.48072311486568892 0 0.32575259645842791 -0.46725681235791028 0 0.32466779455878442 -0.44686584155561709 0 0.30904716904302271 -0.45792120175055678 0 0.32466779455878442 -0.44686584155561709 0 0.31800868577585262 -0.43516031519895321 0 0.30735360635596409 -0.43632211706289747 0 0.32466779455878442 -0.44686584155561709 0 0.32761501992215097 -0.43116249501185328 0 0.31800868577585262 -0.43516031519895321 0 0.32761501992215097 -0.43116249501185328 0 0.32339131420283213 -0.41656724990055422 0 0.31239832226651099 -0.42629080716544471 0 0.32761501992215097 -0.43116249501185328 0 0.31800868577585262 -0.43516031519895321 0 0.31239832226651099 -0.42629080716544471 0 0.31800868577585262 -0.43516031519895321 0 0.31239832226651099 -0.42629080716544471 0 0.30735360635596409 -0.43632211706289747 0 0.32339131420283213 -0.41656724990055422 0 0.31120060169272079 -0.4133373498197 0 0.31239832226651099 -0.42629080716544471 0 0.32339131420283213 -0.41656724990055422 0 0.319673984964159 -0.40346676889879052 0 0.31120060169272079 -0.4133373498197 0 0.319673984964159 -0.40346676889879052 0 0.30884060304287331 -0.40229515593698711 0 0.31120060169272079 -0.4133373498197 0 0.32339131420283213 -0.41656724990055422 0 0.33281994217864741 -0.40778505865636938 0 0.319673984964159 -0.40346676889879052 0 0.32761501992215097 -0.43116249501185328 0 0.32339131420283213 -0.41656724990055422 0 0.33796042338316851 -0.41787760036937549 0 0.32339131420283213 -0.41656724990055422 0 0.33281994217864741 -0.40778505865636938 0 0.33796042338316851 -0.41787760036937549 0 0.33281994217864741 -0.40778505865636938 0 0.33796042338316851 -0.41787760036937549 0 0.34601675315157321 -0.40486547886918423 0 0.32761501992215097 -0.43116249501185328 0 0.33796042338316851 -0.41787760036937549 0 0.34315104194743368 -0.43483422324315929 0 0.33796042338316851 -0.41787760036937549 0 0.34315104194743368 -0.43483422324315929 0 0.35231855835687692 -0.42655250224024699 0 0.36060935802898147 -0.43906997082244181 0 0.34315104194743368 -0.43483422324315929 0 0.35231855835687692 -0.42655250224024699 0 0.37837193070639508 -0.43074191130029282 0 0.36060935802898147 -0.43906997082244181 0 0.36755341006792419 -0.41442821452601158 0 0.36060935802898147 -0.43906997082244181 0 0.35231855835687692 -0.42655250224024699 0 0.36755341006792419 -0.41442821452601158 0 0.36060935802898147 -0.43906997082244181 0 0.36755341006792419 -0.41442821452601158 0 0.33796042338316851 -0.41787760036937549 0 0.35231855835687692 -0.42655250224024699 0 0.36755341006792419 -0.41442821452601158 0 0.33796042338316851 -0.41787760036937549 0 0.36755341006792419 -0.41442821452601158 0 0.34601675315157321 -0.40486547886918423 0 0.33796042338316851 -0.41787760036937549 0 0.36755341006792419 -0.41442821452601158 0 0.36755341006792419 -0.41442821452601158 0 0.34601675315157321 -0.40486547886918423 0 0.35566250251704978 -0.3975177511027051 0 0.34601675315157321 -0.40486547886918423 0 0.34667365318154342 -0.39629832909528578 0 0.35566250251704978 -0.3975177511027051 0 0.34667365318154342 -0.39629832909528578 0 0.34795812186604658 -0.38666189116531141 0 0.33705723519150399 -0.3961481952439429 0 0.34667365318154342 -0.39629832909528578 0 0.35566250251704978 -0.3975177511027051 0 0.34795812186604658 -0.38666189116531141 0 0.36755341006792419 -0.41442821452601158 0 0.35566250251704978 -0.3975177511027051 0 0.36706103815962848 -0.39187921332532882 0 0.36755341006792419 -0.41442821452601158 0 0.37463337818860382 -0.38930414459710588 0 0.36755341006792419 -0.41442821452601158 0 0.36706103815962848 -0.39187921332532882 0 0.37463337818860382 -0.38930414459710588 0 0.35566250251704978 -0.3975177511027051 0 0.36706103815962848 -0.39187921332532882 0 0.35924801608749379 -0.38543857686598643 0 0.38081427771294768 -0.36737052156009248 0 0.36848073339739068 -0.37517807712711049 0 0.3737028077843495 -0.38742295831448542 0 0.36848073339739068 -0.37517807712711049 0 0.3737028077843495 -0.38742295831448542 0 0.36599997940964812 -0.38379980358563692 0 0.36706103815962848 -0.39187921332532882 0 0.3737028077843495 -0.38742295831448542 0 0.36599997940964812 -0.38379980358563692 0 0.36706103815962848 -0.39187921332532882 0 0.37463337818860382 -0.38930414459710588 0 0.3737028077843495 -0.38742295831448542 0 0.37463337818860382 -0.38930414459710588 0 0.3737028077843495 -0.38742295831448542 0 0.36706103815962848 -0.39187921332532882 0 0.36599997940964812 -0.38379980358563692 0 0.35924801608749379 -0.38543857686598643 0 0.36599997940964812 -0.38379980358563692 0 0.36207090148421361 -0.37959838259465167 0 0.35924801608749379 -0.38543857686598643 0 0.36848073339739068 -0.37517807712711049 0 0.36599997940964812 -0.38379980358563692 0 0.36207090148421361 -0.37959838259465167 0 0.36848073339739068 -0.37517807712711049 0 0.36207090148421361 -0.37959838259465167 0 0.3554566368260581 -0.37480617727887811 0 0.36207090148421361 -0.37959838259465167 0 0.35924801608749379 -0.38543857686598643 0 0.3554566368260581 -0.37480617727887811 0 0.35924801608749379 -0.38543857686598643 0 0.34795812186604658 -0.38666189116531141 0 0.3554566368260581 -0.37480617727887811 0 0.35566250251704978 -0.3975177511027051 0 0.35924801608749379 -0.38543857686598643 0 0.34795812186604658 -0.38666189116531141 0 0.34795812186604658 -0.38666189116531141 0 0.34537995690420659 -0.3737828605913362 0 0.3554566368260581 -0.37480617727887811 0 0.34795812186604658 -0.38666189116531141 0 0.33323562740676532 -0.37769939737979058 0 0.34537995690420659 -0.3737828605913362 0 0.34795812186604658 -0.38666189116531141 0 0.33323562740676532 -0.37769939737979058 0 0.33705723519150399 -0.3961481952439429 0 0.33323562740676532 -0.37769939737979058 0 0.33705723519150399 -0.3961481952439429 0 0.319673984964159 -0.40346676889879052 0 0.33281994217864741 -0.40778505865636938 0 0.33705723519150399 -0.3961481952439429 0 0.319673984964159 -0.40346676889879052 0 0.33281994217864741 -0.40778505865636938 0 0.34601675315157321 -0.40486547886918423 0 0.33705723519150399 -0.3961481952439429 0 0.34601675315157321 -0.40486547886918423 0 0.34667365318154342 -0.39629832909528578 0 0.33705723519150399 -0.3961481952439429 0 0.33323562740676532 -0.37769939737979058 0 0.319673984964159 -0.40346676889879052 0 0.31422368515007948 -0.393427126581603 0 0.319673984964159 -0.40346676889879052 0 0.31422368515007948 -0.393427126581603 0 0.30884060304287331 -0.40229515593698711 0 0.33323562740676532 -0.37769939737979058 0 0.319673984964159 -0.40346676889879052 0 0.31422368515007948 -0.393427126581603 0 0.30591552541026101 -0.37751124227982003 0 0.32002671755222051 -0.36641101040373808 0 0.33323562740676532 -0.37769939737979058 0 0.31422368515007948 -0.393427126581603 0 0.32002671755222051 -0.36641101040373808 0 0.31422368515007948 -0.393427126581603 0 0.32002671755222051 -0.36641101040373808 0 0.30591552541026101 -0.37751124227982003 0 0.29934269892459558 -0.39453707190143028 0 0.28871394442674109 -0.38265385864092483 0 0.31422368515007948 -0.393427126581603 0 0.30591552541026101 -0.37751124227982003 0 0.29934269892459558 -0.39453707190143028 0 0.31422368515007948 -0.393427126581603 0 0.30884060304287331 -0.40229515593698711 0 0.29934269892459558 -0.39453707190143028 0 0.30884060304287331 -0.40229515593698711 0 0.29934269892459558 -0.39453707190143028 0 0.29896657827583012 -0.40866065312134409 0 0.28871394442674109 -0.38265385864092483 0 0.27786210523133942 -0.40981541802129928 0 0.29934269892459558 -0.39453707190143028 0 0.27786210523133942 -0.40981541802129928 0 0.29896657827583012 -0.40866065312134409 0 0.29934269892459558 -0.39453707190143028 0 0.28871394442674109 -0.38265385864092483 0 0.27786210523133942 -0.40981541802129928 0 0.28871394442674109 -0.38265385864092483 0 0.26416245427686541 -0.38049931320234009 0 0.26125098829365018 -0.39969694482297641 0 0.28871394442674109 -0.38265385864092483 0 0.26416245427686541 -0.38049931320234009 0 0.27571190406721402 -0.36345127203525351 0 0.26416245427686541 -0.38049931320234009 0 0.24971336314328341 -0.36520417674804972 0 0.24502858373403441 -0.39146921073642488 0 0.26416245427686541 -0.38049931320234009 0 0.26125098829365018 -0.39969694482297641 0 0.24502858373403441 -0.39146921073642488 0 0.28871394442674109 -0.38265385864092483 0 0.26125098829365018 -0.39969694482297641 0 0.27786210523133942 -0.40981541802129928 0 0.26125098829365018 -0.39969694482297641 0 0.25610826383841628 -0.42120346698794331 0 0.2333640889907381 -0.41241884790723538 0 0.26125098829365018 -0.39969694482297641 0 0.27786210523133942 -0.40981541802129928 0 0.25610826383841628 -0.42120346698794331 0 0.25610826383841628 -0.42120346698794331 0 0.26701026603593758 -0.43697697740167368 0 0.2518592606704963 -0.43815060111373921 0 0.27786210523133942 -0.40981541802129928 0 0.26701026603593758 -0.43697697740167368 0 0.28078102790119369 -0.4274552938509788 0 0.27786210523133942 -0.40981541802129928 0 0.26701026603593758 -0.43697697740167368 0 0.27786210523133942 -0.40981541802129928 0 0.25610826383841628 -0.42120346698794331 0 0.26701026603593758 -0.43697697740167368 0 0.26701026603593758 -0.43697697740167368 0 0.28078102790119369 -0.4274552938509788 0 0.27712236562531017 -0.4375193999175232 0 0.28078102790119369 -0.4274552938509788 0 0.28865243891263809 -0.43215364344327012 0 0.27712236562531017 -0.4375193999175232 0 0.28865243891263809 -0.43215364344327012 0 0.28959476197880307 -0.44168956347039928 0 0.27712236562531017 -0.4375193999175232 0 0.28865243891263809 -0.43215364344327012 0 0.29503220707493127 -0.43614369036708622 0 0.29829711678041942 -0.42866378264525379 0 0.28865243891263809 -0.43215364344327012 0 0.29503220707493127 -0.43614369036708622 0 0.28959476197880307 -0.44168956347039928 0 0.28865243891263809 -0.43215364344327012 0 0.29108715411517122 -0.42145013040837909 0 0.29829711678041942 -0.42866378264525379 0 0.28078102790119369 -0.4274552938509788 0 0.28865243891263809 -0.43215364344327012 0 0.29108715411517122 -0.42145013040837909 0 0.27786210523133942 -0.40981541802129928 0 0.28078102790119369 -0.4274552938509788 0 0.29108715411517122 -0.42145013040837909 0 0.27786210523133942 -0.40981541802129928 0 0.29108715411517122 -0.42145013040837909 0 0.29896657827583012 -0.40866065312134409 0 0.29108715411517122 -0.42145013040837909 0 0.30377653118007591 -0.4205559058691733 0 0.29896657827583012 -0.40866065312134409 0 0.30377653118007591 -0.4205559058691733 0 0.29896657827583012 -0.40866065312134409 0 0.31120060169272079 -0.4133373498197 0 0.30884060304287331 -0.40229515593698711 0 0.29896657827583012 -0.40866065312134409 0 0.31120060169272079 -0.4133373498197 0 0.30377653118007591 -0.4205559058691733 0 0.31120060169272079 -0.4133373498197 0 0.31239832226651099 -0.42629080716544471 0 0.30377653118007591 -0.4205559058691733 0 0.31239832226651099 -0.42629080716544471 0 0.29829711678041942 -0.42866378264525379 0 0.31239832226651099 -0.42629080716544471 0 0.30735360635596409 -0.43632211706289747 0 0.29829711678041942 -0.42866378264525379 0 0.29503220707493127 -0.43614369036708622 0 0.30735360635596409 -0.43632211706289747 0 0.29829711678041942 -0.42866378264525379 0 0.29108715411517122 -0.42145013040837909 0 0.30377653118007591 -0.4205559058691733 0 0.29829711678041942 -0.42866378264525379 0 0.32466779455878442 -0.44686584155561709 0 0.30904716904302271 -0.45792120175055678 0 0.29608989522947149 -0.44383809180054362 0 0.32466779455878442 -0.44686584155561709 0 0.29608989522947149 -0.44383809180054362 0 0.32466779455878442 -0.44686584155561709 0 0.30735360635596409 -0.43632211706289747 0 0.29608989522947149 -0.44383809180054362 0 0.30904716904302271 -0.45792120175055678 0 0.29860320416278402 -0.45529674645956592 0 0.29608989522947149 -0.44383809180054362 0 0.29503220707493127 -0.43614369036708622 0 0.30735360635596409 -0.43632211706289747 0 0.29608989522947149 -0.44383809180054362 0 0.30904716904302271 -0.45792120175055678 0 0.29721119201091789 -0.46522563712477349 0 0.30631021868456298 -0.48072311486568892 0 0.30904716904302271 -0.45792120175055678 0 0.29721119201091789 -0.46522563712477349 0 0.29860320416278402 -0.45529674645956592 0 0.28932919617959602 -0.45338424297023883 0 0.27756010650442758 -0.45518222858252849 0 0.28072062580449653 -0.47155582870540619 0 0.29721119201091789 -0.46522563712477349 0 0.28932919617959602 -0.45338424297023883 0 0.28072062580449653 -0.47155582870540619 0 0.29721119201091789 -0.46522563712477349 0 0.29860320416278402 -0.45529674645956592 0 0.28932919617959602 -0.45338424297023883 0 0.28932919617959602 -0.45338424297023883 0 0.28959476197880307 -0.44168956347039928 0 0.27756010650442758 -0.45518222858252849 0 0.29860320416278402 -0.45529674645956592 0 0.28932919617959602 -0.45338424297023883 0 0.29608989522947149 -0.44383809180054362 0 0.28932919617959602 -0.45338424297023883 0 0.29608989522947149 -0.44383809180054362 0 0.28959476197880307 -0.44168956347039928 0 0.29503220707493127 -0.43614369036708622 0 0.29608989522947149 -0.44383809180054362 0 0.28959476197880307 -0.44168956347039928 0 0.28959476197880307 -0.44168956347039928 0 0.26138620688844749 -0.44792543592233808 0 0.26701026603593758 -0.43697697740167368 0 0.27712236562531017 -0.4375193999175232 0 0.26138620688844749 -0.44792543592233808 0 0.28959476197880307 -0.44168956347039928 0 0.26138620688844749 -0.44792543592233808 0 0.27756010650442758 -0.45518222858252849 0 0.28959476197880307 -0.44168956347039928 0 0.27712236562531017 -0.4375193999175232 0 0.26138620688844749 -0.44792543592233808 0 0.26701026603593758 -0.43697697740167368 0 0.26138620688844749 -0.44792543592233808 0 0.2518592606704963 -0.43815060111373921 0 0.26138620688844749 -0.44792543592233808 0 0.26339579246569877 -0.46312143350125029 0 0.23317765179809191 -0.45416130837427687 0 0.26138620688844749 -0.44792543592233808 0 0.26339579246569877 -0.46312143350125029 0 0.27756010650442758 -0.45518222858252849 0 0.26339579246569877 -0.46312143350125029 0 0.27756010650442758 -0.45518222858252849 0 0.28072062580449653 -0.47155582870540619 0 0.28072062580449653 -0.47155582870540619 0 0.2532296876789632 -0.47497352743918242 0 0.27004646425256568 -0.5 0 0.26339579246569877 -0.46312143350125029 0 0.28072062580449653 -0.47155582870540619 0 0.2532296876789632 -0.47497352743918242 0 0.32546065004022617 -0.5 0 0.27004646425256568 -0.5 0 0.30631021868456298 -0.48072311486568892 0 0.28072062580449653 -0.47155582870540619 0 0.27004646425256568 -0.5 0 0.30631021868456298 -0.48072311486568892 0 0.29721119201091789 -0.46522563712477349 0 0.28072062580449653 -0.47155582870540619 0 0.30631021868456298 -0.48072311486568892 0 0.33743581475864359 -0.28536266187014298 0 0.3388307833371127 -0.27886836189579028 0 0.34706744656536048 -0.28007479224216619 0 0.33743581475864359 -0.28536266187014298 0 0.3388307833371127 -0.27886836189579028 0 0.33743581475864359 -0.28536266187014298 0 0.33163278235650262 -0.31237877804800812 0 0.33743581475864359 -0.28536266187014298 0 0.33163278235650262 -0.31237877804800812 0 0.34308905326158867 -0.30070827197480321 0 0.33743581475864359 -0.28536266187014298 0 0.33163278235650262 -0.31237877804800812 0 0.32364365619397351 -0.29600562892690968 0 0.33163278235650262 -0.31237877804800812 0 0.32364365619397351 -0.29600562892690968 0 0.30954970221622308 -0.30462347215273478 0 0.31296692944630888 -0.29314018565426941 0 0.32364365619397351 -0.29600562892690968 0 0.30954970221622308 -0.30462347215273478 0 0.31296692944630888 -0.29314018565426941 0 0.32364365619397351 -0.29600562892690968 0 0.31569414790308259 -0.28159305760617132 0 0.33743581475864359 -0.28536266187014298 0 0.32364365619397351 -0.29600562892690968 0 0.31569414790308259 -0.28159305760617132 0 0.33743581475864359 -0.28536266187014298 0 0.31569414790308259 -0.28159305760617132 0 0.33743581475864359 -0.28536266187014298 0 0.31569414790308259 -0.28159305760617132 0 0.32852563272885182 -0.27784073863383552 0 0.31569414790308259 -0.28159305760617132 0 0.31275786215232049 -0.27168837282467972 0 0.32066228436037369 -0.27402337931129878 0 0.31275786215232049 -0.27168837282467972 0 0.32001527731196461 -0.26686042829596718 0 0.31054181011664339 -0.26140137874582919 0 0.31275786215232049 -0.27168837282467972 0 0.32001527731196461 -0.26686042829596718 0 0.32066228436037369 -0.27402337931129878 0 0.32001527731196461 -0.26686042829596718 0 0.32631850170564902 -0.27213429919584042 0 0.32066228436037369 -0.27402337931129878 0 0.32001527731196461 -0.26686042829596718 0 0.32631850170564902 -0.27213429919584042 0 0.32861545200372733 -0.26431566092564712 0 0.32631850170564902 -0.27213429919584042 0 0.32066228436037369 -0.27402337931129878 0 0.32852563272885182 -0.27784073863383552 0 0.31569414790308259 -0.28159305760617132 0 0.32066228436037369 -0.27402337931129878 0 0.32852563272885182 -0.27784073863383552 0 0.30517917142926537 -0.24716040808135001 0 0.322544075342931 -0.25649048942400782 0 0.31054181011664339 -0.26140137874582919 0 0.32001527731196461 -0.26686042829596718 0 0.322544075342931 -0.25649048942400782 0 0.31054181011664339 -0.26140137874582919 0 0.32001527731196461 -0.26686042829596718 0 0.322544075342931 -0.25649048942400782 0 0.32861545200372733 -0.26431566092564712 0 0.322544075342931 -0.25649048942400782 0 0.32861545200372733 -0.26431566092564712 0 0.33700232267718733 -0.25494009872172468 0 0.32861545200372733 -0.26431566092564712 0 0.33700232267718733 -0.25494009872172468 0 0.3370936559567923 -0.26597622971595652 0 0.33700232267718733 -0.25494009872172468 0 0.3370936559567923 -0.26597622971595652 0 0.34612034525793539 -0.26165354425485998 0 0.32852563272885182 -0.27784073863383552 0 0.33374486488877292 -0.2728357791174113 0 0.3388307833371127 -0.27886836189579028 0 0.33743581475864359 -0.28536266187014298 0 0.32852563272885182 -0.27784073863383552 0 0.3388307833371127 -0.27886836189579028 0 0.32631850170564902 -0.27213429919584042 0 0.32852563272885182 -0.27784073863383552 0 0.33374486488877292 -0.2728357791174113 0 0.32631850170564902 -0.27213429919584042 0 0.32861545200372733 -0.26431566092564712 0 0.33374486488877292 -0.2728357791174113 0 0.32861545200372733 -0.26431566092564712 0 0.33374486488877292 -0.2728357791174113 0 0.3370936559567923 -0.26597622971595652 0 0.34349817463331772 -0.27223575233246988 0 0.3370936559567923 -0.26597622971595652 0 0.34612034525793539 -0.26165354425485998 0 0.33374486488877292 -0.2728357791174113 0 0.34349817463331772 -0.27223575233246988 0 0.3370936559567923 -0.26597622971595652 0 0.33374486488877292 -0.2728357791174113 0 0.34349817463331772 -0.27223575233246988 0 0.3388307833371127 -0.27886836189579028 0 0.34349817463331772 -0.27223575233246988 0 0.3388307833371127 -0.27886836189579028 0 0.34706744656536048 -0.28007479224216619 0 0.34349817463331772 -0.27223575233246988 0 0.34706744656536048 -0.28007479224216619 0 0.35711558672006172 -0.27354793744083078 0 0.34349817463331772 -0.27223575233246988 0 0.35711558672006172 -0.27354793744083078 0 0.34612034525793539 -0.26165354425485998 0 0.34706744656536048 -0.28007479224216619 0 0.35711558672006172 -0.27354793744083078 0 0.35357832102308678 -0.28816147489813743 0 0.35007299243335749 -0.24785688602667111 0 0.33700232267718733 -0.25494009872172468 0 0.34612034525793539 -0.26165354425485998 0 0.35711558672006172 -0.27354793744083078 0 0.34612034525793539 -0.26165354425485998 0 0.36124693131331159 -0.25807728632712912 0 0.35007299243335749 -0.24785688602667111 0 0.34612034525793539 -0.26165354425485998 0 0.36124693131331159 -0.25807728632712912 0 0.37764450162479901 -0.26965755496232408 0 0.37510228513818711 -0.25237727586059511 0 0.36124693131331159 -0.25807728632712912 0 0.36225179838031341 -0.2439392928582107 0 0.37510228513818711 -0.25237727586059511 0 0.36124693131331159 -0.25807728632712912 0 0.37764450162479901 -0.26965755496232408 0 0.35711558672006172 -0.27354793744083078 0 0.36124693131331159 -0.25807728632712912 0 0.37764450162479901 -0.26965755496232408 0 0.35711558672006172 -0.27354793744083078 0 0.36873774536035581 -0.28861226174546889 0 0.36873774536035581 -0.28861226174546889 0 0.35357832102308678 -0.28816147489813743 0 0.36087634202934032 -0.30211297570133377 0 0.35711558672006172 -0.27354793744083078 0 0.36873774536035581 -0.28861226174546889 0 0.35357832102308678 -0.28816147489813743 0 0.33743581475864359 -0.28536266187014298 0 0.35357832102308678 -0.28816147489813743 0 0.33743581475864359 -0.28536266187014298 0 0.34706744656536048 -0.28007479224216619 0 0.35357832102308678 -0.28816147489813743 0 0.33743581475864359 -0.28536266187014298 0 0.34308905326158867 -0.30070827197480321 0 0.35357832102308678 -0.28816147489813743 0 0.34308905326158867 -0.30070827197480321 0 0.36087634202934032 -0.30211297570133377 0 0.3603589122919777 -0.32616465434179109 0 0.34308905326158867 -0.30070827197480321 0 0.35357832102308678 -0.28816147489813743 0 0.36087634202934032 -0.30211297570133377 0 0.37861767820969228 -0.30691821554646831 0 0.36873774536035581 -0.28861226174546889 0 0.36087634202934032 -0.30211297570133377 0 0.37861767820969228 -0.30691821554646831 0 0.36087634202934032 -0.30211297570133377 0 0.3603589122919777 -0.32616465434179109 0 0.37858644206980091 -0.32769985780377792 0 0.37861767820969228 -0.30691821554646831 0 0.3603589122919777 -0.32616465434179109 0 0.37858644206980091 -0.32769985780377792 0 0.3603589122919777 -0.32616465434179109 0 0.36805061276354478 -0.3427907498460791 0 0.3603589122919777 -0.32616465434179109 0 0.34679726984937148 -0.35193202586079081 0 0.3603589122919777 -0.32616465434179109 0 0.34679726984937148 -0.35193202586079081 0 0.3423644242317993 -0.33453707324987059 0 0.3603589122919777 -0.32616465434179109 0 0.36805061276354478 -0.3427907498460791 0 0.34679726984937148 -0.35193202586079081 0 0.33163278235650262 -0.31237877804800812 0 0.34308905326158867 -0.30070827197480321 0 0.3603589122919777 -0.32616465434179109 0 0.33163278235650262 -0.31237877804800812 0 0.3603589122919777 -0.32616465434179109 0 0.3423644242317993 -0.33453707324987059 0 0.37640125955739012 -0.35149107478397351 0 0.38081427771294768 -0.36737052156009248 0 0.36600013168445039 -0.36059477107615401 0 0.36848073339739068 -0.37517807712711049 0 0.36600013168445039 -0.36059477107615401 0 0.3554566368260581 -0.37480617727887811 0 0.38081427771294768 -0.36737052156009248 0 0.36848073339739068 -0.37517807712711049 0 0.36600013168445039 -0.36059477107615401 0 0.36805061276354478 -0.3427907498460791 0 0.36600013168445039 -0.36059477107615401 0 0.34679726984937148 -0.35193202586079081 0 0.37640125955739012 -0.35149107478397351 0 0.36805061276354478 -0.3427907498460791 0 0.36600013168445039 -0.36059477107615401 0 0.36600013168445039 -0.36059477107615401 0 0.34679726984937148 -0.35193202586079081 0 0.3554566368260581 -0.37480617727887811 0 0.34679726984937148 -0.35193202586079081 0 0.34537995690420659 -0.3737828605913362 0 0.3554566368260581 -0.37480617727887811 0 0.33323562740676532 -0.37769939737979058 0 0.33171275220581908 -0.35441984147836231 0 0.32002671755222051 -0.36641101040373808 0 0.33323562740676532 -0.37769939737979058 0 0.34679726984937148 -0.35193202586079081 0 0.33323562740676532 -0.37769939737979058 0 0.34679726984937148 -0.35193202586079081 0 0.34537995690420659 -0.3737828605913362 0 0.33323562740676532 -0.37769939737979058 0 0.34679726984937148 -0.35193202586079081 0 0.33171275220581908 -0.35441984147836231 0 0.34679726984937148 -0.35193202586079081 0 0.33171275220581908 -0.35441984147836231 0 0.3423644242317993 -0.33453707324987059 0 0.33171275220581908 -0.35441984147836231 0 0.32002671755222051 -0.36641101040373808 0 0.32582974995436148 -0.33939489422587321 0 0.32002671755222051 -0.36641101040373808 0 0.32582974995436148 -0.33939489422587321 0 0.31500009593534162 -0.35119999692538878 0 0.32002671755222051 -0.36641101040373808 0 0.32582974995436148 -0.33939489422587321 0 0.33163278235650262 -0.31237877804800812 0 0.32582974995436148 -0.33939489422587321 0 0.33163278235650262 -0.31237877804800812 0 0.3423644242317993 -0.33453707324987059 0 0.32582974995436148 -0.33939489422587321 0 0.33171275220581908 -0.35441984147836231 0 0.3423644242317993 -0.33453707324987059 0 0.32582974995436148 -0.33939489422587321 0 0.31500009593534162 -0.35119999692538878 0 0.32582974995436148 -0.33939489422587321 0 0.31041762281754448 -0.32833073988017608 0 0.33163278235650262 -0.31237877804800812 0 0.32582974995436148 -0.33939489422587321 0 0.31041762281754448 -0.32833073988017608 0 0.33163278235650262 -0.31237877804800812 0 0.31041762281754448 -0.32833073988017608 0 0.30954970221622308 -0.30462347215273478 0 0.31041762281754448 -0.32833073988017608 0 0.29592063247569211 -0.31558436997640987 0 0.30954970221622308 -0.30462347215273478 0 0.31041762281754448 -0.32833073988017608 0 0.29132656616613523 -0.33188180257029998 0 0.29592063247569211 -0.31558436997640987 0 0.31041762281754448 -0.32833073988017608 0 0.29132656616613523 -0.33188180257029998 0 0.29956578362214281 -0.35549229926055048 0 0.31041762281754448 -0.32833073988017608 0 0.29956578362214281 -0.35549229926055048 0 0.29132656616613523 -0.33188180257029998 0 0.28219501787468609 -0.34702129220438421 0 0.27282035448602859 -0.33554085100614839 0 0.29132656616613523 -0.33188180257029998 0 0.29592063247569211 -0.31558436997640987 0 0.27986439667319313 -0.31630171845149863 0 0.29132656616613523 -0.33188180257029998 0 0.27986439667319313 -0.31630171845149863 0 0.27282035448602859 -0.33554085100614839 0 0.30591552541026101 -0.37751124227982003 0 0.28871394442674109 -0.38265385864092483 0 0.29956578362214281 -0.35549229926055048 0 0.30591552541026101 -0.37751124227982003 0 0.32002671755222051 -0.36641101040373808 0 0.29956578362214281 -0.35549229926055048 0 0.31500009593534162 -0.35119999692538878 0 0.32002671755222051 -0.36641101040373808 0 0.29956578362214281 -0.35549229926055048 0 0.31500009593534162 -0.35119999692538878 0 0.31041762281754448 -0.32833073988017608 0 0.29956578362214281 -0.35549229926055048 0 0.29956578362214281 -0.35549229926055048 0 0.28219501787468609 -0.34702129220438421 0 0.27571190406721402 -0.36345127203525351 0 0.29132656616613523 -0.33188180257029998 0 0.29956578362214281 -0.35549229926055048 0 0.28219501787468609 -0.34702129220438421 0 0.28871394442674109 -0.38265385864092483 0 0.29956578362214281 -0.35549229926055048 0 0.27571190406721402 -0.36345127203525351 0 0.28871394442674109 -0.38265385864092483 0 0.29956578362214281 -0.35549229926055048 0 0.28219501787468609 -0.34702129220438421 0 0.27571190406721402 -0.36345127203525351 0 0.2669677564247489 -0.35003134695070198 0 0.28219501787468609 -0.34702129220438421 0 0.2669677564247489 -0.35003134695070198 0 0.27282035448602859 -0.33554085100614839 0 0.2669677564247489 -0.35003134695070198 0 0.2543981425525324 -0.33893914275967452 0 0.24971336314328341 -0.36520417674804972 0 0.2543981425525324 -0.33893914275967452 0 0.24971336314328341 -0.36520417674804972 0 0.26416245427686541 -0.38049931320234009 0 0.27571190406721402 -0.36345127203525351 0 0.24971336314328341 -0.36520417674804972 0 0.27571190406721402 -0.36345127203525351 0 0.2669677564247489 -0.35003134695070198 0 0.24971336314328341 -0.36520417674804972 0 0.27986439667319313 -0.31630171845149863 0 0.27282035448602859 -0.33554085100614839 0 0.27986439667319313 -0.31630171845149863 0 0.27282035448602859 -0.33554085100614839 0 0.2590829219617814 -0.31267410877129931 0 0.2669677564247489 -0.35003134695070198 0 0.27282035448602859 -0.33554085100614839 0 0.2543981425525324 -0.33893914275967452 0 0.27282035448602859 -0.33554085100614839 0 0.2543981425525324 -0.33893914275967452 0 0.2590829219617814 -0.31267410877129931 0 0.2543981425525324 -0.33893914275967452 0 0.2590829219617814 -0.31267410877129931 0 0.24087195768162309 -0.32614810142562012 0 0.2543981425525324 -0.33893914275967452 0 0.2590829219617814 -0.31267410877129931 0 0.2590829219617814 -0.31267410877129931 0 0.26376770137103039 -0.2864090747829241 0 0.27385105082646688 -0.29718155094811333 0 0.2590829219617814 -0.31267410877129931 0 0.26376770137103039 -0.2864090747829241 0 0.24821325608307901 -0.29522124281265988 0 0.2590829219617814 -0.31267410877129931 0 0.26376770137103039 -0.2864090747829241 0 0.26376770137103039 -0.2864090747829241 0 0.24785603391849151 -0.27709942466880599 0 0.24821325608307901 -0.29522124281265988 0 0.26376770137103039 -0.2864090747829241 0 0.27275834958840189 -0.28372268528309152 0 0.2724225943816766 -0.27409056785933389 0 0.26376770137103039 -0.2864090747829241 0 0.27275834958840189 -0.28372268528309152 0 0.27385105082646688 -0.29718155094811333 0 0.28072449650403741 -0.28691913250301798 0 0.27385105082646688 -0.29718155094811333 0 0.2869084388603575 -0.29706258589684881 0 0.27275834958840189 -0.28372268528309152 0 0.28072449650403741 -0.28691913250301798 0 0.27385105082646688 -0.29718155094811333 0 0.27275834958840189 -0.28372268528309152 0 0.28072449650403741 -0.28691913250301798 0 0.27996448038040939 -0.28063895974691061 0 0.27986439667319313 -0.31630171845149863 0 0.2590829219617814 -0.31267410877129931 0 0.27385105082646688 -0.29718155094811333 0 0.27986439667319313 -0.31630171845149863 0 0.27385105082646688 -0.29718155094811333 0 0.2869084388603575 -0.29706258589684881 0 0.27986439667319313 -0.31630171845149863 0 0.2869084388603575 -0.29706258589684881 0 0.29592063247569211 -0.31558436997640987 0 0.27986439667319313 -0.31630171845149863 0 0.2869084388603575 -0.29706258589684881 0 0.2869084388603575 -0.29706258589684881 0 0.30298021147195658 -0.29033858393126172 0 0.29395248104752192 -0.27782345334219888 0 0.28072449650403741 -0.28691913250301798 0 0.2869084388603575 -0.29706258589684881 0 0.29395248104752192 -0.27782345334219888 0 0.2869084388603575 -0.29706258589684881 0 0.29395248104752192 -0.27782345334219888 0 0.28072449650403741 -0.28691913250301798 0 0.29395248104752192 -0.27782345334219888 0 0.27996448038040939 -0.28063895974691061 0 0.31569414790308259 -0.28159305760617132 0 0.30298021147195658 -0.29033858393126172 0 0.29395248104752192 -0.27782345334219888 0 0.31296692944630888 -0.29314018565426941 0 0.31569414790308259 -0.28159305760617132 0 0.30298021147195658 -0.29033858393126172 0 0.31296692944630888 -0.29314018565426941 0 0.30298021147195658 -0.29033858393126172 0 0.30954970221622308 -0.30462347215273478 0 0.2869084388603575 -0.29706258589684881 0 0.30298021147195658 -0.29033858393126172 0 0.30954970221622308 -0.30462347215273478 0 0.29592063247569211 -0.31558436997640987 0 0.2869084388603575 -0.29706258589684881 0 0.30954970221622308 -0.30462347215273478 0 0.30517917142926537 -0.24716040808135001 0 0.31054181011664339 -0.26140137874582919 0 0.2976408850071105 -0.26774945168120262 0 0.30517917142926537 -0.24716040808135001 0 0.2976408850071105 -0.26774945168120262 0 0.31275786215232049 -0.27168837282467972 0 0.2976408850071105 -0.26774945168120262 0 0.29395248104752192 -0.27782345334219888 0 0.31275786215232049 -0.27168837282467972 0 0.2976408850071105 -0.26774945168120262 0 0.31275786215232049 -0.27168837282467972 0 0.31054181011664339 -0.26140137874582919 0 0.2976408850071105 -0.26774945168120262 0 0.31569414790308259 -0.28159305760617132 0 0.29395248104752192 -0.27782345334219888 0 0.31569414790308259 -0.28159305760617132 0 0.31275786215232049 -0.27168837282467972 0 0.29395248104752192 -0.27782345334219888 0 0.2976408850071105 -0.26774945168120262 0 0.28600938745522969 -0.26471871668720698 0 0.2976408850071105 -0.26774945168120262 0 0.29395248104752192 -0.27782345334219888 0 0.29395248104752192 -0.27782345334219888 0 0.27996448038040939 -0.28063895974691061 0 0.2724225943816766 -0.27409056785933389 0 0.29395248104752192 -0.27782345334219888 0 0.28600938745522969 -0.26471871668720698 0 0.27658132089261911 -0.27335422882897692 0 0.2976408850071105 -0.26774945168120262 0 0.29395248104752192 -0.27782345334219888 0 0.28600938745522969 -0.26471871668720698 0 0.29395248104752192 -0.27782345334219888 0 0.2724225943816766 -0.27409056785933389 0 0.28600938745522969 -0.26471871668720698 0 0.27658132089261911 -0.27335422882897692 0 0.30517917142926537 -0.24716040808135001 0 0.28600938745522969 -0.26471871668720698 0 0.30517917142926537 -0.24716040808135001 0 0.2976408850071105 -0.26774945168120262 0 0.28600938745522969 -0.26471871668720698 0 0.30517917142926537 -0.24716040808135001 0 0.28765229627979871 -0.24304032400626949 0 0.28600938745522969 -0.26471871668720698 0 0.28600938745522969 -0.26471871668720698 0 0.26845248078028039 -0.26014404079454911 0 0.28765229627979871 -0.24304032400626949 0 0.28600938745522969 -0.26471871668720698 0 0.26845248078028039 -0.26014404079454911 0 0.26376770137103039 -0.2864090747829241 0 0.26845248078028039 -0.26014404079454911 0 0.2724225943816766 -0.27409056785933389 0 0.28600938745522969 -0.26471871668720698 0 0.26845248078028039 -0.26014404079454911 0 0.27658132089261911 -0.27335422882897692 0 0.26376770137103039 -0.2864090747829241 0 0.26845248078028039 -0.26014404079454911 0 0.29395248104752192 -0.27782345334219888 0 0.27658132089261911 -0.27335422882897692 0 0.2724225943816766 -0.27409056785933389 0 0.27275834958840189 -0.28372268528309152 0 0.27996448038040939 -0.28063895974691061 0 0.2724225943816766 -0.27409056785933389 0 0.26845248078028039 -0.26014404079454911 0 0.27658132089261911 -0.27335422882897692 0 0.2724225943816766 -0.27409056785933389 0 0.26376770137103039 -0.2864090747829241 0 0.26845248078028039 -0.26014404079454911 0 0.24785603391849151 -0.27709942466880599 0 0.26845248078028039 -0.26014404079454911 0 0.2410490216361528 -0.25300372010805161 0 0.26845248078028039 -0.26014404079454911 0 0.2410490216361528 -0.25300372010805161 0 0.24785603391849151 -0.27709942466880599 0 0.25787859859726192 -0.24372773219337371 0 0.26845248078028039 -0.26014404079454911 0 0.2410490216361528 -0.25300372010805161 0 0.2410490216361528 -0.25300372010805161 0 0.24785603391849151 -0.27709942466880599 0 0.23139485578507429 -0.27647983237136509 0 0.23139485578507429 -0.27647983237136509 0 0.2171028506536257 -0.26700629366950379 0 0.21674952071488601 -0.28686299221921707 0 0.2410490216361528 -0.25300372010805161 0 0.23139485578507429 -0.27647983237136509 0 0.2171028506536257 -0.26700629366950379 0 0.2410490216361528 -0.25300372010805161 0 0.2171028506536257 -0.26700629366950379 0 0.2136455624920251 -0.24586339942155419 0 0.2171028506536257 -0.26700629366950379 0 0.1960217485778272 -0.26205501631648559 0 0.2136455624920251 -0.24586339942155419 0 0.2171028506536257 -0.26700629366950379 0 0.2037572178097509 -0.27803645254629672 0 0.1960217485778272 -0.26205501631648559 0 0.2171028506536257 -0.26700629366950379 0 0.2037572178097509 -0.27803645254629672 0 0.21674952071488601 -0.28686299221921707 0 0.2037572178097509 -0.27803645254629672 0 0.1960217485778272 -0.26205501631648559 0 0.18672217274589489 -0.28463667424064248 0 0.1960217485778272 -0.26205501631648559 0 0.2136455624920251 -0.24586339942155419 0 0.1970165427207646 -0.2431475676051908 0 0.1960217485778272 -0.26205501631648559 0 0.1970165427207646 -0.2431475676051908 0 0.18013525364959199 -0.24590787480667409 0 0.19163287831415901 -0.30538761534618902 0 0.20219697373587131 -0.29192032270869461 0 0.2153952098199983 -0.30425933719731207 0 0.2037572178097509 -0.27803645254629672 0 0.20219697373587131 -0.29192032270869461 0 0.18672217274589489 -0.28463667424064248 0 0.19163287831415901 -0.30538761534618902 0 0.20219697373587131 -0.29192032270869461 0 0.18672217274589489 -0.28463667424064248 0 0.20219697373587131 -0.29192032270869461 0 0.21674952071488601 -0.28686299221921707 0 0.2153952098199983 -0.30425933719731207 0 0.2037572178097509 -0.27803645254629672 0 0.20219697373587131 -0.29192032270869461 0 0.21674952071488601 -0.28686299221921707 0 0.19163287831415901 -0.30538761534618902 0 0.2153952098199983 -0.30425933719731207 0 0.20381788977078771 -0.32236963909420019 0 0.2153952098199983 -0.30425933719731207 0 0.2333373149176502 -0.29099433783704243 0 0.2370223082464416 -0.30892926800322767 0 0.2153952098199983 -0.30425933719731207 0 0.2370223082464416 -0.30892926800322767 0 0.22300958304019269 -0.32335118517261402 0 0.21674952071488601 -0.28686299221921707 0 0.2153952098199983 -0.30425933719731207 0 0.2333373149176502 -0.29099433783704243 0 0.23139485578507429 -0.27647983237136509 0 0.21674952071488601 -0.28686299221921707 0 0.2333373149176502 -0.29099433783704243 0 0.24785603391849151 -0.27709942466880599 0 0.2333373149176502 -0.29099433783704243 0 0.24821325608307901 -0.29522124281265988 0 0.24785603391849151 -0.27709942466880599 0 0.23139485578507429 -0.27647983237136509 0 0.2333373149176502 -0.29099433783704243 0 0.2333373149176502 -0.29099433783704243 0 0.24821325608307901 -0.29522124281265988 0 0.2370223082464416 -0.30892926800322767 0 0.2590829219617814 -0.31267410877129931 0 0.24821325608307901 -0.29522124281265988 0 0.2370223082464416 -0.30892926800322767 0 0.2590829219617814 -0.31267410877129931 0 0.2370223082464416 -0.30892926800322767 0 0.24087195768162309 -0.32614810142562012 0 0.2543981425525324 -0.33893914275967452 0 0.24087195768162309 -0.32614810142562012 0 0.2308468326071676 -0.34684680242128502 0 0.24087195768162309 -0.32614810142562012 0 0.22300958304019269 -0.32335118517261402 0 0.2308468326071676 -0.34684680242128502 0 0.22300958304019269 -0.32335118517261402 0 0.2308468326071676 -0.34684680242128502 0 0.21275128108028149 -0.33749920242868869 0 0.2370223082464416 -0.30892926800322767 0 0.24087195768162309 -0.32614810142562012 0 0.22300958304019269 -0.32335118517261402 0 0.24971336314328341 -0.36520417674804972 0 0.2308468326071676 -0.34684680242128502 0 0.229200177642885 -0.36995291413531828 0 0.2543981425525324 -0.33893914275967452 0 0.24971336314328341 -0.36520417674804972 0 0.2308468326071676 -0.34684680242128502 0 0.229200177642885 -0.36995291413531828 0 0.20725651587090471 -0.36571099534901208 0 0.22031030243082139 -0.38906492162812378 0 0.2308468326071676 -0.34684680242128502 0 0.229200177642885 -0.36995291413531828 0 0.20725651587090471 -0.36571099534901208 0 0.2308468326071676 -0.34684680242128502 0 0.20725651587090471 -0.36571099534901208 0 0.21275128108028149 -0.33749920242868869 0 0.20725651587090471 -0.36571099534901208 0 0.21275128108028149 -0.33749920242868869 0 0.194202729310988 -0.34235706906990038 0 0.20725651587090471 -0.36571099534901208 0 0.194202729310988 -0.34235706906990038 0 0.180238718969634 -0.3612454971324468 0 0.20725651587090471 -0.36571099534901208 0 0.194202729310988 -0.34235706906990038 0 0.20725651587090471 -0.36571099534901208 0 0.19261827162763251 -0.374541644607297 0 0.180238718969634 -0.3612454971324468 0 0.22300958304019269 -0.32335118517261402 0 0.20381788977078771 -0.32236963909420019 0 0.21275128108028149 -0.33749920242868869 0 0.2153952098199983 -0.30425933719731207 0 0.22300958304019269 -0.32335118517261402 0 0.20381788977078771 -0.32236963909420019 0 0.20381788977078771 -0.32236963909420019 0 0.21275128108028149 -0.33749920242868869 0 0.194202729310988 -0.34235706906990038 0 0.20381788977078771 -0.32236963909420019 0 0.194202729310988 -0.34235706906990038 0 0.18384400034678741 -0.32250280289756078 0 0.19163287831415901 -0.30538761534618902 0 0.20381788977078771 -0.32236963909420019 0 0.18384400034678741 -0.32250280289756078 0 0.18384400034678741 -0.32250280289756078 0 0.17702055828029431 -0.33666004199980942 0 0.15719449589681389 -0.32866913917705798 0 0.194202729310988 -0.34235706906990038 0 0.18384400034678741 -0.32250280289756078 0 0.17702055828029431 -0.33666004199980942 0 0.15719449589681389 -0.32866913917705798 0 0.16581699513551909 -0.35306125248096398 0 0.17702055828029431 -0.33666004199980942 0 0.15719449589681389 -0.32866913917705798 0 0.16581699513551909 -0.35306125248096398 0 0.18384400034678741 -0.32250280289756078 0 0.15719449589681389 -0.32866913917705798 0 0.17186855286937899 -0.30453082832045192 0 0.180238718969634 -0.3612454971324468 0 0.1834568796589737 -0.38583095226508418 0 0.17443949437422429 -0.37745336578486988 0 0.180238718969634 -0.3612454971324468 0 0.16581699513551909 -0.35306125248096398 0 0.17443949437422429 -0.37745336578486988 0 0.180238718969634 -0.3612454971324468 0 0.1834568796589737 -0.38583095226508418 0 0.19261827162763251 -0.374541644607297 0 0.180238718969634 -0.3612454971324468 0 0.1834568796589737 -0.38583095226508418 0 0.17702055828029431 -0.33666004199980942 0 0.180238718969634 -0.3612454971324468 0 0.16581699513551909 -0.35306125248096398 0 0.17702055828029431 -0.33666004199980942 0 0.180238718969634 -0.3612454971324468 0 0.194202729310988 -0.34235706906990038 0 0.17702055828029431 -0.33666004199980942 0 0.180238718969634 -0.3612454971324468 0 0.16581699513551909 -0.35306125248096398 0 0.1602354860011011 -0.36875954027416918 0 0.14952990885070691 -0.36034775620209553 0 0.16581699513551909 -0.35306125248096398 0 0.17443949437422429 -0.37745336578486988 0 0.16581699513551909 -0.35306125248096398 0 0.1602354860011011 -0.36875954027416918 0 0.17443949437422429 -0.37745336578486988 0 0.1602354860011011 -0.36875954027416918 0 0.14673951295096799 -0.37363029079717242 0 0.14952990885070691 -0.36034775620209553 0 0.16581699513551909 -0.35306125248096398 0 0.14952990885070691 -0.36034775620209553 0 0.144826286403443 -0.34676284914488159 0 0.14952990885070691 -0.36034775620209553 0 0.144826286403443 -0.34676284914488159 0 0.12334710111447229 -0.36406834251145731 0 0.144826286403443 -0.34676284914488159 0 0.12334710111447229 -0.36406834251145731 0 0.144826286403443 -0.34676284914488159 0 0.12334710111447229 -0.36406834251145731 0 0.11573058637367541 -0.34380091622275832 0 0.13273239812562251 -0.3803535413873157 0 0.1208593498238435 -0.38006314209191833 0 0.12334710111447229 -0.36406834251145731 0 0.14673951295096799 -0.37363029079717242 0 0.14952990885070691 -0.36034775620209553 0 0.12334710111447229 -0.36406834251145731 0 0.14673951295096799 -0.37363029079717242 0 0.13273239812562251 -0.3803535413873157 0 0.12334710111447229 -0.36406834251145731 0 0.15719449589681389 -0.32866913917705798 0 0.13978194378111039 -0.33004063130878142 0 0.14857199665810869 -0.30427702587315197 0 0.15719449589681389 -0.32866913917705798 0 0.14857199665810869 -0.30427702587315197 0 0.15719449589681389 -0.32866913917705798 0 0.144826286403443 -0.34676284914488159 0 0.13978194378111039 -0.33004063130878142 0 0.15719449589681389 -0.32866913917705798 0 0.16581699513551909 -0.35306125248096398 0 0.144826286403443 -0.34676284914488159 0 0.13978194378111039 -0.33004063130878142 0 0.1249111379911398 -0.32186001205002218 0 0.11573058637367541 -0.34380091622275832 0 0.144826286403443 -0.34676284914488159 0 0.13978194378111039 -0.33004063130878142 0 0.11573058637367541 -0.34380091622275832 0 0.13978194378111039 -0.33004063130878142 0 0.14857199665810869 -0.30427702587315197 0 0.1249111379911398 -0.32186001205002218 0 0.14857199665810869 -0.30427702587315197 0 0.13584279120622419 -0.29064916595208462 0 0.1212075847983899 -0.30357596212866123 0 0.14857199665810869 -0.30427702587315197 0 0.1212075847983899 -0.30357596212866123 0 0.1249111379911398 -0.32186001205002218 0 0.14857199665810869 -0.30427702587315197 0 0.14941647374314521 -0.28066083506566319 0 0.1659314811884508 -0.28303851802095531 0 0.14857199665810869 -0.30427702587315197 0 0.13584279120622419 -0.29064916595208462 0 0.14941647374314521 -0.28066083506566319 0 0.13554841089854469 -0.28148943716570812 0 0.13584279120622419 -0.29064916595208462 0 0.14941647374314521 -0.28066083506566319 0 0.13554841089854469 -0.28148943716570812 0 0.13584279120622419 -0.29064916595208462 0 0.1176113560141319 -0.2851589593963586 0 0.1376178273856396 -0.2676878026278281 0 0.13932302263067731 -0.26948878824872591 0 0.1176113560141319 -0.2851589593963586 0 0.13554841089854469 -0.28148943716570812 0 0.13932302263067731 -0.26948878824872591 0 0.1176113560141319 -0.2851589593963586 0 0.13932302263067731 -0.26948878824872591 0 0.1176113560141319 -0.2851589593963586 0 0.1376178273856396 -0.2676878026278281 0 0.1200034520355143 -0.24749468667538321 0 0.1376178273856396 -0.2676878026278281 0 0.1200034520355143 -0.24749468667538321 0 0.1412434604122122 -0.24631040783256791 0 0.1376178273856396 -0.2676878026278281 0 0.16103468924722281 -0.25381861710109321 0 0.1412434604122122 -0.24631040783256791 0 0.1376178273856396 -0.2676878026278281 0 0.13932302263067731 -0.26948878824872591 0 0.16103468924722281 -0.25381861710109321 0 0.13932302263067731 -0.26948878824872591 0 0.16103468924722281 -0.25381861710109321 0 0.13932302263067731 -0.26948878824872591 0 0.14941647374314521 -0.28066083506566319 0 0.16103468924722281 -0.25381861710109321 0 0.13554841089854469 -0.28148943716570812 0 0.13932302263067731 -0.26948878824872591 0 0.14941647374314521 -0.28066083506566319 0 0.14941647374314521 -0.28066083506566319 0 0.16103468924722281 -0.25381861710109321 0 0.1659314811884508 -0.28303851802095531 0 0.16103468924722281 -0.25381861710109321 0 0.1779690690817976 -0.26589134009717008 0 0.1659314811884508 -0.28303851802095531 0 0.16103468924722281 -0.25381861710109321 0 0.1779690690817976 -0.26589134009717008 0 0.18013525364959199 -0.24590787480667409 0 0.1960217485778272 -0.26205501631648559 0 0.1779690690817976 -0.26589134009717008 0 0.18013525364959199 -0.24590787480667409 0 0.1960217485778272 -0.26205501631648559 0 0.1779690690817976 -0.26589134009717008 0 0.18672217274589489 -0.28463667424064248 0 0.1779690690817976 -0.26589134009717008 0 0.18672217274589489 -0.28463667424064248 0 0.1659314811884508 -0.28303851802095531 0 0.18672217274589489 -0.28463667424064248 0 0.17186855286937899 -0.30453082832045192 0 0.1659314811884508 -0.28303851802095531 0 0.19163287831415901 -0.30538761534618902 0 0.18384400034678741 -0.32250280289756078 0 0.17186855286937899 -0.30453082832045192 0 0.19163287831415901 -0.30538761534618902 0 0.18672217274589489 -0.28463667424064248 0 0.17186855286937899 -0.30453082832045192 0 0.14857199665810869 -0.30427702587315197 0 0.17186855286937899 -0.30453082832045192 0 0.1659314811884508 -0.28303851802095531 0 0.15719449589681389 -0.32866913917705798 0 0.14857199665810869 -0.30427702587315197 0 0.17186855286937899 -0.30453082832045192 0 0.27004646425256568 -0.5 0 0.19840125792562099 -0.499999999999995 0 0.2258071254777905 -0.47806137695806639 0 0.19840125792562099 -0.499999999999995 0 0.1955652389629654 -0.47833395417678298 0 0.19840125792562099 -0.499999999999995 0 0.1955652389629654 -0.47833395417678298 0 0.1857239970351309 -0.48926605560099218 0 0.1955652389629654 -0.47833395417678298 0 0.2258071254777905 -0.47806137695806639 0 0.20496909670773639 -0.46039718082621561 0 0.19840125792562099 -0.499999999999995 0 0.1955652389629654 -0.47833395417678298 0 0.2258071254777905 -0.47806137695806639 0 0.2532296876789632 -0.47497352743918242 0 0.27004646425256568 -0.5 0 0.2258071254777905 -0.47806137695806639 0 0.2532296876789632 -0.47497352743918242 0 0.2258071254777905 -0.47806137695806639 0 0.23317765179809191 -0.45416130837427687 0 0.2258071254777905 -0.47806137695806639 0 0.23317765179809191 -0.45416130837427687 0 0.20496909670773639 -0.46039718082621561 0 0.23317765179809191 -0.45416130837427687 0 0.20496909670773639 -0.46039718082621561 0 0.26339579246569877 -0.46312143350125029 0 0.2532296876789632 -0.47497352743918242 0 0.23317765179809191 -0.45416130837427687 0 0.26138620688844749 -0.44792543592233808 0 0.2518592606704963 -0.43815060111373921 0 0.23317765179809191 -0.45416130837427687 0 0.26138620688844749 -0.44792543592233808 0 0.23317765179809191 -0.45416130837427687 0 0.2518592606704963 -0.43815060111373921 0 0.23317765179809191 -0.45416130837427687 0 0.24161391479158839 -0.43048581688246368 0 0.23317765179809191 -0.45416130837427687 0 0.21274467024756119 -0.44537306322652892 0 0.22596778666418391 -0.43195218695593612 0 0.23317765179809191 -0.45416130837427687 0 0.22596778666418391 -0.43195218695593612 0 0.24161391479158839 -0.43048581688246368 0 0.20738663592967541 -0.43977689630152639 0 0.21274467024756119 -0.44537306322652892 0 0.21231789143938981 -0.43260924517595267 0 0.20738663592967541 -0.43977689630152639 0 0.20306963394956029 -0.44528763306514119 0 0.2014143480821905 -0.43583764373848299 0 0.20738663592967541 -0.43977689630152639 0 0.21274467024756119 -0.44537306322652892 0 0.20306963394956029 -0.44528763306514119 0 0.21274467024756119 -0.44537306322652892 0 0.20306963394956029 -0.44528763306514119 0 0.20202636709778779 -0.45196992376671852 0 0.21274467024756119 -0.44537306322652892 0 0.20496909670773639 -0.46039718082621561 0 0.20202636709778779 -0.45196992376671852 0 0.23317765179809191 -0.45416130837427687 0 0.21274467024756119 -0.44537306322652892 0 0.20496909670773639 -0.46039718082621561 0 0.1955652389629654 -0.47833395417678298 0 0.20496909670773639 -0.46039718082621561 0 0.1927292200003092 -0.45666790835357102 0 0.1955652389629654 -0.47833395417678298 0 0.1927292200003092 -0.45666790835357102 0 0.1955652389629654 -0.47833395417678298 0 0.19047701204926121 -0.46094242075341862 0 0.1927292200003092 -0.45666790835357102 0 0.20496909670773639 -0.46039718082621561 0 0.1927292200003092 -0.45666790835357102 0 0.20202636709778779 -0.45196992376671852 0 0.19047701204926121 -0.46094242075341862 0 0.1927292200003092 -0.45666790835357102 0 0.1876592352144193 -0.45673372923780892 0 0.1927292200003092 -0.45666790835357102 0 0.1876592352144193 -0.45673372923780892 0 0.18777566972406101 -0.44981142861604279 0 0.1927292200003092 -0.45666790835357102 0 0.19595067699787469 -0.4453334870477933 0 0.18989320103765239 -0.43500186253035911 0 0.1927292200003092 -0.45666790835357102 0 0.18989320103765239 -0.43500186253035911 0 0.1927292200003092 -0.45666790835357102 0 0.18777566972406101 -0.44981142861604279 0 0.18989320103765239 -0.43500186253035911 0 0.19521760998379711 -0.43854214036159178 0 0.19595067699787469 -0.4453334870477933 0 0.1916906899727929 -0.43609695451772118 0 0.19595067699787469 -0.4453334870477933 0 0.1916906899727929 -0.43609695451772118 0 0.18989320103765239 -0.43500186253035911 0 0.19521760998379711 -0.43854214036159178 0 0.19821003569121751 -0.44088076654097252 0 0.19595067699787469 -0.4453334870477933 0 0.19821003569121751 -0.44088076654097252 0 0.20306963394956029 -0.44528763306514119 0 0.19595067699787469 -0.4453334870477933 0 0.19821003569121751 -0.44088076654097252 0 0.20306963394956029 -0.44528763306514119 0 0.2014143480821905 -0.43583764373848299 0 0.19521760998379711 -0.43854214036159178 0 0.19821003569121751 -0.44088076654097252 0 0.19632921389935129 -0.43529695882979857 0 0.20306963394956029 -0.44528763306514119 0 0.20202636709778779 -0.45196992376671852 0 0.19595067699787469 -0.4453334870477933 0 0.1927292200003092 -0.45666790835357102 0 0.20202636709778779 -0.45196992376671852 0 0.19595067699787469 -0.4453334870477933 0 0.18989320103765239 -0.43500186253035911 0 0.193210065479164 -0.42351508711829272 0 0.18667504034831339 -0.41041640739772162 0 0.18989320103765239 -0.43500186253035911 0 0.18667504034831339 -0.41041640739772162 0 0.1973860855611401 -0.42692030526330021 0 0.193210065479164 -0.42351508711829272 0 0.19846083006015189 -0.42045811652912207 0 0.1973860855611401 -0.42692030526330021 0 0.19846083006015189 -0.42045811652912207 0 0.20326441538295181 -0.42746054266679712 0 0.1973860855611401 -0.42692030526330021 0 0.19826447490927249 -0.43151164360587502 0 0.20326441538295181 -0.42746054266679712 0 0.2014143480821905 -0.43583764373848299 0 0.19826447490927249 -0.43151164360587502 0 0.20326441538295181 -0.42746054266679712 0 0.19821003569121751 -0.44088076654097252 0 0.2014143480821905 -0.43583764373848299 0 0.19632921389935129 -0.43529695882979857 0 0.2014143480821905 -0.43583764373848299 0 0.19632921389935129 -0.43529695882979857 0 0.19826447490927249 -0.43151164360587502 0 0.19632921389935129 -0.43529695882979857 0 0.19826447490927249 -0.43151164360587502 0 0.1929283116207289 -0.43204276753099607 0 0.1973860855611401 -0.42692030526330021 0 0.19826447490927249 -0.43151164360587502 0 0.1929283116207289 -0.43204276753099607 0 0.1929283116207289 -0.43204276753099607 0 0.18989320103765239 -0.43500186253035911 0 0.193210065479164 -0.42351508711829272 0 0.19521760998379711 -0.43854214036159178 0 0.19632921389935129 -0.43529695882979857 0 0.19377820557052011 -0.43520734882518619 0 0.19521760998379711 -0.43854214036159178 0 0.19377820557052011 -0.43520734882518619 0 0.1916906899727929 -0.43609695451772118 0 0.19632921389935129 -0.43529695882979857 0 0.1929283116207289 -0.43204276753099607 0 0.19377820557052011 -0.43520734882518619 0 0.1929283116207289 -0.43204276753099607 0 0.19210490899723079 -0.4345610298626873 0 0.18989320103765239 -0.43500186253035911 0 0.19377820557052011 -0.43520734882518619 0 0.19210490899723079 -0.4345610298626873 0 0.1916906899727929 -0.43609695451772118 0 0.1929283116207289 -0.43204276753099607 0 0.19377820557052011 -0.43520734882518619 0 0.19210490899723079 -0.4345610298626873 0 0.1916906899727929 -0.43609695451772118 0 0.18989320103765239 -0.43500186253035911 0 0.19210490899723079 -0.4345610298626873 0 0.1916906899727929 -0.43609695451772118 0 0.18989320103765239 -0.43500186253035911 0 0.1973860855611401 -0.42692030526330021 0 0.1929283116207289 -0.43204276753099607 0 0.193210065479164 -0.42351508711829272 0 0.193210065479164 -0.42351508711829272 0 0.1939169242469973 -0.41625106345825691 0 0.18667504034831339 -0.41041640739772162 0 0.193210065479164 -0.42351508711829272 0 0.1939169242469973 -0.41625106345825691 0 0.19846083006015189 -0.42045811652912207 0 0.1968341740193896 -0.41150644481021997 0 0.19418069224578771 -0.40518464808912641 0 0.18667504034831339 -0.41041640739772162 0 0.1939169242469973 -0.41625106345825691 0 0.1968341740193896 -0.41150644481021997 0 0.18667504034831339 -0.41041640739772162 0 0.1968341740193896 -0.41150644481021997 0 0.20469814770209749 -0.41520386531910081 0 0.20485234226760879 -0.40188257102108682 0 0.19846083006015189 -0.42045811652912207 0 0.20469814770209749 -0.41520386531910081 0 0.20326441538295181 -0.42746054266679712 0 0.1939169242469973 -0.41625106345825691 0 0.1968341740193896 -0.41150644481021997 0 0.19846083006015189 -0.42045811652912207 0 0.1968341740193896 -0.41150644481021997 0 0.19846083006015189 -0.42045811652912207 0 0.20469814770209749 -0.41520386531910081 0 0.20469814770209749 -0.41520386531910081 0 0.21626227209603979 -0.41615869782113413 0 0.20326441538295181 -0.42746054266679712 0 0.20469814770209749 -0.41520386531910081 0 0.21626227209603979 -0.41615869782113413 0 0.20485234226760879 -0.40188257102108682 0 0.21626227209603979 -0.41615869782113413 0 0.20326441538295181 -0.42746054266679712 0 0.21231789143938981 -0.43260924517595267 0 0.21626227209603979 -0.41615869782113413 0 0.21231789143938981 -0.43260924517595267 0 0.22596778666418391 -0.43195218695593612 0 0.20738663592967541 -0.43977689630152639 0 0.2014143480821905 -0.43583764373848299 0 0.21231789143938981 -0.43260924517595267 0 0.2014143480821905 -0.43583764373848299 0 0.20326441538295181 -0.42746054266679712 0 0.21231789143938981 -0.43260924517595267 0 0.21274467024756119 -0.44537306322652892 0 0.21231789143938981 -0.43260924517595267 0 0.22596778666418391 -0.43195218695593612 0 0.22596778666418391 -0.43195218695593612 0 0.24161391479158839 -0.43048581688246368 0 0.2333640889907381 -0.41241884790723538 0 0.25610826383841628 -0.42120346698794331 0 0.2518592606704963 -0.43815060111373921 0 0.24161391479158839 -0.43048581688246368 0 0.25610826383841628 -0.42120346698794331 0 0.24161391479158839 -0.43048581688246368 0 0.2333640889907381 -0.41241884790723538 0 0.21626227209603979 -0.41615869782113413 0 0.22596778666418391 -0.43195218695593612 0 0.2333640889907381 -0.41241884790723538 0 0.2333640889907381 -0.41241884790723538 0 0.24502858373403441 -0.39146921073642488 0 0.22031030243082139 -0.38906492162812378 0 0.21626227209603979 -0.41615869782113413 0 0.2333640889907381 -0.41241884790723538 0 0.22031030243082139 -0.38906492162812378 0 0.2333640889907381 -0.41241884790723538 0 0.22031030243082139 -0.38906492162812378 0 0.26125098829365018 -0.39969694482297641 0 0.2333640889907381 -0.41241884790723538 0 0.24502858373403441 -0.39146921073642488 0 0.24971336314328341 -0.36520417674804972 0 0.24502858373403441 -0.39146921073642488 0 0.24971336314328341 -0.36520417674804972 0 0.229200177642885 -0.36995291413531828 0 0.24502858373403441 -0.39146921073642488 0 0.229200177642885 -0.36995291413531828 0 0.24502858373403441 -0.39146921073642488 0 0.22031030243082139 -0.38906492162812378 0 0.20725651587090471 -0.36571099534901208 0 0.22031030243082139 -0.38906492162812378 0 0.19952097201101759 -0.38537913368264481 0 0.20725651587090471 -0.36571099534901208 0 0.22031030243082139 -0.38906492162812378 0 0.21626227209603979 -0.41615869782113413 0 0.22031030243082139 -0.38906492162812378 0 0.20485234226760879 -0.40188257102108682 0 0.22031030243082139 -0.38906492162812378 0 0.20485234226760879 -0.40188257102108682 0 0.19952097201101759 -0.38537913368264481 0 0.20485234226760879 -0.40188257102108682 0 0.19159455078491761 -0.39726910731705511 0 0.19952097201101759 -0.38537913368264481 0 0.1968341740193896 -0.41150644481021997 0 0.20485234226760879 -0.40188257102108682 0 0.19418069224578771 -0.40518464808912641 0 0.20485234226760879 -0.40188257102108682 0 0.19418069224578771 -0.40518464808912641 0 0.19159455078491761 -0.39726910731705511 0 0.19418069224578771 -0.40518464808912641 0 0.19159455078491761 -0.39726910731705511 0 0.18667504034831339 -0.41041640739772162 0 0.20725651587090471 -0.36571099534901208 0 0.19261827162763251 -0.374541644607297 0 0.19952097201101759 -0.38537913368264481 0 0.19261827162763251 -0.374541644607297 0 0.19952097201101759 -0.38537913368264481 0 0.1834568796589737 -0.38583095226508418 0 0.19159455078491761 -0.39726910731705511 0 0.19952097201101759 -0.38537913368264481 0 0.1834568796589737 -0.38583095226508418 0 0.17443949437422429 -0.37745336578486988 0 0.18306199361292941 -0.40184547908877583 0 0.1834568796589737 -0.38583095226508418 0 0.17443949437422429 -0.37745336578486988 0 0.18306199361292941 -0.40184547908877583 0 0.17443949437422429 -0.37745336578486988 0 0.18306199361292941 -0.40184547908877583 0 0.1699565165384864 -0.39219147373696051 0 0.19159455078491761 -0.39726910731705511 0 0.1834568796589737 -0.38583095226508418 0 0.18667504034831339 -0.41041640739772162 0 0.1834568796589737 -0.38583095226508418 0 0.18667504034831339 -0.41041640739772162 0 0.1834568796589737 -0.38583095226508418 0 0.18306199361292941 -0.40184547908877583 0 0.18667504034831339 -0.41041640739772162 0 0.18306199361292941 -0.40184547908877583 0 0.1699565165384864 -0.39219147373696051 0 0.17103987791038719 -0.40450309618882169 0 0.18306199361292941 -0.40184547908877583 0 0.17103987791038719 -0.40450309618882169 0 0.1814131781600461 -0.40758752999736902 0 0.1699565165384864 -0.39219147373696051 0 0.17103987791038719 -0.40450309618882169 0 0.15993177942481909 -0.39557864441750712 0 0.17103987791038719 -0.40450309618882169 0 0.15993177942481909 -0.39557864441750712 0 0.14638679418839309 -0.40849626541203388 0 0.1699565165384864 -0.39219147373696051 0 0.15993177942481909 -0.39557864441750712 0 0.1595700277473481 -0.38298567724053401 0 0.17443949437422429 -0.37745336578486988 0 0.1699565165384864 -0.39219147373696051 0 0.1595700277473481 -0.38298567724053401 0 0.1602354860011011 -0.36875954027416918 0 0.17443949437422429 -0.37745336578486988 0 0.1595700277473481 -0.38298567724053401 0 0.1602354860011011 -0.36875954027416918 0 0.14673951295096799 -0.37363029079717242 0 0.1595700277473481 -0.38298567724053401 0 0.14673951295096799 -0.37363029079717242 0 0.1595700277473481 -0.38298567724053401 0 0.14586341328622179 -0.39002728499933198 0 0.14673951295096799 -0.37363029079717242 0 0.14586341328622179 -0.39002728499933198 0 0.13273239812562251 -0.3803535413873157 0 0.15993177942481909 -0.39557864441750712 0 0.1595700277473481 -0.38298567724053401 0 0.14586341328622179 -0.39002728499933198 0 0.14586341328622179 -0.39002728499933198 0 0.13273239812562251 -0.3803535413873157 0 0.12412735500694751 -0.39493505064503392 0 0.13273239812562251 -0.3803535413873157 0 0.12412735500694751 -0.39493505064503392 0 0.1208593498238435 -0.38006314209191833 0 0.14586341328622179 -0.39002728499933198 0 0.14638679418839309 -0.40849626541203388 0 0.12412735500694751 -0.39493505064503392 0 0.14638679418839309 -0.40849626541203388 0 0.1185943653130178 -0.41089393958744808 0 0.12412735500694751 -0.39493505064503392 0 0.14638679418839309 -0.40849626541203388 0 0.12412735500694751 -0.39493505064503392 0 0.15993177942481909 -0.39557864441750712 0 0.14586341328622179 -0.39002728499933198 0 0.14638679418839309 -0.40849626541203388 0 0.14638679418839309 -0.40849626541203388 0 0.12945713117598301 -0.42527718494859718 0 0.1185943653130178 -0.41089393958744808 0 0.12945713117598301 -0.42527718494859718 0 0.1521605439778134 -0.43517333823265708 0 0.13567485458578729 -0.448289196286278 0 0.14638679418839309 -0.40849626541203388 0 0.12945713117598301 -0.42527718494859718 0 0.1521605439778134 -0.43517333823265708 0 0.14638679418839309 -0.40849626541203388 0 0.1521605439778134 -0.43517333823265708 0 0.16864623336983819 -0.42205748017903449 0 0.1521605439778134 -0.43517333823265708 0 0.16864623336983819 -0.42205748017903449 0 0.1521605439778134 -0.43517333823265708 0 0.16864623336983819 -0.42205748017903449 0 0.16573483381671769 -0.43911683261624462 0 0.16864623336983819 -0.42205748017903449 0 0.17670256027174869 -0.43608133600128551 0 0.16573483381671769 -0.43911683261624462 0 0.17103987791038719 -0.40450309618882169 0 0.14638679418839309 -0.40849626541203388 0 0.16962733287145829 -0.41306172809692981 0 0.14638679418839309 -0.40849626541203388 0 0.16864623336983819 -0.42205748017903449 0 0.14638679418839309 -0.40849626541203388 0 0.16864623336983819 -0.42205748017903449 0 0.16962733287145829 -0.41306172809692981 0 0.16864623336983819 -0.42205748017903449 0 0.17965678171287719 -0.41329759239238029 0 0.18989320103765239 -0.43500186253035911 0 0.17965678171287719 -0.41329759239238029 0 0.18667504034831339 -0.41041640739772162 0 0.16864623336983819 -0.42205748017903449 0 0.16962733287145829 -0.41306172809692981 0 0.17965678171287719 -0.41329759239238029 0 0.17103987791038719 -0.40450309618882169 0 0.16962733287145829 -0.41306172809692981 0 0.17965678171287719 -0.41329759239238029 0 0.17103987791038719 -0.40450309618882169 0 0.17965678171287719 -0.41329759239238029 0 0.1814131781600461 -0.40758752999736902 0 0.18306199361292941 -0.40184547908877583 0 0.1814131781600461 -0.40758752999736902 0 0.18667504034831339 -0.41041640739772162 0 0.17965678171287719 -0.41329759239238029 0 0.1814131781600461 -0.40758752999736902 0 0.18667504034831339 -0.41041640739772162 0 0.18989320103765239 -0.43500186253035911 0 0.16864623336983819 -0.42205748017903449 0 0.18989320103765239 -0.43500186253035911 0 0.16864623336983819 -0.42205748017903449 0 0.17965678171287719 -0.41329759239238029 0 0.18989320103765239 -0.43500186253035911 0 0.16864623336983819 -0.42205748017903449 0 0.17670256027174869 -0.43608133600128551 0 0.18989320103765239 -0.43500186253035911 0 0.17670256027174869 -0.43608133600128551 0 0.18208037526260021 -0.440172852945236 0 0.17851738694434799 -0.45081987712854771 0 0.17618275988476059 -0.44374183802639611 0 0.18401323307134959 -0.44581129240036288 0 0.17851738694434799 -0.45081987712854771 0 0.1776998484129505 -0.456552179461992 0 0.17120073938054131 -0.45123220200337888 0 0.17851738694434799 -0.45081987712854771 0 0.17618275988476059 -0.44374183802639611 0 0.17120073938054131 -0.45123220200337888 0 0.17670256027174869 -0.43608133600128551 0 0.17618275988476059 -0.44374183802639611 0 0.16573483381671769 -0.43911683261624462 0 0.17670256027174869 -0.43608133600128551 0 0.17618275988476059 -0.44374183802639611 0 0.18208037526260021 -0.440172852945236 0 0.18989320103765239 -0.43500186253035911 0 0.18208037526260021 -0.440172852945236 0 0.18401323307134959 -0.44581129240036288 0 0.18777566972406101 -0.44981142861604279 0 0.18989320103765239 -0.43500186253035911 0 0.18401323307134959 -0.44581129240036288 0 0.17618275988476059 -0.44374183802639611 0 0.18208037526260021 -0.440172852945236 0 0.18401323307134959 -0.44581129240036288 0 0.18777566972406101 -0.44981142861604279 0 0.18401323307134959 -0.44581129240036288 0 0.18385690407389799 -0.45446609953290928 0 0.17851738694434799 -0.45081987712854771 0 0.18401323307134959 -0.44581129240036288 0 0.18385690407389799 -0.45446609953290928 0 0.19047701204926121 -0.46094242075341862 0 0.1876592352144193 -0.45673372923780892 0 0.1806900259799068 -0.46227126151247672 0 0.1876592352144193 -0.45673372923780892 0 0.18777566972406101 -0.44981142861604279 0 0.18385690407389799 -0.45446609953290928 0 0.19047701204926121 -0.46094242075341862 0 0.1806900259799068 -0.46227126151247672 0 0.17298031468751371 -0.48047121037671059 0 0.1876592352144193 -0.45673372923780892 0 0.18385690407389799 -0.45446609953290928 0 0.1806900259799068 -0.46227126151247672 0 0.18385690407389799 -0.45446609953290928 0 0.1806900259799068 -0.46227126151247672 0 0.1776998484129505 -0.456552179461992 0 0.17851738694434799 -0.45081987712854771 0 0.18385690407389799 -0.45446609953290928 0 0.1776998484129505 -0.456552179461992 0 0.1806900259799068 -0.46227126151247672 0 0.1776998484129505 -0.456552179461992 0 0.17146684144139809 -0.46446192971202138 0 0.1776998484129505 -0.456552179461992 0 0.17146684144139809 -0.46446192971202138 0 0.17120073938054131 -0.45123220200337888 0 0.17146684144139809 -0.46446192971202138 0 0.15759213853868431 -0.45113306297151079 0 0.14900727366634989 -0.46501884712825781 0 0.17146684144139809 -0.46446192971202138 0 0.15759213853868431 -0.45113306297151079 0 0.17120073938054131 -0.45123220200337888 0 0.1521605439778134 -0.43517333823265708 0 0.15759213853868431 -0.45113306297151079 0 0.16573483381671769 -0.43911683261624462 0 0.15759213853868431 -0.45113306297151079 0 0.17120073938054131 -0.45123220200337888 0 0.16573483381671769 -0.43911683261624462 0 0.17618275988476059 -0.44374183802639611 0 0.17120073938054131 -0.45123220200337888 0 0.16573483381671769 -0.43911683261624462 0 0.1521605439778134 -0.43517333823265708 0 0.15759213853868431 -0.45113306297151079 0 0.13567485458578729 -0.448289196286278 0 0.1521605439778134 -0.43517333823265708 0 0.13567485458578729 -0.448289196286278 0 0.13567485458578729 -0.448289196286278 0 0.1191891651937612 -0.46140505433989892 0 0.12203304576274319 -0.43975504748265359 0 0.12945713117598301 -0.42527718494859718 0 0.13567485458578729 -0.448289196286278 0 0.12203304576274319 -0.43975504748265359 0 0.13567485458578729 -0.448289196286278 0 0.1191891651937612 -0.46140505433989892 0 0.13567485458578729 -0.448289196286278 0 0.13480127744719991 -0.46410976413563299 0 0.1191891651937612 -0.46140505433989892 0 0.13567485458578729 -0.448289196286278 0 0.13480127744719991 -0.46410976413563299 0 0.14900727366634989 -0.46501884712825781 0 0.15759213853868431 -0.45113306297151079 0 0.13567485458578729 -0.448289196286278 0 0.14900727366634989 -0.46501884712825781 0 0.14900727366634989 -0.46501884712825781 0 0.15577652408963519 -0.48266000469618581 0 0.13873200589539489 -0.47945912496791759 0 0.13480127744719991 -0.46410976413563299 0 0.14900727366634989 -0.46501884712825781 0 0.13873200589539489 -0.47945912496791759 0 0.13480127744719991 -0.46410976413563299 0 0.13873200589539489 -0.47945912496791759 0 0.11801755443736479 -0.48060781756800708 0 0.13873200589539489 -0.47945912496791759 0 0.13581988522262109 -0.50000000000000244 0 0.11801755443736479 -0.48060781756800708 0 0.13581988522262109 -0.50000000000000244 0 0.11801755443736479 -0.48060781756800708 0 0.15577652408963519 -0.48266000469618581 0 0.13873200589539489 -0.47945912496791759 0 0.13581988522262109 -0.50000000000000244 0 0.15577652408963519 -0.48266000469618581 0 0.13581988522262109 -0.50000000000000244 0 0.15548361732576529 -0.50000000000000178 0 0.15577652408963519 -0.48266000469618581 0 0.15548361732576529 -0.50000000000000178 0 0.17298031468751371 -0.48047121037671059 0 0.15548361732576529 -0.50000000000000178 0 0.17298031468751371 -0.48047121037671059 0 0.1769424376256932 -0.5 0 0.15548361732576529 -0.50000000000000178 0 0.17298031468751371 -0.48047121037671059 0 0.17146684144139809 -0.46446192971202138 0 0.15577652408963519 -0.48266000469618581 0 0.17298031468751371 -0.48047121037671059 0 0.17146684144139809 -0.46446192971202138 0 0.14900727366634989 -0.46501884712825781 0 0.15577652408963519 -0.48266000469618581 0 0.19047701204926121 -0.46094242075341862 0 0.17298031468751371 -0.48047121037671059 0 0.1806900259799068 -0.46227126151247672 0 0.17146684144139809 -0.46446192971202138 0 0.17298031468751371 -0.48047121037671059 0 0.1955652389629654 -0.47833395417678298 0 0.19047701204926121 -0.46094242075341862 0 0.17298031468751371 -0.48047121037671059 0 0.1955652389629654 -0.47833395417678298 0 0.17298031468751371 -0.48047121037671059 0 0.1857239970351309 -0.48926605560099218 0 0.19840125792562099 -0.499999999999995 0 0.1857239970351309 -0.48926605560099218 0 0.1769424376256932 -0.5 0 0.17298031468751371 -0.48047121037671059 0 0.1857239970351309 -0.48926605560099218 0 0.1769424376256932 -0.5 0 0.074737975103940479 -0.48487994098964171 0 0.071046826552429457 -0.50000000000000733 0 0.059434139084113012 -0.47963991399004141 0 0.071046826552429457 -0.50000000000000733 0 0.059434139084113012 -0.47963991399004141 0 0.074737975103940479 -0.48487994098964171 0 0.05802097188470097 -0.46975988197928431 0 0.059434139084113012 -0.47963991399004141 0 0.074737975103940479 -0.48487994098964171 0 0.071955909258469009 -0.46877079283141743 0 0.05802097188470097 -0.46975988197928431 0 0.074737975103940479 -0.48487994098964171 0 0.071955909258469009 -0.46877079283141743 0 0.082737354296077953 -0.47427357099325013 0 0.074737975103940479 -0.48487994098964171 0 0.05802097188470097 -0.46975988197928431 0 0.074737975103940479 -0.48487994098964171 0 0.082737354296077953 -0.47427357099325013 0 0.094811061721812542 -0.48112121468145302 0 0.082737354296077953 -0.47427357099325013 0 0.094811061721812542 -0.48112121468145302 0 0.1002152236521098 -0.46121563513601083 0 0.074737975103940479 -0.48487994098964171 0 0.091454978323179614 -0.49999999999999939 0 0.094811061721812542 -0.48112121468145302 0 0.074737975103940479 -0.48487994098964171 0 0.091454978323179614 -0.49999999999999939 0 0.074737975103940479 -0.48487994098964171 0 0.071046826552429457 -0.50000000000000733 0 0.091454978323179614 -0.49999999999999939 0 0.1136374317729003 -0.5 0 0.11801755443736479 -0.48060781756800708 0 0.094811061721812542 -0.48112121468145302 0 0.091454978323179614 -0.49999999999999939 0 0.1136374317729003 -0.5 0 0.094811061721812542 -0.48112121468145302 0 0.13581988522262109 -0.50000000000000244 0 0.1136374317729003 -0.5 0 0.11801755443736479 -0.48060781756800708 0 0.11801755443736479 -0.48060781756800708 0 0.094811061721812542 -0.48112121468145302 0 0.1002152236521098 -0.46121563513601083 0 0.11801755443736479 -0.48060781756800708 0 0.1002152236521098 -0.46121563513601083 0 0.1002152236521098 -0.46121563513601083 0 0.1191891651937612 -0.46140505433989892 0 0.1082504500781146 -0.44478934181291102 0 0.11801755443736479 -0.48060781756800708 0 0.1002152236521098 -0.46121563513601083 0 0.1191891651937612 -0.46140505433989892 0 0.13480127744719991 -0.46410976413563299 0 0.11801755443736479 -0.48060781756800708 0 0.1191891651937612 -0.46140505433989892 0 0.1191891651937612 -0.46140505433989892 0 0.12203304576274319 -0.43975504748265359 0 0.1082504500781146 -0.44478934181291102 0 0.1002152236521098 -0.46121563513601083 0 0.1082504500781146 -0.44478934181291102 0 0.082412892866854714 -0.44182345270401441 0 0.1002152236521098 -0.46121563513601083 0 0.082412892866854714 -0.44182345270401441 0 0.082737354296077953 -0.47427357099325013 0 0.1002152236521098 -0.46121563513601083 0 0.07989865607697158 -0.46093656822545309 0 0.1002152236521098 -0.46121563513601083 0 0.082412892866854714 -0.44182345270401441 0 0.07989865607697158 -0.46093656822545309 0 0.071955909258469009 -0.46877079283141743 0 0.082737354296077953 -0.47427357099325013 0 0.07989865607697158 -0.46093656822545309 0 0.071955909258469009 -0.46877079283141743 0 0.07989865607697158 -0.46093656822545309 0 0.064942869781788204 -0.45298741250561531 0 0.071955909258469009 -0.46877079283141743 0 0.064942869781788204 -0.45298741250561531 0 0.05802097188470097 -0.46975988197928431 0 0.082412892866854714 -0.44182345270401441 0 0.07989865607697158 -0.46093656822545309 0 0.064942869781788204 -0.45298741250561531 0 0.082412892866854714 -0.44182345270401441 0 0.064942869781788204 -0.45298741250561531 0 0.064610562081599654 -0.42243127027201799 0 0.082412892866854714 -0.44182345270401441 0 0.064610562081599654 -0.42243127027201799 0 0.085410796704641828 -0.41553833344022301 0 0.082412892866854714 -0.44182345270401441 0 0.064610562081599654 -0.42243127027201799 0 0.064610562081599654 -0.42243127027201799 0 0.085410796704641828 -0.41553833344022301 0 0.071260751408415451 -0.40583032332525898 0 0.082412892866854714 -0.44182345270401441 0 0.085410796704641828 -0.41553833344022301 0 0.10565257718969159 -0.42402980380391259 0 0.1082504500781146 -0.44478934181291102 0 0.10565257718969159 -0.42402980380391259 0 0.1082504500781146 -0.44478934181291102 0 0.082412892866854714 -0.44182345270401441 0 0.10565257718969159 -0.42402980380391259 0 0.12203304576274319 -0.43975504748265359 0 0.1082504500781146 -0.44478934181291102 0 0.10565257718969159 -0.42402980380391259 0 0.12945713117598301 -0.42527718494859718 0 0.12203304576274319 -0.43975504748265359 0 0.10565257718969159 -0.42402980380391259 0 0.12945713117598301 -0.42527718494859718 0 0.10565257718969159 -0.42402980380391259 0 0.1185943653130178 -0.41089393958744808 0 0.10565257718969159 -0.42402980380391259 0 0.10305470430126849 -0.40327026579491432 0 0.10565257718969159 -0.42402980380391259 0 0.1185943653130178 -0.41089393958744808 0 0.10305470430126849 -0.40327026579491432 0 0.085410796704641828 -0.41553833344022301 0 0.10565257718969159 -0.42402980380391259 0 0.10305470430126849 -0.40327026579491432 0 0.10305470430126849 -0.40327026579491432 0 0.1092296532162271 -0.39195520602732847 0 0.1018679158255022 -0.38137383587803358 0 0.10305470430126849 -0.40327026579491432 0 0.1018679158255022 -0.38137383587803358 0 0.084827885114816814 -0.39510276155480978 0 0.10305470430126849 -0.40327026579491432 0 0.1018679158255022 -0.38137383587803358 0 0.1185943653130178 -0.41089393958744808 0 0.10305470430126849 -0.40327026579491432 0 0.1092296532162271 -0.39195520602732847 0 0.1185943653130178 -0.41089393958744808 0 0.1092296532162271 -0.39195520602732847 0 0.12412735500694751 -0.39493505064503392 0 0.12412735500694751 -0.39493505064503392 0 0.1208593498238435 -0.38006314209191833 0 0.1018679158255022 -0.38137383587803358 0 0.1092296532162271 -0.39195520602732847 0 0.12412735500694751 -0.39493505064503392 0 0.1018679158255022 -0.38137383587803358 0 0.12412735500694751 -0.39493505064503392 0 0.1018679158255022 -0.38137383587803358 0 0.1208593498238435 -0.38006314209191833 0 0.1018679158255022 -0.38137383587803358 0 0.12334710111447229 -0.36406834251145731 0 0.1018679158255022 -0.38137383587803358 0 0.1001863568717406 -0.38034937241650962 0 0.10879209213087419 -0.36797725762153549 0 0.1018679158255022 -0.38137383587803358 0 0.1001863568717406 -0.38034937241650962 0 0.092680417082859706 -0.38189565836938699 0 0.1018679158255022 -0.38137383587803358 0 0.1001863568717406 -0.38034937241650962 0 0.1001863568717406 -0.38034937241650962 0 0.092680417082859706 -0.38189565836938699 0 0.078941289569781151 -0.36740614783332631 0 0.1018679158255022 -0.38137383587803358 0 0.084827885114816814 -0.39510276155480978 0 0.1018679158255022 -0.38137383587803358 0 0.092680417082859706 -0.38189565836938699 0 0.084827885114816814 -0.39510276155480978 0 0.083667078469080447 -0.3817485906143725 0 0.076461538166658155 -0.38231907318138902 0 0.078941289569781151 -0.36740614783332631 0 0.092680417082859706 -0.38189565836938699 0 0.083667078469080447 -0.3817485906143725 0 0.078941289569781151 -0.36740614783332631 0 0.084827885114816814 -0.39510276155480978 0 0.073546264855348126 -0.39398280964304111 0 0.076461538166658155 -0.38231907318138902 0 0.083667078469080447 -0.3817485906143725 0 0.084827885114816814 -0.39510276155480978 0 0.076461538166658155 -0.38231907318138902 0 0.092680417082859706 -0.38189565836938699 0 0.083667078469080447 -0.3817485906143725 0 0.084827885114816814 -0.39510276155480978 0 0.085410796704641828 -0.41553833344022301 0 0.10305470430126849 -0.40327026579491432 0 0.084827885114816814 -0.39510276155480978 0 0.085410796704641828 -0.41553833344022301 0 0.084827885114816814 -0.39510276155480978 0 0.071260751408415451 -0.40583032332525898 0 0.084827885114816814 -0.39510276155480978 0 0.073546264855348126 -0.39398280964304111 0 0.071260751408415451 -0.40583032332525898 0 0.073546264855348126 -0.39398280964304111 0 0.071260751408415451 -0.40583032332525898 0 0.061634884731502082 -0.39267908051070671 0 0.076461538166658155 -0.38231907318138902 0 0.061634884731502082 -0.39267908051070671 0 0.076461538166658155 -0.38231907318138902 0 0.061634884731502082 -0.39267908051070671 0 0.061904282875925747 -0.37237526148823941 0 0.073546264855348126 -0.39398280964304111 0 0.076461538166658155 -0.38231907318138902 0 0.061634884731502082 -0.39267908051070671 0 0.051370350477500881 -0.3764161884637201 0 0.045801185216693012 -0.38580832539780119 0 0.043663507306638913 -0.36868104746756258 0 0.051370350477500881 -0.3764161884637201 0 0.061634884731502082 -0.39267908051070671 0 0.045801185216693012 -0.38580832539780119 0 0.051370350477500881 -0.3764161884637201 0 0.061634884731502082 -0.39267908051070671 0 0.061904282875925747 -0.37237526148823941 0 0.071260751408415451 -0.40583032332525898 0 0.061634884731502082 -0.39267908051070671 0 0.04680823129634433 -0.40303908784002201 0 0.061634884731502082 -0.39267908051070671 0 0.04680823129634433 -0.40303908784002201 0 0.045801185216693012 -0.38580832539780119 0 0.061634884731502082 -0.39267908051070671 0 0.04680823129634433 -0.40303908784002201 0 0.04680823129634433 -0.40303908784002201 0 0.02837172461734 -0.38295609391969199 0 0.04680823129634433 -0.40303908784002201 0 0.02837172461734 -0.38295609391969199 0 0.028215565298714249 -0.40094151263492078 0 0.045801185216693012 -0.38580832539780119 0 0.02837172461734 -0.38295609391969199 0 0.043663507306638913 -0.36868104746756258 0 0.04680823129634433 -0.40303908784002201 0 0.045801185216693012 -0.38580832539780119 0 0.02837172461734 -0.38295609391969199 0 0.02837172461734 -0.38295609391969199 0 0.0122991559467155 -0.37891225603134221 0 0.011208636448502229 -0.39508796301279092 0 -0.002178803782163227 -0.37161627006544062 0 0.0122991559467155 -0.37891225603134221 0 0.011208636448502229 -0.39508796301279092 0 -0.002178803782163227 -0.37161627006544062 0 0.011208636448502229 -0.39508796301279092 0 -0.002178803782163227 -0.37161627006544062 0 -0.0066930742226519926 -0.39143820132839208 0 0.011208636448502229 -0.39508796301279092 0 -0.001728596279610697 -0.40597762003102339 0 0.011208636448502229 -0.39508796301279092 0 0.0082246319185010179 -0.41465428951275207 0 -0.0066930742226519926 -0.39143820132839208 0 -0.001728596279610697 -0.40597762003102339 0 0.011208636448502229 -0.39508796301279092 0 0.011208636448502229 -0.39508796301279092 0 0.028215565298714249 -0.40094151263492078 0 0.024596076679173799 -0.41855965596013778 0 0.02837172461734 -0.38295609391969199 0 0.011208636448502229 -0.39508796301279092 0 0.028215565298714249 -0.40094151263492078 0 0.011208636448502229 -0.39508796301279092 0 0.024596076679173799 -0.41855965596013778 0 0.011208636448502229 -0.39508796301279092 0 0.024596076679173799 -0.41855965596013778 0 0.0082246319185010179 -0.41465428951275207 0 0.024596076679173799 -0.41855965596013778 0 0.0082246319185010179 -0.41465428951275207 0 0.01039378864355619 -0.42848339288335913 0 -0.009537301248459449 -0.42510302968362512 0 0.0082246319185010179 -0.41465428951275207 0 0.01039378864355619 -0.42848339288335913 0 0.024596076679173799 -0.41855965596013778 0 0.036208764147486278 -0.43891974197010591 0 0.024596076679173799 -0.41855965596013778 0 0.036208764147486278 -0.43891974197010591 0 0.020713539006084219 -0.44010250100644183 0 0.024596076679173799 -0.41855965596013778 0 0.01039378864355619 -0.42848339288335913 0 0.020713539006084219 -0.44010250100644183 0 0.024596076679173799 -0.41855965596013778 0 0.01039378864355619 -0.42848339288335913 0 0.024596076679173799 -0.41855965596013778 0 0.043950702345966319 -0.42295947833088071 0 0.036208764147486278 -0.43891974197010591 0 0.043950702345966319 -0.42295947833088071 0 0.051347790295756007 -0.43901682978775403 0 0.036208764147486278 -0.43891974197010591 0 0.04680823129634433 -0.40303908784002201 0 0.024596076679173799 -0.41855965596013778 0 0.04680823129634433 -0.40303908784002201 0 0.028215565298714249 -0.40094151263492078 0 0.024596076679173799 -0.41855965596013778 0 0.04680823129634433 -0.40303908784002201 0 0.024596076679173799 -0.41855965596013778 0 0.043950702345966319 -0.42295947833088071 0 0.064610562081599654 -0.42243127027201799 0 0.071260751408415451 -0.40583032332525898 0 0.04680823129634433 -0.40303908784002201 0 0.064610562081599654 -0.42243127027201799 0 0.04680823129634433 -0.40303908784002201 0 0.064610562081599654 -0.42243127027201799 0 0.04680823129634433 -0.40303908784002201 0 0.043950702345966319 -0.42295947833088071 0 0.064610562081599654 -0.42243127027201799 0 0.043950702345966319 -0.42295947833088071 0 0.051347790295756007 -0.43901682978775403 0 0.064942869781788204 -0.45298741250561531 0 0.064610562081599654 -0.42243127027201799 0 0.051347790295756007 -0.43901682978775403 0 0.064942869781788204 -0.45298741250561531 0 0.051347790295756007 -0.43901682978775403 0 0.047821451615799627 -0.45927982798007361 0 0.064942869781788204 -0.45298741250561531 0 0.047821451615799627 -0.45927982798007361 0 0.05802097188470097 -0.46975988197928431 0 0.047821451615799627 -0.45927982798007361 0 0.023714967739582489 -0.4565662814222432 0 0.032020960621095843 -0.47777188036233098 0 0.047821451615799627 -0.45927982798007361 0 0.036208764147486278 -0.43891974197010591 0 0.051347790295756007 -0.43901682978775403 0 0.047821451615799627 -0.45927982798007361 0 0.036208764147486278 -0.43891974197010591 0 0.047821451615799627 -0.45927982798007361 0 0.036208764147486278 -0.43891974197010591 0 0.023714967739582489 -0.4565662814222432 0 0.036208764147486278 -0.43891974197010591 0 0.020713539006084219 -0.44010250100644183 0 0.023714967739582489 -0.4565662814222432 0 -0.0013374034004768371 -0.44947558896604423 0 0.01039378864355619 -0.42848339288335913 0 0.020713539006084219 -0.44010250100644183 0 -0.0013374034004768371 -0.44947558896604423 0 0.020713539006084219 -0.44010250100644183 0 0.023714967739582489 -0.4565662814222432 0 -0.0013374034004768371 -0.44947558896604423 0 0.0068624944475057766 -0.47384814824846327 0 -0.0013374034004768371 -0.44947558896604423 0 0.023714967739582489 -0.4565662814222432 0 0.0068624944475057766 -0.47384814824846327 0 0.023714967739582489 -0.4565662814222432 0 0.0068624944475057766 -0.47384814824846327 0 0.032020960621095843 -0.47777188036233098 0 0.0068624944475057766 -0.47384814824846327 0 0.0150623922954884 -0.49822070753088238 0 0.032020960621095843 -0.47777188036233098 0 -0.015217900669161011 -0.5 0 0.0024053695883212941 -0.48891336768777249 0 0.013537008404702511 -0.5 0 0.0068624944475057766 -0.47384814824846327 0 0.0024053695883212941 -0.48891336768777249 0 0.0150623922954884 -0.49822070753088238 0 0.0068624944475057766 -0.47384814824846327 0 0.0150623922954884 -0.49822070753088238 0 0.0024053695883212941 -0.48891336768777249 0 0.0150623922954884 -0.49822070753088238 0 0.013537008404702511 -0.5 0 0.0150623922954884 -0.49822070753088238 0 0.013537008404702511 -0.5 0 0.042291917478565873 -0.5 0 0.0150623922954884 -0.49822070753088238 0 0.042291917478565873 -0.5 0 0.032020960621095843 -0.47777188036233098 0 0.042291917478565873 -0.5 0 0.032020960621095843 -0.47777188036233098 0 0.059434139084113012 -0.47963991399004141 0 0.047821451615799627 -0.45927982798007361 0 0.032020960621095843 -0.47777188036233098 0 0.059434139084113012 -0.47963991399004141 0 0.047821451615799627 -0.45927982798007361 0 0.05802097188470097 -0.46975988197928431 0 0.059434139084113012 -0.47963991399004141 0 0.047821451615799627 -0.45927982798007361 0 0.059434139084113012 -0.47963991399004141 0 0.071046826552429457 -0.50000000000000733 0 0.042291917478565873 -0.5 0 0.059434139084113012 -0.47963991399004141 0 0.078456545354339768 -0.28525100698693651 0 0.075192778843485145 -0.3004755496101415 0 0.095899689397586599 -0.3008291305439913 0 0.078456545354339768 -0.28525100698693651 0 0.095711127176573443 -0.2751242682777974 0 0.095899689397586599 -0.3008291305439913 0 0.075192778843485145 -0.3004755496101415 0 0.095899689397586599 -0.3008291305439913 0 0.074188022781041252 -0.31649930169162399 0 0.095899689397586599 -0.3008291305439913 0 0.074188022781041252 -0.31649930169162399 0 0.075192778843485145 -0.3004755496101415 0 0.074188022781041252 -0.31649930169162399 0 0.058270312985904418 -0.30816514798469019 0 0.075192778843485145 -0.3004755496101415 0 0.068995976747761104 -0.2945131319279734 0 0.058270312985904418 -0.30816514798469019 0 0.068995976747761104 -0.2945131319279734 0 0.064064269807315097 -0.28416082313012542 0 0.058270312985904418 -0.30816514798469019 0 0.078456545354339768 -0.28525100698693651 0 0.075192778843485145 -0.3004755496101415 0 0.068995976747761104 -0.2945131319279734 0 0.078456545354339768 -0.28525100698693651 0 0.068995976747761104 -0.2945131319279734 0 0.064064269807315097 -0.28416082313012542 0 0.064064269807315097 -0.28416082313012542 0 0.069858226628725775 -0.26015649827556059 0 0.078456545354339768 -0.28525100698693651 0 0.064064269807315097 -0.28416082313012542 0 0.069858226628725775 -0.26015649827556059 0 0.069858226628725775 -0.26015649827556059 0 0.095711127176573443 -0.2751242682777974 0 0.096521476943682558 -0.25181800011133371 0 0.078456545354339768 -0.28525100698693651 0 0.069858226628725775 -0.26015649827556059 0 0.095711127176573443 -0.2751242682777974 0 0.095711127176573443 -0.2751242682777974 0 0.114720785939063 -0.26575264298982931 0 0.1176113560141319 -0.2851589593963586 0 0.095711127176573443 -0.2751242682777974 0 0.096521476943682558 -0.25181800011133371 0 0.114720785939063 -0.26575264298982931 0 0.1376178273856396 -0.2676878026278281 0 0.114720785939063 -0.26575264298982931 0 0.1200034520355143 -0.24749468667538321 0 0.096521476943682558 -0.25181800011133371 0 0.114720785939063 -0.26575264298982931 0 0.1200034520355143 -0.24749468667538321 0 0.1376178273856396 -0.2676878026278281 0 0.114720785939063 -0.26575264298982931 0 0.1176113560141319 -0.2851589593963586 0 0.13584279120622419 -0.29064916595208462 0 0.1176113560141319 -0.2851589593963586 0 0.1212075847983899 -0.30357596212866123 0 0.1176113560141319 -0.2851589593963586 0 0.095899689397586599 -0.3008291305439913 0 0.1212075847983899 -0.30357596212866123 0 0.1176113560141319 -0.2851589593963586 0 0.095899689397586599 -0.3008291305439913 0 0.095711127176573443 -0.2751242682777974 0 0.1176113560141319 -0.2851589593963586 0 0.095899689397586599 -0.3008291305439913 0 0.095899689397586599 -0.3008291305439913 0 0.1212075847983899 -0.30357596212866123 0 0.1047724191350739 -0.31963875894108951 0 0.1212075847983899 -0.30357596212866123 0 0.1249111379911398 -0.32186001205002218 0 0.1047724191350739 -0.31963875894108951 0 0.1249111379911398 -0.32186001205002218 0 0.1047724191350739 -0.31963875894108951 0 0.11573058637367541 -0.34380091622275832 0 0.094619564876377599 -0.33586527524184762 0 0.1047724191350739 -0.31963875894108951 0 0.11573058637367541 -0.34380091622275832 0 0.094619564876377599 -0.33586527524184762 0 0.1047724191350739 -0.31963875894108951 0 0.086339338786571823 -0.32698567366184278 0 0.095899689397586599 -0.3008291305439913 0 0.1047724191350739 -0.31963875894108951 0 0.086339338786571823 -0.32698567366184278 0 0.1018679158255022 -0.38137383587803358 0 0.12334710111447229 -0.36406834251145731 0 0.1018679158255022 -0.38137383587803358 0 0.12334710111447229 -0.36406834251145731 0 0.10879209213087419 -0.36797725762153549 0 0.12334710111447229 -0.36406834251145731 0 0.11573058637367541 -0.34380091622275832 0 0.10879209213087419 -0.36797725762153549 0 0.11573058637367541 -0.34380091622275832 0 0.097402960874061584 -0.35810732382917831 0 0.10879209213087419 -0.36797725762153549 0 0.094619564876377599 -0.33586527524184762 0 0.11573058637367541 -0.34380091622275832 0 0.097402960874061584 -0.35810732382917831 0 0.094619564876377599 -0.33586527524184762 0 0.097402960874061584 -0.35810732382917831 0 0.1001863568717406 -0.38034937241650962 0 0.097402960874061584 -0.35810732382917831 0 0.1001863568717406 -0.38034937241650962 0 0.097402960874061584 -0.35810732382917831 0 0.10879209213087419 -0.36797725762153549 0 0.1001863568717406 -0.38034937241650962 0 0.097402960874061584 -0.35810732382917831 0 0.078941289569781151 -0.36740614783332631 0 0.1001863568717406 -0.38034937241650962 0 0.078941289569781151 -0.36740614783332631 0 0.094619564876377599 -0.33586527524184762 0 0.097402960874061584 -0.35810732382917831 0 0.084740357312199394 -0.34701535865000288 0 0.078941289569781151 -0.36740614783332631 0 0.084740357312199394 -0.34701535865000288 0 0.072564810466095128 -0.35396504242622201 0 0.097402960874061584 -0.35810732382917831 0 0.078941289569781151 -0.36740614783332631 0 0.084740357312199394 -0.34701535865000288 0 0.078941289569781151 -0.36740614783332631 0 0.072564810466095128 -0.35396504242622201 0 0.057696222267823373 -0.35446292325014028 0 0.084740357312199394 -0.34701535865000288 0 0.072564810466095128 -0.35396504242622201 0 0.073102422775426085 -0.33909783780230318 0 0.064643683218506637 -0.34920539315333932 0 0.072564810466095128 -0.35396504242622201 0 0.073102422775426085 -0.33909783780230318 0 0.064643683218506637 -0.34920539315333932 0 0.072564810466095128 -0.35396504242622201 0 0.057696222267823373 -0.35446292325014028 0 0.078941289569781151 -0.36740614783332631 0 0.057696222267823373 -0.35446292325014028 0 0.076461538166658155 -0.38231907318138902 0 0.078941289569781151 -0.36740614783332631 0 0.061904282875925747 -0.37237526148823941 0 0.078941289569781151 -0.36740614783332631 0 0.061904282875925747 -0.37237526148823941 0 0.057696222267823373 -0.35446292325014028 0 0.095899689397586599 -0.3008291305439913 0 0.086339338786571823 -0.32698567366184278 0 0.074188022781041252 -0.31649930169162399 0 0.094619564876377599 -0.33586527524184762 0 0.084740357312199394 -0.34701535865000288 0 0.086339338786571823 -0.32698567366184278 0 0.084740357312199394 -0.34701535865000288 0 0.086339338786571823 -0.32698567366184278 0 0.073102422775426085 -0.33909783780230318 0 0.073102422775426085 -0.33909783780230318 0 0.074188022781041252 -0.31649930169162399 0 0.052476356164494947 -0.33216947283925541 0 0.064643683218506637 -0.34920539315333932 0 0.073102422775426085 -0.33909783780230318 0 0.060945063747813971 -0.34285112352430303 0 0.074188022781041252 -0.31649930169162399 0 0.052476356164494947 -0.33216947283925541 0 0.086339338786571823 -0.32698567366184278 0 0.073102422775426085 -0.33909783780230318 0 0.074188022781041252 -0.31649930169162399 0 0.052476356164494947 -0.33216947283925541 0 0.058270312985904418 -0.30816514798469019 0 0.052476356164494947 -0.33216947283925541 0 0.044648526871603783 -0.31770081170742831 0 0.058270312985904418 -0.30816514798469019 0 0.074188022781041252 -0.31649930169162399 0 0.052476356164494947 -0.33216947283925541 0 0.058270312985904418 -0.30816514798469019 0 0.052476356164494947 -0.33216947283925541 0 0.047583047975914103 -0.35244241635483559 0 0.073102422775426085 -0.33909783780230318 0 0.060945063747813971 -0.34285112352430303 0 0.052476356164494947 -0.33216947283925541 0 0.060945063747813971 -0.34285112352430303 0 0.052476356164494947 -0.33216947283925541 0 0.054181307711507642 -0.34983992205818981 0 0.052476356164494947 -0.33216947283925541 0 0.04071506683574927 -0.34065806194451792 0 0.047583047975914103 -0.35244241635483559 0 0.052476356164494947 -0.33216947283925541 0 0.04071506683574927 -0.34065806194451792 0 0.044648526871603783 -0.31770081170742831 0 0.04071506683574927 -0.34065806194451792 0 0.03015636661650286 -0.3225410253719756 0 0.04071506683574927 -0.34065806194451792 0 0.03015636661650286 -0.3225410253719756 0 0.02636863849756152 -0.33688388254537838 0 0.052476356164494947 -0.33216947283925541 0 0.04071506683574927 -0.34065806194451792 0 0.04071506683574927 -0.34065806194451792 0 0.044648526871603783 -0.31770081170742831 0 0.03015636661650286 -0.3225410253719756 0 0.044648526871603783 -0.31770081170742831 0 0.03015636661650286 -0.3225410253719756 0 0.034491627806478041 -0.30853974567073322 0 0.061904282875925747 -0.37237526148823941 0 0.053259535722039633 -0.3641180164926533 0 0.057696222267823373 -0.35446292325014028 0 0.051370350477500881 -0.3764161884637201 0 0.053259535722039633 -0.3641180164926533 0 0.043663507306638913 -0.36868104746756258 0 0.051370350477500881 -0.3764161884637201 0 0.061904282875925747 -0.37237526148823941 0 0.053259535722039633 -0.3641180164926533 0 0.053259535722039633 -0.3641180164926533 0 0.048773826387857627 -0.3544856011778737 0 0.043663507306638913 -0.36868104746756258 0 0.052476356164494947 -0.33216947283925541 0 0.047583047975914103 -0.35244241635483559 0 0.054181307711507642 -0.34983992205818981 0 0.053259535722039633 -0.3641180164926533 0 0.053244657324237762 -0.3582642649149802 0 0.048773826387857627 -0.3544856011778737 0 0.053244657324237762 -0.3582642649149802 0 0.048773826387857627 -0.3544856011778737 0 0.054181307711507642 -0.34983992205818981 0 0.048773826387857627 -0.3544856011778737 0 0.047583047975914103 -0.35244241635483559 0 0.054181307711507642 -0.34983992205818981 0 0.048773826387857627 -0.3544856011778737 0 0.047583047975914103 -0.35244241635483559 0 0.053259535722039633 -0.3641180164926533 0 0.053244657324237762 -0.3582642649149802 0 0.057696222267823373 -0.35446292325014028 0 0.053244657324237762 -0.3582642649149802 0 0.057696222267823373 -0.35446292325014028 0 0.054181307711507642 -0.34983992205818981 0 0.064643683218506637 -0.34920539315333932 0 0.057696222267823373 -0.35446292325014028 0 0.054181307711507642 -0.34983992205818981 0 0.064643683218506637 -0.34920539315333932 0 0.060945063747813971 -0.34285112352430303 0 0.054181307711507642 -0.34983992205818981 0 0.048773826387857627 -0.3544856011778737 0 0.047583047975914103 -0.35244241635483559 0 0.043663507306638913 -0.36868104746756258 0 0.04071506683574927 -0.34065806194451792 0 0.047583047975914103 -0.35244241635483559 0 0.04071506683574927 -0.34065806194451792 0 0.047583047975914103 -0.35244241635483559 0 0.03985573710467899 -0.35136837444597901 0 0.04071506683574927 -0.34065806194451792 0 0.03985573710467899 -0.35136837444597901 0 0.03205896378917665 -0.35434441690964041 0 0.04071506683574927 -0.34065806194451792 0 0.03205896378917665 -0.35434441690964041 0 0.025431496553892478 -0.35168882095041942 0 0.04071506683574927 -0.34065806194451792 0 0.025431496553892478 -0.35168882095041942 0 0.03985573710467899 -0.35136837444597901 0 0.03205896378917665 -0.35434441690964041 0 0.039065869817875902 -0.35802860257492208 0 0.047583047975914103 -0.35244241635483559 0 0.03985573710467899 -0.35136837444597901 0 0.039065869817875902 -0.35802860257492208 0 0.02837172461734 -0.38295609391969199 0 0.033371525452051833 -0.36592480980272157 0 0.043663507306638913 -0.36868104746756258 0 0.047583047975914103 -0.35244241635483559 0 0.039065869817875902 -0.35802860257492208 0 0.043663507306638913 -0.36868104746756258 0 0.047583047975914103 -0.35244241635483559 0 0.043663507306638913 -0.36868104746756258 0 0.039065869817875902 -0.35802860257492208 0 0.033371525452051833 -0.36592480980272157 0 0.043663507306638913 -0.36868104746756258 0 0.03205896378917665 -0.35434441690964041 0 0.039065869817875902 -0.35802860257492208 0 0.033371525452051833 -0.36592480980272157 0 0.02837172461734 -0.38295609391969199 0 0.0099352179383349771 -0.36287309999936251 0 0.02837172461734 -0.38295609391969199 0 0.023697561729227701 -0.3656138881417908 0 0.0099352179383349771 -0.36287309999936251 0 0.02837172461734 -0.38295609391969199 0 0.033371525452051833 -0.36592480980272157 0 0.023697561729227701 -0.3656138881417908 0 0.02837172461734 -0.38295609391969199 0 0.0122991559467155 -0.37891225603134221 0 0.0099352179383349771 -0.36287309999936251 0 0.03205896378917665 -0.35434441690964041 0 0.033371525452051833 -0.36592480980272157 0 0.023697561729227701 -0.3656138881417908 0 0.023697561729227701 -0.3656138881417908 0 0.025431496553892478 -0.35168882095041942 0 0.0099352179383349771 -0.36287309999936251 0 0.025431496553892478 -0.35168882095041942 0 0.0075807645751098419 -0.34453611388615663 0 0.025431496553892478 -0.35168882095041942 0 0.0075807645751098419 -0.34453611388615663 0 0.02636863849756152 -0.33688388254537838 0 0.025431496553892478 -0.35168882095041942 0 0.0099352179383349771 -0.36287309999936251 0 0.03205896378917665 -0.35434441690964041 0 0.023697561729227701 -0.3656138881417908 0 0.025431496553892478 -0.35168882095041942 0 0.03205896378917665 -0.35434441690964041 0 0.025431496553892478 -0.35168882095041942 0 -0.0096343958099064687 -0.34155580596031437 0 0.0099352179383349771 -0.36287309999936251 0 -0.0096343958099064687 -0.34155580596031437 0 0.0075807645751098419 -0.34453611388615663 0 0.0099352179383349771 -0.36287309999936251 0 0.025431496553892478 -0.35168882095041942 0 0.0075807645751098419 -0.34453611388615663 0 0.0099352179383349771 -0.36287309999936251 0 -0.002178803782163227 -0.37161627006544062 0 0.0122991559467155 -0.37891225603134221 0 0.0099352179383349771 -0.36287309999936251 0 -0.0070150904897389628 -0.35875101633193152 0 -0.002178803782163227 -0.37161627006544062 0 0.0099352179383349771 -0.36287309999936251 0 -0.002178803782163227 -0.37161627006544062 0 0.0099352179383349771 -0.36287309999936251 0 0.03015636661650286 -0.3225410253719756 0 0.019597666397256509 -0.30442398879943339 0 0.03015636661650286 -0.3225410253719756 0 0.014793392922354411 -0.31628120652474823 0 0.019597666397256509 -0.30442398879943339 0 0.03015636661650286 -0.3225410253719756 0 0.01453256369494863 -0.32953892791496292 0 0.014793392922354411 -0.31628120652474823 0 0.03015636661650286 -0.3225410253719756 0 0.02636863849756152 -0.33688388254537838 0 0.01453256369494863 -0.32953892791496292 0 0.0075807645751098419 -0.34453611388615663 0 0.02636863849756152 -0.33688388254537838 0 0.01453256369494863 -0.32953892791496292 0 0.04071506683574927 -0.34065806194451792 0 0.025431496553892478 -0.35168882095041942 0 0.02636863849756152 -0.33688388254537838 0 0.0075807645751098419 -0.34453611388615663 0 0.01453256369494863 -0.32953892791496292 0 0.0034794820758208261 -0.33361449123698089 0 -0.010269967403673339 -0.33738340682189533 0 0.0075807645751098419 -0.34453611388615663 0 0.0034794820758208261 -0.33361449123698089 0 0.01453256369494863 -0.32953892791496292 0 0.0034794820758208261 -0.33361449123698089 0 0.001904989571353899 -0.32214434476741449 0 0.001904989571353899 -0.32214434476741449 0 0.014793392922354411 -0.31628120652474823 0 0.0019518825097332619 -0.30029273945570772 0 0.01453256369494863 -0.32953892791496292 0 0.001904989571353899 -0.32214434476741449 0 0.014793392922354411 -0.31628120652474823 0 0.0019518825097332619 -0.30029273945570772 0 0.0090389661780101715 -0.28630695222689118 0 0.019597666397256509 -0.30442398879943339 0 0.014793392922354411 -0.31628120652474823 0 0.0019518825097332619 -0.30029273945570772 0 0.019597666397256509 -0.30442398879943339 0 -0.0020851015340006161 -0.28052611142458661 0 0.0019518825097332619 -0.30029273945570772 0 0.0090389661780101715 -0.28630695222689118 0 0.0090389661780101715 -0.28630695222689118 0 0.019597666397256509 -0.30442398879943339 0 0.0090389661780101715 -0.28630695222689118 0 0.019597666397256509 -0.30442398879943339 0 0.033821918158706138 -0.27707393290215671 0 0.03015636661650286 -0.3225410253719756 0 0.019597666397256509 -0.30442398879943339 0 0.034491627806478041 -0.30853974567073322 0 0.019597666397256509 -0.30442398879943339 0 0.034491627806478041 -0.30853974567073322 0 0.043330632548044458 -0.29475484461045087 0 0.044648526871603783 -0.31770081170742831 0 0.034491627806478041 -0.30853974567073322 0 0.043330632548044458 -0.29475484461045087 0 0.019597666397256509 -0.30442398879943339 0 0.043330632548044458 -0.29475484461045087 0 0.033821918158706138 -0.27707393290215671 0 0.043330632548044458 -0.29475484461045087 0 0.062049371387241412 -0.28749956346879602 0 0.033821918158706138 -0.27707393290215671 0 0.064064269807315097 -0.28416082313012542 0 0.058270312985904418 -0.30816514798469019 0 0.062049371387241412 -0.28749956346879602 0 0.033821918158706138 -0.27707393290215671 0 0.064064269807315097 -0.28416082313012542 0 0.062049371387241412 -0.28749956346879602 0 0.058270312985904418 -0.30816514798469019 0 0.043330632548044458 -0.29475484461045087 0 0.062049371387241412 -0.28749956346879602 0 0.058270312985904418 -0.30816514798469019 0 0.044648526871603783 -0.31770081170742831 0 0.043330632548044458 -0.29475484461045087 0 0.058270312985904418 -0.30816514798469019 0 0.069858226628725775 -0.26015649827556059 0 0.051624075113339378 -0.26919050519125598 0 0.046498349670861652 -0.24826912251879649 0 0.064064269807315097 -0.28416082313012542 0 0.069858226628725775 -0.26015649827556059 0 0.051624075113339378 -0.26919050519125598 0 0.062049371387241412 -0.28749956346879602 0 0.051624075113339378 -0.26919050519125598 0 0.033821918158706138 -0.27707393290215671 0 0.064064269807315097 -0.28416082313012542 0 0.062049371387241412 -0.28749956346879602 0 0.051624075113339378 -0.26919050519125598 0 0.051624075113339378 -0.26919050519125598 0 0.033821918158706138 -0.27707393290215671 0 0.034240698289148337 -0.25967273023798509 0 0.051624075113339378 -0.26919050519125598 0 0.034240698289148337 -0.25967273023798509 0 0.046498349670861652 -0.24826912251879649 0 0.034240698289148337 -0.25967273023798509 0 0.02296875629887114 -0.2464092256209898 0 0.046498349670861652 -0.24826912251879649 0 0.034240698289148337 -0.25967273023798509 0 0.0055944649301708496 -0.26664830233551728 0 0.02296875629887114 -0.2464092256209898 0 0.0090389661780101715 -0.28630695222689118 0 0.033821918158706138 -0.27707393290215671 0 0.0055944649301708496 -0.26664830233551728 0 0.033821918158706138 -0.27707393290215671 0 0.034240698289148337 -0.25967273023798509 0 0.0055944649301708496 -0.26664830233551728 0 0.033821918158706138 -0.27707393290215671 0 0.0055944649301708496 -0.26664830233551728 0 -0.0020851015340006161 -0.28052611142458661 0 0.0090389661780101715 -0.28630695222689118 0 0.0055944649301708496 -0.26664830233551728 0 0.0055944649301708496 -0.26664830233551728 0 0.0055632338660241776 -0.24332209518663511 0 0.02296875629887114 -0.2464092256209898 0 -0.0080727856436109482 -0.2481099565327444 0 0.0055944649301708496 -0.26664830233551728 0 0.0055632338660241776 -0.24332209518663511 0 0.0055632338660241776 -0.24332209518663511 0 0.0032521440618358652 -0.23009641691855939 0 0.019268989126464159 -0.2308348024940351 0 -0.0084819670471955304 -0.2367225590632196 0 0.0055632338660241776 -0.24332209518663511 0 0.0032521440618358652 -0.23009641691855939 0 -0.0075276580997289226 -0.21896018305478171 0 0.0032521440618358652 -0.23009641691855939 0 0.012041166441398349 -0.21677938876306921 0 0.0032521440618358652 -0.23009641691855939 0 0.019268989126464159 -0.2308348024940351 0 0.012041166441398349 -0.21677938876306921 0 0.019268989126464159 -0.2308348024940351 0 0.028464877365028059 -0.21915571909051779 0 0.012041166441398349 -0.21677938876306921 0 0.019268989126464159 -0.2308348024940351 0 0.028464877365028059 -0.21915571909051779 0 0.041174919052571327 -0.22964645066930789 0 0.0055632338660241776 -0.24332209518663511 0 0.019268989126464159 -0.2308348024940351 0 0.02296875629887114 -0.2464092256209898 0 0.019268989126464159 -0.2308348024940351 0 0.02296875629887114 -0.2464092256209898 0 0.041174919052571327 -0.22964645066930789 0 -0.0075276580997289226 -0.21896018305478171 0 0.003555539334036632 -0.19934620758084881 0 0.012041166441398349 -0.21677938876306921 0 0.003555539334036632 -0.19934620758084881 0 0.012041166441398349 -0.21677938876306921 0 0.02523310686075431 -0.20228300343967229 0 0.028464877365028059 -0.21915571909051779 0 0.012041166441398349 -0.21677938876306921 0 0.02523310686075431 -0.20228300343967229 0 0.02523310686075431 -0.20228300343967229 0 0.033125333554059701 -0.1865598477748947 0 0.018588522793563201 -0.18166153924030251 0 0.003555539334036632 -0.19934620758084881 0 0.02523310686075431 -0.20228300343967229 0 0.018588522793563201 -0.18166153924030251 0 0.048648578511840943 -0.20623258170594561 0 0.049880579816306267 -0.17970719815632741 0 0.033125333554059701 -0.1865598477748947 0 0.02523310686075431 -0.20228300343967229 0 0.048648578511840943 -0.20623258170594561 0 0.033125333554059701 -0.1865598477748947 0 0.028464877365028059 -0.21915571909051779 0 0.02523310686075431 -0.20228300343967229 0 0.048648578511840943 -0.20623258170594561 0 0.028464877365028059 -0.21915571909051779 0 0.048648578511840943 -0.20623258170594561 0 0.041174919052571327 -0.22964645066930789 0 0.048648578511840943 -0.20623258170594561 0 0.059757914812518881 -0.22869522271940709 0 0.066598585428591164 -0.21133354617687591 0 0.048648578511840943 -0.20623258170594561 0 0.067160325985138131 -0.18691533881804831 0 0.049880579816306267 -0.17970719815632741 0 0.048648578511840943 -0.20623258170594561 0 0.066598585428591164 -0.21133354617687591 0 0.067160325985138131 -0.18691533881804831 0 0.069858226628725775 -0.26015649827556059 0 0.046498349670861652 -0.24826912251879649 0 0.059757914812518881 -0.22869522271940709 0 0.02296875629887114 -0.2464092256209898 0 0.046498349670861652 -0.24826912251879649 0 0.041174919052571327 -0.22964645066930789 0 0.048648578511840943 -0.20623258170594561 0 0.041174919052571327 -0.22964645066930789 0 0.059757914812518881 -0.22869522271940709 0 0.046498349670861652 -0.24826912251879649 0 0.041174919052571327 -0.22964645066930789 0 0.059757914812518881 -0.22869522271940709 0 0.069858226628725775 -0.26015649827556059 0 0.059757914812518881 -0.22869522271940709 0 0.080941623453078815 -0.2334444244951252 0 0.069858226628725775 -0.26015649827556059 0 0.096521476943682558 -0.25181800011133371 0 0.080941623453078815 -0.2334444244951252 0 0.096521476943682558 -0.25181800011133371 0 0.080941623453078815 -0.2334444244951252 0 0.102389076685389 -0.22730157072293841 0 0.080941623453078815 -0.2334444244951252 0 0.084774701335263575 -0.20710845477049339 0 0.102389076685389 -0.22730157072293841 0 0.059757914812518881 -0.22869522271940709 0 0.080941623453078815 -0.2334444244951252 0 0.066598585428591164 -0.21133354617687591 0 0.080941623453078815 -0.2334444244951252 0 0.066598585428591164 -0.21133354617687591 0 0.084774701335263575 -0.20710845477049339 0 0.084774701335263575 -0.20710845477049339 0 0.067160325985138131 -0.18691533881804831 0 0.066598585428591164 -0.21133354617687591 0 0.084774701335263575 -0.20710845477049339 0 0.067160325985138131 -0.18691533881804831 0 0.092537347032927528 -0.18889969997864839 0 0.084774701335263575 -0.20710845477049339 0 0.067160325985138131 -0.18691533881804831 0 0.084774701335263575 -0.20710845477049339 0 0.102389076685389 -0.22730157072293841 0 0.084774701335263575 -0.20710845477049339 0 0.10575093398731179 -0.20517541990618701 0 0.102389076685389 -0.22730157072293841 0 0.092537347032927528 -0.18889969997864839 0 0.10575093398731179 -0.20517541990618701 0 0.11404320040195411 -0.17785048998131209 0 0.092537347032927528 -0.18889969997864839 0 0.084774701335263575 -0.20710845477049339 0 0.10575093398731179 -0.20517541990618701 0 0.10575093398731179 -0.20517541990618701 0 0.11404320040195411 -0.17785048998131209 0 0.12592289232087811 -0.19910656028939411 0 0.10575093398731179 -0.20517541990618701 0 0.1284413173888232 -0.22347585252773641 0 0.12592289232087811 -0.19910656028939411 0 0.10575093398731179 -0.20517541990618701 0 0.102389076685389 -0.22730157072293841 0 0.1284413173888232 -0.22347585252773641 0 0.1200034520355143 -0.24749468667538321 0 0.102389076685389 -0.22730157072293841 0 0.1284413173888232 -0.22347585252773641 0 0.1200034520355143 -0.24749468667538321 0 0.102389076685389 -0.22730157072293841 0 0.096521476943682558 -0.25181800011133371 0 0.1200034520355143 -0.24749468667538321 0 0.102389076685389 -0.22730157072293841 0 0.099885875260422058 -0.15149088269105351 0 0.1161887790728692 -0.1476769396888597 0 0.1105045846919957 -0.16013033574144619 0 0.099885875260422058 -0.15149088269105351 0 0.099597293261818404 -0.1347502866929414 0 0.1161887790728692 -0.1476769396888597 0 0.099597293261818404 -0.1347502866929414 0 0.1161887790728692 -0.1476769396888597 0 0.099597293261818404 -0.1347502866929414 0 0.1047785765018954 -0.13712350701568179 0 0.1161887790728692 -0.1476769396888597 0 0.099597293261818404 -0.1347502866929414 0 0.093527805260815264 -0.13002146576964491 0 0.104312872852085 -0.12243825994362539 0 0.099597293261818404 -0.1347502866929414 0 0.093527805260815264 -0.13002146576964491 0 0.099597293261818404 -0.1347502866929414 0 0.093527805260815264 -0.13002146576964491 0 0.092996203934319052 -0.1329056080468716 0 0.099597293261818404 -0.1347502866929414 0 0.1088944047617572 -0.13480079442927331 0 0.104312872852085 -0.12243825994362539 0 0.099597293261818404 -0.1347502866929414 0 0.1047785765018954 -0.13712350701568179 0 0.1088944047617572 -0.13480079442927331 0 0.099597293261818404 -0.1347502866929414 0 0.1088944047617572 -0.13480079442927331 0 0.1047785765018954 -0.13712350701568179 0 0.1088944047617572 -0.13480079442927331 0 0.1088944047617572 -0.13480079442927331 0 0.1161887790728692 -0.1476769396888597 0 0.13638976604354719 -0.13495016646355951 0 0.1088944047617572 -0.13480079442927331 0 0.12800820934211829 -0.12401417466047961 0 0.13638976604354719 -0.13495016646355951 0 0.1047785765018954 -0.13712350701568179 0 0.1088944047617572 -0.13480079442927331 0 0.1161887790728692 -0.1476769396888597 0 0.1088944047617572 -0.13480079442927331 0 0.104312872852085 -0.12243825994362539 0 0.12800820934211829 -0.12401417466047961 0 0.1088944047617572 -0.13480079442927331 0 0.12800820934211829 -0.12401417466047961 0 0.1088944047617572 -0.13480079442927331 0 0.13638976604354719 -0.13495016646355951 0 0.1161887790728692 -0.1476769396888597 0 0.1105045846919957 -0.16013033574144619 0 0.1305387904294309 -0.15561497697083931 0 0.1105045846919957 -0.16013033574144619 0 0.11404320040195411 -0.17785048998131209 0 0.1305387904294309 -0.15561497697083931 0 0.092537347032927528 -0.18889969997864839 0 0.11404320040195411 -0.17785048998131209 0 0.090957573454969964 -0.1674487964172009 0 0.1105045846919957 -0.16013033574144619 0 0.11404320040195411 -0.17785048998131209 0 0.090957573454969964 -0.1674487964172009 0 0.099885875260422058 -0.15149088269105351 0 0.1105045846919957 -0.16013033574144619 0 0.090957573454969964 -0.1674487964172009 0 0.099885875260422058 -0.15149088269105351 0 0.090957573454969964 -0.1674487964172009 0 0.080257725164813276 -0.1505404030764457 0 0.090957573454969964 -0.1674487964172009 0 0.065342325237630991 -0.1650228072456788 0 0.080257725164813276 -0.1505404030764457 0 0.092537347032927528 -0.18889969997864839 0 0.090957573454969964 -0.1674487964172009 0 0.067160325985138131 -0.18691533881804831 0 0.090957573454969964 -0.1674487964172009 0 0.067160325985138131 -0.18691533881804831 0 0.065342325237630991 -0.1650228072456788 0 0.065342325237630991 -0.1650228072456788 0 0.080257725164813276 -0.1505404030764457 0 0.056224073158944461 -0.14994265306170279 0 0.080257725164813276 -0.1505404030764457 0 0.069539210615093855 -0.1345869923500955 0 0.056224073158944461 -0.14994265306170279 0 0.099885875260422058 -0.15149088269105351 0 0.099597293261818404 -0.1347502866929414 0 0.080257725164813276 -0.1505404030764457 0 0.099597293261818404 -0.1347502866929414 0 0.080257725164813276 -0.1505404030764457 0 0.069539210615093855 -0.1345869923500955 0 0.099597293261818404 -0.1347502866929414 0 0.092996203934319052 -0.1329056080468716 0 0.069539210615093855 -0.1345869923500955 0 0.099597293261818404 -0.1347502866929414 0 0.069539210615093855 -0.1345869923500955 0 0.092996203934319052 -0.1329056080468716 0 0.069539210615093855 -0.1345869923500955 0 0.079322302472514483 -0.11895376470488229 0 0.093527805260815264 -0.13002146576964491 0 0.092996203934319052 -0.1329056080468716 0 0.079322302472514483 -0.11895376470488229 0 0.093527805260815264 -0.13002146576964491 0 0.092996203934319052 -0.1329056080468716 0 0.069539210615093855 -0.1345869923500955 0 0.052298963826290519 -0.1211548808236817 0 0.066569319149528045 -0.1206454253796948 0 0.069539210615093855 -0.1345869923500955 0 0.039481127968369292 -0.1344236980072451 0 0.052298963826290519 -0.1211548808236817 0 0.069539210615093855 -0.1345869923500955 0 0.056224073158944461 -0.14994265306170279 0 0.039481127968369292 -0.1344236980072451 0 0.069539210615093855 -0.1345869923500955 0 0.039481127968369292 -0.1344236980072451 0 0.056224073158944461 -0.14994265306170279 0 0.038811693183881758 -0.15444647348478721 0 0.047368807546727579 -0.16279517251764489 0 0.056224073158944461 -0.14994265306170279 0 0.038811693183881758 -0.15444647348478721 0 0.039481127968369292 -0.1344236980072451 0 0.038811693183881758 -0.15444647348478721 0 0.039481127968369292 -0.1344236980072451 0 0.019056913867763529 -0.155566515408149 0 0.034777770017858589 -0.1343981464191871 0 0.039481127968369292 -0.1344236980072451 0 0.022320289212787989 -0.1422177528203018 0 0.034777770017858589 -0.1343981464191871 0 0.039481127968369292 -0.1344236980072451 0 0.034777770017858589 -0.1343981464191871 0 0.029299678594365521 -0.12697140115214181 0 0.037800108132664212 -0.12348471533883321 0 0.034777770017858589 -0.1343981464191871 0 0.039481127968369292 -0.1344236980072451 0 0.037800108132664212 -0.12348471533883321 0 0.039481127968369292 -0.1344236980072451 0 0.052298963826290519 -0.1211548808236817 0 0.039481127968369292 -0.1344236980072451 0 0.052298963826290519 -0.1211548808236817 0 0.037800108132664212 -0.12348471533883321 0 0.067160325985138131 -0.18691533881804831 0 0.065342325237630991 -0.1650228072456788 0 0.049880579816306267 -0.17970719815632741 0 0.065342325237630991 -0.1650228072456788 0 0.049880579816306267 -0.17970719815632741 0 0.047368807546727579 -0.16279517251764489 0 0.065342325237630991 -0.1650228072456788 0 0.056224073158944461 -0.14994265306170279 0 0.047368807546727579 -0.16279517251764489 0 0.049880579816306267 -0.17970719815632741 0 0.047368807546727579 -0.16279517251764489 0 0.031927543377605602 -0.16950432842919569 0 0.038811693183881758 -0.15444647348478721 0 0.047368807546727579 -0.16279517251764489 0 0.031927543377605602 -0.16950432842919569 0 0.049880579816306267 -0.17970719815632741 0 0.031927543377605602 -0.16950432842919569 0 0.033125333554059701 -0.1865598477748947 0 0.031927543377605602 -0.16950432842919569 0 0.033125333554059701 -0.1865598477748947 0 0.018588522793563201 -0.18166153924030251 0 0.031927543377605602 -0.16950432842919569 0 0.018588522793563201 -0.18166153924030251 0 0.019056913867763529 -0.155566515408149 0 0.038811693183881758 -0.15444647348478721 0 0.031927543377605602 -0.16950432842919569 0 0.019056913867763529 -0.155566515408149 0 -0.0013673002328405961 -0.1767093328090546 0 0.018588522793563201 -0.18166153924030251 0 0.019056913867763529 -0.155566515408149 0 -0.0013673002328405961 -0.1767093328090546 0 0.019056913867763529 -0.155566515408149 0 -0.0013673002328405961 -0.1767093328090546 0 0.019056913867763529 -0.155566515408149 0 0.0027310736070901482 -0.15493719994590471 0 -0.0013673002328405961 -0.1767093328090546 0 0.003555539334036632 -0.19934620758084881 0 0.018588522793563201 -0.18166153924030251 0 0.020222670022858619 -0.12863691797839069 0 0.022320289212787989 -0.1422177528203018 0 0.0088678229424013627 -0.13941235935176011 0 0.020222670022858619 -0.12863691797839069 0 0.02665510196196769 -0.1330560545925053 0 0.022320289212787989 -0.1422177528203018 0 0.034777770017858589 -0.1343981464191871 0 0.029299678594365521 -0.12697140115214181 0 0.02665510196196769 -0.1330560545925053 0 0.020222670022858619 -0.12863691797839069 0 0.029299678594365521 -0.12697140115214181 0 0.02665510196196769 -0.1330560545925053 0 0.034777770017858589 -0.1343981464191871 0 0.02665510196196769 -0.1330560545925053 0 0.022320289212787989 -0.1422177528203018 0 0.039481127968369292 -0.1344236980072451 0 0.019056913867763529 -0.155566515408149 0 0.019056913867763529 -0.155566515408149 0 0.022320289212787989 -0.1422177528203018 0 0.0088678229424013627 -0.13941235935176011 0 0.039481127968369292 -0.1344236980072451 0 0.019056913867763529 -0.155566515408149 0 0.022320289212787989 -0.1422177528203018 0 0.019056913867763529 -0.155566515408149 0 0.0027310736070901482 -0.15493719994590471 0 0.0088678229424013627 -0.13941235935176011 0 0.020222670022858619 -0.12863691797839069 0 0.0088678229424013627 -0.13941235935176011 0 0.0015243557028834459 -0.11711868301268021 0 0.020222670022858619 -0.12863691797839069 0 0.0015243557028834459 -0.11711868301268021 0 0.0144479962461943 -0.1082343501681014 0 0.020222670022858619 -0.12863691797839069 0 0.02728947708542654 -0.1146689930447462 0 0.0144479962461943 -0.1082343501681014 0 0.020222670022858619 -0.12863691797839069 0 0.029299678594365521 -0.12697140115214181 0 0.02728947708542654 -0.1146689930447462 0 0.0144479962461943 -0.1082343501681014 0 0.01674231050701382 -0.093658367309864349 0 0.03170108987002046 -0.10050694789866579 0 0.02728947708542654 -0.1146689930447462 0 0.0144479962461943 -0.1082343501681014 0 0.03170108987002046 -0.10050694789866579 0 0.01674231050701382 -0.093658367309864349 0 0.02745527456064175 -0.089089442263575569 0 0.03170108987002046 -0.10050694789866579 0 0.0144479962461943 -0.1082343501681014 0 0.001856719827670471 -0.098182337095309047 0 0.01674231050701382 -0.093658367309864349 0 0.0015243557028834459 -0.11711868301268021 0 0.0144479962461943 -0.1082343501681014 0 0.001856719827670471 -0.098182337095309047 0 0.001856719827670471 -0.098182337095309047 0 0.0065051428120863272 -0.082127796022149757 0 0.01674231050701382 -0.093658367309864349 0 0.0065051428120863272 -0.082127796022149757 0 0.018539693253586439 -0.071597204448153262 0 0.01731060528333208 -0.084118202510935727 0 0.0065051428120863272 -0.082127796022149757 0 0.01674231050701382 -0.093658367309864349 0 0.01731060528333208 -0.084118202510935727 0 0.0065051428120863272 -0.082127796022149757 0 0.018539693253586439 -0.071597204448153262 0 0.00035237720396625368 -0.061086817302918282 0 0.018539693253586439 -0.071597204448153262 0 0.00035237720396625368 -0.061086817302918282 0 0.029337839486141829 -0.062098975348790997 0 0.018539693253586439 -0.071597204448153262 0 0.036998616429076953 -0.080413518666692163 0 0.029337839486141829 -0.062098975348790997 0 0.018539693253586439 -0.071597204448153262 0 0.039278739387756327 -0.087755278287702396 0 0.018539693253586439 -0.071597204448153262 0 0.02745527456064175 -0.089089442263575569 0 0.039278739387756327 -0.087755278287702396 0 0.018539693253586439 -0.071597204448153262 0 0.01731060528333208 -0.084118202510935727 0 0.02745527456064175 -0.089089442263575569 0 0.01674231050701382 -0.093658367309864349 0 0.01731060528333208 -0.084118202510935727 0 0.02745527456064175 -0.089089442263575569 0 0.018539693253586439 -0.071597204448153262 0 0.036998616429076953 -0.080413518666692163 0 0.039278739387756327 -0.087755278287702396 0 0.02745527456064175 -0.089089442263575569 0 0.039278739387756327 -0.087755278287702396 0 0.036114206476440321 -0.094502097047588079 0 0.036998616429076953 -0.080413518666692163 0 0.039278739387756327 -0.087755278287702396 0 0.050747139898636717 -0.081209848062237813 0 0.058323301768317432 -0.063111133394663815 0 0.029337839486141829 -0.062098975348790997 0 0.036998616429076953 -0.080413518666692163 0 0.058323301768317432 -0.063111133394663815 0 0.029337839486141829 -0.062098975348790997 0 0.036998616429076953 -0.080413518666692163 0 0.058323301768317432 -0.063111133394663815 0 0.058323301768317432 -0.063111133394663815 0 0.050747139898636717 -0.081209848062237813 0 0.060228637404373828 -0.081759239016750626 0 0.036998616429076953 -0.080413518666692163 0 0.058323301768317432 -0.063111133394663815 0 0.050747139898636717 -0.081209848062237813 0 0.039278739387756327 -0.087755278287702396 0 0.050747139898636717 -0.081209848062237813 0 0.060818353003097771 -0.090653503469919336 0 0.050747139898636717 -0.081209848062237813 0 0.060228637404373828 -0.081759239016750626 0 0.060818353003097771 -0.090653503469919336 0 0.060017785521926562 -0.10391335212725129 0 0.042153090511964017 -0.099193769589441219 0 0.043653631303676513 -0.1092911725859987 0 0.060017785521926562 -0.10391335212725129 0 0.043653631303676513 -0.1092911725859987 0 0.039278739387756327 -0.087755278287702396 0 0.060818353003097771 -0.090653503469919336 0 0.060017785521926562 -0.10391335212725129 0 0.060017785521926562 -0.10391335212725129 0 0.053375718786791107 -0.1112883554404277 0 0.043653631303676513 -0.1092911725859987 0 0.039278739387756327 -0.087755278287702396 0 0.060017785521926562 -0.10391335212725129 0 0.039278739387756327 -0.087755278287702396 0 0.060017785521926562 -0.10391335212725129 0 0.042153090511964017 -0.099193769589441219 0 0.060017785521926562 -0.10391335212725129 0 0.053375718786791107 -0.1112883554404277 0 0.065116799684213397 -0.10788606364011991 0 0.052298963826290519 -0.1211548808236817 0 0.066569319149528045 -0.1206454253796948 0 0.065116799684213397 -0.10788606364011991 0 0.052298963826290519 -0.1211548808236817 0 0.065116799684213397 -0.10788606364011991 0 0.052298963826290519 -0.1211548808236817 0 0.053375718786791107 -0.1112883554404277 0 0.065116799684213397 -0.10788606364011991 0 0.052298963826290519 -0.1211548808236817 0 0.053375718786791107 -0.1112883554404277 0 0.043653631303676513 -0.1092911725859987 0 0.02728947708542654 -0.1146689930447462 0 0.037800108132664212 -0.12348471533883321 0 0.043653631303676513 -0.1092911725859987 0 0.02728947708542654 -0.1146689930447462 0 0.043653631303676513 -0.1092911725859987 0 0.052298963826290519 -0.1211548808236817 0 0.037800108132664212 -0.12348471533883321 0 0.043653631303676513 -0.1092911725859987 0 0.029299678594365521 -0.12697140115214181 0 0.02728947708542654 -0.1146689930447462 0 0.037800108132664212 -0.12348471533883321 0 0.02728947708542654 -0.1146689930447462 0 0.03170108987002046 -0.10050694789866579 0 0.043653631303676513 -0.1092911725859987 0 0.036114206476440321 -0.094502097047588079 0 0.03170108987002046 -0.10050694789866579 0 0.042153090511964017 -0.099193769589441219 0 0.02745527456064175 -0.089089442263575569 0 0.036114206476440321 -0.094502097047588079 0 0.03170108987002046 -0.10050694789866579 0 0.039278739387756327 -0.087755278287702396 0 0.036114206476440321 -0.094502097047588079 0 0.042153090511964017 -0.099193769589441219 0 0.03170108987002046 -0.10050694789866579 0 0.042153090511964017 -0.099193769589441219 0 0.043653631303676513 -0.1092911725859987 0 0.025695344612614111 0.0095801541182225364 0 0.02812452509478746 -0.0099579005571815878 0 0.006935528729737548 -0.0054826371559186567 0 0.02812452509478746 -0.0099579005571815878 0 0.006935528729737548 -0.0054826371559186567 0 0.01889941714368459 -0.025130787452367569 0 0.006935528729737548 -0.0054826371559186567 0 0.0027408304473846411 -0.028176541972939319 0 0.01889941714368459 -0.025130787452367569 0 0.02812452509478746 -0.0099579005571815878 0 0.01889941714368459 -0.025130787452367569 0 0.035567370731091272 -0.02454493013615917 0 0.01889941714368459 -0.025130787452367569 0 0.02846567832778216 -0.042756626880165419 0 0.035567370731091272 -0.02454493013615917 0 0.01889941714368459 -0.025130787452367569 0 0.02846567832778216 -0.042756626880165419 0 0.0096258971738255473 -0.043108802377643002 0 0.02846567832778216 -0.042756626880165419 0 0.0096258971738255473 -0.043108802377643002 0 0.016945448047928951 -0.052262805477379423 0 0.01889941714368459 -0.025130787452367569 0 0.0096258971738255473 -0.043108802377643002 0 -0.01026660782967455 -0.041229232136501717 0 0.0027408304473846411 -0.028176541972939319 0 0.0096258971738255473 -0.043108802377643002 0 0.0027408304473846411 -0.028176541972939319 0 0.01889941714368459 -0.025130787452367569 0 0.0096258971738255473 -0.043108802377643002 0 0.0096258971738255473 -0.043108802377643002 0 0.00035237720396625368 -0.061086817302918282 0 0.016945448047928951 -0.052262805477379423 0 0.00035237720396625368 -0.061086817302918282 0 0.016945448047928951 -0.052262805477379423 0 0.029337839486141829 -0.062098975348790997 0 0.0096258971738255473 -0.043108802377643002 0 0.00035237720396625368 -0.061086817302918282 0 0.00035237720396625368 -0.061086817302918282 0 0.029337839486141829 -0.062098975348790997 0 0.02846567832778216 -0.042756626880165419 0 0.016945448047928951 -0.052262805477379423 0 0.029337839486141829 -0.062098975348790997 0 0.02846567832778216 -0.042756626880165419 0 0.029337839486141829 -0.062098975348790997 0 0.044041605111135473 -0.049431168693685697 0 0.058323301768317432 -0.063111133394663815 0 0.029337839486141829 -0.062098975348790997 0 0.044041605111135473 -0.049431168693685697 0 0.058323301768317432 -0.063111133394663815 0 0.044041605111135473 -0.049431168693685697 0 0.059903341899081253 -0.040049795258846832 0 0.059903341899081253 -0.040049795258846832 0 0.045154502468205723 -0.035444412579530127 0 0.052999286202529479 -0.022291816621987929 0 0.044041605111135473 -0.049431168693685697 0 0.059903341899081253 -0.040049795258846832 0 0.045154502468205723 -0.035444412579530127 0 0.02846567832778216 -0.042756626880165419 0 0.044041605111135473 -0.049431168693685697 0 0.045154502468205723 -0.035444412579530127 0 0.02846567832778216 -0.042756626880165419 0 0.045154502468205723 -0.035444412579530127 0 0.035567370731091272 -0.02454493013615917 0 0.045154502468205723 -0.035444412579530127 0 0.035567370731091272 -0.02454493013615917 0 0.052999286202529479 -0.022291816621987929 0 0.035567370731091272 -0.02454493013615917 0 0.052999286202529479 -0.022291816621987929 0 0.04138045704507981 -0.013293391242584921 0 0.02812452509478746 -0.0099579005571815878 0 0.035567370731091272 -0.02454493013615917 0 0.04138045704507981 -0.013293391242584921 0 0.059903341899081253 -0.040049795258846832 0 0.052999286202529479 -0.022291816621987929 0 0.073093181043766914 -0.026775388104941698 0 0.052999286202529479 -0.022291816621987929 0 0.049896637954744763 -0.0073960790217490677 0 0.04138045704507981 -0.013293391242584921 0 0.052999286202529479 -0.022291816621987929 0 0.049896637954744763 -0.0073960790217490677 0 0.066530330394949447 -0.012320269852860621 0 0.049896637954744763 -0.0073960790217490677 0 0.040314465242246092 -0.002276229875846851 0 0.04138045704507981 -0.013293391242584921 0 0.025695344612614111 0.0095801541182225364 0 0.02812452509478746 -0.0099579005571815878 0 0.040314465242246092 -0.002276229875846851 0 0.046640351189982193 0.001482106492276504 0 0.049896637954744763 -0.0073960790217490677 0 0.040314465242246092 -0.002276229875846851 0 0.02812452509478746 -0.0099579005571815878 0 0.040314465242246092 -0.002276229875846851 0 0.04138045704507981 -0.013293391242584921 0 0.075461568133428525 0.0044331687040122013 0 0.081703970602104437 -0.011974759962048749 0 0.098011391193308373 -0.0056982583262641584 0 0.075461568133428525 0.0044331687040122013 0 0.049896637954744763 -0.0073960790217490677 0 0.075461568133428525 0.0044331687040122013 0 0.049896637954744763 -0.0073960790217490677 0 0.066530330394949447 -0.012320269852860621 0 0.075461568133428525 0.0044331687040122013 0 0.081703970602104437 -0.011974759962048749 0 0.066530330394949447 -0.012320269852860621 0 0.081703970602104437 -0.011974759962048749 0 0.066530330394949447 -0.012320269852860621 0 0.073093181043766914 -0.026775388104941698 0 0.052999286202529479 -0.022291816621987929 0 0.066530330394949447 -0.012320269852860621 0 0.073093181043766914 -0.026775388104941698 0 0.081703970602104437 -0.011974759962048749 0 0.097837743661838034 -0.031049975793767819 0 0.098011391193308373 -0.0056982583262641584 0 0.081703970602104437 -0.011974759962048749 0 0.073093181043766914 -0.026775388104941698 0 0.097837743661838034 -0.031049975793767819 0 0.078080522715077566 -0.047080554594215653 0 0.097861902682226248 -0.045151270938537998 0 0.097837743661838034 -0.031049975793767819 0 0.073093181043766914 -0.026775388104941698 0 0.078080522715077566 -0.047080554594215653 0 0.097837743661838034 -0.031049975793767819 0 0.078080522715077566 -0.047080554594215653 0 0.097837743661838034 -0.031049975793767819 0 0.059903341899081253 -0.040049795258846832 0 0.073093181043766914 -0.026775388104941698 0 0.078080522715077566 -0.047080554594215653 0 0.058323301768317432 -0.063111133394663815 0 0.078080522715077566 -0.047080554594215653 0 0.058323301768317432 -0.063111133394663815 0 0.059903341899081253 -0.040049795258846832 0 0.078080522715077566 -0.047080554594215653 0 0.058323301768317432 -0.063111133394663815 0 0.078080522715077566 -0.047080554594215653 0 0.081939961595450139 -0.063935815506958552 0 0.078080522715077566 -0.047080554594215653 0 0.094142039140793971 -0.055881476276546937 0 0.081939961595450139 -0.063935815506958552 0 0.078080522715077566 -0.047080554594215653 0 0.094142039140793971 -0.055881476276546937 0 0.097861902682226248 -0.045151270938537998 0 0.094142039140793971 -0.055881476276546937 0 0.081939961595450139 -0.063935815506958552 0 0.1067368008806147 -0.064801708903802782 0 0.094142039140793971 -0.055881476276546937 0 0.1075629424949773 -0.053875431803618333 0 0.097861902682226248 -0.045151270938537998 0 0.094142039140793971 -0.055881476276546937 0 0.1075629424949773 -0.053875431803618333 0 0.1067368008806147 -0.064801708903802782 0 0.1075629424949773 -0.053875431803618333 0 0.1067368008806147 -0.064801708903802782 0 0.1075629424949773 -0.053875431803618333 0 0.1232921759667842 -0.047663851323270827 0 0.1067368008806147 -0.064801708903802782 0 0.1232921759667842 -0.047663851323270827 0 0.1067368008806147 -0.064801708903802782 0 0.1075629424949773 -0.053875431803618333 0 0.1232921759667842 -0.047663851323270827 0 0.1109518143893137 -0.039435966374661548 0 0.1232921759667842 -0.047663851323270827 0 0.1067368008806147 -0.064801708903802782 0 0.13548767730717889 -0.06580567532731052 0 0.1232921759667842 -0.047663851323270827 0 0.1109518143893137 -0.039435966374661548 0 0.124582941869709 -0.030507807285028901 0 0.1109518143893137 -0.039435966374661548 0 0.097861902682226248 -0.045151270938537998 0 0.097837743661838034 -0.031049975793767819 0 0.1075629424949773 -0.053875431803618333 0 0.1109518143893137 -0.039435966374661548 0 0.097861902682226248 -0.045151270938537998 0 0.097837743661838034 -0.031049975793767819 0 0.1175949646085984 -0.015019396993320021 0 0.097837743661838034 -0.031049975793767819 0 0.1175949646085984 -0.015019396993320021 0 0.098011391193308373 -0.0056982583262641584 0 0.1109518143893137 -0.039435966374661548 0 0.097837743661838034 -0.031049975793767819 0 0.1175949646085984 -0.015019396993320021 0 0.1109518143893137 -0.039435966374661548 0 0.124582941869709 -0.030507807285028901 0 0.1175949646085984 -0.015019396993320021 0 0.124582941869709 -0.030507807285028901 0 0.1175949646085984 -0.015019396993320021 0 0.13165260102391191 -0.019660205177744808 0 0.11882011836095251 0.0065886106746579649 0 0.1175949646085984 -0.015019396993320021 0 0.098011391193308373 -0.0056982583262641584 0 0.11882011836095251 0.0065886106746579649 0 0.13735218555535891 0.001011181807127467 0 0.1175949646085984 -0.015019396993320021 0 0.073111172643960082 -0.099610417542301155 0 0.10058413041743761 -0.090581864498492995 0 0.088608598291174498 -0.101420796185217 0 0.073111172643960082 -0.099610417542301155 0 0.10058413041743761 -0.090581864498492995 0 0.083297568291202648 -0.10670285905343881 0 0.088608598291174498 -0.101420796185217 0 0.073111172643960082 -0.099610417542301155 0 0.083297568291202648 -0.10670285905343881 0 0.088608598291174498 -0.101420796185217 0 0.097441521812097198 -0.10878804364663471 0 0.093527805260815264 -0.13002146576964491 0 0.079322302472514483 -0.11895376470488229 0 0.097441521812097198 -0.10878804364663471 0 0.083297568291202648 -0.10670285905343881 0 0.079322302472514483 -0.11895376470488229 0 0.097441521812097198 -0.10878804364663471 0 0.093527805260815264 -0.13002146576964491 0 0.079322302472514483 -0.11895376470488229 0 0.079322302472514483 -0.11895376470488229 0 0.065116799684213397 -0.10788606364011991 0 0.083297568291202648 -0.10670285905343881 0 0.079322302472514483 -0.11895376470488229 0 0.065116799684213397 -0.10788606364011991 0 0.079322302472514483 -0.11895376470488229 0 0.066569319149528045 -0.1206454253796948 0 0.065116799684213397 -0.10788606364011991 0 0.069539210615093855 -0.1345869923500955 0 0.079322302472514483 -0.11895376470488229 0 0.066569319149528045 -0.1206454253796948 0 0.060017785521926562 -0.10391335212725129 0 0.065116799684213397 -0.10788606364011991 0 0.060017785521926562 -0.10391335212725129 0 0.073111172643960082 -0.099610417542301155 0 0.065116799684213397 -0.10788606364011991 0 0.073111172643960082 -0.099610417542301155 0 0.083297568291202648 -0.10670285905343881 0 0.065116799684213397 -0.10788606364011991 0 0.073111172643960082 -0.099610417542301155 0 0.060017785521926562 -0.10391335212725129 0 0.065116799684213397 -0.10788606364011991 0 0.073111172643960082 -0.099610417542301155 0 0.060818353003097771 -0.090653503469919336 0 0.060017785521926562 -0.10391335212725129 0 0.073111172643960082 -0.099610417542301155 0 0.060818353003097771 -0.090653503469919336 0 0.073111172643960082 -0.099610417542301155 0 0.074211161232423301 -0.082716200610011378 0 0.060228637404373828 -0.081759239016750626 0 0.060818353003097771 -0.090653503469919336 0 0.074211161232423301 -0.082716200610011378 0 0.058323301768317432 -0.063111133394663815 0 0.081939961595450139 -0.063935815506958552 0 0.058323301768317432 -0.063111133394663815 0 0.074211161232423301 -0.082716200610011378 0 0.081939961595450139 -0.063935815506958552 0 0.058323301768317432 -0.063111133394663815 0 0.060228637404373828 -0.081759239016750626 0 0.074211161232423301 -0.082716200610011378 0 0.074211161232423301 -0.082716200610011378 0 0.081939961595450139 -0.063935815506958552 0 0.089190063779311518 -0.082965808471458069 0 0.081939961595450139 -0.063935815506958552 0 0.089190063779311518 -0.082965808471458069 0 0.1052689549146623 -0.0663211994006144 0 0.073111172643960082 -0.099610417542301155 0 0.074211161232423301 -0.082716200610011378 0 0.089190063779311518 -0.082965808471458069 0 0.073111172643960082 -0.099610417542301155 0 0.089190063779311518 -0.082965808471458069 0 0.073111172643960082 -0.099610417542301155 0 0.089190063779311518 -0.082965808471458069 0 0.10058413041743761 -0.090581864498492995 0 0.089190063779311518 -0.082965808471458069 0 0.1017080788123951 -0.087804556385465471 0 0.1052689549146623 -0.0663211994006144 0 0.089190063779311518 -0.082965808471458069 0 0.10058413041743761 -0.090581864498492995 0 0.1017080788123951 -0.087804556385465471 0 0.1017080788123951 -0.087804556385465471 0 0.1084674426683357 -0.077888137089068013 0 0.1052689549146623 -0.0663211994006144 0 0.089190063779311518 -0.082965808471458069 0 0.1052689549146623 -0.0663211994006144 0 0.081939961595450139 -0.063935815506958552 0 0.1067368008806147 -0.064801708903802782 0 0.1052689549146623 -0.0663211994006144 0 0.081939961595450139 -0.063935815506958552 0 0.1067368008806147 -0.064801708903802782 0 0.1017080788123951 -0.087804556385465471 0 0.1052689549146623 -0.0663211994006144 0 0.1084674426683357 -0.077888137089068013 0 0.1067368008806147 -0.064801708903802782 0 0.1052689549146623 -0.0663211994006144 0 0.1067368008806147 -0.064801708903802782 0 0.1052689549146623 -0.0663211994006144 0 0.1067368008806147 -0.064801708903802782 0 0.13548767730717889 -0.06580567532731052 0 0.1084674426683357 -0.077888137089068013 0 0.1067368008806147 -0.064801708903802782 0 0.1232061248222129 -0.075206297362028066 0 0.1067368008806147 -0.064801708903802782 0 0.1232061248222129 -0.075206297362028066 0 0.13548767730717889 -0.06580567532731052 0 0.1017080788123951 -0.087804556385465471 0 0.1084674426683357 -0.077888137089068013 0 0.1272797878356694 -0.088593758706814907 0 0.1017080788123951 -0.087804556385465471 0 0.1272797878356694 -0.088593758706814907 0 0.1084674426683357 -0.077888137089068013 0 0.1232061248222129 -0.075206297362028066 0 0.1272797878356694 -0.088593758706814907 0 0.1017080788123951 -0.087804556385465471 0 0.11567178204704499 -0.10568275569041199 0 0.1272797878356694 -0.088593758706814907 0 0.1017080788123951 -0.087804556385465471 0 0.11567178204704499 -0.10568275569041199 0 0.097441521812097198 -0.10878804364663471 0 0.1017080788123951 -0.087804556385465471 0 0.097441521812097198 -0.10878804364663471 0 0.088608598291174498 -0.101420796185217 0 0.10058413041743761 -0.090581864498492995 0 0.097441521812097198 -0.10878804364663471 0 0.10058413041743761 -0.090581864498492995 0 0.1017080788123951 -0.087804556385465471 0 0.097441521812097198 -0.10878804364663471 0 0.093527805260815264 -0.13002146576964491 0 0.097441521812097198 -0.10878804364663471 0 0.104312872852085 -0.12243825994362539 0 0.093527805260815264 -0.13002146576964491 0 0.097441521812097198 -0.10878804364663471 0 0.11567178204704499 -0.10568275569041199 0 0.097441521812097198 -0.10878804364663471 0 0.104312872852085 -0.12243825994362539 0 0.11567178204704499 -0.10568275569041199 0 0.104312872852085 -0.12243825994362539 0 0.12800820934211829 -0.12401417466047961 0 0.12800820934211829 -0.12401417466047961 0 0.14712201392247631 -0.1132275548916801 0 0.13655559816636781 -0.1031347463460832 0 0.12800820934211829 -0.12401417466047961 0 0.14712201392247631 -0.1132275548916801 0 0.11567178204704499 -0.10568275569041199 0 0.12800820934211829 -0.12401417466047961 0 0.13655559816636781 -0.1031347463460832 0 0.12800820934211829 -0.12401417466047961 0 0.14712201392247631 -0.1132275548916801 0 0.1486045981545247 -0.12747252536747111 0 0.14712201392247631 -0.1132275548916801 0 0.16095359288685571 -0.1184472051676727 0 0.1486045981545247 -0.12747252536747111 0 0.15146120268426411 -0.099532086410862586 0 0.13655559816636781 -0.1031347463460832 0 0.1528514968589437 -0.089382961028164357 0 0.14712201392247631 -0.1132275548916801 0 0.15146120268426411 -0.099532086410862586 0 0.16623581850283431 -0.10244093512288061 0 0.14712201392247631 -0.1132275548916801 0 0.15146120268426411 -0.099532086410862586 0 0.13655559816636781 -0.1031347463460832 0 0.11567178204704499 -0.10568275569041199 0 0.13655559816636781 -0.1031347463460832 0 0.1272797878356694 -0.088593758706814907 0 0.1272797878356694 -0.088593758706814907 0 0.13805891541926751 -0.078942206783145619 0 0.1528514968589437 -0.089382961028164357 0 0.1272797878356694 -0.088593758706814907 0 0.1528514968589437 -0.089382961028164357 0 0.13655559816636781 -0.1031347463460832 0 0.1272797878356694 -0.088593758706814907 0 0.1528514968589437 -0.089382961028164357 0 0.1232061248222129 -0.075206297362028066 0 0.1272797878356694 -0.088593758706814907 0 0.13805891541926751 -0.078942206783145619 0 0.1232061248222129 -0.075206297362028066 0 0.13805891541926751 -0.078942206783145619 0 0.13548767730717889 -0.06580567532731052 0 0.13548767730717889 -0.06580567532731052 0 0.16423855373374319 -0.066809641750814969 0 0.13548767730717889 -0.06580567532731052 0 0.1516507619880918 -0.076739651506421189 0 0.16423855373374319 -0.066809641750814969 0 0.13548767730717889 -0.06580567532731052 0 0.16423855373374319 -0.066809641750814969 0 0.16004124225532049 -0.061841453839887157 0 0.13805891541926751 -0.078942206783145619 0 0.13548767730717889 -0.06580567532731052 0 0.1516507619880918 -0.076739651506421189 0 0.13805891541926751 -0.078942206783145619 0 0.1516507619880918 -0.076739651506421189 0 0.1528514968589437 -0.089382961028164357 0 0.15146120268426411 -0.099532086410862586 0 0.1528514968589437 -0.089382961028164357 0 0.15581646250916109 -0.090151240212135456 0 0.1528514968589437 -0.089382961028164357 0 0.15581646250916109 -0.090151240212135456 0 0.17842320588221819 -0.090172163349513806 0 0.1528514968589437 -0.089382961028164357 0 0.17842320588221819 -0.090172163349513806 0 0.15581646250916109 -0.090151240212135456 0 0.16859491992305889 -0.093070393687126218 0 0.17842320588221819 -0.090172163349513806 0 0.1528514968589437 -0.089382961028164357 0 0.1653897445003264 -0.079862578323319361 0 0.17842320588221819 -0.090172163349513806 0 0.1516507619880918 -0.076739651506421189 0 0.1528514968589437 -0.089382961028164357 0 0.1653897445003264 -0.079862578323319361 0 0.1516507619880918 -0.076739651506421189 0 0.1653897445003264 -0.079862578323319361 0 0.16423855373374319 -0.066809641750814969 0 0.1653897445003264 -0.079862578323319361 0 0.16423855373374319 -0.066809641750814969 0 0.17833356117891219 -0.077628002067558224 0 0.16423855373374319 -0.066809641750814969 0 0.1727598808088672 -0.056322389892066158 0 0.1929894301603077 -0.067813608174319001 0 0.16423855373374319 -0.066809641750814969 0 0.1929894301603077 -0.067813608174319001 0 0.16423855373374319 -0.066809641750814969 0 0.17833356117891219 -0.077628002067558224 0 0.1929894301603077 -0.067813608174319001 0 0.17833356117891219 -0.077628002067558224 0 0.19040307974074269 -0.080139672987034255 0 0.1929894301603077 -0.067813608174319001 0 0.16859491992305889 -0.093070393687126218 0 0.17842320588221819 -0.090172163349513806 0 0.17335524666804841 -0.094081054567607611 0 0.17842320588221819 -0.090172163349513806 0 0.17824607109877541 -0.095663109832525739 0 0.17335524666804841 -0.094081054567607611 0 0.1653897445003264 -0.079862578323319361 0 0.17833356117891219 -0.077628002067558224 0 0.17842320588221819 -0.090172163349513806 0 0.17833356117891219 -0.077628002067558224 0 0.1854866420256687 -0.084161575248007242 0 0.19040307974074269 -0.080139672987034255 0 0.17833356117891219 -0.077628002067558224 0 0.17842320588221819 -0.090172163349513806 0 0.1854866420256687 -0.084161575248007242 0 0.18404025852736719 -0.096743595743047278 0 0.18504385230606449 -0.10434071571553651 0 0.19243594079672521 -0.096163448387799222 0 0.17824607109877541 -0.095663109832525739 0 0.18504385230606449 -0.10434071571553651 0 0.16623581850283431 -0.10244093512288061 0 0.18504385230606449 -0.10434071571553651 0 0.18014950107347269 -0.1188522098678762 0 0.16623581850283431 -0.10244093512288061 0 0.18404025852736719 -0.096743595743047278 0 0.17824607109877541 -0.095663109832525739 0 0.18504385230606449 -0.10434071571553651 0 0.17842320588221819 -0.090172163349513806 0 0.18404025852736719 -0.096743595743047278 0 0.19243594079672521 -0.096163448387799222 0 0.17842320588221819 -0.090172163349513806 0 0.18404025852736719 -0.096743595743047278 0 0.17824607109877541 -0.095663109832525739 0 0.17824607109877541 -0.095663109832525739 0 0.17335524666804841 -0.094081054567607611 0 0.16623581850283431 -0.10244093512288061 0 0.17824607109877541 -0.095663109832525739 0 0.16623581850283431 -0.10244093512288061 0 0.18504385230606449 -0.10434071571553651 0 0.18014950107347269 -0.1188522098678762 0 0.1922879604253335 -0.1099500278873989 0 0.18014950107347269 -0.1188522098678762 0 0.16623581850283431 -0.10244093512288061 0 0.18014950107347269 -0.1188522098678762 0 0.16095359288685571 -0.1184472051676727 0 0.16623581850283431 -0.10244093512288061 0 0.14712201392247631 -0.1132275548916801 0 0.16095359288685571 -0.1184472051676727 0 0.16623581850283431 -0.10244093512288061 0 0.18014950107347269 -0.1188522098678762 0 0.16095359288685571 -0.1184472051676727 0 0.16265603278097029 -0.1302428005884553 0 0.14712201392247631 -0.1132275548916801 0 0.16623581850283431 -0.10244093512288061 0 0.15581646250916109 -0.090151240212135456 0 0.16859491992305889 -0.093070393687126218 0 0.16623581850283431 -0.10244093512288061 0 0.15146120268426411 -0.099532086410862586 0 0.15581646250916109 -0.090151240212135456 0 0.16623581850283431 -0.10244093512288061 0 0.15581646250916109 -0.090151240212135456 0 0.16623581850283431 -0.10244093512288061 0 0.16859491992305889 -0.093070393687126218 0 0.17335524666804841 -0.094081054567607611 0 0.16623581850283431 -0.10244093512288061 0 0.13735218555535891 0.001011181807127467 0 0.1449152044553462 -0.019939696741877431 0 0.14216046477152491 0.0049125148476896544 0 0.15727218843160701 -0.01758578836774349 0 0.15849764294065671 -0.0060544572746906826 0 0.14216046477152491 0.0049125148476896544 0 0.15727218843160701 -0.01758578836774349 0 0.14216046477152491 0.0049125148476896544 0 0.1449152044553462 -0.019939696741877431 0 0.15727218843160701 -0.01758578836774349 0 0.14216046477152491 0.0049125148476896544 0 0.13735218555535891 0.001011181807127467 0 0.1449152044553462 -0.019939696741877431 0 0.13735218555535891 0.001011181807127467 0 0.1175949646085984 -0.015019396993320021 0 0.13735218555535891 0.001011181807127467 0 0.1175949646085984 -0.015019396993320021 0 0.13165260102391191 -0.019660205177744808 0 0.13735218555535891 0.001011181807127467 0 0.13165260102391191 -0.019660205177744808 0 0.1449152044553462 -0.019939696741877431 0 0.13165260102391191 -0.019660205177744808 0 0.13984755105295521 -0.030525993742740402 0 0.1449152044553462 -0.019939696741877431 0 0.124582941869709 -0.030507807285028901 0 0.13165260102391191 -0.019660205177744808 0 0.13984755105295521 -0.030525993742740402 0 0.1449152044553462 -0.019939696741877431 0 0.15247822335533329 -0.040890575290882317 0 0.15727218843160701 -0.01758578836774349 0 0.13984755105295521 -0.030525993742740402 0 0.1449152044553462 -0.019939696741877431 0 0.15247822335533329 -0.040890575290882317 0 0.1449152044553462 -0.019939696741877431 0 0.15247822335533329 -0.040890575290882317 0 0.15247822335533329 -0.040890575290882317 0 0.1379109625223634 -0.045605004272587249 0 0.14629243763992239 -0.054068479542427092 0 0.13984755105295521 -0.030525993742740402 0 0.15247822335533329 -0.040890575290882317 0 0.1379109625223634 -0.045605004272587249 0 0.1232921759667842 -0.047663851323270827 0 0.13984755105295521 -0.030525993742740402 0 0.1379109625223634 -0.045605004272587249 0 0.1232921759667842 -0.047663851323270827 0 0.124582941869709 -0.030507807285028901 0 0.13984755105295521 -0.030525993742740402 0 0.1232921759667842 -0.047663851323270827 0 0.13984755105295521 -0.030525993742740402 0 0.1232921759667842 -0.047663851323270827 0 0.13548767730717889 -0.06580567532731052 0 0.1379109625223634 -0.045605004272587249 0 0.13548767730717889 -0.06580567532731052 0 0.1379109625223634 -0.045605004272587249 0 0.14629243763992239 -0.054068479542427092 0 0.13548767730717889 -0.06580567532731052 0 0.14629243763992239 -0.054068479542427092 0 0.16004124225532049 -0.061841453839887157 0 0.15247822335533329 -0.040890575290882317 0 0.14629243763992239 -0.054068479542427092 0 0.16004124225532049 -0.061841453839887157 0 0.15247822335533329 -0.040890575290882317 0 0.16004124225532049 -0.061841453839887157 0 0.1644158146278025 -0.049784627651503079 0 0.1644158146278025 -0.049784627651503079 0 0.1727598808088672 -0.056322389892066158 0 0.1723839120916891 -0.040084091583176683 0 0.15247822335533329 -0.040890575290882317 0 0.16004124225532049 -0.061841453839887157 0 0.16423855373374319 -0.066809641750814969 0 0.16004124225532049 -0.061841453839887157 0 0.1727598808088672 -0.056322389892066158 0 0.16004124225532049 -0.061841453839887157 0 0.1644158146278025 -0.049784627651503079 0 0.1727598808088672 -0.056322389892066158 0 0.1727598808088672 -0.056322389892066158 0 0.18434240851125541 -0.050289724698312777 0 0.1723839120916891 -0.040084091583176683 0 0.1727598808088672 -0.056322389892066158 0 0.18434240851125541 -0.050289724698312777 0 0.1929894301603077 -0.067813608174319001 0 0.1723839120916891 -0.040084091583176683 0 0.18077822909658589 -0.032018797610549231 0 0.17598651952492231 -0.0227560541305885 0 0.18434240851125541 -0.050289724698312777 0 0.1723839120916891 -0.040084091583176683 0 0.18674227588606429 -0.037749552466939278 0 0.1723839120916891 -0.040084091583176683 0 0.18674227588606429 -0.037749552466939278 0 0.18077822909658589 -0.032018797610549231 0 0.18674227588606429 -0.037749552466939278 0 0.18077822909658589 -0.032018797610549231 0 0.18610830639217099 -0.030062433202775862 0 0.15247822335533329 -0.040890575290882317 0 0.1723839120916891 -0.040084091583176683 0 0.15727218843160701 -0.01758578836774349 0 0.15247822335533329 -0.040890575290882317 0 0.1644158146278025 -0.049784627651503079 0 0.1723839120916891 -0.040084091583176683 0 0.1723839120916891 -0.040084091583176683 0 0.15727218843160701 -0.01758578836774349 0 0.1723839120916891 -0.040084091583176683 0 0.1668946229318731 -0.019675061199070819 0 0.17598651952492231 -0.0227560541305885 0 0.1723839120916891 -0.040084091583176683 0 0.15727218843160701 -0.01758578836774349 0 0.1668946229318731 -0.019675061199070819 0 0.1668946229318731 -0.019675061199070819 0 0.17598651952492231 -0.0227560541305885 0 0.16985348277487761 -0.0099868764823510571 0 0.18077822909658589 -0.032018797610549231 0 0.18438258456793261 -0.021379302004443181 0 0.17598651952492231 -0.0227560541305885 0 0.18077822909658589 -0.032018797610549231 0 0.18610830639217099 -0.030062433202775862 0 0.18438258456793261 -0.021379302004443181 0 0.18438258456793261 -0.021379302004443181 0 0.17598651952492231 -0.0227560541305885 0 0.17878486519392331 -0.011645355321630489 0 0.17598651952492231 -0.0227560541305885 0 0.17878486519392331 -0.011645355321630489 0 0.16985348277487761 -0.0099868764823510571 0 0.17878486519392331 -0.011645355321630489 0 0.17506184651935949 -0.0021247232161890161 0 0.16985348277487761 -0.0099868764823510571 0 0.18438258456793261 -0.021379302004443181 0 0.17878486519392331 -0.011645355321630489 0 0.18863989258252481 -0.001979820774580698 0 0.17878486519392331 -0.011645355321630489 0 0.17506184651935949 -0.0021247232161890161 0 0.18863989258252481 -0.001979820774580698 0 0.1628037813635097 0.0015330777282007481 0 0.17506184651935949 -0.0021247232161890161 0 0.16985348277487761 -0.0099868764823510571 0 0.1668946229318731 -0.019675061199070819 0 0.16985348277487761 -0.0099868764823510571 0 0.15849764294065671 -0.0060544572746906826 0 0.15727218843160701 -0.01758578836774349 0 0.1668946229318731 -0.019675061199070819 0 0.15849764294065671 -0.0060544572746906826 0 0.1628037813635097 0.0015330777282007481 0 0.16985348277487761 -0.0099868764823510571 0 0.15849764294065671 -0.0060544572746906826 0 0.1628037813635097 0.0015330777282007481 0 0.15453230216132671 0.0032055715019124438 0 0.15849764294065671 -0.0060544572746906826 0 0.21174544862736719 0.0096628206364345465 0 0.20589386385567829 -0.0063134785331596111 0 0.2185782736923042 -0.0038367730406402641 0 0.20589386385567829 -0.0063134785331596111 0 0.2185782736923042 -0.0038367730406402641 0 0.2199828155312514 -0.0225516893132638 0 0.20589386385567829 -0.0063134785331596111 0 0.18863989258252481 -0.001979820774580698 0 0.1936475112771239 -0.030998707124919651 0 0.20589386385567829 -0.0063134785331596111 0 0.1936475112771239 -0.030998707124919651 0 0.20001428446098229 -0.034334459813343092 0 0.18863989258252481 -0.001979820774580698 0 0.1936475112771239 -0.030998707124919651 0 0.20589386385567829 -0.0063134785331596111 0 0.20001428446098229 -0.034334459813343092 0 0.18438258456793261 -0.021379302004443181 0 0.18863989258252481 -0.001979820774580698 0 0.1936475112771239 -0.030998707124919651 0 0.18610830639217099 -0.030062433202775862 0 0.18438258456793261 -0.021379302004443181 0 0.1936475112771239 -0.030998707124919651 0 0.20589386385567829 -0.0063134785331596111 0 0.20001428446098229 -0.034334459813343092 0 0.2199828155312514 -0.0225516893132638 0 0.20001428446098229 -0.034334459813343092 0 0.22061008072662569 -0.045125245157715169 0 0.20001428446098229 -0.034334459813343092 0 0.22061008072662569 -0.045125245157715169 0 0.2199828155312514 -0.0225516893132638 0 0.20001428446098229 -0.034334459813343092 0 0.19683654360934791 -0.049478981375062181 0 0.22061008072662569 -0.045125245157715169 0 0.1936475112771239 -0.030998707124919651 0 0.19683654360934791 -0.049478981375062181 0 0.18674227588606429 -0.037749552466939278 0 0.1936475112771239 -0.030998707124919651 0 0.19683654360934791 -0.049478981375062181 0 0.1936475112771239 -0.030998707124919651 0 0.20001428446098229 -0.034334459813343092 0 0.19683654360934791 -0.049478981375062181 0 0.1936475112771239 -0.030998707124919651 0 0.20001428446098229 -0.034334459813343092 0 0.18674227588606429 -0.037749552466939278 0 0.18610830639217099 -0.030062433202775862 0 0.1936475112771239 -0.030998707124919651 0 0.18434240851125541 -0.050289724698312777 0 0.18674227588606429 -0.037749552466939278 0 0.19683654360934791 -0.049478981375062181 0 0.20001428446098229 -0.034334459813343092 0 0.19683654360934791 -0.049478981375062181 0 0.19683654360934791 -0.049478981375062181 0 0.1929894301603077 -0.067813608174319001 0 0.2000429458732931 -0.068059913463883598 0 0.19683654360934791 -0.049478981375062181 0 0.21158346953455981 -0.057932445704329483 0 0.2000429458732931 -0.068059913463883598 0 0.19683654360934791 -0.049478981375062181 0 0.2000429458732931 -0.068059913463883598 0 0.19683654360934791 -0.049478981375062181 0 0.1929894301603077 -0.067813608174319001 0 0.18434240851125541 -0.050289724698312777 0 0.19683654360934791 -0.049478981375062181 0 0.1929894301603077 -0.067813608174319001 0 0.19683654360934791 -0.049478981375062181 0 0.21158346953455981 -0.057932445704329483 0 0.22061008072662569 -0.045125245157715169 0 0.24120587699226881 -0.055916030502087773 0 0.22061008072662569 -0.045125245157715169 0 0.2288443079289719 -0.069065642820655804 0 0.21158346953455981 -0.057932445704329483 0 0.22061008072662569 -0.045125245157715169 0 0.2288443079289719 -0.069065642820655804 0 0.24120587699226881 -0.055916030502087773 0 0.22061008072662569 -0.045125245157715169 0 0.25030159180115191 -0.034143426788088307 0 0.24120587699226881 -0.055916030502087773 0 0.23430517811137791 -0.037629801295311363 0 0.25030159180115191 -0.034143426788088307 0 0.23430517811137791 -0.037629801295311363 0 0.23651070060392609 -0.023431292744830981 0 0.22061008072662569 -0.045125245157715169 0 0.23430517811137791 -0.037629801295311363 0 0.2199828155312514 -0.0225516893132638 0 0.24120587699226881 -0.055916030502087773 0 0.22061008072662569 -0.045125245157715169 0 0.23430517811137791 -0.037629801295311363 0 0.2199828155312514 -0.0225516893132638 0 0.23651070060392609 -0.023431292744830981 0 0.2300866381754704 -0.0072438550720441714 0 0.23430517811137791 -0.037629801295311363 0 0.2199828155312514 -0.0225516893132638 0 0.23651070060392609 -0.023431292744830981 0 0.25030159180115191 -0.034143426788088307 0 0.23651070060392609 -0.023431292744830981 0 0.2464198669495459 -0.012097030270161889 0 0.23790413247208811 0.0091049515404343275 0 0.2464198669495459 -0.012097030270161889 0 0.2300866381754704 -0.0072438550720441714 0 0.23651070060392609 -0.023431292744830981 0 0.2464198669495459 -0.012097030270161889 0 0.2300866381754704 -0.0072438550720441714 0 0.2185782736923042 -0.0038367730406402641 0 0.2199828155312514 -0.0225516893132638 0 0.2300866381754704 -0.0072438550720441714 0 0.22518260227175371 0.0072623370788317187 0 0.2185782736923042 -0.0038367730406402641 0 0.2300866381754704 -0.0072438550720441714 0 0.20666963866093291 -0.1113398018781358 0 0.20399491490549271 -0.090961365670864353 0 0.20666963866093291 -0.1113398018781358 0 0.23081911420975029 -0.091789222750733895 0 0.20666963866093291 -0.1113398018781358 0 0.20399491490549271 -0.090961365670864353 0 0.23081911420975029 -0.091789222750733895 0 0.2184940671700534 -0.12394732724419751 0 0.20666963866093291 -0.1113398018781358 0 0.22056261316880149 -0.1108234873110058 0 0.2184940671700534 -0.12394732724419751 0 0.20975191972323501 -0.12432290509972491 0 0.20666963866093291 -0.1113398018781358 0 0.2184940671700534 -0.12394732724419751 0 0.20666963866093291 -0.1113398018781358 0 0.20975191972323501 -0.12432290509972491 0 0.20666963866093291 -0.1113398018781358 0 0.1971408692894723 -0.1190539635876471 0 0.20975191972323501 -0.12432290509972491 0 0.20666963866093291 -0.1113398018781358 0 0.18014950107347269 -0.1188522098678762 0 0.1971408692894723 -0.1190539635876471 0 0.19406318364410949 -0.13526348461287321 0 0.20666963866093291 -0.1113398018781358 0 0.1971408692894723 -0.1190539635876471 0 0.18014950107347269 -0.1188522098678762 0 0.1971408692894723 -0.1190539635876471 0 0.1922879604253335 -0.1099500278873989 0 0.20666963866093291 -0.1113398018781358 0 0.1971408692894723 -0.1190539635876471 0 0.1922879604253335 -0.1099500278873989 0 0.20666963866093291 -0.1113398018781358 0 0.19243594079672521 -0.096163448387799222 0 0.20399491490549271 -0.090961365670864353 0 0.18504385230606449 -0.10434071571553651 0 0.1922879604253335 -0.1099500278873989 0 0.19243594079672521 -0.096163448387799222 0 0.20666963866093291 -0.1113398018781358 0 0.1922879604253335 -0.1099500278873989 0 0.19243594079672521 -0.096163448387799222 0 0.20666963866093291 -0.1113398018781358 0 0.19243594079672521 -0.096163448387799222 0 0.1854866420256687 -0.084161575248007242 0 0.19040307974074269 -0.080139672987034255 0 0.20399491490549271 -0.090961365670864353 0 0.17842320588221819 -0.090172163349513806 0 0.19243594079672521 -0.096163448387799222 0 0.20399491490549271 -0.090961365670864353 0 0.17842320588221819 -0.090172163349513806 0 0.20399491490549271 -0.090961365670864353 0 0.17842320588221819 -0.090172163349513806 0 0.1854866420256687 -0.084161575248007242 0 0.20399491490549271 -0.090961365670864353 0 0.2000429458732931 -0.068059913463883598 0 0.20399491490549271 -0.090961365670864353 0 0.19040307974074269 -0.080139672987034255 0 0.2000429458732931 -0.068059913463883598 0 0.20399491490549271 -0.090961365670864353 0 0.19040307974074269 -0.080139672987034255 0 0.1929894301603077 -0.067813608174319001 0 0.2000429458732931 -0.068059913463883598 0 0.19040307974074269 -0.080139672987034255 0 0.1929894301603077 -0.067813608174319001 0 0.1929894301603077 -0.067813608174319001 0 0.2000429458732931 -0.068059913463883598 0 0.2000429458732931 -0.068059913463883598 0 0.2288443079289719 -0.069065642820655804 0 0.2000429458732931 -0.068059913463883598 0 0.21771238563745279 -0.081480669998114597 0 0.2288443079289719 -0.069065642820655804 0 0.21158346953455981 -0.057932445704329483 0 0.2000429458732931 -0.068059913463883598 0 0.2288443079289719 -0.069065642820655804 0 0.2000429458732931 -0.068059913463883598 0 0.20399491490549271 -0.090961365670864353 0 0.21771238563745279 -0.081480669998114597 0 0.20399491490549271 -0.090961365670864353 0 0.21771238563745279 -0.081480669998114597 0 0.23081911420975029 -0.091789222750733895 0 0.20399491490549271 -0.090961365670864353 0 0.23081911420975029 -0.091789222750733895 0 0.21771238563745279 -0.081480669998114597 0 0.23081911420975029 -0.091789222750733895 0 0.2288443079289719 -0.069065642820655804 0 0.25764566998465072 -0.070071372177431313 0 0.24120587699226881 -0.055916030502087773 0 0.2288443079289719 -0.069065642820655804 0 0.25764566998465072 -0.070071372177431313 0 0.2288443079289719 -0.069065642820655804 0 0.25764566998465072 -0.070071372177431313 0 0.2288443079289719 -0.069065642820655804 0 0.24423239209720191 -0.080930297464084477 0 0.25666672159796139 -0.092586939936295867 0 0.23081911420975029 -0.091789222750733895 0 0.23081911420975029 -0.091789222750733895 0 0.2288443079289719 -0.069065642820655804 0 0.24423239209720191 -0.080930297464084477 0 0.25666672159796139 -0.092586939936295867 0 0.23081911420975029 -0.091789222750733895 0 0.24423239209720191 -0.080930297464084477 0 0.23081911420975029 -0.091789222750733895 0 0.24423239209720191 -0.080930297464084477 0 0.25666672159796139 -0.092586939936295867 0 0.23081911420975029 -0.091789222750733895 0 0.23839025179526999 -0.1151992729885977 0 0.20666963866093291 -0.1113398018781358 0 0.23081911420975029 -0.091789222750733895 0 0.22056261316880149 -0.1108234873110058 0 0.23081911420975029 -0.091789222750733895 0 0.22056261316880149 -0.1108234873110058 0 0.23839025179526999 -0.1151992729885977 0 0.2184940671700534 -0.12394732724419751 0 0.22056261316880149 -0.1108234873110058 0 0.23839025179526999 -0.1151992729885977 0 0.2184940671700534 -0.12394732724419751 0 0.23839025179526999 -0.1151992729885977 0 0.22928680998153819 -0.13545484142638689 0 0.25915390151091949 -0.11811210275817149 0 0.25133622254172122 -0.13557462765415079 0 0.23839025179526999 -0.1151992729885977 0 0.25133622254172122 -0.13557462765415079 0 0.25208407187516418 -0.1419613505697605 0 0.23274332603383319 -0.13914027229300069 0 0.25133622254172122 -0.13557462765415079 0 0.23839025179526999 -0.1151992729885977 0 0.22928680998153819 -0.13545484142638689 0 0.25133622254172122 -0.13557462765415079 0 0.22928680998153819 -0.13545484142638689 0 0.25133622254172122 -0.13557462765415079 0 0.23274332603383319 -0.13914027229300069 0 0.22928680998153819 -0.13545484142638689 0 0.25208407187516418 -0.1419613505697605 0 0.23274332603383319 -0.13914027229300069 0 0.2530488896403309 -0.16079061319898569 0 0.23274332603383319 -0.13914027229300069 0 0.2530488896403309 -0.16079061319898569 0 0.23274332603383319 -0.13914027229300069 0 0.2334622085995452 -0.15779257262933219 0 0.2530488896403309 -0.16079061319898569 0 0.25208407187516418 -0.1419613505697605 0 0.23274332603383319 -0.13914027229300069 0 0.22694604844669111 -0.15137512496012309 0 0.2202725953444182 -0.1456731206256075 0 0.22100128495381829 -0.16152072110389429 0 0.22694604844669111 -0.15137512496012309 0 0.23274332603383319 -0.13914027229300069 0 0.2334622085995452 -0.15779257262933219 0 0.22694604844669111 -0.15137512496012309 0 0.2202725953444182 -0.1456731206256075 0 0.23274332603383319 -0.13914027229300069 0 0.23274332603383319 -0.13914027229300069 0 0.20959101376118139 -0.13576323162740581 0 0.22928680998153819 -0.13545484142638689 0 0.2116749968128239 -0.1353591630196288 0 0.23274332603383319 -0.13914027229300069 0 0.22928680998153819 -0.13545484142638689 0 0.2116749968128239 -0.1353591630196288 0 0.2184940671700534 -0.12394732724419751 0 0.22928680998153819 -0.13545484142638689 0 0.2116749968128239 -0.1353591630196288 0 0.2202725953444182 -0.1456731206256075 0 0.23274332603383319 -0.13914027229300069 0 0.20959101376118139 -0.13576323162740581 0 0.23274332603383319 -0.13914027229300069 0 0.22928680998153819 -0.13545484142638689 0 0.2184940671700534 -0.12394732724419751 0 0.22928680998153819 -0.13545484142638689 0 0.23274332603383319 -0.13914027229300069 0 0.20959101376118139 -0.13576323162740581 0 0.2116749968128239 -0.1353591630196288 0 0.20975191972323501 -0.12432290509972491 0 0.2116749968128239 -0.1353591630196288 0 0.19406318364410949 -0.13526348461287321 0 0.2184940671700534 -0.12394732724419751 0 0.20975191972323501 -0.12432290509972491 0 0.2116749968128239 -0.1353591630196288 0 0.20959101376118139 -0.13576323162740581 0 0.2116749968128239 -0.1353591630196288 0 0.19406318364410949 -0.13526348461287321 0 0.2202725953444182 -0.1456731206256075 0 0.21077041390333781 -0.15496976615408631 0 0.22100128495381829 -0.16152072110389429 0 0.2202725953444182 -0.1456731206256075 0 0.20959101376118139 -0.13576323162740581 0 0.21077041390333781 -0.15496976615408631 0 0.20959101376118139 -0.13576323162740581 0 0.21077041390333781 -0.15496976615408631 0 0.19406318364410949 -0.13526348461287321 0 0.21077041390333781 -0.15496976615408631 0 0.19019323353294471 -0.15547991582157239 0 0.19406318364410949 -0.13526348461287321 0 0.21077041390333781 -0.15496976615408631 0 0.19406318364410949 -0.13526348461287321 0 0.20975191972323501 -0.12432290509972491 0 0.1971408692894723 -0.1190539635876471 0 0.19406318364410949 -0.13526348461287321 0 0.2116749968128239 -0.1353591630196288 0 0.19406318364410949 -0.13526348461287321 0 0.2064216300685435 -0.1763378775815001 0 0.19333004299069351 -0.19482382871724169 0 0.185888281266576 -0.1738959907954824 0 0.21077041390333781 -0.15496976615408631 0 0.19019323353294471 -0.15547991582157239 0 0.2064216300685435 -0.1763378775815001 0 0.19019323353294471 -0.15547991582157239 0 0.2064216300685435 -0.1763378775815001 0 0.185888281266576 -0.1738959907954824 0 0.21077041390333781 -0.15496976615408631 0 0.2064216300685435 -0.1763378775815001 0 0.22100128495381829 -0.16152072110389429 0 0.2064216300685435 -0.1763378775815001 0 0.22637928715471201 -0.1750627007060517 0 0.22100128495381829 -0.16152072110389429 0 0.2064216300685435 -0.1763378775815001 0 0.22637928715471201 -0.1750627007060517 0 0.2213864998634191 -0.19074186604973761 0 0.22637928715471201 -0.1750627007060517 0 0.2363010186387848 -0.18586727398715949 0 0.2213864998634191 -0.19074186604973761 0 0.22637928715471201 -0.1750627007060517 0 0.22100128495381829 -0.16152072110389429 0 0.2334622085995452 -0.15779257262933219 0 0.22637928715471201 -0.1750627007060517 0 0.2334622085995452 -0.15779257262933219 0 0.24133419147104179 -0.17110858194103351 0 0.22694604844669111 -0.15137512496012309 0 0.22100128495381829 -0.16152072110389429 0 0.2334622085995452 -0.15779257262933219 0 0.2530488896403309 -0.16079061319898569 0 0.2334622085995452 -0.15779257262933219 0 0.24133419147104179 -0.17110858194103351 0 0.2550208565069661 -0.17514012483034949 0 0.2530488896403309 -0.16079061319898569 0 0.24133419147104179 -0.17110858194103351 0 0.22637928715471201 -0.1750627007060517 0 0.24133419147104179 -0.17110858194103351 0 0.2363010186387848 -0.18586727398715949 0 0.25030889548151403 -0.1837077448593728 0 0.2550208565069661 -0.17514012483034949 0 0.24133419147104179 -0.17110858194103351 0 0.25030889548151403 -0.1837077448593728 0 0.24133419147104179 -0.17110858194103351 0 0.2363010186387848 -0.18586727398715949 0 0.25030889548151403 -0.1837077448593728 0 0.2363010186387848 -0.18586727398715949 0 0.24624710011957149 -0.19756578472926509 0 0.2363010186387848 -0.18586727398715949 0 0.24624710011957149 -0.19756578472926509 0 0.23232272155890341 -0.19906227567560569 0 0.24624710011957149 -0.19756578472926509 0 0.2390873575194972 -0.2119906927462733 0 0.23232272155890341 -0.19906227567560569 0 0.25806059678156651 -0.21160485628964759 0 0.24624710011957149 -0.19756578472926509 0 0.2390873575194972 -0.2119906927462733 0 0.25806059678156651 -0.21160485628964759 0 0.2390873575194972 -0.2119906927462733 0 0.2485278721491469 -0.22983386195931649 0 0.22156570902884701 -0.2081716276760221 0 0.2275965143199381 -0.22680811778712909 0 0.21130945108473639 -0.22000441216527869 0 0.2390873575194972 -0.2119906927462733 0 0.22156570902884701 -0.2081716276760221 0 0.23232272155890341 -0.19906227567560569 0 0.2390873575194972 -0.2119906927462733 0 0.22156570902884701 -0.2081716276760221 0 0.2275965143199381 -0.22680811778712909 0 0.22156570902884701 -0.2081716276760221 0 0.2213864998634191 -0.19074186604973761 0 0.23232272155890341 -0.19906227567560569 0 0.2363010186387848 -0.18586727398715949 0 0.2213864998634191 -0.19074186604973761 0 0.23232272155890341 -0.19906227567560569 0 0.2410490216361528 -0.25300372010805161 0 0.2485278721491469 -0.22983386195931649 0 0.2275965143199381 -0.22680811778712909 0 0.25787859859726192 -0.24372773219337371 0 0.2410490216361528 -0.25300372010805161 0 0.2485278721491469 -0.22983386195931649 0 0.2390873575194972 -0.2119906927462733 0 0.2485278721491469 -0.22983386195931649 0 0.2275965143199381 -0.22680811778712909 0 0.2410490216361528 -0.25300372010805161 0 0.2275965143199381 -0.22680811778712909 0 0.2136455624920251 -0.24586339942155419 0 0.2410490216361528 -0.25300372010805161 0 0.2136455624920251 -0.24586339942155419 0 0.2136455624920251 -0.24586339942155419 0 0.1995187067769538 -0.22648505830905971 0 0.1970165427207646 -0.2431475676051908 0 0.2275965143199381 -0.22680811778712909 0 0.2136455624920251 -0.24586339942155419 0 0.21130945108473639 -0.22000441216527869 0 0.2136455624920251 -0.24586339942155419 0 0.21130945108473639 -0.22000441216527869 0 0.1995187067769538 -0.22648505830905971 0 0.1995187067769538 -0.22648505830905971 0 0.1970165427207646 -0.2431475676051908 0 0.1843931124890181 -0.23269732176232691 0 0.21130945108473639 -0.22000441216527869 0 0.1995187067769538 -0.22648505830905971 0 0.19847161958806309 -0.21206345826637629 0 0.2064216300685435 -0.1763378775815001 0 0.2213864998634191 -0.19074186604973761 0 0.20705859430259141 -0.20063481153153051 0 0.22156570902884701 -0.2081716276760221 0 0.2213864998634191 -0.19074186604973761 0 0.20705859430259141 -0.20063481153153051 0 0.22156570902884701 -0.2081716276760221 0 0.21130945108473639 -0.22000441216527869 0 0.20705859430259141 -0.20063481153153051 0 0.21130945108473639 -0.22000441216527869 0 0.20705859430259141 -0.20063481153153051 0 0.19847161958806309 -0.21206345826637629 0 0.19847161958806309 -0.21206345826637629 0 0.19333004299069351 -0.19482382871724169 0 0.184507054165965 -0.21658659277756609 0 0.1995187067769538 -0.22648505830905971 0 0.19847161958806309 -0.21206345826637629 0 0.184507054165965 -0.21658659277756609 0 0.20705859430259141 -0.20063481153153051 0 0.19847161958806309 -0.21206345826637629 0 0.19333004299069351 -0.19482382871724169 0 0.2064216300685435 -0.1763378775815001 0 0.20705859430259141 -0.20063481153153051 0 0.19333004299069351 -0.19482382871724169 0 0.1776330785524223 -0.18942424135099509 0 0.184507054165965 -0.21658659277756609 0 0.16837846483810831 -0.20319749351435479 0 0.19333004299069351 -0.19482382871724169 0 0.1776330785524223 -0.18942424135099509 0 0.184507054165965 -0.21658659277756609 0 0.1776330785524223 -0.18942424135099509 0 0.184507054165965 -0.21658659277756609 0 0.184507054165965 -0.21658659277756609 0 0.1749867686249286 -0.21735889230250449 0 0.16837846483810831 -0.20319749351435479 0 0.1749867686249286 -0.21735889230250449 0 0.16837846483810831 -0.20319749351435479 0 0.15045483047290331 -0.2082327262959493 0 0.1749867686249286 -0.21735889230250449 0 0.15045483047290331 -0.2082327262959493 0 0.1749867686249286 -0.21735889230250449 0 0.16226861639455931 -0.22172210758959859 0 0.15045483047290331 -0.2082327262959493 0 0.16837846483810831 -0.20319749351435479 0 0.15045483047290331 -0.2082327262959493 0 0.15431059237432221 -0.18438501484475869 0 0.1776330785524223 -0.18942424135099509 0 0.16837846483810831 -0.20319749351435479 0 0.15431059237432221 -0.18438501484475869 0 0.1970165427207646 -0.2431475676051908 0 0.18013525364959199 -0.24590787480667409 0 0.1843931124890181 -0.23269732176232691 0 0.18013525364959199 -0.24590787480667409 0 0.1843931124890181 -0.23269732176232691 0 0.17030829067285161 -0.2305872157882054 0 0.1995187067769538 -0.22648505830905971 0 0.1749867686249286 -0.21735889230250449 0 0.1995187067769538 -0.22648505830905971 0 0.1749867686249286 -0.21735889230250449 0 0.1843931124890181 -0.23269732176232691 0 0.1995187067769538 -0.22648505830905971 0 0.184507054165965 -0.21658659277756609 0 0.1749867686249286 -0.21735889230250449 0 0.1749867686249286 -0.21735889230250449 0 0.1843931124890181 -0.23269732176232691 0 0.17030829067285161 -0.2305872157882054 0 0.16226861639455931 -0.22172210758959859 0 0.17030829067285161 -0.2305872157882054 0 0.15332457580755371 -0.23070959597173549 0 0.1749867686249286 -0.21735889230250449 0 0.16226861639455931 -0.22172210758959859 0 0.17030829067285161 -0.2305872157882054 0 0.16103468924722281 -0.25381861710109321 0 0.18013525364959199 -0.24590787480667409 0 0.17030829067285161 -0.2305872157882054 0 0.16103468924722281 -0.25381861710109321 0 0.17030829067285161 -0.2305872157882054 0 0.15332457580755371 -0.23070959597173549 0 0.16103468924722281 -0.25381861710109321 0 0.1412434604122122 -0.24631040783256791 0 0.15332457580755371 -0.23070959597173549 0 0.1412434604122122 -0.24631040783256791 0 0.15332457580755371 -0.23070959597173549 0 0.1284413173888232 -0.22347585252773641 0 0.15332457580755371 -0.23070959597173549 0 0.1284413173888232 -0.22347585252773641 0 0.15045483047290331 -0.2082327262959493 0 0.16226861639455931 -0.22172210758959859 0 0.15332457580755371 -0.23070959597173549 0 0.15045483047290331 -0.2082327262959493 0 0.1200034520355143 -0.24749468667538321 0 0.1412434604122122 -0.24631040783256791 0 0.1284413173888232 -0.22347585252773641 0 0.15045483047290331 -0.2082327262959493 0 0.12592289232087811 -0.19910656028939411 0 0.15431059237432221 -0.18438501484475869 0 0.15045483047290331 -0.2082327262959493 0 0.12592289232087811 -0.19910656028939411 0 0.1284413173888232 -0.22347585252773641 0 0.15045483047290331 -0.2082327262959493 0 0.12592289232087811 -0.19910656028939411 0 0.11404320040195411 -0.17785048998131209 0 0.12592289232087811 -0.19910656028939411 0 0.1362427207560932 -0.1734399905344442 0 0.12592289232087811 -0.19910656028939411 0 0.1362427207560932 -0.1734399905344442 0 0.15431059237432221 -0.18438501484475869 0 0.1362427207560932 -0.1734399905344442 0 0.15431059237432221 -0.18438501484475869 0 0.1498051255961938 -0.157092757972084 0 0.11404320040195411 -0.17785048998131209 0 0.1362427207560932 -0.1734399905344442 0 0.1305387904294309 -0.15561497697083931 0 0.1362427207560932 -0.1734399905344442 0 0.1498051255961938 -0.157092757972084 0 0.1305387904294309 -0.15561497697083931 0 0.1498051255961938 -0.157092757972084 0 0.1305387904294309 -0.15561497697083931 0 0.13638976604354719 -0.13495016646355951 0 0.1161887790728692 -0.1476769396888597 0 0.1305387904294309 -0.15561497697083931 0 0.13638976604354719 -0.13495016646355951 0 0.12800820934211829 -0.12401417466047961 0 0.13638976604354719 -0.13495016646355951 0 0.1486045981545247 -0.12747252536747111 0 0.13638976604354719 -0.13495016646355951 0 0.16388512732533739 -0.13509953849785281 0 0.13638976604354719 -0.13495016646355951 0 0.1486045981545247 -0.12747252536747111 0 0.16388512732533739 -0.13509953849785281 0 0.1498051255961938 -0.157092757972084 0 0.13638976604354719 -0.13495016646355951 0 0.16388512732533739 -0.13509953849785281 0 0.16388512732533739 -0.13509953849785281 0 0.17075910293887969 -0.16226188992442411 0 0.1498051255961938 -0.157092757972084 0 0.16388512732533739 -0.13509953849785281 0 0.17075910293887969 -0.16226188992442411 0 0.18014950107347269 -0.1188522098678762 0 0.16265603278097029 -0.1302428005884553 0 0.16388512732533739 -0.13509953849785281 0 0.16095359288685571 -0.1184472051676727 0 0.1486045981545247 -0.12747252536747111 0 0.16265603278097029 -0.1302428005884553 0 0.1486045981545247 -0.12747252536747111 0 0.16265603278097029 -0.1302428005884553 0 0.16388512732533739 -0.13509953849785281 0 0.16265603278097029 -0.1302428005884553 0 0.16388512732533739 -0.13509953849785281 0 0.19406318364410949 -0.13526348461287321 0 0.16388512732533739 -0.13509953849785281 0 0.18014950107347269 -0.1188522098678762 0 0.19406318364410949 -0.13526348461287321 0 0.18014950107347269 -0.1188522098678762 0 0.19406318364410949 -0.13526348461287321 0 0.16388512732533739 -0.13509953849785281 0 0.19019323353294471 -0.15547991582157239 0 0.16388512732533739 -0.13509953849785281 0 0.17075910293887969 -0.16226188992442411 0 0.19019323353294471 -0.15547991582157239 0 0.19406318364410949 -0.13526348461287321 0 0.16388512732533739 -0.13509953849785281 0 0.19019323353294471 -0.15547991582157239 0 0.185888281266576 -0.1738959907954824 0 0.17075910293887969 -0.16226188992442411 0 0.1776330785524223 -0.18942424135099509 0 0.185888281266576 -0.1738959907954824 0 0.17075910293887969 -0.16226188992442411 0 0.1776330785524223 -0.18942424135099509 0 0.17075910293887969 -0.16226188992442411 0 0.19333004299069351 -0.19482382871724169 0 0.1776330785524223 -0.18942424135099509 0 0.185888281266576 -0.1738959907954824 0 0.1776330785524223 -0.18942424135099509 0 0.15431059237432221 -0.18438501484475869 0 0.17075910293887969 -0.16226188992442411 0 0.15431059237432221 -0.18438501484475869 0 0.1498051255961938 -0.157092757972084 0 0.17075910293887969 -0.16226188992442411 0 
</DataArray>
</Points>
<Cells>
<DataArray type="UInt32" Name="connectivity" format="ascii">
0 1 2 3 4 5 6 7 8 9 10 11 12 13 14 15 16 17 18 19 20 21 22 23 24 25 26 27 28 29 30 31 32 33 34 35 36 37 38 39 40 41 42 43 44 45 46 47 48 49 50 51 52 53 54 55 56 57 58 59 60 61 62 63 64 65 66 67 68 69 70 71 72 73 74 75 76 77 78 79 80 81 82 83 84 85 86 87 88 89 90 91 92 93 94 95 96 97 98 99 100 101 102 103 104 105 106 107 108 109 110 111 112 113 114 115 116 117 118 119 120 121 122 123 124 125 126 127 128 129 130 131 132 133 134 135 136 137 138 139 140 141 142 143 144 145 146 147 148 149 150 151 152 153 154 155 156 157 158 159 160 161 162 163 164 165 166 167 168 169 170 171 172 173 174 175 176 177 178 179 180 181 182 183 184 185 186 187 188 189 190 191 192 193 194 195 196 197 198 199 200 201 202 203 204 205 206 207 208 209 210 211 212 213 214 215 216 217 218 219 220 221 222 223 224 225 226 227 228 229 230 231 232 233 234 235 236 237 238 239 240 241 242 243 244 245 246 247 248 249 250 251 252 253 254 255 256 257 258 259 260 261 262 263 264 265 266 267 268 269 270 271 272 273 274 275 276 277 278 279 280 281 282 283 284 285 286 287 288 289 290 291 292 293 294 295 296 297 298 299 300 301 302 303 304 305 306 307 308 309 310 311 312 313 314 315 316 317 318 319 320 321 322 323 324 325 326 327 328 329 330 331 332 333 334 335 336 337 338 339 340 341 342 343 344 345 346 347 348 349 350 351 352 353 354 355 356 357 358 359 360 361 362 363 364 365 366 367 368 369 370 371 372 373 374 375 376 377 378 379 380 381 382 383 384 385 386 387 388 389 390 391 392 393 394 395 396 397 398 399 400 401 402 403 404 405 406 407 408 409 410 411 412 413 414 415 416 417 418 419 420 421 422 423 424 425 426 427 428 429 430 431 432 433 434 435 436 437 438 439 440 441 442 443 444 445 446 447 448 449 450 451 452 453 454 455 456 457 458 459 460 461 462 463 464 465 466 467 468 469 470 471 472 473 474 475 476 477 478 479 480 481 482 483 484 485 486 487 488 489 490 491 492 493 494 495 496 497 498 499 500 501 502 503 504 505 506 507 508 509 510 511 512 513 514 515 516 517 518 519 520 521 522 523 524 525 526 527 528 529 530 531 532 533 534 535 536 537 538 539 540 541 542 543 544 545 546 547 548 549 550 551 552 553 554 555 556 557 558 559 560 561 562 563 564 565 566 567 568 569 570 571 572 573 574 575 576 577 578 579 580 581 582 583 584 585 586 587 588 589 590 591 592 593 594 595 596 597 598 599 600 601 602 603 604 605 606 607 608 609 610 611 612 613 614 615 616 617 618 619 620 621 622 623 624 625 626 627 628 629 630 631 632 633 634 635 636 637 638 639 640 641 642 643 644 645 646 647 648 649 650 651 652 653 654 655 656 657 658 659 660 661 662 663 664 665 666 667 668 669 670 671 672 673 674 675 676 677 678 679 680 681 682 683 684 685 686 687 688 689 690 691 692 693 694 695 696 697 698 699 700 701 702 703 704 705 706 707 708 709 710 711 712 713 714 715 716 717 718 719 720 721 722 723 724 725 726 727 728 729 730 731 732 733 734 735 736 737 738 739 740 741 742 743 744 745 746 747 748 749 750 751 752 753 754 755 756 757 758 759 760 761 762 763 764 765 766 767 768 769 770 771 772 773 774 775 776 777 778 779 780 781 782 783 784 785 786 787 788 789 790 791 792 793 794 795 796 797 798 799 800 801 802 803 804 805 806 807 808 809 810 811 812 813 814 815 816 817 818 819 820 821 822 823 824 825 826 827 828 829 830 831 832 833 834 835 836 837 838 839 840 841 842 843 844 845 846 847 848 849 850 851 852 853 854 855 856 857 858 859 860 861 862 863 864 865 866 867 868 869 870 871 872 873 874 875 876 877 878 879 880 881 882 883 884 885 886 887 888 889 890 891 892 893 894 895 896 897 898 899 900 901 902 903 904 905 906 907 908 909 910 911 912 913 914 915 916 917 918 919 920 921 922 923 924 925 926 927 928 929 930 931 932 933 934 935 936 937 938 939 940 941 942 943 944 945 946 947 948 949 950 951 952 953 954 955 956 957 958 959 960 961 962 963 964 965 966 967 968 969 970 971 972 973 974 975 976 977 978 979 980 981 982 983 984 985 986 987 988 989 990 991 992 993 994 995 996 997 998 999 1000 1001 1002 1003 1004 1005 1006 1007 1008 1009 1010 1011 1012 1013 1014 1015 1016 1017 1018 1019 1020 1021 1022 1023 1024 1025 1026 1027 1028 1029 1030 1031 1032 1033 1034 1035 1036 1037 1038 1039 1040 1041 1042 1043 1044 1045 1046 1047 1048 1049 1050 1051 1052 1053 1054 1055 1056 1057 1058 1059 1060 1061 1062 1063 1064 1065 1066 1067 1068 1069 1070 1071 1072 1073 1074 1075 1076 1077 1078 1079 1080 1081 1082 1083 1084 1085 1086 1087 1088 1089 1090 1091 1092 1093 1094 1095 1096 1097 1098 1099 1100 1101 1102 1103 1104 1105 1106 1107 1108 1109 1110 1111 1112 1113 1114 1115 1116 1117 1118 1119 1120 1121 1122 1123 1124 1125 1126 1127 1128 1129 1130 1131 1132 1133 1134 1135 1136 1137 1138 1139 1140 1141 1142 1143 1144 1145 1146 1147 1148 1149 1150 1151 1152 1153 1154 1155 1156 1157 1158 1159 1160 1161 1162 1163 1164 1165 1166 1167 1168 1169 1170 1171 1172 1173 1174 1175 1176 1177 1178 1179 1180 1181 1182 1183 1184 1185 1186 1187 1188 1189 1190 1191 1192 1193 1194 1195 1196 1197 1198 1199 1200 1201 1202 1203 1204 1205 1206 1207 1208 1209 1210 1211 1212 1213 1214 1215 1216 1217 1218 1219 1220 1221 1222 1223 1224 1225 1226 1227 1228 1229 1230 1231 1232 1233 1234 1235 1236 1237 1238 1239 1240 1241 1242 1243 1244 1245 1246 1247 1248 1249 1250 1251 1252 1253 1254 1255 1256 1257 1258 1259 1260 1261 1262 1263 1264 1265 1266 1267 1268 1269 1270 1271 1272 1273 1274 1275 1276 1277 1278 1279 1280 1281 1282 1283 1284 1285 1286 1287 1288 1289 1290 1291 1292 1293 1294 1295 1296 1297 1298 1299 1300 1301 1302 1303 1304 1305 1306 1307 1308 1309 1310 1311 1312 1313 1314 1315 1316 1317 1318 1319 1320 1321 1322 1323 1324 1325 1326 1327 1328 1329 1330 1331 1332 1333 1334 1335 1336 1337 1338 1339 1340 1341 1342 1343 1344 1345 1346 1347 1348 1349 1350 1351 1352 1353 1354 1355 1356 1357 1358 1359 1360 1361 1362 1363 1364 1365 1366 1367 1368 1369 1370 1371 1372 1373 1374 1375 1376 1377 1378 1379 1380 1381 1382 1383 1384 1385 1386 1387 1388 1389 1390 1391 1392 1393 1394 1395 1396 1397 1398 1399 1400 1401 1402 1403 1404 1405 1406 1407 1408 1409 1410 1411 1412 1413 1414 1415 1416 1417 1418 1419 1420 1421 1422 1423 1424 1425 1426 1427 1428 1429 1430 1431 1432 1433 1434 1435 1436 1437 1438 1439 1440 1441 1442 1443 1444 1445 1446 1447 1448 1449 1450 1451 1452 1453 1454 1455 1456 1457 1458 1459 1460 1461 1462 1463 1464 1465 1466 1467 1468 1469 1470 1471 1472 1473 1474 1475 1476 1477 1478 1479 1480 1481 1482 1483 1484 1485 1486 1487 1488 1489 1490 1491 1492 1493 1494 1495 1496 1497 1498 1499 1500 1501 1502 1503 1504 1505 1506 1507 1508 1509 1510 1511 1512 1513 1514 1515 1516 1517 1518 1519 1520 1521 1522 1523 1524 1525 1526 1527 1528 1529 1530 1531 1532 1533 1534 1535 1536 1537 1538 1539 1540 1541 1542 1543 1544 1545 1546 1547 1548 1549 1550 1551 1552 1553 1554 1555 1556 1557 1558 1559 1560 1561 1562 1563 1564 1565 1566 1567 1568 1569 1570 1571 1572 1573 1574 1575 1576 1577 1578 1579 1580 1581 1582 1583 1584 1585 1586 1587 1588 1589 1590 1591 1592 1593 1594 1595 1596 1597 1598 1599 1600 1601 1602 1603 1604 1605 1606 1607 1608 1609 1610 1611 1612 1613 1614 1615 1616 1617 1618 1619 1620 1621 1622 1623 1624 1625 1626 1627 1628 1629 1630 1631 1632 1633 1634 1635 1636 1637 1638 1639 1640 1641 1642 1643 1644 1645 1646 1647 1648 1649 1650 1651 1652 1653 1654 1655 1656 1657 1658 1659 1660 1661 1662 1663 1664 1665 1666 1667 1668 1669 1670 1671 1672 1673 1674 1675 1676 1677 1678 1679 1680 1681 1682 1683 1684 1685 1686 1687 1688 1689 1690 1691 1692 1693 1694 1695 1696 1697 1698 1699 1700 1701 1702 1703 1704 1705 1706 1707 1708 1709 1710 1711 1712 1713 1714 1715 1716 1717 1718 1719 1720 1721 1722 1723 1724 1725 1726 1727 1728 1729 1730 1731 1732 1733 1734 1735 1736 1737 1738 1739 1740 1741 1742 1743 1744 1745 1746 1747 1748 1749 1750 1751 1752 1753 1754 1755 1756 1757 1758 1759 1760 1761 1762 1763 1764 1765 1766 1767 1768 1769 1770 1771 1772 1773 1774 1775 1776 1777 1778 1779 1780 1781 1782 1783 1784 1785 1786 1787 1788 1789 1790 1791 1792 1793 1794 1795 1796 1797 1798 1799 1800 1801 1802 1803 1804 1805 1806 1807 1808 1809 1810 1811 1812 1813 1814 1815 1816 1817 1818 1819 1820 1821 1822 1823 1824 1825 1826 1827 1828 1829 1830 1831 1832 1833 1834 1835 1836 1837 1838 1839 1840 1841 1842 1843 1844 1845 1846 1847 1848 1849 1850 1851 1852 1853 1854 1855 1856 1857 1858 1859 1860 1861 1862 1863 1864 1865 1866 1867 1868 1869 1870 1871 1872 1873 1874 1875 1876 1877 1878 1879 1880 1881 1882 1883 1884 1885 1886 1887 1888 1889 1890 1891 1892 1893 1894 1895 1896 1897 1898 1899 1900 1901 1902 1903 1904 1905 1906 1907 1908 1909 1910 1911 1912 1913 1914 1915 1916 1917 1918 1919 1920 1921 1922 1923 1924 1925 1926 1927 1928 1929 1930 1931 1932 1933 1934 1935 1936 1937 1938 1939 1940 1941 1942 1943 1944 1945 1946 1947 1948 1949 1950 1951 1952 1953 1954 1955 1956 1957 1958 1959 1960 1961 1962 1963 1964 1965 1966 1967 1968 1969 1970 1971 1972 1973 1974 1975 1976 1977 1978 1979 1980 1981 1982 1983 1984 1985 1986 1987 1988 1989 1990 1991 1992 1993 1994 1995 1996 1997 1998 1999 2000 2001 2002 2003 2004 2005 2006 2007 2008 2009 2010 2011 2012 2013 2014 2015 2016 2017 2018 2019 2020 2021 2022 2023 2024 2025 2026 2027 2028 2029 2030 2031 2032 2033 2034 2035 2036 2037 2038 2039 2040 2041 2042 2043 2044 2045 2046 2047 2048 2049 2050 2051 2052 2053 2054 2055 2056 2057 2058 2059 2060 2061 2062 2063 2064 2065 2066 2067 2068 2069 2070 2071 2072 2073 2074 2075 2076 2077 2078 2079 2080 2081 2082 2083 2084 2085 2086 2087 2088 2089 2090 2091 2092 2093 2094 2095 2096 2097 2098 2099 2100 2101 2102 2103 2104 2105 2106 2107 2108 2109 2110 2111 2112 2113 2114 2115 2116 2117 2118 2119 2120 2121 2122 2123 2124 2125 2126 2127 2128 2129 2130 2131 2132 2133 2134 2135 2136 2137 2138 2139 2140 2141 2142 2143 2144 2145 2146 2147 2148 2149 2150 2151 2152 2153 2154 2155 2156 2157 2158 2159 2160 2161 2162 2163 2164 2165 2166 2167 2168 2169 2170 2171 2172 2173 2174 2175 2176 2177 2178 2179 2180 2181 2182 2183 2184 2185 2186 2187 2188 2189 2190 2191 2192 2193 2194 2195 2196 2197 2198 2199 2200 2201 2202 2203 2204 2205 2206 2207 2208 2209 2210 2211 2212 2213 2214 2215 2216 2217 2218 2219 2220 2221 2222 2223 2224 2225 2226 2227 2228 2229 2230 2231 2232 2233 2234 2235 2236 2237 2238 2239 2240 2241 2242 2243 2244 2245 2246 2247 2248 2249 2250 2251 2252 2253 2254 2255 2256 2257 2258 2259 2260 2261 2262 2263 2264 2265 2266 2267 2268 2269 2270 2271 2272 2273 2274 2275 2276 2277 2278 2279 2280 2281 2282 2283 2284 2285 2286 2287 2288 2289 2290 2291 2292 2293 2294 2295 2296 2297 2298 2299 2300 2301 2302 2303 2304 2305 2306 2307 2308 2309 2310 2311 2312 2313 2314 2315 2316 2317 2318 2319 2320 2321 2322 2323 2324 2325 2326 2327 2328 2329 2330 2331 2332 2333 2334 2335 2336 2337 2338 2339 2340 2341 2342 2343 2344 2345 2346 2347 2348 2349 2350 2351 2352 2353 2354 2355 2356 2357 2358 2359 2360 2361 2362 2363 2364 2365 2366 2367 2368 2369 2370 2371 2372 2373 2374 2375 2376 2377 2378 2379 2380 2381 2382 2383 2384 2385 2386 2387 2388 2389 2390 2391 2392 2393 2394 2395 2396 2397 2398 2399 2400 2401 2402 2403 2404 2405 2406 2407 2408 2409 2410 2411 2412 2413 2414 2415 2416 2417 2418 2419 2420 2421 2422 2423 2424 2425 2426 2427 2428 2429 2430 2431 2432 2433 2434 2435 2436 2437 2438 2439 2440 2441 2442 2443 2444 2445 2446 2447 2448 2449 2450 2451 2452 2453 2454 2455 2456 2457 2458 2459 2460 2461 2462 2463 2464 2465 2466 2467 2468 2469 2470 2471 2472 2473 2474 2475 2476 2477 2478 2479 2480 2481 2482 2483 2484 2485 2486 2487 2488 2489 2490 2491 2492 2493 2494 2495 2496 2497 2498 2499 2500 2501 2502 2503 2504 2505 2506 2507 2508 2509 2510 2511 2512 2513 2514 2515 2516 2517 2518 2519 2520 2521 2522 2523 2524 2525 2526 2527 2528 2529 2530 2531 2532 2533 2534 2535 2536 2537 2538 2539 2540 2541 2542 2543 2544 2545 2546 2547 2548 2549 2550 2551 2552 2553 2554 2555 2556 2557 2558 2559 2560 2561 2562 2563 2564 2565 2566 2567 2568 2569 2570 2571 2572 2573 2574 2575 2576 2577 2578 2579 2580 2581 2582 2583 2584 2585 2586 2587 2588 2589 2590 2591 2592 2593 2594 2595 2596 2597 2598 2599 2600 2601 2602 2603 2604 2605 2606 2607 2608 2609 2610 2611 2612 2613 2614 2615 2616 2617 2618 2619 2620 2621 2622 2623 2624 2625 2626 2627 2628 2629 2630 2631 2632 2633 2634 2635 2636 2637 2638 2639 2640 2641 2642 2643 2644 2645 2646 2647 2648 2649 2650 2651 2652 2653 2654 2655 2656 2657 2658 2659 2660 2661 2662 2663 2664 2665 2666 2667 2668 2669 2670 2671 2672 2673 2674 2675 2676 2677 2678 2679 2680 2681 2682 2683 2684 2685 2686 2687 2688 2689 2690 2691 2692 2693 2694 2695 2696 2697 2698 2699 2700 2701 2702 2703 2704 2705 2706 2707 2708 2709 2710 2711 2712 2713 2714 2715 2716 2717 2718 2719 2720 2721 2722 2723 2724 2725 2726 2727 2728 2729 2730 2731 2732 2733 2734 2735 2736 2737 2738 2739 2740 2741 2742 2743 2744 2745 2746 2747 2748 2749 2750 2751 2752 2753 2754 2755 2756 2757 2758 2759 2760 2761 2762 2763 2764 2765 2766 2767 2768 2769 2770 2771 2772 2773 2774 2775 2776 2777 2778 2779 2780 2781 2782 2783 2784 2785 2786 2787 2788 2789 2790 2791 2792 2793 2794 2795 2796 2797 2798 2799 2800 2801 2802 2803 2804 2805 2806 2807 2808 2809 2810 2811 2812 2813 2814 2815 2816 2817 2818 2819 2820 2821 2822 2823 2824 2825 2826 2827 2828 2829 2830 2831 2832 2833 2834 2835 2836 2837 2838 2839 2840 2841 2842 2843 2844 2845 2846 2847 2848 2849 2850 2851 2852 2853 2854 2855 2856 2857 2858 2859 2860 2861 2862 2863 2864 2865 2866 2867 2868 2869 2870 2871 2872 2873 2874 2875 2876 2877 2878 2879 2880 2881 2882 2883 2884 2885 2886 2887 2888 2889 2890 2891 2892 2893 2894 2895 2896 2897 2898 2899 2900 2901 2902 2903 2904 2905 2906 2907 2908 2909 2910 2911 2912 2913 2914 2915 2916 2917 2918 2919 2920 2921 2922 2923 2924 2925 2926 2927 2928 2929 2930 2931 2932 2933 2934 2935 2936 2937 2938 2939 2940 2941 2942 2943 2944 2945 2946 2947 2948 2949 2950 2951 2952 2953 2954 2955 2956 2957 2958 2959 2960 2961 2962 2963 2964 2965 2966 2967 2968 2969 2970 2971 2972 2973 2974 2975 2976 2977 2978 2979 2980 2981 2982 2983 2984 2985 2986 2987 2988 2989 2990 2991 2992 2993 2994 2995 2996 2997 2998 2999 3000 3001 3002 3003 3004 3005 3006 3007 3008 3009 3010 3011 3012 3013 3014 3015 3016 3017 3018 3019 3020 3021 3022 3023 3024 3025 3026 3027 3028 3029 3030 3031 3032 3033 3034 3035 3036 3037 3038 3039 3040 3041 3042 3043 3044 3045 3046 3047 3048 3049 3050 3051 3052 3053 3054 3055 3056 3057 3058 3059 3060 3061 3062 3063 3064 3065 3066 3067 3068 3069 3070 3071 3072 3073 3074 3075 3076 3077 3078 3079 3080 3081 3082 3083 3084 3085 3086 3087 3088 3089 3090 3091 3092 3093 3094 3095 3096 3097 3098 3099 3100 3101 3102 3103 3104 3105 3106 3107 3108 3109 3110 3111 3112 3113 3114 3115 3116 3117 3118 3119 3120 3121 3122 3123 3124 3125 3126 3127 3128 3129 3130 3131 3132 3133 3134 3135 3136 3137 3138 3139 3140 3141 3142 3143 3144 3145 3146 3147 3148 3149 3150 3151 3152 3153 3154 3155 3156 3157 3158 3159 3160 3161 3162 3163 3164 3165 3166 3167 3168 3169 3170 3171 3172 3173 3174 3175 3176 3177 3178 3179 3180 3181 3182 3183 3184 3185 3186 3187 3188 3189 3190 3191 3192 3193 3194 3195 3196 3197 3198 3199 3200 3201 3202 3203 3204 3205 3206 3207 3208 3209 3210 3211 3212 3213 3214 3215 3216 3217 3218 3219 3220 3221 3222 3223 3224 3225 3226 3227 3228 3229 3230 3231 3232 3233 3234 3235 3236 3237 3238 3239 3240 3241 3242 3243 3244 3245 3246 3247 3248 3249 3250 3251 3252 3253 3254 3255 3256 3257 3258 3259 3260 3261 3262 3263 3264 3265 3266 3267 3268 3269 3270 3271 3272 3273 3274 3275 3276 3277 3278 3279 3280 3281 3282 3283 3284 3285 3286 3287 3288 3289 3290 3291 3292 3293 3294 3295 3296 3297 3298 3299 3300 3301 3302 3303 3304 3305 3306 3307 3308 3309 3310 3311 3312 3313 3314 3315 3316 3317 3318 3319 3320 3321 3322 3323 3324 3325 3326 3327 3328 3329 3330 3331 3332 3333 3334 3335 3336 3337 3338 3339 3340 3341 3342 3343 3344 3345 3346 3347 3348 3349 3350 3351 3352 3353 3354 3355 3356 3357 3358 3359 3360 3361 3362 3363 3364 3365 3366 3367 3368 3369 3370 3371 3372 3373 3374 3375 3376 3377 3378 3379 3380 3381 3382 3383 3384 3385 3386 3387 3388 3389 3390 3391 3392 3393 3394 3395 3396 3397 3398 3399 3400 3401 3402 3403 3404 3405 3406 3407 3408 3409 3410 3411 3412 3413 3414 3415 3416 3417 3418 3419 3420 3421 3422 3423 3424 3425 3426 3427 3428 3429 3430 3431 3432 3433 3434 3435 3436 3437 3438 3439 3440 3441 3442 3443 3444 3445 3446 3447 3448 3449 3450 3451 3452 3453 3454 3455 3456 3457 3458 3459 3460 3461 3462 3463 3464 3465 3466 3467 3468 3469 3470 3471 3472 3473 3474 3475 3476 3477 3478 3479 3480 3481 3482 3483 3484 3485 3486 3487 3488 3489 3490 3491 3492 3493 3494 3495 3496 3497 3498 3499 3500 3501 3502 3503 3504 3505 3506 3507 3508 3509 3510 3511 3512 3513 3514 3515 3516 3517 3518 3519 3520 3521 3522 3523 3524 3525 3526 3527 3528 3529 3530 3531 3532 3533 3534 3535 3536 3537 3538 3539 3540 3541 3542 3543 3544 3545 3546 3547 3548 3549 3550 3551 3552 3553 3554 3555 3556 3557 3558 3559 3560 3561 3562 3563 3564 3565 3566 3567 3568 3569 3570 3571 3572 3573 3574 3575 3576 3577 3578 3579 3580 3581 3582 3583 3584 3585 3586 3587 3588 3589 3590 3591 3592 3593 3594 3595 3596 3597 3598 3599 3600 3601 3602 3603 3604 3605 3606 3607 3608 3609 3610 3611 3612 3613 3614 3615 3616 3617 3618 3619 3620 3621 3622 3623 3624 3625 3626 3627 3628 3629 3630 3631 3632 3633 3634 3635 3636 3637 3638 3639 3640 3641 3642 3643 3644 3645 3646 3647 3648 3649 3650 3651 3652 3653 3654 3655 3656 3657 3658 3659 3660 3661 3662 3663 3664 3665 3666 3667 3668 3669 3670 3671 3672 3673 3674 3675 3676 3677 3678 3679 3680 3681 3682 3683 3684 3685 3686 3687 3688 3689 3690 3691 3692 3693 3694 3695 3696 3697 3698 3699 3700 3701 3702 3703 3704 3705 3706 3707 3708 3709 3710 3711 3712 3713 3714 3715 3716 3717 3718 3719 3720 3721 3722 3723 3724 3725 3726 3727 3728 3729 3730 3731 3732 3733 3734 3735 3736 3737 3738 3739 3740 3741 3742 3743 3744 3745 3746 3747 3748 3749 3750 3751 3752 3753 3754 3755 3756 3757 3758 3759 3760 3761 3762 3763 3764 3765 3766 3767 3768 3769 3770 3771 3772 3773 3774 3775 3776 3777 3778 3779 3780 3781 3782 3783 3784 3785 3786 3787 3788 3789 3790 3791 3792 3793 3794 3795 3796 3797 3798 3799 3800 3801 3802 3803 3804 3805 3806 3807 3808 3809 3810 3811 3812 3813 3814 3815 3816 3817 3818 3819 3820 3821 3822 3823 3824 3825 3826 3827 3828 3829 3830 3831 3832 3833 3834 3835 3836 3837 3838 3839 3840 3841 3842 3843 3844 3845 3846 3847 3848 3849 3850 3851 3852 3853 3854 3855 3856 3857 3858 3859 3860 3861 3862 3863 3864 3865 3866 3867 3868 3869 3870 3871 3872 3873 3874 3875 3876 3877 3878 3879 3880 3881 3882 3883 3884 3885 3886 3887 3888 3889 3890 3891 3892 3893 3894 3895 3896 3897 3898 3899 3900 3901 3902 3903 3904 3905 3906 3907 3908 3909 3910 3911 3912 3913 3914 3915 3916 3917 3918 3919 3920 3921 3922 3923 3924 3925 3926 3927 3928 3929 3930 3931 3932 3933 3934 3935 3936 3937 3938 3939 3940 3941 3942 3943 3944 3945 3946 3947 3948 3949 3950 3951 3952 3953 3954 3955 3956 3957 3958 3959 3960 3961 3962 3963 3964 3965 3966 3967 3968 3969 3970 3971 3972 3973 3974 3975 3976 3977 3978 3979 3980 3981 3982 3983 3984 3985 3986 3987 3988 3989 3990 3991 3992 3993 3994 3995 3996 3997 3998 3999 4000 4001 4002 4003 4004 4005 4006 4007 4008 4009 4010 4011 4012 4013 4014 4015 4016 4017 4018 4019 4020 4021 4022 4023 4024 4025 4026 4027 4028 4029 4030 4031 4032 4033 4034 4035 4036 4037 4038 4039 4040 4041 4042 4043 4044 4045 4046 4047 4048 4049 4050 4051 4052 4053 4054 4055 4056 4057 4058 4059 4060 4061 4062 4063 4064 4065 4066 4067 4068 4069 4070 4071 4072 4073 4074 4075 4076 4077 4078 4079 4080 4081 4082 4083 4084 4085 4086 4087 4088 4089 4090 4091 4092 4093 4094 4095 4096 4097 4098 4099 4100 4101 4102 4103 4104 4105 4106 4107 4108 4109 4110 4111 4112 4113 4114 4115 4116 4117 4118 4119 4120 4121 4122 4123 4124 4125 4126 4127 4128 4129 4130 4131 4132 4133 4134 4135 4136 4137 4138 4139 4140 4141 4142 4143 4144 4145 4146 4147 4148 4149 4150 4151 4152 4153 4154 4155 4156 4157 4158 4159 4160 4161 4162 4163 4164 4165 4166 4167 4168 4169 4170 4171 4172 4173 4174 4175 4176 4177 4178 4179 4180 4181 4182 4183 4184 4185 4186 4187 4188 4189 4190 4191 4192 4193 4194 4195 4196 4197 4198 4199 4200 4201 4202 4203 4204 4205 4206 4207 4208 4209 4210 4211 4212 4213 4214 4215 4216 4217 4218 4219 4220 4221 4222 4223 4224 4225 4226 4227 4228 4229 4230 4231 4232 4233 4234 4235 4236 4237 4238 4239 4240 4241 4242 4243 4244 4245 4246 4247 4248 4249 4250 4251 4252 4253 4254 4255 4256 4257 4258 4259 4260 4261 4262 4263 4264 4265 4266 4267 4268 4269 4270 4271 4272 4273 4274 4275 4276 4277 4278 4279 4280 4281 4282 4283 4284 4285 4286 4287 4288 4289 4290 4291 4292 4293 4294 4295 4296 4297 4298 4299 4300 4301 4302 4303 4304 4305 4306 4307 4308 4309 4310 4311 4312 4313 4314 4315 4316 4317 4318 4319 4320 4321 4322 4323 4324 4325 4326 4327 4328 4329 4330 4331 4332 4333 4334 4335 4336 4337 4338 4339 4340 4341 4342 4343 4344 4345 4346 4347 4348 4349 4350 4351 4352 4353 4354 4355 4356 4357 4358 4359 4360 4361 4362 4363 4364 4365 4366 4367 4368 4369 4370 4371 4372 4373 4374 4375 4376 4377 4378 4379 4380 4381 4382 4383 4384 4385 4386 4387 4388 4389 4390 4391 4392 4393 4394 4395 4396 4397 4398 4399 4400 4401 4402 4403 4404 4405 4406 4407 4408 4409 4410 4411 4412 4413 4414 4415 4416 4417 4418 4419 4420 4421 4422 4423 4424 4425 4426 4427 4428 4429 4430 4431 4432 4433 4434 4435 4436 4437 4438 4439 4440 4441 4442 4443 4444 4445 4446 4447 4448 4449 4450 4451 4452 4453 4454 4455 4456 4457 4458 4459 4460 4461 4462 4463 4464 4465 4466 4467 4468 4469 4470 4471 4472 4473 4474 4475 4476 4477 4478 4479 4480 4481 4482 4483 4484 4485 4486 4487 4488 4489 4490 4491 4492 4493 4494 4495 4496 4497 4498 4499 4500 4501 4502 4503 4504 4505 4506 4507 4508 4509 4510 4511 4512 4513 4514 4515 4516 4517 4518 4519 4520 4521 4522 4523 4524 4525 4526 4527 4528 4529 4530 4531 4532 4533 4534 4535 4536 4537 4538 4539 4540 4541 4542 4543 4544 4545 4546 4547 4548 4549 4550 4551 4552 4553 4554 4555 4556 4557 4558 4559 4560 4561 4562 4563 4564 4565 4566 4567 4568 4569 4570 4571 4572 4573 4574 4575 4576 4577 4578 4579 4580 4581 4582 4583 4584 4585 4586 4587 4588 4589 4590 4591 4592 4593 4594 4595 4596 4597 4598 4599 4600 4601 4602 4603 4604 4605 4606 4607 4608 4609 4610 4611 4612 4613 4614 4615 4616 4617 4618 4619 4620 4621 4622 4623 4624 4625 4626 4627 4628 4629 4630 4631 4632 4633 4634 4635 4636 4637 4638 4639 4640 4641 4642 4643 4644 4645 4646 4647 4648 4649 4650 4651 4652 4653 4654 4655 4656 4657 4658 4659 4660 4661 4662 4663 4664 4665 4666 4667 4668 4669 4670 4671 4672 4673 4674 4675 4676 4677 4678 4679 4680 4681 4682 4683 4684 4685 4686 4687 4688 4689 4690 4691 4692 4693 4694 4695 4696 4697 4698 4699 4700 4701 4702 4703 4704 4705 4706 4707 4708 4709 4710 4711 4712 4713 4714 4715 4716 4717 4718 4719 4720 4721 4722 4723 4724 4725 4726 4727 4728 4729 4730 4731 4732 4733 4734 4735 4736 4737 4738 4739 4740 4741 4742 4743 4744 4745 4746 4747 4748 4749 4750 4751 4752 4753 4754 4755 4756 4757 4758 4759 4760 4761 4762 4763 4764 4765 4766 4767 4768 4769 4770 4771 4772 4773 4774 4775 4776 4777 4778 4779 4780 4781 4782 4783 4784 4785 4786 4787 4788 4789 4790 4791 4792 4793 4794 4795 4796 4797 4798 4799 4800 4801 4802 4803 4804 4805 4806 4807 4808 4809 4810 4811 4812 4813 4814 4815 4816 4817 4818 4819 4820 4821 4822 4823 4824 4825 4826 4827 4828 4829 4830 4831 4832 4833 4834 4835 4836 4837 4838 4839 4840 4841 4842 4843 4844 4845 4846 4847 4848 4849 4850 4851 4852 4853 4854 4855 4856 4857 4858 4859 4860 4861 4862 4863 4864 4865 4866 4867 4868 4869 4870 4871 4872 4873 4874 4875 4876 4877 4878 4879 4880 4881 4882 4883 4884 4885 4886 4887 4888 4889 4890 4891 4892 4893 4894 4895 4896 4897 4898 4899 4900 4901 4902 4903 4904 4905 4906 4907 4908 4909 4910 4911 4912 4913 4914 4915 4916 4917 4918 4919 4920 4921 4922 4923 4924 4925 4926 4927 4928 4929 4930 4931 4932 4933 4934 4935 4936 4937 4938 4939 4940 4941 4942 4943 4944 4945 4946 4947 4948 4949 4950 4951 4952 4953 4954 4955 4956 4957 4958 4959 4960 4961 4962 4963 4964 4965 4966 4967 4968 4969 4970 4971 4972 4973 4974 4975 4976 4977 4978 4979 4980 4981 4982 4983 4984 4985 4986 4987 4988 4989 4990 4991 4992 4993 4994 4995 4996 4997 4998 4999 5000 5001 5002 5003 5004 5005 5006 5007 5008 5009 5010 5011 5012 5013 5014 5015 5016 5017 5018 5019 5020 5021 5022 5023 5024 5025 5026 5027 5028 5029 5030 5031 5032 5033 5034 5035 5036 5037 5038 5039 5040 5041 5042 5043 5044 5045 5046 5047 5048 5049 5050 5051 5052 5053 5054 5055 5056 5057 5058 5059 5060 5061 5062 5063 5064 5065 5066 5067 5068 5069 5070 5071 5072 5073 5074 5075 5076 5077 5078 5079 5080 5081 5082 5083 5084 5085 5086 5087 5088 5089 5090 5091 5092 5093 5094 5095 5096 5097 5098 5099 5100 5101 5102 5103 5104 5105 5106 5107 5108 5109 5110 5111 5112 5113 5114 5115 5116 5117 5118 5119 5120 5121 5122 5123 5124 5125 5126 5127 5128 5129 5130 5131 5132 5133 5134 5135 5136 5137 5138 5139 5140 5141 5142 5143 5144 5145 5146 5147 5148 5149 5150 5151 5152 5153 5154 5155 5156 5157 5158 5159 5160 5161 5162 5163 5164 5165 5166 5167 5168 5169 5170 5171 5172 5173 5174 5175 5176 5177 5178 5179 5180 5181 5182 5183 5184 5185 5186 5187 5188 5189 5190 5191 5192 5193 5194 5195 5196 5197 5198 5199 5200 5201 5202 5203 5204 5205 5206 5207 5208 5209 5210 5211 5212 5213 5214 5215 5216 5217 5218 5219 5220 5221 5222 5223 5224 5225 5226 5227 5228 5229 5230 5231 5232 5233 5234 5235 5236 5237 5238 5239 5240 5241 5242 5243 5244 5245 5246 5247 5248 5249 5250 5251 5252 5253 5254 5255 5256 5257 5258 5259 5260 5261 5262 5263 5264 5265 5266 5267 5268 5269 5270 5271 5272 5273 5274 5275 5276 5277 5278 5279 5280 5281 5282 5283 5284 5285 5286 5287 5288 5289 5290 5291 5292 5293 5294 5295 5296 5297 5298 5299 5300 5301 5302 5303 5304 5305 5306 5307 5308 5309 5310 5311 5312 5313 5314 5315 5316 5317 5318 5319 5320 5321 5322 5323 5324 5325 5326 5327 5328 5329 5330 5331 5332 5333 5334 5335 5336 5337 5338 5339 5340 5341 5342 5343 5344 5345 5346 5347 5348 5349 5350 5351 5352 5353 5354 5355 5356 5357 5358 5359 5360 5361 5362 5363 5364 5365 5366 5367 5368 5369 5370 5371 5372 5373 5374 5375 5376 5377 5378 5379 5380 5381 5382 5383 5384 5385 5386 5387 5388 5389 5390 5391 5392 5393 5394 5395 5396 5397 5398 5399 5400 5401 5402 5403 5404 5405 5406 5407 5408 5409 5410 5411 5412 5413 5414 5415 5416 5417 5418 5419 5420 5421 5422 5423 5424 5425 5426 5427 5428 5429 5430 5431 5432 5433 5434 5435 5436 5437 5438 5439 5440 5441 5442 5443 5444 5445 5446 5447 5448 5449 5450 5451 5452 5453 5454 5455 5456 5457 5458 5459 5460 5461 5462 5463 5464 5465 5466 5467 5468 5469 5470 5471 5472 5473 5474 5475 5476 5477 5478 5479 5480 5481 5482 5483 5484 5485 5486 5487 5488 5489 5490 5491 5492 5493 5494 5495 5496 5497 5498 5499 5500 5501 5502 5503 5504 5505 5506 5507 5508 5509 5510 5511 5512 5513 5514 5515 5516 5517 5518 5519 5520 5521 5522 5523 5524 5525 5526 5527 5528 5529 5530 5531 5532 5533 5534 5535 5536 5537 5538 5539 5540 5541 5542 5543 5544 5545 5546 5547 5548 5549 5550 5551 5552 5553 5554 5555 5556 5557 5558 5559 5560 5561 5562 5563 5564 5565 5566 5567 5568 5569 5570 5571 5572 5573 5574 5575 5576 5577 5578 5579 5580 5581 5582 5583 5584 5585 5586 5587 5588 5589 5590 5591 5592 5593 5594 5595 5596 5597 5598 5599 5600 5601 5602 5603 5604 5605 5606 5607 5608 5609 5610 5611 5612 5613 5614 5615 5616 5617 5618 5619 5620 5621 5622 5623 5624 5625 5626 5627 5628 5629 5630 5631 5632 5633 5634 5635 5636 5637 5638 5639 5640 5641 5642 5643 5644 5645 5646 5647 5648 5649 5650 5651 5652 5653 5654 5655 5656 5657 5658 5659 5660 5661 5662 5663 5664 5665 5666 5667 5668 5669 5670 5671 5672 5673 5674 5675 5676 5677 5678 5679 5680 5681 5682 5683 5684 5685 5686 5687 5688 5689 5690 5691 5692 5693 5694 5695 5696 5697 5698 5699 5700 5701 5702 5703 5704 5705 5706 5707 5708 5709 5710 5711 5712 5713 5714 5715 5716 5717 5718 5719 5720 5721 5722 5723 5724 5725 5726 5727 5728 5729 5730 5731 5732 5733 5734 5735 5736 5737 5738 5739 5740 5741 5742 5743 5744 5745 5746 5747 5748 5749 5750 5751 5752 5753 5754 5755 5756 5757 5758 5759 5760 5761 5762 5763 5764 5765 5766 5767 5768 5769 5770 5771 5772 5773 5774 5775 5776 5777 5778 5779 5780 5781 5782 5783 5784 5785 5786 5787 5788 5789 5790 5791 5792 5793 5794 5795 5796 5797 5798 5799 5800 5801 5802 5803 5804 5805 5806 5807 5808 5809 5810 5811 5812 5813 5814 5815 5816 5817 5818 5819 5820 5821 5822 5823 5824 5825 5826 5827 5828 5829 5830 5831 5832 5833 5834 5835 5836 5837 5838 5839 5840 5841 5842 5843 5844 5845 5846 5847 5848 5849 5850 5851 5852 5853 5854 5855 5856 5857 5858 5859 5860 5861 5862 5863 5864 5865 5866 5867 5868 5869 5870 5871 5872 5873 5874 5875 5876 5877 5878 5879 5880 5881 5882 5883 5884 5885 5886 5887 5888 5889 5890 5891 5892 5893 5894 5895 5896 5897 5898 5899 5900 5901 5902 5903 5904 5905 5906 5907 5908 5909 5910 5911 5912 5913 5914 5915 5916 5917 5918 5919 5920 5921 5922 5923 5924 5925 5926 5927 5928 5929 5930 5931 5932 5933 5934 5935 5936 5937 5938 5939 5940 5941 5942 5943 5944 5945 5946 5947 5948 5949 5950 5951 5952 5953 5954 5955 5956 5957 5958 5959 5960 5961 5962 5963 5964 5965 5966 5967 5968 5969 5970 5971 5972 5973 5974 5975 5976 5977 5978 5979 5980 5981 5982 5983 5984 5985 5986 5987 5988 5989 5990 5991 5992 5993 5994 5995 5996 5997 5998 5999 6000 6001 6002 6003 6004 6005 6006 6007 6008 6009 6010 6011 6012 6013 6014 6015 6016 6017 6018 6019 6020 6021 6022 6023 6024 6025 6026 6027 6028 6029 6030 6031 6032 6033 6034 6035 6036 6037 6038 6039 6040 6041 6042 6043 6044 6045 6046 6047 6048 6049 6050 6051 6052 6053 6054 6055 6056 6057 6058 6059 6060 6061 6062 6063 6064 6065 6066 6067 6068 6069 6070 6071 6072 6073 6074 6075 6076 6077 6078 6079 6080 6081 6082 6083 6084 6085 6086 6087 6088 6089 6090 6091 6092 6093 6094 6095 6096 6097 6098 6099 6100 6101 6102 6103 6104 6105 6106 6107 6108 6109 6110 6111 6112 6113 6114 6115 6116 6117 6118 6119 6120 6121 6122 6123 6124 6125 6126 6127 6128 6129 6130 6131 6132 6133 6134 6135 6136 6137 6138 6139 6140 6141 6142 6143 6144 6145 6146 6147 6148 6149 6150 6151 6152 6153 6154 6155 6156 6157 6158 6159 6160 6161 6162 6163 6164 6165 6166 6167 6168 6169 6170 6171 6172 6173 6174 6175 6176 6177 6178 6179 6180 6181 6182 6183 6184 6185 6186 6187 6188 6189 6190 6191 6192 6193 6194 6195 6196 6197 6198 6199 6200 6201 6202 6203 6204 6205 6206 6207 6208 6209 6210 6211 6212 6213 6214 6215 6216 6217 6218 6219 6220 6221 6222 6223 6224 6225 6226 6227 6228 6229 6230 6231 6232 6233 6234 6235 6236 6237 6238 6239 6240 6241 6242 6243 6244 6245 6246 6247 6248 6249 6250 6251 6252 6253 6254 6255 6256 6257 6258 6259 6260 6261 6262 6263 6264 6265 6266 6267 6268 6269 6270 6271 6272 6273 6274 6275 6276 6277 6278 6279 6280 6281 6282 6283 6284 6285 6286 6287 6288 6289 6290 6291 6292 6293 6294 6295 6296 6297 6298 6299 6300 6301 6302 6303 6304 6305 6306 6307 6308 6309 6310 6311 6312 6313 6314 6315 6316 6317 6318 6319 6320 6321 6322 6323 6324 6325 6326 6327 6328 6329 6330 6331 6332 6333 6334 6335 6336 6337 6338 6339 6340 6341 6342 6343 6344 6345 6346 6347 6348 6349 6350 6351 6352 6353 6354 6355 6356 6357 6358 6359 6360 6361 6362 6363 6364 6365 6366 6367 6368 6369 6370 6371 6372 6373 6374 6375 6376 6377 6378 6379 6380 6381 6382 6383 6384 6385 6386 6387 6388 6389 6390 6391 6392 6393 6394 6395 6396 6397 6398 6399 6400 6401 6402 6403 6404 6405 6406 6407 6408 6409 6410 6411 6412 6413 6414 6415 6416 6417 6418 6419 6420 6421 6422 6423 6424 6425 6426 6427 6428 6429 6430 6431 6432 6433 6434 6435 6436 6437 6438 6439 6440 6441 6442 6443 6444 6445 6446 6447 6448 6449 6450 6451 6452 6453 6454 6455 6456 6457 6458 6459 6460 6461 6462 6463 6464 6465 6466 6467 6468 6469 6470 6471 6472 6473 6474 6475 6476 6477 6478 6479 6480 6481 6482 6483 6484 6485 6486 6487 6488 6489 6490 6491 6492 6493 6494 6495 6496 6497 6498 6499 6500 6501 6502 6503 6504 6505 6506 6507 6508 6509 6510 6511 6512 6513 6514 6515 6516 6517 6518 6519 6520 6521 6522 6523 6524 6525 6526 6527 6528 6529 6530 6531 6532 6533 6534 6535 6536 6537 6538 6539 6540 6541 6542 6543 6544 6545 6546 6547 6548 6549 6550 6551 6552 6553 6554 6555 6556 6557 6558 6559 6560 6561 6562 6563 6564 6565 6566 6567 6568 6569 6570 6571 6572 6573 6574 6575 6576 6577 6578 6579 6580 6581 6582 6583 6584 6585 6586 6587 6588 6589 6590 6591 6592 6593 6594 6595 6596 6597 6598 6599 6600 6601 6602 6603 6604 6605 6606 6607 6608 6609 6610 6611 6612 6613 6614 6615 6616 6617 6618 6619 6620 6621 6622 6623 6624 6625 6626 6627 6628 6629 6630 6631 6632 6633 6634 6635 6636 6637 6638 6639 6640 6641 6642 6643 6644 6645 6646 6647 6648 6649 6650 6651 6652 6653 6654 6655 6656 6657 6658 6659 6660 6661 6662 6663 6664 6665 6666 6667 6668 6669 6670 6671 6672 6673 6674 6675 6676 6677 6678 6679 6680 6681 6682 6683 6684 6685 6686 6687 6688 6689 6690 6691 6692 6693 6694 6695 6696 6697 6698 6699 6700 6701 6702 6703 6704 6705 6706 6707 6708 6709 6710 6711 6712 6713 6714 6715 6716 6717 6718 6719 6720 6721 6722 6723 6724 6725 6726 6727 6728 6729 6730 6731 6732 6733 6734 6735 6736 6737 6738 6739 6740 6741 6742 6743 6744 6745 6746 6747 6748 6749 6750 6751 6752 6753 6754 6755 6756 6757 6758 6759 6760 6761 6762 6763 6764 6765 6766 6767 6768 6769 6770 6771 6772 6773 6774 6775 6776 6777 6778 6779 6780 6781 6782 6783 6784 6785 6786 6787 6788 6789 6790 6791 6792 6793 6794 6795 6796 6797 6798 6799 6800 6801 6802 6803 6804 6805 6806 6807 6808 6809 6810 6811 6812 6813 6814 6815 6816 6817 6818 6819 6820 6821 6822 6823 6824 6825 6826 6827 6828 6829 6830 6831 6832 6833 6834 6835 6836 6837 6838 6839 6840 6841 6842 6843 6844 6845 6846 6847 6848 6849 6850 6851 6852 6853 6854 6855 6856 6857 6858 6859 6860 6861 6862 6863 6864 6865 6866 6867 6868 6869 6870 6871 6872 6873 6874 6875 6876 6877 6878 6879 6880 6881 6882 6883 6884 6885 6886 6887 6888 6889 6890 6891 6892 6893 6894 6895 6896 6897 6898 6899 6900 6901 6902 6903 6904 6905 6906 6907 6908 6909 6910 6911 6912 6913 6914 6915 6916 6917 6918 6919 6920 6921 6922 6923 6924 6925 6926 6927 6928 6929 6930 6931 6932 6933 6934 6935 6936 6937 6938 6939 6940 6941 6942 6943 6944 6945 6946 6947 6948 6949 6950 6951 6952 6953 6954 6955 6956 6957 6958 6959 6960 6961 6962 6963 6964 6965 6966 6967 6968 6969 6970 6971 6972 6973 6974 6975 6976 6977 6978 6979 6980 6981 6982 6983 6984 6985 6986 6987 6988 6989 6990 6991 6992 6993 6994 6995 6996 6997 6998 6999 7000 7001 7002 7003 7004 7005 7006 7007 7008 7009 7010 7011 7012 7013 7014 7015 7016 7017 7018 7019 7020 7021 7022 7023 7024 7025 7026 7027 7028 7029 7030 7031 7032 7033 7034 7035 7036 7037 7038 7039 7040 7041 7042 7043 7044 7045 7046 7047 7048 7049 7050 7051 7052 7053 7054 7055 7056 7057 7058 7059 7060 7061 7062 7063 7064 7065 7066 7067 7068 7069 7070 7071 7072 7073 7074 7075 7076 7077 7078 7079 7080 7081 7082 7083 7084 7085 7086 7087 7088 7089 7090 7091 7092 7093 7094 7095 7096 7097 7098 7099 7100 7101 7102 7103 7104 7105 7106 7107 7108 7109 7110 7111 7112 7113 7114 7115 7116 7117 7118 7119 7120 7121 7122 7123 7124 7125 7126 7127 7128 7129 7130 7131 7132 7133 7134 7135 7136 7137 7138 7139 7140 7141 7142 7143 7144 7145 7146 7147 7148 7149 7150 7151 7152 7153 7154 7155 7156 7157 7158 7159 7160 7161 7162 7163 7164 7165 7166 7167 7168 7169 7170 7171 7172 7173 7174 7175 7176 7177 7178 7179 7180 7181 7182 7183 7184 7185 7186 7187 7188 7189 7190 7191 7192 7193 7194 7195 7196 7197 7198 7199 7200 7201 7202 7203 7204 7205 7206 7207 7208 7209 7210 7211 7212 7213 7214 7215 7216 7217 7218 7219 7220 7221 7222 7223 7224 7225 7226 7227 7228 7229 7230 7231 7232 7233 7234 7235 7236 7237 7238 7239 7240 7241 7242 7243 7244 7245 7246 7247 7248 7249 7250 7251 7252 7253 7254 7255 7256 7257 7258 7259 7260 7261 7262 7263 7264 7265 7266 7267 7268 7269 7270 7271 7272 7273 7274 7275 7276 7277 7278 7279 7280 7281 7282 7283 7284 7285 7286 7287 7288 7289 7290 7291 7292 7293 7294 7295 7296 7297 7298 7299 7300 7301 7302 7303 7304 7305 7306 7307 7308 7309 7310 7311 7312 7313 7314 7315 7316 7317 7318 7319 7320 7321 7322 7323 7324 7325 7326 7327 7328 7329 7330 7331 7332 7333 7334 7335 7336 7337 7338 7339 7340 7341 7342 7343 7344 7345 7346 7347 7348 7349 7350 7351 7352 7353 7354 7355 7356 7357 7358 7359 7360 7361 7362 7363 7364 7365 7366 7367 7368 7369 7370 7371 7372 7373 7374 7375 7376 7377 7378 7379 7380 7381 7382 7383 7384 7385 7386 7387 7388 7389 7390 7391 7392 7393 7394 7395 7396 7397 7398 7399 7400 7401 7402 7403 7404 7405 7406 7407 7408 7409 7410 7411 7412 7413 7414 7415 7416 7417 7418 7419 7420 7421 7422 7423 7424 7425 7426 7427 7428 7429 7430 7431 7432 7433 7434 7435 7436 7437 7438 7439 7440 7441 7442 7443 7444 7445 7446 7447 7448 7449 7450 7451 7452 7453 7454 7455 7456 7457 7458 7459 7460 7461 7462 7463 7464 7465 7466 7467 7468 7469 7470 7471 7472 7473 7474 7475 7476 7477 7478 7479 7480 7481 7482 7483 7484 7485 7486 7487 7488 7489 7490 7491 7492 7493 7494 7495 7496 7497 7498 7499 7500 7501 7502 7503 7504 7505 7506 7507 7508 7509 7510 7511 7512 7513 7514 7515 7516 7517 7518 7519 7520 7521 7522 7523 7524 7525 7526 7527 7528 7529 7530 7531 7532 7533 7534 7535 7536 7537 7538 7539 7540 7541 7542 7543 7544 7545 7546 7547 7548 7549 7550 7551 7552 7553 7554 7555 7556 7557 7558 7559 7560 7561 7562 7563 7564 7565 7566 7567 7568 7569 7570 7571 7572 7573 7574 7575 7576 7577 7578 7579 7580 7581 7582 7583 7584 7585 7586 7587 7588 7589 7590 7591 7592 7593 7594 7595 7596 7597 7598 7599 7600 7601 7602 7603 7604 7605 7606 7607 7608 7609 7610 7611 7612 7613 7614 7615 7616 7617 7618 7619 7620 7621 7622 7623 7624 7625 7626 7627 7628 7629 7630 7631 7632 7633 7634 7635 7636 7637 7638 7639 7640 7641 7642 7643 7644 7645 7646 7647 7648 7649 7650 7651 7652 7653 7654 7655 7656 7657 7658 7659 7660 7661 7662 7663 7664 7665 7666 7667 7668 7669 7670 7671 7672 7673 7674 7675 7676 7677 7678 7679 7680 7681 7682 7683 7684 7685 7686 7687 7688 7689 7690 7691 7692 7693 7694 7695 7696 7697 7698 7699 7700 7701 7702 7703 7704 7705 7706 7707 7708 7709 7710 7711 7712 7713 7714 7715 7716 7717 7718 7719 7720 7721 7722 7723 7724 7725 7726 7727 7728 7729 7730 7731 7732 7733 7734 7735 7736 7737 7738 7739 7740 7741 7742 7743 7744 7745 7746 7747 7748 7749 7750 7751 7752 7753 7754 7755 7756 7757 7758 7759 7760 7761 7762 7763 7764 7765 7766 7767 7768 7769 7770 7771 7772 7773 7774 7775 7776 7777 7778 7779 7780 7781 7782 7783 7784 7785 7786 7787 7788 7789 7790 7791 7792 7793 7794 7795 7796 7797 7798 7799 7800 7801 7802 7803 7804 7805 7806 7807 7808 7809 7810 7811 7812 7813 7814 7815 7816 7817 7818 7819 7820 7821 7822 7823 7824 7825 7826 7827 7828 7829 7830 7831 7832 7833 7834 7835 7836 7837 7838 7839 7840 7841 7842 7843 7844 7845 7846 7847 7848 7849 7850 7851 7852 7853 7854 7855 7856 7857 7858 7859 7860 7861 7862 7863 7864 7865 7866 7867 7868 7869 7870 7871 7872 7873 7874 7875 7876 7877 7878 7879 7880 7881 7882 7883 7884 7885 7886 7887 7888 7889 7890 7891 7892 7893 7894 7895 7896 7897 7898 7899 7900 7901 7902 7903 7904 7905 7906 7907 7908 7909 7910 7911 7912 7913 7914 7915 7916 7917 7918 7919 7920 7921 7922 7923 7924 7925 7926 7927 7928 7929 7930 7931 7932 7933 7934 7935 7936 7937 7938 7939 7940 7941 7942 7943 7944 7945 7946 7947 7948 7949 7950 7951 7952 7953 7954 7955 7956 7957 7958 7959 7960 7961 7962 7963 7964 7965 7966 7967 7968 7969 7970 7971 7972 7973 7974 7975 7976 7977 7978 7979 7980 7981 7982 7983 7984 7985 7986 7987 7988 7989 7990 7991 7992 7993 7994 7995 7996 7997 7998 7999 8000 8001 8002 8003 8004 8005 8006 8007 8008 8009 8010 8011 8012 8013 8014 8015 8016 8017 8018 8019 8020 8021 8022 8023 8024 8025 8026 8027 8028 8029 8030 8031 8032 8033 8034 8035 8036 8037 8038 8039 8040 8041 8042 8043 8044 8045 8046 8047 8048 8049 8050 8051 8052 8053 8054 8055 8056 8057 8058 8059 8060 8061 8062 8063 8064 8065 8066 8067 8068 8069 8070 8071 8072 8073 8074 8075 8076 8077 8078 8079 8080 8081 8082 8083 8084 8085 8086 8087 8088 8089 8090 8091 8092 8093 8094 8095 8096 8097 8098 8099 8100 8101 8102 8103 8104 8105 8106 8107 8108 8109 8110 8111 8112 8113 8114 8115 8116 8117 8118 8119 8120 8121 8122 8123 8124 8125 8126 8127 8128 8129 8130 8131 8132 8133 8134 8135 8136 8137 8138 8139 8140 8141 8142 8143 8144 8145 8146 8147 8148 8149 8150 8151 8152 8153 8154 8155 8156 8157 8158 8159 8160 8161 8162 8163 8164 8165 8166 8167 8168 8169 8170 8171 8172 8173 8174 8175 8176 8177 8178 8179 8180 8181 8182 8183 8184 8185 8186 8187 8188 8189 8190 8191 8192 8193 8194 8195 8196 8197 8198 8199 8200 8201 8202 8203 8204 8205 8206 8207 8208 8209 8210 8211 8212 8213 8214 8215 8216 8217 8218 8219 8220 8221 8222 8223 8224 8225 8226 8227 8228 8229 8230 8231 8232 8233 8234 8235 8236 8237 8238 8239 8240 8241 8242 8243 8244 8245 8246 8247 8248 8249 8250 8251 8252 8253 8254 8255 8256 8257 8258 8259 8260 8261 8262 8263 8264 8265 8266 8267 8268 8269 8270 8271 8272 8273 8274 8275 8276 8277 8278 8279 8280 8281 8282 8283 8284 8285 8286 8287 8288 8289 8290 8291 8292 8293 8294 8295 8296 8297 8298 8299 8300 8301 8302 8303 8304 8305 8306 8307 8308 8309 8310 8311 8312 8313 8314 8315 8316 8317 8318 8319 8320 8321 8322 8323 8324 8325 8326 8327 8328 8329 8330 8331 8332 8333 8334 8335 8336 8337 8338 8339 8340 8341 8342 8343 8344 8345 8346 8347 8348 8349 8350 8351 8352 8353 8354 8355 8356 8357 8358 8359 8360 8361 8362 8363 8364 8365 8366 8367 8368 8369 8370 8371 8372 8373 8374 8375 8376 8377 8378 8379 8380 8381 8382 8383 8384 8385 8386 8387 8388 8389 8390 8391 8392 8393 8394 8395 8396 8397 8398 8399 8400 8401 8402 8403 8404 8405 8406 8407 8408 8409 8410 8411 8412 8413 8414 8415 8416 8417 8418 8419 8420 8421 8422 8423 8424 8425 8426 8427 8428 8429 8430 8431 8432 8433 8434 8435 8436 8437 8438 8439 8440 8441 8442 8443 8444 8445 8446 8447 8448 8449 8450 8451 8452 8453 8454 8455 8456 8457 8458 8459 8460 8461 8462 8463 8464 8465 8466 8467 8468 8469 8470 8471 8472 8473 8474 8475 8476 8477 8478 8479 8480 8481 8482 8483 8484 8485 8486 8487 8488 8489 8490 8491 8492 8493 8494 8495 8496 8497 8498 8499 8500 8501 8502 8503 8504 8505 8506 8507 8508 8509 8510 8511 8512 8513 8514 8515 8516 8517 8518 8519 8520 8521 8522 8523 8524 8525 8526 8527 8528 8529 8530 8531 8532 8533 8534 8535 8536 8537 8538 8539 8540 8541 8542 8543 8544 8545 8546 8547 8548 8549 8550 8551 8552 8553 8554 8555 8556 8557 8558 8559 8560 8561 8562 8563 8564 8565 8566 8567 8568 8569 8570 8571 8572 8573 8574 8575 8576 8577 8578 8579 8580 8581 8582 8583 8584 8585 8586 8587 8588 8589 8590 8591 8592 8593 8594 8595 8596 8597 8598 8599 8600 8601 8602 8603 8604 8605 8606 8607 8608 8609 8610 8611 8612 8613 8614 8615 8616 8617 8618 8619 8620 8621 8622 8623 8624 8625 8626 8627 8628 8629 8630 8631 8632 8633 8634 8635 8636 8637 8638 8639 8640 8641 8642 8643 8644 8645 8646 8647 8648 8649 8650 8651 8652 8653 8654 8655 8656 8657 8658 8659 8660 8661 8662 8663 8664 8665 8666 8667 8668 8669 8670 8671 8672 8673 8674 8675 8676 8677 8678 8679 8680 8681 8682 8683 8684 8685 8686 8687 8688 8689 8690 8691 8692 8693 8694 8695 8696 8697 8698 8699 8700 8701 8702 8703 8704 8705 8706 8707 8708 8709 8710 8711 8712 8713 8714 8715 8716 8717 8718 8719 8720 8721 8722 8723 8724 8725 8726 8727 8728 8729 8730 8731 8732 8733 8734 8735 8736 8737 8738 8739 8740 8741 8742 8743 8744 8745 8746 8747 8748 8749 8750 8751 8752 8753 8754 8755 8756 8757 8758 8759 8760 8761 8762 8763 8764 8765 8766 8767 8768 8769 8770 8771 8772 8773 8774 8775 8776 8777 8778 8779 8780 8781 8782 8783 8784 8785 8786 8787 8788 8789 8790 8791 8792 8793 8794 8795 8796 8797 8798 8799 8800 8801 8802 8803 8804 8805 8806 8807 8808 8809 8810 8811 8812 8813 8814 8815 8816 8817 8818 8819 8820 8821 8822 8823 8824 8825 8826 8827 8828 8829 8830 8831 8832 8833 8834 8835 8836 8837 8838 8839 8840 8841 8842 8843 8844 8845 8846 8847 8848 8849 8850 8851 8852 8853 8854 8855 8856 8857 8858 8859 8860 8861 8862 8863 8864 8865 8866 8867 8868 8869 8870 8871 8872 8873 8874 8875 8876 8877 8878 8879 8880 8881 8882 8883 8884 8885 8886 8887 8888 8889 8890 8891 8892 8893 8894 8895 8896 8897 8898 8899 8900 8901 8902 8903 8904 8905 8906 8907 8908 8909 8910 8911 8912 8913 8914 8915 8916 8917 8918 8919 8920 8921 8922 8923 8924 8925 8926 8927 8928 8929 8930 8931 8932 8933 8934 8935 8936 8937 8938 8939 8940 8941 8942 8943 8944 8945 8946 8947 8948 8949 8950 8951 8952 8953 8954 8955 8956 8957 8958 8959 8960 8961 8962 8963 8964 8965 8966 8967 8968 8969 8970 8971 8972 8973 8974 8975 8976 8977 8978 8979 8980 8981 8982 8983 8984 8985 8986 8987 8988 8989 8990 8991 8992 8993 8994 8995 8996 8997 8998 8999 9000 9001 9002 9003 9004 9005 9006 9007 9008 9009 9010 9011 9012 9013 9014 9015 9016 9017 9018 9019 9020 9021 9022 9023 9024 9025 9026 9027 9028 9029 9030 9031 9032 9033 9034 9035 9036 9037 9038 9039 9040 9041 9042 9043 9044 9045 9046 9047 9048 9049 9050 9051 9052 9053 9054 9055 9056 9057 9058 9059 9060 9061 9062 9063 9064 9065 9066 9067 9068 9069 9070 9071 9072 9073 9074 9075 9076 9077 9078 9079 9080 9081 9082 9083 9084 9085 9086 9087 9088 9089 9090 9091 9092 9093 9094 9095 9096 9097 9098 9099 9100 9101 9102 9103 9104 9105 9106 9107 9108 9109 9110 9111 9112 9113 9114 9115 9116 9117 9118 9119 9120 9121 9122 9123 9124 9125 9126 9127 9128 9129 9130 9131 9132 9133 9134 9135 9136 9137 9138 9139 9140 9141 9142 9143 9144 9145 9146 9147 9148 9149 9150 9151 9152 9153 9154 9155 9156 9157 9158 9159 9160 9161 9162 9163 9164 9165 9166 9167 9168 9169 9170 9171 9172 9173 9174 9175 9176 9177 9178 9179 9180 9181 9182 9183 9184 9185 9186 9187 9188 9189 9190 9191 9192 9193 9194 9195 9196 9197 9198 9199 9200 9201 9202 9203 9204 9205 9206 9207 9208 9209 9210 9211 9212 9213 9214 9215 9216 9217 9218 9219 9220 9221 9222 9223 9224 9225 9226 9227 9228 9229 9230 9231 9232 9233 9234 9235 9236 9237 9238 9239 9240 9241 9242 9243 9244 9245 9246 9247 9248 9249 9250 9251 9252 9253 9254 9255 9256 9257 9258 9259 9260 9261 9262 9263 9264 9265 9266 9267 9268 9269 9270 9271 9272 9273 9274 9275 9276 9277 9278 9279 9280 9281 9282 9283 9284 9285 9286 9287 9288 9289 9290 9291 9292 9293 9294 9295 9296 9297 9298 9299 9300 9301 9302 9303 9304 9305 9306 9307 9308 9309 9310 9311 9312 9313 9314 9315 9316 9317 9318 9319 9320 9321 9322 9323 9324 9325 9326 9327 9328 9329 9330 9331 9332 9333 9334 9335 9336 9337 9338 9339 9340 9341 9342 9343 9344 9345 9346 9347 9348 9349 9350 9351 9352 9353 9354 9355 9356 9357 9358 9359 9360 9361 9362 9363 9364 9365 9366 9367 9368 9369 9370 9371 9372 9373 9374 9375 9376 9377 9378 9379 9380 9381 9382 9383 9384 9385 9386 9387 9388 9389 9390 9391 9392 9393 9394 9395 9396 9397 9398 9399 9400 9401 9402 9403 9404 9405 9406 9407 9408 9409 9410 9411 9412 9413 9414 9415 9416 9417 9418 9419 9420 9421 9422 9423 9424 9425 9426 9427 9428 9429 9430 9431 9432 9433 9434 9435 9436 9437 9438 9439 9440 9441 9442 9443 9444 9445 9446 9447 9448 9449 9450 9451 9452 9453 9454 9455 9456 9457 9458 9459 9460 9461 9462 9463 9464 9465 9466 9467 9468 9469 9470 9471 9472 9473 9474 9475 9476 9477 9478 9479 9480 9481 9482 9483 9484 9485 9486 9487 9488 9489 9490 9491 9492 9493 9494 9495 9496 9497 9498 9499 9500 9501 9502 9503 9504 9505 9506 9507 9508 9509 9510 9511 9512 9513 9514 9515 9516 9517 9518 9519 9520 9521 9522 9523 9524 9525 9526 9527 9528 9529 9530 9531 9532 9533 9534 9535 9536 9537 9538 9539 9540 9541 9542 9543 9544 9545 9546 9547 9548 9549 9550 9551 9552 9553 9554 9555 9556 9557 9558 9559 9560 9561 9562 9563 9564 9565 9566 9567 9568 9569 9570 9571 9572 9573 9574 9575 9576 9577 9578 9579 9580 9581 9582 9583 9584 9585 9586 9587 9588 9589 9590 9591 9592 9593 9594 9595 9596 9597 9598 9599 9600 9601 9602 9603 9604 9605 9606 9607 9608 9609 9610 9611 9612 9613 9614 9615 9616 9617 9618 9619 9620 9621 9622 9623 9624 9625 9626 9627 9628 9629 9630 9631 9632 9633 9634 9635 9636 9637 9638 9639 9640 9641 9642 9643 9644 9645 9646 9647 9648 9649 9650 9651 9652 9653 9654 9655 9656 9657 9658 9659 9660 9661 9662 9663 9664 9665 9666 9667 9668 9669 9670 9671 9672 9673 9674 9675 9676 9677 9678 9679 9680 9681 9682 9683 9684 9685 9686 9687 9688 9689 9690 9691 9692 9693 9694 9695 9696 9697 9698 9699 9700 9701 9702 9703 9704 9705 9706 9707 9708 9709 9710 9711 9712 9713 9714 9715 9716 9717 9718 9719 9720 9721 9722 9723 9724 9725 9726 9727 9728 9729 9730 9731 9732 9733 9734 9735 9736 9737 9738 9739 9740 9741 9742 9743 9744 9745 9746 9747 9748 9749 9750 9751 9752 9753 9754 9755 9756 9757 9758 9759 9760 9761 9762 9763 9764 9765 9766 9767 9768 9769 9770 9771 9772 9773 9774 9775 9776 9777 9778 9779 9780 9781 9782 9783 9784 9785 9786 9787 9788 9789 9790 9791 9792 9793 9794 9795 9796 9797 9798 9799 9800 9801 9802 9803 9804 9805 9806 9807 9808 9809 9810 9811 9812 9813 9814 9815 9816 9817 9818 9819 9820 9821 9822 9823 9824 9825 9826 9827 9828 9829 9830 9831 9832 9833 9834 9835 9836 9837 9838 9839 9840 9841 9842 9843 9844 9845 9846 9847 9848 9849 9850 9851 9852 9853 9854 9855 9856 9857 9858 9859 9860 9861 9862 9863 9864 9865 9866 9867 9868 9869 9870 9871 9872 9873 9874 9875 9876 9877 9878 9879 9880 9881 9882 9883 9884 9885 9886 9887 9888 9889 9890 9891 9892 9893 9894 9895 9896 9897 9898 9899 9900 9901 9902 9903 9904 9905 9906 9907 9908 9909 9910 9911 9912 9913 9914 9915 9916 9917 9918 9919 9920 9921 9922 9923 9924 9925 9926 9927 9928 9929 9930 9931 9932 9933 9934 9935 9936 9937 9938 9939 9940 9941 9942 9943 9944 9945 9946 9947 9948 9949 9950 9951 9952 9953 9954 9955 9956 9957 9958 9959 9960 9961 9962 9963 9964 9965 9966 9967 9968 9969 9970 9971 9972 9973 9974 9975 9976 9977 9978 9979 9980 9981 9982 9983 9984 9985 9986 9987 9988 9989 9990 9991 9992 9993 9994 9995 9996 9997 9998 9999 10000 10001 10002 10003 10004 10005 10006 10007 10008 10009 10010 10011 10012 10013 10014 10015 10016 10017 10018 10019 10020 10021 10022 10023 10024 10025 10026 10027 10028 10029 10030 10031 10032 10033 10034 10035 10036 10037 10038 10039 10040 10041 10042 10043 10044 10045 10046 10047 10048 10049 10050 10051 10052 10053 10054 10055 10056 10057 10058 10059 10060 10061 10062 10063 10064 10065 10066 10067 10068 10069 10070 10071 10072 10073 10074 10075 10076 10077 10078 10079 10080 10081 10082 10083 10084 10085 10086 10087 10088 10089 10090 10091 10092 10093 10094 10095 10096 10097 10098 10099 10100 10101 10102 10103 10104 10105 10106 10107 10108 10109 10110 10111 10112 10113 10114 10115 10116 10117 10118 10119 10120 10121 10122 10123 10124 10125 10126 10127 10128 10129 10130 10131 10132 10133 10134 10135 10136 10137 10138 10139 10140 10141 10142 10143 10144 10145 10146 10147 10148 10149 10150 10151 10152 10153 10154 10155 10156 10157 10158 10159 10160 10161 10162 10163 10164 10165 10166 10167 10168 10169 10170 10171 10172 10173 10174 10175 10176 10177 10178 10179 10180 10181 10182 10183 10184 10185 10186 10187 10188 10189 10190 10191 10192 10193 10194 10195 10196 10197 10198 10199 10200 10201 10202 10203 10204 10205 10206 10207 10208 10209 10210 10211 10212 10213 10214 10215 10216 10217 10218 10219 10220 10221 10222 10223 10224 10225 10226 10227 10228 10229 10230 10231 10232 10233 10234 10235 10236 10237 10238 10239 10240 10241 10242 10243 10244 10245 10246 10247 10248 10249 10250 10251 10252 10253 10254 10255 10256 10257 10258 10259 10260 10261 10262 10263 10264 10265 10266 10267 10268 10269 10270 10271 10272 10273 10274 10275 10276 10277 10278 10279 10280 10281 10282 10283 10284 10285 10286 10287 10288 10289 10290 10291 10292 10293 10294 10295 10296 10297 10298 10299 10300 10301 10302 10303 10304 10305 10306 10307 10308 10309 10310 10311 10312 10313 10314 10315 10316 10317 10318 10319 10320 10321 10322 10323 10324 10325 10326 10327 10328 10329 10330 10331 10332 10333 10334 10335 10336 10337 10338 10339 10340 10341 10342 10343 10344 10345 10346 10347 10348 10349 10350 10351 10352 10353 10354 10355 10356 10357 10358 10359 10360 10361 10362 10363 10364 10365 10366 10367 10368 10369 10370 10371 10372 10373 10374 10375 10376 10377 10378 10379 10380 10381 10382 10383 10384 10385 10386 10387 10388 10389 10390 10391 10392 10393 10394 10395 10396 10397 10398 10399 10400 10401 10402 10403 10404 10405 10406 10407 10408 10409 10410 10411 10412 10413 10414 10415 10416 10417 10418 10419 10420 10421 10422 10423 10424 10425 10426 10427 10428 10429 10430 10431 10432 10433 10434 10435 10436 10437 10438 10439 10440 10441 10442 10443 10444 10445 10446 10447 10448 10449 10450 10451 10452 10453 10454 10455 10456 10457 10458 10459 10460 10461 10462 10463 10464 10465 10466 10467 10468 10469 10470 10471 10472 10473 10474 10475 10476 10477 10478 10479 10480 10481 10482 10483 10484 10485 10486 10487 10488 10489 10490 10491 10492 10493 10494 10495 10496 10497 10498 10499 10500 10501 10502 10503 10504 10505 10506 10507 10508 10509 10510 10511 10512 10513 10514 10515 10516 10517 10518 10519 10520 10521 10522 10523 10524 10525 10526 10527 10528 10529 10530 10531 10532 10533 10534 10535 10536 10537 10538 10539 10540 10541 10542 10543 10544 10545 10546 10547 10548 10549 10550 10551 10552 10553 10554 10555 10556 10557 10558 10559 10560 10561 10562 10563 10564 10565 10566 10567 10568 10569 10570 10571 10572 10573 10574 10575 10576 10577 10578 10579 10580 10581 10582 10583 10584 10585 10586 10587 10588 10589 10590 10591 10592 10593 10594 10595 10596 10597 10598 10599 10600 10601 10602 10603 10604 10605 10606 10607 10608 10609 10610 10611 10612 10613 10614 10615 10616 10617 10618 10619 10620 10621 10622 10623 10624 10625 10626 10627 10628 10629 10630 10631 10632 10633 10634 10635 10636 10637 10638 10639 10640 10641 10642 10643 10644 10645 10646 10647 10648 10649 10650 10651 10652 10653 10654 10655 10656 10657 10658 10659 10660 10661 10662 10663 10664 10665 10666 10667 10668 10669 10670 10671 10672 10673 10674 10675 10676 10677 10678 10679 10680 10681 10682 10683 10684 10685 10686 10687 10688 10689 10690 10691 10692 10693 10694 10695 10696 10697 10698 10699 10700 10701 10702 10703 10704 10705 10706 10707 10708 10709 10710 10711 10712 10713 10714 10715 10716 10717 10718 10719 10720 10721 10722 10723 10724 10725 10726 10727 10728 10729 10730 10731 10732 10733 10734 10735 10736 10737 10738 10739 10740 10741 10742 10743 10744 10745 10746 10747 10748 10749 10750 10751 10752 10753 10754 10755 10756 10757 10758 10759 10760 10761 10762 10763 10764 10765 10766 10767 10768 10769 10770 10771 10772 10773 10774 10775 10776 10777 10778 10779 10780 10781 10782 10783 10784 10785 10786 10787 10788 10789 10790 10791 10792 10793 10794 10795 10796 10797 10798 10799 10800 10801 10802 10803 10804 10805 10806 10807 10808 10809 10810 10811 10812 10813 10814 10815 10816 10817 10818 10819 10820 10821 10822 10823 10824 10825 10826 10827 10828 10829 10830 10831 10832 10833 10834 10835 10836 10837 10838 10839 10840 10841 10842 10843 10844 10845 10846 10847 10848 10849 10850 10851 10852 10853 10854 10855 10856 10857 10858 10859 10860 10861 10862 10863 10864 10865 10866 10867 10868 10869 10870 10871 10872 10873 10874 10875 10876 10877 10878 10879 10880 10881 10882 10883 10884 10885 10886 10887 10888 10889 10890 10891 10892 10893 10894 10895 10896 10897 10898 10899 10900 10901 10902 10903 10904 10905 10906 10907 10908 10909 10910 10911 10912 10913 10914 10915 10916 10917 10918 10919 10920 10921 10922 10923 10924 10925 10926 10927 10928 10929 10930 10931 10932 10933 10934 10935 10936 10937 10938 10939 10940 10941 10942 10943 10944 10945 10946 10947 10948 10949 10950 10951 10952 10953 10954 10955 10956 10957 10958 10959 10960 10961 10962 10963 10964 10965 10966 10967 10968 10969 10970 10971 10972 10973 10974 10975 10976 10977 10978 10979 10980 10981 10982 10983 10984 10985 10986 10987 10988 10989 10990 10991 10992 10993 10994 10995 10996 10997 10998 10999 11000 11001 11002 11003 11004 11005 11006 11007 11008 11009 11010 11011 11012 11013 11014 11015 11016 11017 11018 11019 11020 11021 11022 11023 11024 11025 11026 11027 11028 11029 11030 11031 11032 11033 11034 11035 11036 11037 11038 11039 11040 11041 11042 11043 11044 11045 11046 11047 11048 11049 11050 11051 11052 11053 11054 11055 11056 11057 11058 11059 11060 11061 11062 11063 11064 11065 11066 11067 11068 11069 11070 11071 11072 11073 11074 11075 11076 11077 11078 11079 11080 11081 11082 11083 11084 11085 11086 11087 11088 11089 11090 11091 11092 11093 11094 11095 11096 11097 11098 11099 11100 11101 11102 11103 11104 11105 11106 11107 11108 11109 11110 11111 11112 11113 11114 11115 11116 11117 11118 11119 11120 11121 11122 11123 11124 11125 11126 11127 11128 11129 11130 11131 11132 11133 11134 11135 11136 11137 11138 11139 11140 11141 11142 11143 11144 11145 11146 11147 11148 11149 11150 11151 11152 11153 11154 11155 11156 11157 11158 11159 11160 11161 11162 11163 11164 11165 11166 11167 11168 11169 11170 11171 11172 11173 11174 11175 11176 11177 11178 11179 11180 11181 11182 11183 11184 11185 11186 11187 11188 11189 11190 11191 11192 11193 11194 11195 11196 11197 11198 11199 11200 11201 11202 11203 11204 11205 11206 11207 11208 11209 11210 11211 11212 11213 11214 11215 11216 11217 11218 11219 11220 11221 11222 11223 11224 11225 11226 11227 11228 11229 11230 11231 11232 11233 11234 11235 11236 11237 11238 11239 11240 11241 11242 11243 11244 11245 11246 11247 11248 11249 11250 11251 11252 11253 11254 11255 11256 11257 11258 11259 11260 11261 11262 11263 11264 11265 11266 11267 11268 11269 11270 11271 11272 11273 11274 11275 11276 11277 11278 11279 11280 11281 11282 11283 11284 11285 11286 11287 11288 11289 11290 11291 11292 11293 11294 11295 11296 11297 11298 11299 11300 11301 11302 11303 11304 11305 11306 11307 11308 11309 11310 11311 11312 11313 11314 11315 11316 11317 11318 11319 11320 11321 11322 11323 11324 11325 11326 11327 11328 11329 11330 11331 11332 11333 11334 11335 11336 11337 11338 11339 11340 11341 11342 11343 11344 11345 11346 11347 11348 11349 11350 11351 11352 11353 11354 11355 11356 11357 11358 11359 11360 11361 11362 11363 11364 11365 11366 11367 11368 11369 11370 11371 11372 11373 11374 11375 11376 11377 11378 11379 11380 11381 11382 11383 11384 11385 11386 11387 11388 11389 11390 11391 11392 11393 11394 11395 11396 11397 11398 11399 11400 11401 11402 11403 11404 11405 11406 11407 11408 11409 11410 11411 11412 11413 11414 11415 11416 11417 11418 11419 11420 11421 11422 11423 11424 11425 11426 11427 11428 11429 11430 11431 11432 11433 11434 11435 11436 11437 11438 11439 11440 11441 11442 11443 11444 11445 11446 11447 11448 11449 11450 11451 11452 11453 11454 11455 11456 11457 11458 11459 11460 11461 11462 11463 11464 11465 11466 11467 11468 11469 11470 11471 11472 11473 11474 11475 11476 11477 11478 11479 11480 11481 11482 11483 11484 11485 11486 11487 11488 11489 11490 11491 11492 11493 11494 11495 11496 11497 11498 11499 11500 11501 11502 11503 11504 11505 11506 11507 11508 11509 11510 11511 11512 11513 11514 11515 11516 11517 11518 11519 11520 11521 11522 11523 11524 11525 11526 11527 11528 11529 11530 11531 11532 11533 11534 11535 11536 11537 11538 11539 11540 11541 11542 11543 11544 11545 11546 11547 11548 11549 11550 11551 11552 11553 11554 11555 11556 11557 11558 11559 11560 11561 11562 11563 11564 11565 11566 11567 11568 11569 11570 11571 11572 11573 11574 11575 11576 11577 11578 11579 11580 11581 11582 11583 11584 11585 11586 11587 11588 11589 11590 11591 11592 11593 11594 11595 11596 11597 11598 11599 11600 11601 11602 11603 11604 11605 11606 11607 11608 11609 11610 11611 11612 11613 11614 11615 11616 11617 11618 11619 11620 11621 11622 11623 11624 11625 11626 11627 11628 11629 11630 11631 11632 11633 11634 11635 11636 11637 11638 11639 11640 11641 11642 11643 11644 11645 11646 11647 11648 11649 11650 11651 11652 11653 11654 11655 11656 11657 11658 11659 11660 11661 11662 11663 11664 11665 11666 11667 11668 11669 11670 11671 11672 11673 11674 11675 11676 11677 11678 11679 11680 11681 11682 11683 11684 11685 11686 11687 11688 11689 11690 11691 11692 11693 11694 11695 11696 11697 11698 11699 11700 11701 11702 11703 11704 11705 11706 11707 11708 11709 11710 11711 11712 11713 11714 11715 11716 11717 11718 11719 11720 11721 11722 11723 11724 11725 11726 11727 11728 11729 11730 11731 11732 11733 11734 11735 11736 11737 11738 11739 11740 11741 11742 11743 11744 11745 11746 11747 11748 11749 11750 11751 11752 11753 11754 11755 11756 11757 11758 11759 11760 11761 11762 11763 11764 11765 11766 11767 11768 11769 11770 11771 11772 11773 11774 11775 11776 11777 11778 11779 11780 11781 11782 11783 11784 11785 11786 11787 11788 11789 11790 11791 11792 11793 11794 11795 11796 11797 11798 11799 11800 11801 11802 11803 11804 11805 11806 11807 11808 11809 11810 11811 11812 11813 11814 11815 11816 11817 11818 11819 11820 11821 11822 11823 11824 11825 11826 11827 11828 11829 11830 11831 11832 11833 11834 11835 11836 11837 11838 11839 11840 11841 11842 11843 11844 11845 11846 11847 11848 11849 11850 11851 11852 11853 11854 11855 11856 11857 11858 11859 11860 11861 11862 11863 11864 11865 11866 11867 11868 11869 11870 11871 11872 11873 11874 11875 11876 11877 11878 11879 11880 11881 11882 11883 11884 11885 11886 11887 11888 11889 11890 11891 11892 11893 11894 11895 11896 11897 11898 11899 11900 11901 11902 11903 11904 11905 11906 11907 11908 11909 11910 11911 11912 11913 11914 11915 11916 11917 11918 11919 11920 11921 11922 11923 11924 11925 11926 11927 11928 11929 11930 11931 11932 11933 11934 11935 11936 11937 11938 11939 11940 11941 11942 11943 11944 11945 11946 11947 11948 11949 11950 11951 11952 11953 11954 11955 11956 11957 11958 11959 11960 11961 11962 11963 11964 11965 11966 11967 11968 11969 11970 11971 11972 11973 11974 11975 11976 11977 11978 11979 11980 11981 11982 11983 11984 11985 11986 11987 11988 11989 11990 11991 11992 11993 11994 11995 11996 11997 11998 11999 12000 12001 12002 12003 12004 12005 12006 12007 12008 12009 12010 12011 12012 12013 12014 12015 12016 12017 12018 12019 12020 12021 12022 12023 12024 12025 12026 12027 12028 12029 12030 12031 12032 12033 12034 12035 12036 12037 12038 12039 12040 12041 12042 12043 12044 12045 12046 12047 12048 12049 12050 12051 12052 12053 12054 12055 12056 12057 12058 12059 12060 12061 12062 12063 12064 12065 12066 12067 12068 12069 12070 12071 12072 12073 12074 12075 12076 12077 12078 12079 12080 12081 12082 12083 12084 12085 12086 12087 12088 12089 12090 12091 12092 12093 12094 12095 12096 12097 12098 12099 12100 12101 12102 12103 12104 12105 12106 12107 12108 12109 12110 12111 12112 12113 12114 12115 12116 12117 12118 12119 12120 12121 12122 12123 12124 12125 12126 12127 12128 12129 12130 12131 12132 12133 12134 12135 12136 12137 12138 12139 12140 12141 12142 12143 12144 12145 12146 12147 12148 12149 12150 12151 12152 12153 12154 12155 12156 12157 12158 12159 12160 12161 12162 12163 12164 12165 12166 12167 12168 12169 12170 12171 12172 12173 12174 12175 12176 12177 12178 12179 12180 12181 12182 12183 12184 12185 12186 12187 12188 12189 12190 12191 12192 12193 12194 12195 12196 12197 12198 12199 12200 12201 12202 12203 12204 12205 12206 12207 12208 12209 12210 12211 12212 12213 12214 12215 12216 12217 12218 12219 12220 12221 12222 12223 12224 12225 12226 12227 12228 12229 12230 12231 12232 12233 12234 12235 12236 12237 12238 12239 12240 12241 12242 12243 12244 12245 12246 12247 12248 12249 12250 12251 12252 12253 12254 12255 12256 12257 12258 12259 12260 12261 12262 12263 12264 12265 12266 12267 12268 12269 12270 12271 12272 12273 12274 12275 12276 12277 12278 12279 12280 12281 12282 12283 12284 12285 12286 12287 12288 12289 12290 12291 12292 12293 12294 12295 12296 12297 12298 12299 12300 12301 12302 12303 12304 12305 12306 12307 12308 12309 12310 12311 12312 12313 12314 12315 12316 12317 12318 12319 12320 12321 12322 12323 12324 12325 12326 12327 12328 12329 12330 12331 12332 12333 12334 12335 12336 12337 12338 12339 12340 12341 12342 12343 12344 12345 12346 12347 12348 12349 12350 12351 12352 12353 12354 12355 12356 12357 12358 12359 12360 12361 12362 12363 12364 12365 12366 12367 12368 12369 12370 12371 12372 12373 12374 12375 12376 12377 12378 12379 12380 12381 12382 12383 12384 12385 12386 12387 12388 12389 12390 12391 12392 12393 12394 12395 12396 12397 12398 12399 12400 12401 12402 12403 12404 12405 12406 12407 12408 12409 12410 12411 12412 12413 12414 12415 12416 12417 12418 12419 12420 12421 12422 12423 12424 12425 12426 12427 12428 12429 12430 12431 12432 12433 12434 12435 12436 12437 12438 12439 12440 12441 12442 12443 12444 12445 12446 12447 12448 12449 12450 12451 12452 12453 12454 12455 12456 12457 12458 12459 12460 12461 12462 12463 12464 12465 12466 12467 12468 12469 12470 12471 12472 12473 12474 12475 12476 12477 12478 12479 12480 12481 12482 12483 12484 12485 12486 12487 12488 12489 12490 12491 12492 12493 12494 12495 12496 12497 12498 12499 12500 12501 12502 12503 12504 12505 12506 12507 12508 12509 12510 12511 12512 12513 12514 12515 12516 12517 12518 12519 12520 12521 12522 12523 12524 12525 12526 12527 12528 12529 12530 12531 12532 12533 12534 12535 12536 12537 12538 12539 12540 12541 12542 12543 12544 12545 12546 12547 12548 12549 12550 12551 12552 12553 12554 12555 12556 12557 12558 12559 12560 12561 12562 12563 12564 12565 12566 12567 12568 12569 12570 12571 12572 12573 12574 12575 12576 12577 12578 12579 12580 12581 12582 12583 12584 12585 12586 12587 12588 12589 12590 12591 12592 12593 12594 12595 12596 12597 12598 12599 12600 12601 12602 12603 12604 12605 12606 12607 12608 12609 12610 12611 12612 12613 12614 12615 12616 12617 12618 12619 12620 12621 12622 12623 12624 12625 12626 12627 12628 12629 12630 12631 12632 12633 12634 12635 12636 12637 12638 12639 12640 12641 12642 12643 12644 12645 12646 12647 12648 12649 12650 12651 12652 12653 12654 12655 12656 12657 12658 12659 12660 12661 12662 12663 12664 12665 12666 12667 12668 12669 12670 12671 12672 12673 12674 12675 12676 12677 12678 12679 12680 12681 12682 12683 12684 12685 12686 12687 12688 12689 12690 12691 12692 12693 12694 12695 12696 12697 12698 12699 12700 12701 12702 12703 12704 12705 12706 12707 12708 12709 12710 12711 12712 12713 12714 12715 12716 12717 12718 12719 12720 12721 12722 12723 12724 12725 12726 12727 12728 12729 12730 12731 12732 12733 12734 12735 12736 12737 12738 12739 12740 12741 12742 12743 12744 12745 12746 12747 12748 12749 12750 12751 12752 12753 12754 12755 12756 12757 12758 12759 12760 12761 12762 12763 12764 12765 12766 12767 12768 12769 12770 12771 12772 12773 12774 12775 12776 12777 12778 12779 12780 12781 12782 12783 12784 12785 12786 12787 12788 12789 12790 12791 12792 12793 12794 12795 12796 12797 12798 12799 12800 12801 12802 12803 12804 12805 12806 12807 12808 12809 12810 12811 12812 12813 12814 12815 12816 12817 12818 12819 12820 12821 12822 12823 12824 12825 12826 12827 12828 12829 12830 12831 12832 12833 12834 12835 12836 12837 12838 12839 12840 12841 12842 12843 12844 12845 12846 12847 12848 12849 12850 12851 12852 12853 12854 12855 12856 12857 12858 12859 12860 12861 12862 12863 12864 12865 12866 12867 12868 12869 12870 12871 12872 12873 12874 12875 12876 12877 12878 12879 12880 12881 12882 12883 12884 12885 12886 12887 12888 12889 12890 12891 12892 12893 12894 12895 12896 12897 12898 12899 12900 12901 12902 12903 12904 12905 12906 12907 12908 12909 12910 12911 12912 12913 12914 12915 12916 12917 12918 12919 12920 12921 12922 12923 12924 12925 12926 12927 12928 12929 12930 12931 12932 12933 12934 12935 12936 12937 12938 12939 12940 12941 12942 12943 12944 12945 12946 12947 12948 12949 12950 12951 12952 12953 12954 12955 12956 12957 12958 12959 12960 12961 12962 12963 12964 12965 12966 12967 12968 12969 12970 12971 12972 12973 12974 12975 12976 12977 12978 12979 12980 12981 12982 12983 12984 12985 12986 12987 12988 12989 12990 12991 12992 12993 12994 12995 12996 12997 12998 12999 13000 13001 13002 13003 13004 13005 13006 13007 13008 13009 13010 13011 13012 13013 13014 13015 13016 13017 13018 13019 13020 13021 13022 13023 13024 13025 13026 13027 13028 13029 13030 13031 13032 13033 13034 13035 13036 13037 13038 13039 13040 13041 13042 13043 13044 13045 13046 13047 13048 13049 13050 13051 13052 13053 13054 13055 13056 13057 13058 13059 13060 13061 13062 13063 13064 13065 13066 13067 13068 13069 13070 13071 13072 13073 13074 13075 13076 13077 13078 13079 13080 13081 13082 13083 13084 13085 13086 13087 13088 13089 13090 13091 13092 13093 13094 13095 13096 13097 13098 13099 13100 13101 13102 13103 13104 13105 13106 13107 13108 13109 13110 13111 13112 13113 13114 13115 13116 13117 13118 13119 13120 13121 13122 13123 13124 13125 13126 13127 13128 13129 13130 13131 13132 13133 13134 13135 13136 13137 13138 13139 13140 13141 13142 13143 13144 13145 13146 13147 13148 13149 13150 13151 13152 13153 13154 13155 13156 13157 13158 13159 13160 13161 13162 13163 13164 13165 13166 13167 13168 13169 13170 13171 13172 13173 13174 13175 13176 13177 13178 13179 13180 13181 13182 13183 13184 13185 13186 13187 13188 13189 13190 13191 13192 13193 13194 13195 13196 13197 13198 13199 13200 13201 13202 13203 13204 13205 13206 13207 13208 13209 13210 13211 13212 13213 13214 13215 13216 13217 13218 13219 13220 13221 13222 13223 13224 13225 13226 13227 13228 13229 13230 13231 13232 13233 13234 13235 13236 13237 13238 13239 13240 13241 13242 13243 13244 13245 13246 13247 13248 13249 13250 13251 13252 13253 13254 13255 13256 13257 13258 13259 13260 13261 13262 13263 13264 13265 13266 13267 13268 13269 13270 13271 13272 13273 13274 13275 13276 13277 13278 13279 13280 13281 13282 13283 13284 13285 13286 13287 13288 13289 13290 13291 13292 13293 13294 13295 13296 13297 13298 13299 13300 13301 13302 13303 13304 13305 13306 13307 13308 13309 13310 13311 13312 13313 13314 13315 13316 13317 13318 13319 13320 13321 13322 13323 13324 13325 13326 13327 13328 13329 13330 13331 13332 13333 13334 13335 13336 13337 13338 13339 13340 13341 13342 13343 13344 13345 13346 13347 13348 13349 13350 13351 13352 13353 13354 13355 13356 13357 13358 13359 13360 13361 13362 13363 13364 13365 13366 13367 13368 13369 13370 13371 13372 13373 13374 13375 13376 13377 13378 13379 13380 13381 13382 13383 13384 13385 13386 13387 13388 13389 13390 13391 13392 13393 13394 13395 13396 13397 13398 13399 13400 13401 13402 13403 13404 13405 13406 13407 13408 13409 13410 13411 13412 13413 13414 13415 13416 13417 13418 13419 13420 13421 13422 13423 13424 13425 13426 13427 13428 13429 13430 13431 13432 13433 13434 13435 13436 13437 13438 13439 13440 13441 13442 13443 13444 13445 13446 13447 13448 13449 13450 13451 13452 13453 13454 13455 13456 13457 13458 13459 13460 13461 13462 13463 13464 13465 13466 13467 13468 13469 13470 13471 13472 13473 13474 13475 13476 13477 13478 13479 13480 13481 13482 13483 13484 13485 13486 13487 13488 13489 13490 13491 13492 13493 13494 13495 13496 13497 13498 13499 13500 13501 13502 13503 13504 13505 13506 13507 13508 13509 13510 13511 13512 13513 13514 13515 13516 13517 13518 13519 13520 13521 13522 13523 13524 13525 13526 13527 13528 13529 13530 13531 13532 13533 13534 13535 13536 13537 13538 13539 13540 13541 13542 13543 13544 13545 13546 13547 13548 13549 13550 13551 13552 13553 13554 13555 13556 13557 13558 13559 13560 13561 13562 13563 13564 13565 13566 13567 13568 13569 13570 13571 13572 13573 13574 13575 13576 13577 13578 13579 13580 13581 13582 13583 13584 13585 13586 13587 13588 13589 13590 13591 13592 13593 13594 13595 13596 13597 13598 13599 13600 13601 13602 13603 13604 13605 13606 13607 13608 13609 13610 13611 13612 13613 13614 13615 13616 13617 13618 13619 13620 13621 13622 13623 13624 13625 13626 13627 13628 13629 13630 13631 13632 13633 13634 13635 13636 13637 13638 13639 13640 13641 13642 13643 13644 13645 13646 13647 13648 13649 13650 13651 13652 13653 13654 13655 13656 13657 13658 13659 13660 13661 13662 13663 13664 13665 13666 13667 13668 13669 13670 13671 13672 13673 13674 13675 13676 13677 13678 13679 13680 13681 13682 13683 13684 13685 13686 13687 13688 13689 13690 13691 13692 13693 13694 13695 13696 13697 13698 13699 13700 13701 13702 13703 13704 13705 13706 13707 13708 13709 13710 13711 13712 13713 13714 13715 13716 13717 13718 13719 13720 13721 13722 13723 13724 13725 13726 13727 13728 13729 13730 13731 13732 13733 13734 13735 13736 13737 13738 13739 13740 13741 13742 13743 13744 13745 13746 13747 13748 13749 13750 13751 13752 13753 13754 13755 13756 13757 13758 13759 13760 13761 13762 13763 13764 13765 13766 13767 13768 13769 13770 13771 13772 13773 13774 13775 13776 13777 13778 13779 13780 13781 13782 13783 13784 13785 13786 13787 13788 13789 13790 13791 13792 13793 13794 13795 13796 13797 13798 13799 13800 13801 13802 13803 13804 13805 13806 13807 13808 13809 13810 13811 13812 13813 13814 13815 13816 13817 13818 13819 13820 13821 13822 13823 13824 13825 13826 13827 13828 13829 13830 13831 13832 13833 13834 13835 13836 13837 13838 13839 13840 13841 13842 13843 13844 13845 13846 13847 13848 13849 13850 13851 13852 13853 13854 13855 13856 13857 13858 13859 13860 13861 13862 13863 13864 13865 13866 13867 13868 13869 13870 13871 13872 13873 13874 13875 13876 13877 13878 13879 13880 13881 13882 13883 13884 13885 13886 13887 13888 13889 13890 13891 13892 13893 13894 13895 13896 13897 13898 13899 13900 13901 13902 13903 13904 13905 13906 13907 13908 13909 13910 13911 13912 13913 13914 13915 13916 13917 13918 13919 13920 13921 13922 13923 13924 13925 13926 13927 13928 13929 13930 13931 13932 13933 13934 13935 13936 13937 13938 13939 13940 13941 13942 13943 13944 13945 13946 13947 13948 13949 13950 13951 13952 13953 13954 13955 13956 13957 13958 13959 13960 13961 13962 13963 13964 13965 13966 13967 13968 13969 13970 13971 13972 13973 13974 13975 13976 13977 13978 13979 13980 13981 13982 13983 13984 13985 13986 13987 13988 13989 13990 13991 13992 13993 13994 13995 13996 13997 13998 13999 14000 14001 14002 14003 14004 14005 14006 14007 14008 14009 14010 14011 14012 14013 14014 14015 14016 14017 14018 14019 14020 14021 14022 14023 14024 14025 14026 14027 14028 14029 14030 14031 14032 14033 14034 14035 14036 14037 14038 14039 14040 14041 14042 14043 14044 14045 14046 14047 14048 14049 14050 14051 14052 14053 14054 14055 14056 14057 14058 14059 14060 14061 14062 14063 14064 14065 14066 14067 14068 14069 14070 14071 14072 14073 14074 14075 14076 14077 14078 14079 14080 14081 14082 14083 14084 14085 14086 14087 14088 14089 14090 14091 14092 14093 14094 14095 14096 14097 14098 14099 14100 14101 14102 14103 14104 14105 14106 14107 14108 14109 14110 14111 14112 14113 14114 14115 14116 14117 14118 14119 14120 14121 14122 14123 14124 14125 14126 14127 14128 14129 14130 14131 14132 14133 14134 14135 14136 14137 14138 14139 14140 14141 14142 14143 14144 14145 14146 14147 14148 14149 14150 14151 14152 14153 14154 14155 14156 14157 14158 14159 14160 14161 14162 14163 14164 14165 14166 14167 14168 14169 14170 14171 14172 14173 14174 14175 14176 14177 14178 14179 14180 14181 14182 14183 14184 14185 14186 14187 14188 14189 14190 14191 14192 14193 14194 14195 14196 14197 14198 14199 14200 14201 14202 14203 14204 14205 14206 14207 14208 14209 14210 14211 14212 14213 14214 14215 14216 14217 14218 14219 14220 14221 14222 14223 14224 14225 14226 14227 14228 14229 14230 14231 14232 14233 14234 14235 14236 14237 14238 14239 14240 14241 14242 14243 14244 14245 14246 14247 14248 14249 14250 14251 14252 14253 14254 14255 14256 14257 14258 14259 14260 14261 14262 14263 14264 14265 14266 14267 14268 14269 14270 14271 14272 14273 14274 14275 14276 14277 14278 14279 14280 14281 14282 14283 14284 14285 14286 14287 14288 14289 14290 14291 14292 14293 14294 14295 14296 14297 14298 14299 14300 14301 14302 14303 14304 14305 14306 14307 14308 14309 14310 14311 14312 14313 14314 14315 14316 14317 14318 14319 14320 14321 14322 14323 14324 14325 14326 14327 14328 14329 14330 14331 14332 14333 14334 14335 14336 14337 14338 14339 14340 14341 14342 14343 14344 14345 14346 14347 14348 14349 14350 14351 14352 14353 14354 14355 14356 14357 14358 14359 14360 14361 14362 14363 14364 14365 14366 14367 14368 14369 14370 14371 14372 14373 14374 14375 14376 14377 14378 14379 14380 14381 14382 14383 14384 14385 14386 14387 14388 14389 14390 14391 14392 14393 14394 14395 14396 14397 14398 14399 14400 14401 14402 14403 14404 14405 14406 14407 14408 14409 14410 14411 14412 14413 14414 14415 14416 14417 14418 14419 14420 14421 14422 14423 14424 14425 14426 14427 14428 14429 14430 14431 14432 14433 14434 14435 14436 14437 14438 14439 14440 14441 14442 14443 14444 14445 14446 14447 14448 14449 14450 14451 14452 14453 14454 14455 14456 14457 14458 14459 14460 14461 14462 14463 14464 14465 14466 14467 14468 14469 14470 14471 14472 14473 14474 14475 14476 14477 14478 14479 14480 14481 14482 14483 14484 14485 14486 14487 14488 14489 14490 14491 14492 14493 14494 14495 14496 14497 14498 14499 14500 14501 14502 14503 14504 14505 14506 14507 14508 14509 14510 14511 14512 14513 14514 14515 14516 14517 14518 14519 14520 14521 14522 14523 14524 14525 14526 14527 14528 14529 14530 14531 14532 14533 14534 14535 14536 14537 14538 14539 14540 14541 14542 14543 14544 14545 14546 14547 14548 14549 14550 14551 14552 14553 14554 14555 14556 14557 14558 14559 14560 14561 14562 14563 14564 14565 14566 14567 14568 14569 14570 14571 14572 14573 14574 14575 14576 14577 14578 14579 14580 14581 14582 14583 14584 14585 14586 14587 14588 14589 14590 14591 14592 14593 14594 14595 14596 14597 14598 14599 14600 14601 14602 14603 14604 14605 14606 14607 14608 14609 14610 14611 14612 14613 14614 14615 14616 14617 14618 14619 14620 14621 14622 14623 14624 14625 14626 14627 14628 14629 14630 14631 14632 14633 14634 14635 14636 14637 14638 14639 14640 14641 14642 14643 14644 14645 14646 14647 14648 14649 14650 14651 14652 14653 14654 14655 14656 14657 14658 14659 14660 14661 14662 14663 14664 14665 14666 14667 14668 14669 14670 14671 14672 14673 14674 14675 14676 14677 14678 14679 14680 14681 14682 14683 14684 14685 14686 14687 14688 14689 14690 14691 14692 14693 14694 14695 14696 14697 14698 14699 14700 14701 14702 14703 14704 14705 14706 14707 14708 14709 14710 14711 14712 14713 14714 14715 14716 14717 14718 14719 14720 14721 14722 14723 14724 14725 14726 14727 14728 14729 14730 14731 14732 14733 14734 14735 14736 14737 14738 14739 14740 14741 14742 14743 14744 14745 14746 14747 14748 14749 14750 14751 14752 14753 14754 14755 14756 14757 14758 14759 14760 14761 14762 14763 14764 14765 14766 14767 14768 14769 14770 14771 14772 14773 14774 14775 14776 14777 14778 14779 14780 14781 14782 14783 14784 14785 14786 14787 14788 14789 14790 14791 14792 14793 14794 14795 14796 14797 14798 14799 14800 14801 14802 14803 14804 14805 14806 14807 14808 14809 14810 14811 14812 14813 14814 14815 14816 14817 14818 14819 14820 14821 14822 14823 14824 14825 14826 14827 14828 14829 14830 14831 14832 14833 14834 14835 14836 14837 14838 14839 14840 14841 14842 14843 14844 14845 14846 14847 14848 14849 14850 14851 14852 14853 14854 14855 14856 14857 14858 14859 14860 14861 14862 14863 14864 14865 14866 14867 14868 14869 14870 14871 14872 14873 14874 14875 14876 14877 14878 14879 14880 14881 14882 14883 14884 14885 14886 14887 14888 14889 14890 14891 14892 14893 14894 14895 14896 14897 14898 14899 14900 14901 14902 14903 14904 14905 14906 14907 14908 14909 14910 14911 14912 14913 14914 14915 14916 14917 14918 14919 14920 14921 14922 14923 14924 14925 14926 14927 14928 14929 14930 14931 14932 14933 14934 14935 14936 14937 14938 14939 14940 14941 14942 14943 14944 14945 14946 14947 14948 14949 14950 14951 14952 14953 14954 14955 14956 14957 14958 14959 14960 14961 14962 14963 14964 14965 14966 14967 14968 14969 14970 14971 14972 14973 14974 14975 14976 14977 14978 14979 14980 14981 14982 14983 14984 14985 14986 14987 14988 14989 14990 14991 14992 14993 14994 14995 14996 14997 14998 14999 15000 15001 15002 15003 15004 15005 15006 15007 15008 15009 15010 15011 15012 15013 15014 15015 15016 15017 15018 15019 15020 15021 15022 15023 15024 15025 15026 15027 15028 15029 15030 15031 15032 15033 15034 15035 15036 15037 15038 15039 15040 15041 15042 15043 15044 15045 15046 15047 15048 15049 15050 15051 15052 15053 15054 15055 15056 15057 15058 15059 15060 15061 15062 15063 15064 15065 15066 15067 15068 15069 15070 15071 15072 15073 15074 15075 15076 15077 15078 15079 15080 15081 15082 15083 15084 15085 15086 15087 15088 15089 15090 15091 15092 15093 15094 15095 15096 15097 15098 15099 15100 15101 15102 15103 15104 15105 15106 15107 15108 15109 15110 15111 15112 15113 15114 15115 15116 15117 15118 15119 15120 15121 15122 15123 15124 15125 15126 15127 15128 15129 15130 15131 15132 15133 15134 15135 15136 15137 15138 15139 15140 15141 15142 15143 15144 15145 15146 15147 15148 15149 15150 15151 15152 15153 15154 15155 15156 15157 15158 15159 15160 15161 15162 15163 15164 15165 15166 15167 15168 15169 15170 15171 15172 15173 15174 15175 15176 15177 15178 15179 15180 15181 15182 15183 15184 15185 15186 15187 15188 15189 15190 15191 15192 15193 15194 15195 15196 15197 15198 15199 15200 15201 15202 15203 15204 15205 15206 15207 15208 15209 15210 15211 15212 15213 15214 15215 15216 15217 15218 15219 15220 15221 15222 15223 15224 15225 15226 15227 15228 15229 15230 15231 15232 15233 15234 15235 15236 15237 15238 15239 15240 15241 15242 15243 15244 15245 15246 15247 15248 15249 15250 15251 15252 15253 15254 15255 15256 15257 15258 15259 15260 15261 15262 15263 15264 15265 15266 15267 15268 15269 15270 15271 15272 15273 15274 15275 15276 15277 15278 15279 15280 15281 15282 15283 15284 15285 15286 15287 15288 15289 15290 15291 15292 15293 15294 15295 15296 15297 15298 15299 15300 15301 15302 15303 15304 15305 15306 15307 15308 15309 15310 15311 15312 15313 15314 15315 15316 15317 15318 15319 15320 15321 15322 15323 15324 15325 15326 15327 15328 15329 15330 15331 15332 15333 15334 15335 15336 15337 15338 15339 15340 15341 15342 15343 15344 15345 15346 15347 15348 15349 15350 15351 15352 15353 15354 15355 15356 15357 15358 15359 15360 15361 15362 15363 15364 15365 15366 15367 15368 15369 15370 15371 15372 15373 15374 15375 15376 15377 15378 15379 15380 15381 15382 15383 15384 15385 15386 15387 15388 15389 15390 15391 15392 15393 15394 15395 15396 15397 15398 15399 15400 15401 15402 15403 15404 15405 15406 15407 15408 15409 15410 15411 15412 15413 15414 15415 15416 15417 15418 15419 15420 15421 15422 15423 15424 15425 15426 15427 15428 15429 15430 15431 15432 15433 15434 15435 15436 15437 15438 15439 15440 15441 15442 15443 15444 15445 15446 15447 15448 15449 15450 15451 15452 15453 15454 15455 15456 15457 15458 15459 15460 15461 15462 15463 15464 15465 15466 15467 15468 15469 15470 15471 15472 15473 15474 15475 15476 15477 15478 15479 15480 15481 15482 15483 15484 15485 15486 15487 15488 15489 15490 15491 15492 15493 15494 15495 15496 15497 15498 15499 15500 15501 15502 15503 15504 15505 15506 15507 15508 15509 15510 15511 15512 15513 15514 15515 15516 15517 15518 15519 15520 15521 15522 15523 15524 15525 15526 15527 15528 15529 15530 15531 15532 15533 15534 15535 15536 15537 15538 15539 15540 15541 15542 15543 15544 15545 15546 15547 15548 15549 15550 15551 15552 15553 15554 15555 15556 15557 15558 15559 15560 15561 15562 15563 15564 15565 15566 15567 15568 15569 15570 15571 15572 15573 15574 15575 15576 15577 15578 15579 15580 15581 15582 15583 15584 15585 15586 15587 15588 15589 15590 15591 15592 15593 15594 15595 15596 15597 15598 15599 15600 15601 15602 15603 15604 15605 15606 15607 15608 15609 15610 15611 15612 15613 15614 15615 15616 15617 15618 15619 15620 15621 15622 15623 15624 15625 15626 15627 15628 15629 15630 15631 15632 15633 15634 15635 15636 15637 15638 15639 15640 15641 15642 15643 15644 15645 15646 15647 15648 15649 15650 15651 15652 15653 15654 15655 15656 15657 15658 15659 15660 15661 15662 15663 15664 15665 15666 15667 15668 15669 15670 15671 15672 15673 15674 15675 15676 15677 15678 15679 15680 15681 15682 15683 15684 15685 15686 15687 15688 15689 15690 15691 15692 15693 15694 15695 15696 15697 15698 15699 15700 15701 15702 15703 15704 15705 15706 15707 15708 15709 15710 15711 15712 15713 15714 15715 15716 15717 15718 15719 15720 15721 15722 15723 15724 15725 15726 15727 15728 15729 15730 15731 15732 15733 15734 15735 15736 15737 15738 15739 15740 15741 15742 15743 15744 15745 15746 15747 15748 15749 15750 15751 15752 15753 15754 15755 15756 15757 15758 15759 15760 15761 15762 15763 15764 15765 15766 15767 15768 15769 15770 15771 15772 15773 15774 15775 15776 15777 15778 15779 15780 15781 15782 15783 15784 15785 15786 15787 15788 15789 15790 15791 15792 15793 15794 15795 15796 15797 15798 15799 15800 15801 15802 15803 15804 15805 15806 15807 15808 15809 15810 15811 15812 15813 15814 15815 15816 15817 15818 15819 15820 15821 15822 15823 15824 15825 15826 15827 15828 15829 15830 15831 15832 15833 15834 15835 15836 15837 15838 15839 15840 15841 15842 15843 15844 15845 15846 15847 15848 15849 15850 15851 15852 15853 15854 15855 15856 15857 15858 15859 15860 15861 15862 15863 15864 15865 15866 15867 15868 15869 15870 15871 15872 15873 15874 15875 15876 15877 15878 15879 15880 15881 15882 15883 15884 15885 15886 15887 15888 15889 15890 15891 15892 15893 15894 15895 15896 15897 15898 15899 15900 15901 15902 15903 15904 15905 15906 15907 15908 15909 15910 15911 15912 15913 15914 15915 15916 15917 15918 15919 15920 15921 15922 15923 15924 15925 15926 15927 15928 15929 15930 15931 15932 15933 15934 15935 15936 15937 15938 15939 15940 15941 15942 15943 15944 15945 15946 15947 15948 15949 15950 15951 15952 15953 15954 15955 15956 15957 15958 15959 15960 15961 15962 15963 15964 15965 15966 15967 15968 15969 15970 15971 15972 15973 15974 15975 15976 15977 15978 15979 15980 15981 15982 15983 15984 15985 15986 15987 15988 15989 15990 15991 15992 15993 15994 15995 15996 15997 15998 15999 16000 16001 16002 16003 16004 16005 16006 16007 16008 16009 16010 16011 16012 16013 16014 16015 16016 16017 16018 16019 16020 16021 16022 16023 16024 16025 16026 16027 16028 16029 16030 16031 16032 16033 16034 16035 16036 16037 16038 16039 16040 16041 16042 16043 16044 16045 16046 16047 16048 16049 16050 16051 16052 16053 16054 16055 16056 16057 16058 16059 16060 16061 16062 16063 16064 16065 16066 16067 16068 16069 16070 16071 16072 16073 16074 16075 16076 16077 16078 16079 16080 16081 16082 16083 16084 16085 16086 16087 16088 16089 16090 16091 16092 16093 16094 16095 16096 16097 16098 16099 16100 16101 16102 16103 16104 16105 16106 16107 16108 16109 16110 16111 16112 16113 16114 16115 16116 16117 16118 16119 16120 16121 16122 16123 16124 16125 16126 16127 16128 16129 16130 16131 16132 16133 16134 16135 16136 16137 16138 16139 16140 16141 16142 16143 16144 16145 16146 16147 16148 16149 16150 16151 16152 16153 16154 16155 16156 16157 16158 16159 16160 16161 16162 16163 16164 16165 16166 16167 16168 16169 16170 16171 16172 16173 16174 16175 16176 16177 16178 16179 16180 16181 16182 16183 16184 16185 16186 16187 16188 16189 16190 16191 16192 16193 16194 16195 16196 16197 16198 16199 16200 16201 16202 16203 16204 16205 16206 16207 16208 16209 16210 16211 16212 16213 16214 16215 16216 16217 16218 16219 16220 16221 16222 16223 16224 16225 16226 16227 16228 16229 16230 16231 16232 16233 16234 16235 16236 16237 16238 16239 16240 16241 16242 16243 16244 16245 16246 16247 16248 16249 16250 16251 16252 16253 16254 16255 16256 16257 16258 16259 16260 16261 16262 16263 16264 16265 16266 16267 16268 16269 16270 16271 16272 16273 16274 16275 16276 16277 16278 16279 16280 16281 16282 16283 16284 16285 16286 16287 16288 16289 16290 16291 16292 16293 16294 16295 16296 16297 16298 16299 16300 16301 16302 16303 16304 16305 16306 16307 16308 16309 16310 16311 16312 16313 16314 16315 16316 16317 16318 16319 16320 16321 16322 16323 16324 16325 16326 16327 16328 16329 16330 16331 16332 16333 16334 16335 16336 16337 16338 16339 16340 16341 16342 16343 16344 16345 16346 16347 16348 16349 16350 16351 16352 16353 16354 16355 16356 16357 16358 16359 16360 16361 16362 16363 16364 16365 16366 16367 16368 16369 16370 16371 16372 16373 16374 16375 16376 16377 16378 16379 16380 16381 16382 16383 16384 16385 16386 16387 16388 16389 16390 16391 16392 16393 16394 16395 16396 16397 16398 16399 16400 16401 16402 16403 16404 16405 16406 16407 16408 16409 16410 16411 16412 16413 16414 16415 16416 16417 16418 16419 16420 16421 16422 16423 16424 16425 16426 16427 16428 16429 16430 16431 16432 16433 16434 16435 16436 16437 16438 16439 16440 16441 16442 16443 16444 16445 16446 16447 16448 16449 16450 16451 16452 16453 16454 16455 16456 16457 16458 16459 16460 16461 16462 16463 16464 16465 16466 16467 16468 16469 16470 16471 16472 16473 16474 16475 16476 16477 16478 16479 16480 16481 16482 16483 16484 16485 16486 16487 16488 16489 16490 16491 16492 16493 16494 16495 16496 16497 16498 16499 16500 16501 16502 16503 16504 16505 16506 16507 16508 16509 16510 16511 16512 16513 16514 16515 16516 16517 16518 16519 16520 16521 16522 16523 16524 16525 16526 16527 16528 16529 16530 16531 16532 16533 16534 16535 16536 16537 16538 16539 16540 16541 16542 16543 16544 16545 16546 16547 16548 16549 16550 16551 16552 16553 16554 16555 16556 16557 16558 16559 16560 16561 16562 16563 16564 16565 16566 16567 16568 16569 16570 16571 16572 16573 16574 16575 16576 16577 16578 16579 16580 16581 16582 16583 16584 16585 16586 16587 16588 16589 16590 16591 16592 16593 16594 16595 16596 16597 16598 16599 16600 16601 16602 16603 16604 16605 16606 16607 16608 16609 16610 16611 16612 16613 16614 16615 16616 16617 16618 16619 16620 16621 16622 16623 16624 16625 16626 16627 16628 16629 16630 16631 16632 16633 16634 16635 16636 16637 16638 16639 16640 16641 16642 16643 16644 16645 16646 16647 16648 16649 16650 16651 16652 16653 16654 16655 16656 16657 16658 16659 16660 16661 16662 16663 16664 16665 16666 16667 16668 16669 16670 16671 16672 16673 16674 16675 16676 16677 16678 16679 16680 16681 16682 16683 16684 16685 16686 16687 16688 16689 16690 16691 16692 16693 16694 16695 16696 16697 16698 16699 16700 16701 16702 16703 16704 16705 16706 16707 16708 16709 16710 16711 16712 16713 16714 16715 16716 16717 16718 16719 16720 16721 16722 16723 16724 16725 16726 16727 16728 16729 16730 16731 16732 16733 16734 16735 16736 16737 16738 16739 16740 16741 16742 16743 16744 16745 16746 16747 16748 16749 16750 16751 16752 16753 16754 16755 16756 16757 16758 16759 16760 16761 16762 16763 16764 16765 16766 16767 16768 16769 16770 16771 16772 16773 16774 16775 16776 16777 16778 16779 16780 16781 16782 16783 16784 16785 16786 16787 16788 16789 16790 16791 16792 16793 16794 16795 16796 16797 16798 16799 16800 16801 16802 16803 16804 16805 16806 16807 16808 16809 16810 16811 16812 16813 16814 16815 16816 16817 16818 16819 16820 16821 16822 16823 16824 16825 16826 16827 16828 16829 16830 16831 16832 16833 16834 16835 16836 16837 16838 16839 16840 16841 16842 16843 16844 16845 16846 16847 16848 16849 16850 16851 16852 16853 16854 16855 16856 16857 16858 16859 16860 16861 16862 16863 16864 16865 16866 16867 16868 16869 16870 16871 16872 16873 16874 16875 16876 16877 16878 16879 16880 16881 16882 16883 16884 16885 16886 16887 16888 16889 16890 16891 16892 16893 16894 16895 16896 16897 16898 16899 16900 16901 16902 16903 16904 16905 16906 16907 16908 16909 16910 16911 16912 16913 16914 16915 16916 16917 16918 16919 16920 16921 16922 16923 16924 16925 16926 16927 16928 16929 16930 16931 16932 16933 16934 16935 16936 16937 16938 16939 16940 16941 16942 16943 16944 16945 16946 16947 16948 16949 16950 16951 16952 16953 16954 16955 16956 16957 16958 16959 16960 16961 16962 16963 16964 16965 16966 16967 16968 16969 16970 16971 16972 16973 16974 16975 16976 16977 16978 16979 16980 16981 16982 16983 16984 16985 16986 16987 16988 16989 16990 16991 16992 16993 16994 16995 16996 16997 16998 16999 17000 17001 17002 17003 17004 17005 17006 17007 17008 17009 17010 17011 17012 17013 17014 17015 17016 17017 17018 17019 17020 17021 17022 17023 17024 17025 17026 17027 17028 17029 17030 17031 17032 17033 17034 17035 17036 17037 17038 17039 17040 17041 17042 17043 17044 17045 17046 17047 17048 17049 17050 17051 17052 17053 17054 17055 17056 17057 17058 17059 17060 17061 17062 17063 17064 17065 17066 17067 17068 17069 17070 17071 17072 17073 17074 17075 17076 17077 17078 17079 17080 17081 17082 17083 17084 17085 17086 17087 17088 17089 17090 17091 17092 17093 17094 17095 17096 17097 17098 17099 17100 17101 17102 17103 17104 17105 17106 17107 17108 17109 17110 17111 17112 17113 17114 17115 17116 17117 17118 17119 17120 17121 17122 17123 17124 17125 17126 17127 17128 17129 17130 17131 17132 17133 17134 17135 17136 17137 17138 17139 17140 17141 17142 17143 17144 17145 17146 17147 17148 17149 17150 17151 17152 17153 17154 17155 17156 17157 17158 17159 17160 17161 17162 17163 17164 17165 17166 17167 17168 17169 17170 17171 17172 17173 17174 17175 17176 17177 17178 17179 17180 17181 17182 17183 17184 17185 17186 17187 17188 17189 17190 17191 17192 17193 17194 17195 17196 17197 17198 17199 17200 17201 17202 17203 17204 17205 17206 17207 17208 17209 17210 17211 17212 17213 17214 17215 17216 17217 17218 17219 17220 17221 17222 17223 17224 17225 17226 17227 17228 17229 17230 17231 17232 17233 17234 17235 17236 17237 17238 17239 17240 17241 17242 17243 17244 17245 17246 17247 17248 17249 17250 17251 17252 17253 17254 17255 17256 17257 17258 17259 17260 17261 17262 17263 17264 17265 17266 17267 17268 17269 17270 17271 17272 17273 17274 17275 17276 17277 17278 17279 17280 17281 17282 17283 17284 17285 17286 17287 17288 17289 17290 17291 17292 17293 17294 17295 17296 17297 17298 17299 17300 17301 17302 17303 17304 17305 17306 17307 17308 17309 17310 17311 17312 17313 17314 17315 17316 17317 17318 17319 17320 17321 17322 17323 17324 17325 17326 17327 17328 17329 17330 17331 17332 17333 17334 17335 17336 17337 17338 17339 17340 17341 17342 17343 17344 17345 17346 17347 17348 17349 17350 17351 17352 17353 17354 17355 17356 17357 17358 17359 17360 17361 17362 17363 17364 17365 17366 17367 17368 17369 17370 17371 17372 17373 17374 17375 17376 17377 17378 17379 17380 17381 17382 17383 17384 17385 17386 17387 17388 17389 17390 17391 17392 17393 17394 17395 17396 17397 17398 17399 17400 17401 17402 17403 17404 17405 17406 17407 17408 17409 17410 17411 17412 17413 17414 17415 17416 17417 17418 17419 17420 17421 17422 17423 17424 17425 17426 17427 17428 17429 17430 17431 17432 17433 17434 17435 17436 17437 17438 17439 17440 17441 17442 17443 17444 17445 17446 17447 17448 17449 17450 17451 17452 17453 17454 17455 17456 17457 17458 17459 17460 17461 17462 17463 17464 17465 17466 17467 17468 17469 17470 17471 17472 17473 17474 17475 17476 17477 17478 17479 17480 17481 17482 17483 17484 17485 17486 17487 17488 17489 17490 17491 17492 17493 17494 17495 17496 17497 17498 17499 17500 17501 17502 17503 17504 17505 17506 17507 17508 17509 17510 17511 17512 17513 17514 17515 17516 17517 17518 17519 17520 17521 17522 17523 17524 17525 17526 17527 17528 17529 17530 17531 17532 17533 17534 17535 17536 17537 17538 17539 17540 17541 17542 17543 17544 17545 17546 17547 17548 17549 17550 17551 17552 17553 17554 17555 17556 17557 17558 17559 17560 17561 17562 17563 17564 17565 17566 17567 17568 17569 17570 17571 17572 17573 17574 17575 17576 17577 17578 17579 17580 17581 17582 17583 17584 17585 17586 17587 17588 17589 17590 17591 17592 17593 17594 17595 17596 17597 17598 17599 17600 17601 17602 17603 17604 17605 17606 17607 17608 17609 17610 17611 17612 17613 17614 17615 17616 17617 17618 17619 17620 17621 17622 17623 17624 17625 17626 17627 17628 17629 17630 17631 17632 17633 17634 17635 17636 17637 17638 17639 17640 17641 17642 17643 17644 17645 17646 17647 17648 17649 17650 17651 17652 17653 17654 17655 17656 17657 17658 17659 17660 17661 17662 17663 17664 17665 17666 17667 17668 17669 17670 17671 17672 17673 17674 17675 17676 17677 17678 17679 17680 17681 17682 17683 17684 17685 17686 17687 17688 17689 17690 17691 17692 17693 17694 17695 17696 17697 17698 17699 17700 17701 17702 17703 17704 17705 17706 17707 17708 17709 17710 17711 17712 17713 17714 17715 17716 17717 17718 17719 17720 17721 17722 17723 17724 17725 17726 17727 17728 17729 17730 17731 17732 17733 17734 17735 17736 17737 17738 17739 17740 17741 17742 17743 17744 17745 17746 17747 17748 17749 17750 17751 17752 17753 17754 17755 17756 17757 17758 17759 17760 17761 17762 17763 17764 17765 17766 17767 17768 17769 17770 17771 17772 17773 17774 17775 17776 17777 17778 17779 17780 17781 17782 17783 17784 17785 17786 17787 17788 17789 17790 17791 17792 17793 17794 17795 17796 17797 17798 17799 17800 17801 17802 17803 17804 17805 17806 17807 17808 17809 17810 17811 17812 17813 17814 17815 17816 17817 17818 17819 17820 17821 17822 17823 17824 17825 17826 17827 17828 17829 17830 17831 17832 17833 17834 17835 17836 17837 17838 17839 17840 17841 17842 17843 17844 17845 17846 17847 17848 17849 17850 17851 17852 17853 17854 17855 17856 17857 17858 17859 17860 17861 17862 17863 17864 17865 17866 17867 17868 17869 17870 17871 17872 17873 17874 17875 17876 17877 17878 17879 17880 17881 17882 17883 17884 17885 17886 17887 17888 17889 17890 17891 17892 17893 17894 17895 17896 17897 17898 17899 17900 17901 17902 17903 17904 17905 17906 17907 17908 17909 17910 17911 17912 17913 17914 17915 17916 17917 17918 17919 17920 17921 17922 17923 17924 17925 17926 17927 17928 17929 17930 17931 17932 17933 17934 17935 17936 17937 17938 17939 17940 17941 17942 17943 17944 17945 17946 17947 17948 17949 17950 17951 17952 17953 17954 17955 17956 17957 17958 17959 17960 17961 17962 17963 17964 17965 17966 17967 17968 17969 17970 17971 17972 17973 17974 17975 17976 17977 17978 17979 17980 17981 17982 17983 17984 17985 17986 17987 17988 17989 17990 17991 17992 17993 17994 17995 17996 17997 17998 17999 18000 18001 18002 18003 18004 18005 18006 18007 18008 18009 18010 18011 18012 18013 18014 18015 18016 18017 18018 18019 18020 18021 18022 18023 18024 18025 18026 18027 18028 18029 18030 18031 18032 18033 18034 18035 18036 18037 18038 18039 18040 18041 18042 18043 18044 18045 18046 18047 18048 18049 18050 18051 18052 18053 18054 18055 18056 18057 18058 18059 18060 18061 18062 18063 18064 18065 18066 18067 18068 18069 18070 18071 18072 18073 18074 18075 18076 18077 18078 18079 18080 18081 18082 18083 18084 18085 18086 18087 18088 18089 18090 18091 18092 18093 18094 18095 18096 18097 18098 18099 18100 18101 18102 18103 18104 18105 18106 18107 18108 18109 18110 18111 18112 18113 18114 18115 18116 18117 18118 18119 18120 18121 18122 18123 18124 18125 18126 18127 18128 18129 18130 18131 18132 18133 18134 18135 18136 18137 18138 18139 18140 18141 18142 18143 18144 18145 18146 18147 18148 18149 18150 18151 18152 18153 18154 18155 18156 18157 18158 18159 18160 18161 18162 18163 18164 18165 18166 18167 18168 18169 18170 18171 18172 18173 18174 18175 18176 18177 18178 18179 18180 18181 18182 18183 18184 18185 18186 18187 18188 18189 18190 18191 18192 18193 18194 18195 18196 18197 18198 18199 18200 18201 18202 18203 18204 18205 18206 18207 18208 18209 18210 18211 18212 18213 18214 18215 18216 18217 18218 18219 18220 18221 18222 18223 18224 18225 18226 18227 18228 18229 18230 18231 18232 18233 18234 18235 18236 18237 18238 18239 18240 18241 18242 18243 18244 18245 18246 18247 18248 18249 18250 18251 18252 18253 18254 18255 18256 18257 18258 18259 18260 18261 18262 18263 18264 18265 18266 18267 18268 18269 18270 18271 18272 18273 18274 18275 18276 18277 18278 18279 18280 18281 18282 18283 18284 18285 18286 18287 18288 18289 18290 18291 18292 18293 18294 18295 18296 18297 18298 18299 18300 18301 18302 18303 18304 18305 18306 18307 18308 18309 18310 18311 18312 18313 18314 18315 18316 18317 18318 18319 18320 18321 18322 18323 18324 18325 18326 18327 18328 18329 18330 18331 18332 18333 18334 18335 18336 18337 18338 18339 18340 18341 18342 18343 18344 18345 18346 18347 18348 18349 18350 18351 18352 18353 18354 18355 18356 18357 18358 18359 18360 18361 18362 18363 18364 18365 18366 18367 18368 18369 18370 18371 18372 18373 18374 18375 18376 18377 18378 18379 18380 18381 18382 18383 18384 18385 18386 18387 18388 18389 18390 18391 18392 18393 18394 18395 18396 18397 18398 18399 18400 18401 18402 18403 18404 18405 18406 18407 18408 18409 18410 18411 18412 18413 18414 18415 18416 18417 18418 18419 18420 18421 18422 18423 18424 18425 18426 18427 18428 18429 18430 18431 18432 18433 18434 18435 18436 18437 18438 18439 18440 18441 18442 18443 18444 18445 18446 18447 18448 18449 18450 18451 18452 18453 18454 18455 18456 18457 18458 18459 18460 18461 18462 18463 18464 18465 18466 18467 18468 18469 18470 18471 18472 18473 18474 18475 18476 18477 18478 18479 18480 18481 18482 18483 18484 18485 18486 18487 18488 18489 18490 18491 18492 18493 18494 18495 18496 18497 18498 18499 18500 18501 18502 18503 18504 18505 18506 18507 18508 18509 18510 18511 18512 18513 18514 18515 18516 18517 18518 18519 18520 18521 18522 18523 18524 18525 18526 18527 18528 18529 18530 18531 18532 18533 18534 18535 18536 18537 18538 18539 18540 18541 18542 18543 18544 18545 18546 18547 18548 18549 18550 18551 18552 18553 18554 18555 18556 18557 18558 18559 18560 18561 18562 18563 18564 18565 18566 18567 18568 18569 18570 18571 18572 18573 18574 18575 18576 18577 18578 18579 18580 18581 18582 18583 18584 18585 18586 18587 18588 18589 18590 18591 18592 18593 18594 18595 18596 18597 18598 18599 18600 18601 18602 18603 18604 18605 18606 18607 18608 18609 18610 18611 18612 18613 18614 18615 18616 18617 18618 18619 18620 18621 18622 18623 18624 18625 18626 18627 18628 18629 18630 18631 18632 18633 18634 18635 18636 18637 18638 18639 18640 18641 18642 18643 18644 18645 18646 18647 18648 18649 18650 18651 18652 18653 18654 18655 18656 18657 18658 18659 18660 18661 18662 18663 18664 18665 18666 18667 18668 18669 18670 18671 18672 18673 18674 18675 18676 18677 18678 18679 18680 18681 18682 18683 18684 18685 18686 18687 18688 18689 18690 18691 18692 18693 18694 18695 18696 18697 18698 18699 18700 18701 18702 18703 18704 18705 18706 18707 18708 18709 18710 18711 18712 18713 18714 18715 18716 18717 18718 18719 18720 18721 18722 18723 18724 18725 18726 18727 18728 18729 18730 18731 18732 18733 18734 18735 18736 18737 18738 18739 18740 18741 18742 18743 18744 18745 18746 18747 18748 18749 18750 18751 18752 18753 18754 18755 18756 18757 18758 18759 18760 18761 18762 18763 18764 18765 18766 18767 18768 18769 18770 18771 18772 18773 18774 18775 18776 18777 18778 18779 18780 18781 18782 18783 18784 18785 18786 18787 18788 18789 18790 18791 18792 18793 18794 18795 18796 18797 18798 18799 18800 18801 18802 18803 18804 18805 18806 18807 18808 18809 18810 18811 18812 18813 18814 18815 18816 18817 18818 18819 18820 18821 18822 18823 18824 18825 18826 18827 18828 18829 18830 18831 18832 18833 18834 18835 18836 18837 18838 18839 18840 18841 18842 18843 18844 18845 18846 18847 18848 18849 18850 18851 18852 18853 18854 18855 18856 18857 18858 18859 18860 18861 18862 18863 18864 18865 18866 18867 18868 18869 18870 18871 18872 18873 18874 18875 18876 18877 18878 18879 18880 18881 18882 18883 18884 18885 18886 18887 18888 18889 18890 18891 18892 18893 18894 18895 18896 18897 18898 18899 18900 18901 18902 18903 18904 18905 18906 18907 18908 18909 18910 18911 18912 18913 18914 18915 18916 18917 18918 18919 18920 18921 18922 18923 18924 18925 18926 18927 18928 18929 18930 18931 18932 18933 18934 18935 18936 18937 18938 18939 18940 18941 18942 18943 18944 18945 18946 18947 18948 18949 18950 18951 18952 18953 18954 18955 18956 18957 18958 18959 18960 18961 18962 18963 18964 18965 18966 18967 18968 18969 18970 18971 18972 18973 18974 18975 18976 18977 18978 18979 18980 18981 18982 18983 18984 18985 18986 18987 18988 18989 18990 18991 18992 18993 18994 18995 18996 18997 18998 18999 19000 19001 19002 19003 19004 19005 19006 19007 19008 19009 19010 19011 19012 19013 19014 19015 19016 19017 19018 19019 19020 19021 19022 19023 19024 19025 19026 19027 19028 19029 19030 19031 19032 19033 19034 19035 19036 19037 19038 19039 19040 19041 19042 19043 19044 19045 19046 19047 19048 19049 19050 19051 19052 19053 19054 19055 19056 19057 19058 19059 19060 19061 19062 19063 19064 19065 19066 19067 19068 19069 19070 19071 19072 19073 19074 19075 19076 19077 19078 19079 19080 19081 19082 19083 19084 19085 19086 19087 19088 19089 19090 19091 19092 19093 19094 19095 19096 19097 19098 19099 19100 19101 19102 19103 19104 19105 19106 19107 19108 19109 19110 19111 19112 19113 19114 19115 19116 19117 19118 19119 19120 19121 19122 19123 19124 19125 19126 19127 19128 19129 19130 19131 19132 19133 19134 19135 19136 19137 19138 19139 19140 19141 19142 19143 19144 19145 19146 19147 19148 19149 19150 19151 19152 19153 19154 19155 19156 19157 19158 19159 19160 19161 19162 19163 19164 19165 19166 19167 19168 19169 19170 19171 19172 19173 19174 19175 19176 19177 19178 19179 19180 19181 19182 19183 19184 19185 19186 19187 19188 19189 19190 19191 19192 19193 19194 19195 19196 19197 19198 19199 19200 19201 19202 19203 19204 19205 19206 19207 19208 19209 19210 19211 19212 19213 19214 19215 19216 19217 19218 19219 19220 19221 19222 19223 19224 19225 19226 19227 19228 19229 19230 19231 19232 19233 19234 19235 19236 19237 19238 19239 19240 19241 19242 19243 19244 19245 19246 19247 19248 19249 19250 19251 19252 19253 19254 19255 19256 19257 19258 19259 19260 19261 19262 19263 19264 19265 19266 19267 19268 19269 19270 19271 19272 19273 19274 19275 19276 19277 19278 19279 19280 19281 19282 19283 19284 19285 19286 19287 19288 19289 19290 19291 19292 19293 19294 19295 19296 19297 19298 19299 19300 19301 19302 19303 19304 19305 19306 19307 19308 19309 19310 19311 19312 19313 19314 19315 19316 19317 19318 19319 19320 19321 19322 19323 19324 19325 19326 19327 19328 19329 19330 19331 19332 19333 19334 19335 19336 19337 19338 19339 19340 19341 19342 19343 19344 19345 19346 19347 19348 19349 19350 19351 19352 19353 19354 19355 19356 19357 19358 19359 19360 19361 19362 19363 19364 19365 19366 19367 19368 19369 19370 19371 19372 19373 19374 19375 19376 19377 19378 19379 19380 19381 19382 19383 19384 19385 19386 19387 19388 19389 19390 19391 19392 19393 19394 19395 19396 19397 19398 19399 19400 19401 19402 19403 19404 19405 19406 19407 19408 19409 19410 19411 19412 19413 19414 19415 19416 19417 19418 19419 19420 19421 19422 19423 19424 19425 19426 19427 19428 19429 19430 19431 19432 19433 19434 19435 19436 19437 19438 19439 19440 19441 19442 19443 19444 19445 19446 19447 19448 19449 19450 19451 19452 19453 19454 19455 19456 19457 19458 19459 19460 19461 19462 19463 19464 19465 19466 19467 19468 19469 19470 19471 19472 19473 19474 19475 19476 19477 19478 19479 19480 19481 19482 19483 19484 19485 19486 19487 19488 19489 19490 19491 19492 19493 19494 19495 19496 19497 19498 19499 19500 19501 19502 19503 19504 19505 19506 19507 19508 19509 19510 19511 19512 19513 19514 19515 19516 19517 19518 19519 19520 19521 19522 19523 19524 19525 19526 19527 19528 19529 19530 19531 19532 19533 19534 19535 19536 19537 19538 19539 19540 19541 19542 19543 19544 19545 19546 19547 19548 19549 19550 19551 19552 19553 19554 19555 19556 19557 19558 19559 19560 19561 19562 19563 19564 19565 19566 19567 19568 19569 19570 19571 19572 19573 19574 19575 19576 19577 19578 19579 19580 19581 19582 19583 19584 19585 19586 19587 19588 19589 19590 19591 19592 19593 19594 19595 19596 19597 19598 19599 19600 19601 19602 19603 19604 19605 19606 19607 19608 19609 19610 19611 19612 19613 19614 19615 19616 19617 19618 19619 19620 19621 19622 19623 19624 19625 19626 19627 19628 19629 19630 19631 19632 19633 19634 19635 19636 19637 19638 19639 19640 19641 19642 19643 19644 19645 19646 19647 19648 19649 19650 19651 19652 19653 19654 19655 19656 19657 19658 19659 19660 19661 19662 19663 19664 19665 19666 19667 19668 19669 19670 19671 19672 19673 19674 19675 19676 19677 19678 19679 19680 19681 19682 19683 19684 19685 19686 19687 19688 19689 19690 19691 19692 19693 19694 19695 19696 19697 19698 19699 19700 19701 19702 19703 19704 19705 19706 19707 19708 19709 19710 19711 19712 19713 19714 19715 19716 19717 19718 19719 19720 19721 19722 19723 19724 19725 19726 19727 19728 19729 19730 19731 19732 19733 19734 19735 19736 19737 19738 19739 19740 19741 19742 19743 19744 19745 19746 19747 19748 19749 19750 19751 19752 19753 19754 19755 19756 19757 19758 19759 19760 19761 19762 19763 19764 19765 19766 19767 19768 19769 19770 19771 19772 19773 19774 19775 19776 19777 19778 19779 19780 19781 19782 19783 19784 19785 19786 19787 19788 19789 19790 19791 19792 19793 19794 19795 19796 19797 19798 19799 19800 19801 19802 19803 19804 19805 19806 19807 19808 19809 19810 19811 19812 19813 19814 19815 19816 19817 19818 19819 19820 19821 19822 19823 19824 19825 19826 19827 19828 19829 19830 19831 19832 19833 19834 19835 19836 19837 19838 19839 19840 19841 19842 19843 19844 19845 19846 19847 19848 19849 19850 19851 19852 19853 19854 19855 19856 19857 19858 19859 19860 19861 19862 19863 19864 19865 19866 19867 19868 19869 19870 19871 19872 19873 19874 19875 19876 19877 19878 19879 19880 19881 19882 19883 19884 19885 19886 19887 19888 19889 19890 19891 19892 19893 19894 19895 19896 19897 19898 19899 19900 19901 19902 19903 19904 19905 19906 19907 19908 19909 19910 19911 19912 19913 19914 19915 19916 19917 19918 19919 19920 19921 19922 19923 19924 19925 19926 19927 19928 19929 19930 19931 19932 19933 19934 19935 19936 19937 19938 19939 19940 19941 19942 19943 19944 19945 19946 19947 19948 19949 19950 19951 19952 19953 19954 19955 19956 19957 19958 19959 19960 19961 19962 19963 19964 19965 19966 19967 19968 19969 19970 19971 19972 19973 19974 19975 19976 19977 19978 19979 19980 19981 19982 19983 19984 19985 19986 19987 19988 19989 19990 19991 19992 19993 19994 19995 19996 19997 19998 19999 20000 20001 20002 20003 20004 20005 20006 20007 20008 20009 20010 20011 20012 20013 20014 20015 20016 20017 20018 20019 20020 20021 20022 20023 20024 20025 20026 20027 20028 20029 20030 20031 20032 20033 20034 20035 20036 20037 20038 20039 20040 20041 20042 20043 20044 20045 20046 20047 20048 20049 20050 20051 20052 20053 20054 20055 20056 20057 20058 20059 20060 20061 20062 20063 20064 20065 20066 20067 20068 20069 20070 20071 20072 20073 20074 20075 20076 20077 20078 20079 20080 20081 20082 20083 20084 20085 20086 20087 20088 20089 20090 20091 20092 20093 20094 20095 20096 20097 20098 20099 20100 20101 20102 20103 20104 20105 20106 20107 20108 20109 20110 20111 20112 20113 20114 20115 20116 20117 20118 20119 20120 20121 20122 20123 20124 20125 20126 20127 20128 20129 20130 20131 20132 20133 20134 20135 20136 20137 20138 20139 20140 20141 20142 20143 20144 20145 20146 20147 20148 20149 20150 20151 20152 20153 20154 20155 20156 20157 20158 20159 20160 20161 20162 20163 20164 20165 20166 20167 20168 20169 20170 20171 20172 20173 20174 20175 20176 20177 20178 20179 20180 20181 20182 20183 20184 20185 20186 20187 20188 20189 20190 20191 20192 20193 20194 20195 20196 20197 20198 20199 20200 20201 20202 20203 20204 20205 20206 20207 20208 20209 20210 20211 20212 20213 20214 20215 20216 20217 20218 20219 20220 20221 20222 20223 20224 20225 20226 20227 20228 20229 20230 20231 20232 20233 20234 20235 20236 20237 20238 20239 20240 20241 20242 20243 20244 20245 20246 20247 20248 20249 20250 20251 20252 20253 20254 20255 20256 20257 20258 20259 20260 20261 20262 20263 20264 20265 20266 20267 20268 20269 20270 20271 20272 20273 20274 20275 20276 20277 20278 20279 20280 20281 20282 20283 20284 20285 20286 20287 20288 20289 20290 20291 20292 20293 20294 20295 20296 20297 20298 20299 20300 20301 20302 20303 20304 20305 20306 20307 20308 20309 20310 20311 20312 20313 20314 20315 20316 20317 20318 20319 20320 20321 20322 20323 20324 20325 20326 20327 20328 20329 20330 20331 20332 20333 20334 20335 20336 20337 20338 20339 20340 20341 20342 20343 20344 20345 20346 20347 20348 20349 20350 20351 20352 20353 20354 20355 20356 20357 20358 20359 20360 20361 20362 20363 20364 20365 20366 20367 20368 20369 20370 20371 20372 20373 20374 20375 20376 20377 20378 20379 20380 20381 20382 20383 20384 20385 20386 20387 20388 20389 20390 20391 20392 20393 20394 20395 20396 20397 20398 20399 20400 20401 20402 20403 20404 20405 20406 20407 20408 20409 20410 20411 20412 20413 20414 20415 20416 20417 20418 20419 20420 20421 20422 20423 20424 20425 20426 20427 20428 20429 20430 20431 20432 20433 20434 20435 20436 20437 20438 20439 20440 20441 20442 20443 20444 20445 20446 20447 20448 20449 20450 20451 20452 20453 20454 20455 20456 20457 20458 20459 20460 20461 20462 20463 20464 20465 20466 20467 20468 20469 20470 20471 20472 20473 20474 20475 20476 20477 20478 20479 20480 20481 20482 20483 20484 20485 20486 20487 20488 20489 20490 20491 20492 20493 20494 20495 20496 20497 20498 20499 20500 20501 20502 20503 20504 20505 20506 20507 20508 20509 20510 20511 20512 20513 20514 20515 20516 20517 20518 20519 20520 20521 20522 20523 20524 20525 20526 20527 20528 20529 20530 20531 20532 20533 20534 20535 20536 20537 20538 20539 20540 20541 20542 20543 20544 20545 20546 20547 20548 20549 20550 20551 20552 20553 20554 20555 20556 20557 20558 20559 20560 20561 20562 20563 20564 20565 20566 20567 20568 20569 20570 20571 20572 20573 20574 20575 20576 20577 20578 20579 20580 20581 20582 20583 20584 20585 20586 20587 20588 20589 20590 20591 20592 20593 20594 20595 20596 20597 20598 20599 20600 20601 20602 20603 20604 20605 20606 20607 20608 20609 20610 20611 20612 20613 20614 20615 20616 20617 20618 20619 20620 20621 20622 20623 20624 20625 20626 20627 20628 20629 20630 20631 20632 20633 20634 20635 20636 20637 20638 20639 20640 20641 20642 20643 20644 20645 20646 20647 20648 20649 20650 20651 20652 20653 20654 20655 20656 20657 20658 20659 20660 20661 20662 20663 20664 20665 20666 20667 20668 20669 20670 20671 20672 20673 20674 20675 20676 20677 20678 20679 20680 20681 20682 20683 20684 20685 20686 20687 20688 20689 20690 20691 20692 20693 20694 20695 20696 20697 20698 20699 20700 20701 20702 20703 20704 20705 20706 20707 20708 20709 20710 20711 20712 20713 20714 20715 20716 20717 20718 20719 20720 20721 20722 20723 20724 20725 20726 20727 20728 20729 20730 20731 20732 20733 20734 20735 20736 20737 20738 20739 20740 20741 20742 20743 20744 20745 20746 20747 20748 20749 20750 20751 20752 20753 20754 20755 20756 20757 20758 20759 20760 20761 20762 20763 20764 20765 20766 20767 20768 20769 20770 20771 20772 20773 20774 20775 20776 20777 20778 20779 20780 20781 20782 20783 20784 20785 20786 20787 20788 20789 20790 20791 20792 20793 20794 20795 20796 20797 20798 20799 20800 20801 20802 20803 20804 20805 20806 20807 20808 20809 20810 20811 20812 20813 20814 20815 20816 20817 20818 20819 20820 20821 20822 20823 20824 20825 20826 20827 20828 20829 20830 20831 20832 20833 20834 20835 20836 20837 20838 20839 20840 20841 20842 20843 20844 20845 20846 20847 20848 20849 20850 20851 20852 20853 20854 20855 20856 20857 20858 20859 20860 20861 20862 20863 20864 20865 20866 20867 20868 20869 20870 20871 20872 20873 20874 20875 20876 20877 20878 20879 20880 20881 20882 20883 20884 20885 20886 20887 20888 20889 20890 20891 20892 20893 20894 20895 20896 20897 20898 20899 20900 20901 20902 20903 20904 20905 20906 20907 20908 20909 20910 20911 20912 20913 20914 20915 20916 20917 20918 20919 20920 20921 20922 20923 20924 20925 20926 20927 20928 20929 20930 20931 20932 20933 20934 20935 20936 20937 20938 20939 20940 20941 20942 20943 20944 20945 20946 20947 20948 20949 20950 20951 20952 20953 20954 20955 20956 20957 20958 20959 20960 20961 20962 20963 20964 20965 20966 20967 20968 20969 20970 20971 20972 20973 20974 20975 20976 20977 20978 20979 20980 20981 20982 20983 20984 20985 20986 20987 20988 20989 20990 20991 20992 20993 20994 20995 20996 20997 20998 20999 21000 21001 21002 21003 21004 21005 21006 21007 21008 21009 21010 21011 21012 21013 21014 21015 21016 21017 21018 21019 21020 21021 21022 21023 21024 21025 21026 21027 21028 21029 21030 21031 21032 21033 21034 21035 21036 21037 21038 21039 21040 21041 21042 21043 21044 21045 21046 21047 21048 21049 21050 21051 21052 21053 21054 21055 21056 21057 21058 21059 21060 21061 21062 21063 21064 21065 21066 21067 21068 21069 21070 21071 21072 21073 21074 21075 21076 21077 21078 21079 21080 21081 21082 21083 21084 21085 21086 21087 21088 21089 21090 21091 21092 21093 21094 21095 21096 21097 21098 21099 21100 21101 21102 21103 21104 21105 21106 21107 21108 21109 21110 21111 21112 21113 21114 21115 21116 21117 21118 21119 21120 21121 21122 21123 21124 21125 21126 21127 21128 21129 21130 21131 21132 21133 21134 21135 21136 21137 21138 21139 21140 21141 21142 21143 21144 21145 21146 21147 21148 21149 21150 21151 21152 21153 21154 21155 21156 21157 21158 21159 21160 21161 21162 21163 21164 21165 21166 21167 21168 21169 21170 21171 21172 21173 21174 21175 21176 21177 21178 21179 21180 21181 21182 21183 21184 21185 21186 21187 21188 21189 21190 21191 21192 21193 21194 21195 21196 21197 21198 21199 21200 21201 21202 21203 21204 21205 21206 21207 21208 21209 21210 21211 21212 21213 21214 21215 21216 21217 21218 21219 21220 21221 21222 21223 21224 21225 21226 21227 21228 21229 21230 21231 21232 21233 21234 21235 21236 21237 21238 21239 21240 21241 21242 21243 21244 21245 21246 21247 21248 21249 21250 21251 21252 21253 21254 21255 21256 21257 21258 21259 21260 21261 21262 21263 21264 21265 21266 21267 21268 21269 21270 21271 21272 21273 21274 21275 21276 21277 21278 21279 21280 21281 21282 21283 21284 21285 21286 21287 21288 21289 21290 21291 21292 21293 21294 21295 21296 21297 21298 21299 21300 21301 21302 21303 21304 21305 21306 21307 21308 21309 21310 21311 21312 21313 21314 21315 21316 21317 21318 21319 21320 21321 21322 21323 21324 21325 21326 21327 21328 21329 21330 21331 21332 21333 21334 21335 21336 21337 21338 21339 21340 21341 21342 21343 21344 21345 21346 21347 21348 21349 21350 21351 21352 21353 21354 21355 21356 21357 21358 21359 21360 21361 21362 21363 21364 21365 21366 21367 21368 21369 21370 21371 21372 21373 21374 21375 21376 21377 21378 21379 21380 21381 21382 21383 21384 21385 21386 21387 21388 21389 21390 21391 21392 21393 21394 21395 21396 21397 21398 21399 21400 21401 21402 21403 21404 21405 21406 21407 21408 21409 21410 21411 21412 21413 21414 21415 21416 21417 21418 21419 21420 21421 21422 21423 21424 21425 21426 21427 21428 21429 21430 21431 21432 21433 21434 21435 21436 21437 21438 21439 21440 21441 21442 21443 21444 21445 21446 21447 21448 21449 21450 21451 21452 21453 21454 21455 21456 21457 21458 21459 21460 21461 21462 21463 21464 21465 21466 21467 21468 21469 21470 21471 21472 21473 21474 21475 21476 21477 21478 21479 21480 21481 21482 21483 21484 21485 21486 21487 21488 21489 21490 21491 21492 21493 21494 21495 21496 21497 21498 21499 21500 21501 21502 21503 21504 21505 21506 21507 21508 21509 21510 21511 21512 21513 21514 21515 21516 21517 21518 21519 21520 21521 21522 21523 21524 21525 21526 21527 21528 21529 21530 21531 21532 21533 21534 21535 21536 21537 21538 21539 21540 21541 21542 21543 21544 21545 21546 21547 21548 21549 21550 21551 21552 21553 21554 21555 21556 21557 21558 21559 21560 21561 21562 21563 21564 21565 21566 21567 21568 21569 21570 21571 21572 21573 21574 21575 21576 21577 21578 21579 21580 21581 21582 21583 21584 21585 21586 21587 21588 21589 21590 21591 21592 21593 21594 21595 21596 21597 21598 21599 21600 21601 21602 21603 21604 21605 21606 21607 21608 21609 21610 21611 21612 21613 21614 21615 21616 21617 21618 21619 21620 21621 21622 21623 21624 21625 21626 21627 21628 21629 21630 21631 21632 21633 21634 21635 21636 21637 21638 21639 21640 21641 21642 21643 21644 21645 21646 21647 21648 21649 21650 21651 21652 21653 21654 21655 21656 21657 21658 21659 21660 21661 21662 21663 21664 21665 21666 21667 21668 21669 21670 21671 21672 21673 21674 21675 21676 21677 21678 21679 21680 21681 21682 21683 21684 21685 21686 21687 21688 21689 21690 21691 21692 21693 21694 21695 21696 21697 21698 21699 21700 21701 21702 21703 21704 21705 21706 21707 21708 21709 21710 21711 21712 21713 21714 21715 21716 21717 21718 21719 21720 21721 21722 21723 21724 21725 21726 21727 21728 21729 21730 21731 21732 21733 21734 21735 21736 21737 21738 21739 21740 21741 21742 21743 21744 21745 21746 21747 21748 21749 21750 21751 21752 21753 21754 21755 21756 21757 21758 21759 21760 21761 21762 21763 21764 21765 21766 21767 21768 21769 21770 21771 21772 21773 21774 21775 21776 21777 21778 21779 21780 21781 21782 21783 21784 21785 21786 21787 21788 21789 21790 21791 21792 21793 21794 21795 21796 21797 21798 21799 21800 21801 21802 21803 21804 21805 21806 21807 21808 21809 21810 21811 21812 21813 21814 21815 21816 21817 21818 21819 21820 21821 21822 21823 21824 21825 21826 21827 21828 21829 21830 21831 21832 21833 21834 21835 21836 21837 21838 21839 21840 21841 21842 21843 21844 21845 21846 21847 21848 21849 21850 21851 21852 21853 21854 21855 21856 21857 21858 21859 21860 21861 21862 21863 21864 21865 21866 21867 21868 21869 21870 21871 21872 21873 21874 21875 21876 21877 21878 21879 21880 21881 21882 21883 21884 21885 21886 21887 21888 21889 21890 21891 21892 21893 21894 21895 21896 21897 21898 21899 21900 21901 21902 21903 21904 21905 21906 21907 21908 21909 21910 21911 21912 21913 21914 21915 21916 21917 21918 21919 21920 21921 21922 21923 21924 21925 21926 21927 21928 21929 21930 21931 21932 21933 21934 21935 21936 21937 21938 21939 21940 21941 21942 21943 21944 21945 21946 21947 21948 21949 21950 21951 21952 21953 21954 21955 21956 21957 21958 21959 21960 21961 21962 21963 21964 21965 21966 21967 21968 21969 21970 21971 21972 21973 21974 21975 21976 21977 21978 21979 21980 21981 21982 21983 21984 21985 21986 21987 21988 21989 21990 21991 21992 21993 21994 21995 21996 21997 21998 21999 22000 22001 22002 22003 22004 22005 22006 22007 22008 22009 22010 22011 22012 22013 22014 22015 22016 22017 22018 22019 22020 22021 22022 22023 22024 22025 22026 22027 22028 22029 22030 22031 22032 22033 22034 22035 22036 22037 22038 22039 22040 22041 22042 22043 22044 22045 22046 22047 22048 22049 22050 22051 22052 22053 22054 22055 22056 22057 22058 22059 22060 22061 22062 22063 22064 22065 22066 22067 22068 22069 22070 22071 22072 22073 22074 22075 22076 22077 22078 22079 22080 22081 22082 22083 22084 22085 22086 22087 22088 22089 22090 22091 22092 22093 22094 22095 22096 22097 22098 22099 22100 22101 22102 22103 22104 22105 22106 22107 22108 22109 22110 22111 22112 22113 22114 22115 22116 22117 22118 22119 22120 22121 22122 22123 22124 22125 22126 22127 22128 22129 22130 22131 22132 22133 22134 22135 22136 22137 22138 22139 22140 22141 22142 22143 22144 22145 22146 22147 22148 22149 22150 22151 22152 22153 22154 22155 22156 22157 22158 22159 22160 22161 22162 22163 22164 22165 22166 22167 22168 22169 22170 22171 22172 22173 22174 22175 22176 22177 22178 22179 22180 22181 22182 22183 22184 22185 22186 22187 22188 22189 22190 22191 22192 22193 22194 22195 22196 22197 22198 22199 22200 22201 22202 22203 22204 22205 22206 22207 22208 22209 22210 22211 22212 22213 22214 22215 22216 22217 22218 22219 22220 22221 22222 22223 22224 22225 22226 22227 22228 22229 22230 22231 22232 22233 22234 22235 22236 22237 22238 22239 22240 22241 22242 22243 22244 22245 22246 22247 22248 22249 22250 22251 22252 22253 22254 22255 22256 22257 22258 22259 22260 22261 22262 22263 22264 22265 22266 22267 22268 22269 22270 22271 22272 22273 22274 22275 22276 22277 22278 22279 22280 22281 22282 22283 22284 22285 22286 22287 22288 22289 22290 22291 22292 22293 22294 22295 22296 22297 22298 22299 22300 22301 22302 22303 22304 22305 22306 22307 22308 22309 22310 22311 22312 22313 22314 22315 22316 22317 22318 22319 22320 22321 22322 22323 22324 22325 22326 22327 22328 22329 22330 22331 22332 22333 22334 22335 22336 22337 22338 22339 22340 22341 22342 22343 22344 22345 22346 22347 22348 22349 22350 22351 22352 22353 22354 22355 22356 22357 22358 22359 22360 22361 22362 22363 22364 22365 22366 22367 22368 22369 22370 22371 22372 22373 22374 22375 22376 22377 22378 22379 22380 22381 22382 22383 22384 22385 22386 22387 22388 22389 22390 22391 22392 22393 22394 22395 22396 22397 22398 22399 22400 22401 22402 22403 22404 22405 22406 22407 22408 22409 22410 22411 22412 22413 22414 22415 22416 22417 22418 22419 22420 22421 22422 22423 22424 22425 22426 22427 22428 22429 22430 22431 22432 22433 22434 22435 22436 22437 22438 22439 22440 22441 22442 22443 22444 22445 22446 22447 22448 22449 22450 22451 22452 22453 22454 22455 22456 22457 22458 22459 22460 22461 22462 22463 22464 22465 22466 22467 22468 22469 22470 22471 22472 22473 22474 22475 22476 22477 22478 22479 22480 22481 22482 22483 22484 22485 22486 22487 22488 22489 22490 22491 22492 22493 22494 22495 22496 22497 22498 22499 22500 22501 22502 22503 22504 22505 22506 22507 22508 22509 22510 22511 22512 22513 22514 22515 22516 22517 22518 22519 22520 22521 22522 22523 22524 22525 22526 22527 22528 22529 22530 22531 22532 22533 22534 22535 22536 22537 22538 22539 22540 22541 22542 22543 22544 22545 22546 22547 22548 22549 22550 22551 22552 22553 22554 22555 22556 22557 22558 22559 22560 22561 22562 22563 22564 22565 22566 22567 22568 22569 22570 22571 22572 22573 22574 22575 22576 22577 22578 22579 22580 22581 22582 22583 22584 22585 22586 22587 22588 22589 22590 22591 22592 22593 22594 22595 22596 22597 22598 22599 22600 22601 22602 22603 22604 22605 22606 22607 22608 22609 22610 22611 22612 22613 22614 22615 22616 22617 22618 22619 22620 22621 22622 22623 22624 22625 22626 22627 22628 22629 22630 22631 22632 22633 22634 22635 22636 22637 22638 22639 22640 22641 22642 22643 22644 22645 22646 22647 22648 22649 22650 22651 22652 22653 22654 22655 22656 22657 22658 22659 22660 22661 22662 22663 22664 22665 22666 22667 22668 22669 22670 22671 22672 22673 22674 22675 22676 22677 22678 22679 22680 22681 22682 22683 22684 22685 22686 22687 22688 22689 22690 22691 22692 22693 22694 22695 22696 22697 22698 22699 22700 22701 22702 22703 22704 22705 22706 22707 22708 22709 22710 22711 22712 22713 22714 22715 22716 22717 22718 22719 22720 22721 22722 22723 22724 22725 22726 22727 22728 22729 22730 22731 22732 22733 22734 22735 22736 22737 22738 22739 22740 22741 22742 22743 22744 22745 22746 22747 22748 22749 22750 22751 22752 22753 22754 22755 22756 22757 22758 22759 22760 22761 22762 22763 22764 22765 22766 22767 22768 22769 22770 22771 22772 22773 22774 22775 22776 22777 22778 22779 22780 22781 22782 22783 22784 22785 22786 22787 22788 22789 22790 22791 22792 22793 22794 22795 22796 22797 22798 22799 22800 22801 22802 22803 22804 22805 22806 22807 22808 22809 22810 22811 22812 22813 22814 22815 22816 22817 22818 22819 22820 22821 22822 22823 22824 22825 22826 22827 22828 22829 22830 22831 22832 22833 22834 22835 22836 22837 22838 22839 22840 22841 22842 22843 22844 22845 22846 22847 22848 22849 22850 22851 22852 22853 22854 22855 22856 22857 22858 22859 22860 22861 22862 22863 22864 22865 22866 22867 22868 22869 22870 22871 22872 22873 22874 22875 22876 22877 22878 22879 22880 22881 22882 22883 22884 22885 22886 22887 22888 22889 22890 22891 22892 22893 22894 22895 22896 22897 22898 22899 22900 22901 22902 22903 22904 22905 22906 22907 22908 22909 22910 22911 22912 22913 22914 22915 22916 22917 22918 22919 22920 22921 22922 22923 22924 22925 22926 22927 22928 22929 22930 22931 22932 22933 22934 22935 22936 22937 22938 22939 22940 22941 22942 22943 22944 22945 22946 22947 22948 22949 22950 22951 22952 22953 22954 22955 22956 22957 22958 22959 22960 22961 22962 22963 22964 22965 22966 22967 22968 22969 22970 22971 22972 22973 22974 22975 22976 22977 22978 22979 22980 22981 22982 22983 22984 22985 22986 22987 22988 22989 22990 22991 22992 22993 22994 22995 22996 22997 22998 22999 23000 23001 23002 23003 23004 23005 23006 23007 23008 23009 23010 23011 23012 23013 23014 23015 23016 23017 23018 23019 23020 23021 23022 23023 23024 23025 23026 23027 23028 23029 23030 23031 23032 23033 23034 23035 23036 23037 23038 23039 23040 23041 23042 23043 23044 23045 23046 23047 23048 23049 23050 23051 23052 23053 23054 23055 23056 23057 23058 23059 23060 23061 23062 23063 23064 23065 23066 23067 23068 23069 23070 23071 23072 23073 23074 23075 23076 23077 23078 23079 23080 23081 23082 23083 23084 23085 23086 23087 23088 23089 23090 23091 23092 23093 23094 23095 23096 23097 23098 23099 23100 23101 23102 23103 23104 23105 23106 23107 23108 23109 23110 23111 23112 23113 23114 23115 23116 23117 23118 23119 23120 23121 23122 23123 23124 23125 23126 23127 23128 23129 23130 23131 23132 23133 23134 23135 23136 23137 23138 23139 23140 23141 23142 23143 23144 23145 23146 23147 23148 23149 23150 23151 23152 23153 23154 23155 23156 23157 23158 23159 23160 23161 23162 23163 23164 23165 23166 23167 23168 23169 23170 23171 23172 23173 23174 23175 23176 23177 23178 23179 23180 23181 23182 23183 23184 23185 23186 23187 23188 23189 23190 23191 23192 23193 23194 23195 23196 23197 23198 23199 23200 23201 23202 23203 23204 23205 23206 23207 23208 23209 23210 23211 23212 23213 23214 23215 23216 23217 23218 23219 23220 23221 23222 23223 23224 23225 23226 23227 23228 23229 23230 23231 23232 23233 23234 23235 23236 23237 23238 23239 23240 23241 23242 23243 23244 23245 23246 23247 23248 23249 23250 23251 23252 23253 23254 23255 23256 23257 23258 23259 23260 23261 23262 23263 23264 23265 23266 23267 23268 23269 23270 23271 23272 23273 23274 23275 23276 23277 23278 23279 23280 23281 23282 23283 23284 23285 23286 23287 23288 23289 23290 23291 23292 23293 23294 23295 23296 23297 23298 23299 23300 23301 23302 23303 23304 23305 23306 23307 23308 23309 23310 23311 23312 23313 23314 23315 23316 23317 23318 23319 23320 23321 23322 23323 23324 23325 23326 23327 23328 23329 23330 23331 23332 23333 23334 23335 23336 23337 23338 23339 23340 23341 23342 23343 23344 23345 23346 23347 23348 23349 23350 23351 23352 23353 23354 23355 23356 23357 23358 23359 23360 23361 23362 23363 23364 23365 23366 23367 23368 23369 23370 23371 23372 23373 23374 23375 23376 23377 23378 23379 23380 23381 23382 23383 23384 23385 23386 23387 23388 23389 23390 23391 23392 23393 23394 23395 23396 23397 23398 23399 23400 23401 23402 23403 23404 23405 23406 23407 23408 23409 23410 23411 23412 23413 23414 23415 23416 23417 23418 23419 23420 23421 23422 23423 23424 23425 23426 23427 23428 23429 23430 23431 23432 23433 23434 23435 23436 23437 23438 23439 23440 23441 23442 23443 23444 23445 23446 23447 23448 23449 23450 23451 23452 23453 23454 23455 23456 23457 23458 23459 23460 23461 23462 23463 23464 23465 23466 23467 23468 23469 23470 23471 23472 23473 23474 23475 23476 23477 23478 23479 23480 23481 23482 23483 23484 23485 23486 23487 23488 23489 23490 23491 23492 23493 23494 23495 23496 23497 23498 23499 23500 23501 23502 23503 23504 23505 23506 23507 23508 23509 23510 23511 23512 23513 23514 23515 23516 23517 23518 23519 23520 23521 23522 23523 23524 23525 23526 23527 23528 23529 23530 23531 23532 23533 23534 23535 23536 23537 23538 23539 23540 23541 23542 23543 23544 23545 23546 23547 23548 23549 23550 23551 23552 23553 23554 23555 23556 23557 23558 23559 23560 23561 23562 23563 23564 23565 23566 23567 23568 23569 23570 23571 23572 23573 23574 23575 23576 23577 23578 23579 23580 23581 23582 23583 23584 23585 23586 23587 23588 23589 23590 23591 23592 23593 23594 23595 23596 23597 23598 23599 23600 23601 23602 23603 23604 23605 23606 23607 23608 23609 23610 23611 23612 23613 23614 23615 23616 23617 23618 23619 23620 23621 23622 23623 23624 23625 23626 23627 23628 23629 23630 23631 23632 23633 23634 23635 23636 23637 23638 23639 23640 23641 23642 23643 23644 23645 23646 23647 23648 23649 23650 23651 23652 23653 23654 23655 23656 23657 23658 23659 23660 23661 23662 23663 23664 23665 23666 23667 23668 23669 23670 23671 23672 23673 23674 23675 23676 23677 23678 23679 23680 23681 23682 23683 23684 23685 23686 23687 23688 23689 23690 23691 23692 23693 23694 23695 23696 23697 23698 23699 23700 23701 23702 23703 23704 23705 23706 23707 23708 23709 23710 23711 23712 23713 23714 23715 23716 23717 23718 23719 23720 23721 23722 23723 23724 23725 23726 23727 23728 23729 23730 23731 23732 23733 23734 23735 23736 23737 23738 23739 23740 23741 23742 23743 23744 23745 23746 23747 23748 23749 23750 23751 23752 23753 23754 23755 23756 23757 23758 23759 23760 23761 23762 23763 23764 23765 23766 23767 23768 23769 23770 23771 23772 23773 23774 23775 23776 23777 23778 23779 23780 23781 23782 23783 23784 23785 23786 23787 23788 23789 23790 23791 23792 23793 23794 23795 23796 23797 23798 23799 23800 23801 23802 23803 23804 23805 23806 23807 23808 23809 23810 23811 23812 23813 23814 23815 23816 23817 23818 23819 23820 23821 23822 23823 23824 23825 23826 23827 23828 23829 23830 23831 23832 23833 23834 23835 23836 23837 23838 23839 23840 23841 23842 23843 23844 23845 23846 23847 23848 23849 23850 23851 23852 23853 23854 23855 23856 23857 23858 23859 23860 23861 23862 23863 23864 23865 23866 23867 23868 23869 23870 23871 23872 23873 23874 23875 23876 23877 23878 23879 23880 23881 23882 23883 23884 23885 23886 23887 23888 23889 23890 23891 23892 23893 23894 23895 23896 23897 23898 23899 23900 23901 23902 23903 23904 23905 23906 23907 23908 23909 23910 23911 23912 23913 23914 23915 23916 23917 23918 23919 23920 23921 23922 23923 23924 23925 23926 23927 23928 23929 23930 23931 23932 23933 23934 23935 23936 23937 23938 23939 23940 23941 23942 23943 23944 23945 23946 23947 23948 23949 23950 23951 23952 23953 23954 23955 23956 23957 23958 23959 23960 23961 23962 23963 23964 23965 23966 23967 23968 23969 23970 23971 23972 23973 23974 23975 23976 23977 23978 23979 23980 23981 23982 23983 23984 23985 23986 23987 23988 23989 23990 23991 23992 23993 23994 23995 23996 23997 23998 23999 24000 24001 24002 24003 24004 24005 24006 24007 24008 24009 24010 24011 24012 24013 24014 24015 24016 24017 24018 24019 24020 24021 24022 24023 24024 24025 24026 24027 24028 24029 24030 24031 24032 24033 24034 24035 24036 24037 24038 24039 24040 24041 24042 24043 24044 24045 24046 24047 24048 24049 24050 24051 24052 24053 24054 24055 24056 24057 24058 24059 24060 24061 24062 24063 24064 24065 24066 24067 24068 24069 24070 24071 24072 24073 24074 24075 24076 24077 24078 24079 24080 24081 24082 24083 24084 24085 24086 24087 24088 24089 24090 24091 24092 24093 24094 24095 24096 24097 24098 24099 24100 24101 24102 24103 24104 24105 24106 24107 24108 24109 24110 24111 24112 24113 24114 24115 24116 24117 24118 24119 24120 24121 24122 24123 24124 24125 24126 24127 24128 24129 24130 24131 24132 24133 24134 24135 24136 24137 24138 24139 24140 24141 24142 24143 24144 24145 24146 24147 24148 24149 24150 24151 24152 24153 24154 24155 24156 24157 24158 24159 24160 24161 24162 24163 24164 24165 24166 24167 24168 24169 24170 24171 24172 24173 24174 24175 24176 24177 24178 24179 24180 24181 24182 24183 24184 24185 24186 24187 24188 24189 24190 24191 24192 24193 24194 24195 24196 24197 24198 24199 24200 24201 24202 24203 24204 24205 24206 24207 24208 24209 24210 24211 24212 24213 24214 24215 24216 24217 24218 24219 24220 24221 24222 24223 24224 24225 24226 24227 24228 24229 24230 24231 24232 24233 24234 24235 24236 24237 24238 24239 24240 24241 24242 24243 24244 24245 24246 24247 24248 24249 24250 24251 24252 24253 24254 24255 24256 24257 24258 24259 24260 24261 24262 24263 24264 24265 24266 24267 24268 24269 24270 24271 24272 24273 24274 24275 24276 24277 24278 24279 24280 24281 24282 24283 24284 24285 24286 24287 24288 24289 24290 24291 24292 24293 24294 24295 24296 24297 24298 24299 24300 24301 24302 24303 24304 24305 24306 24307 24308 24309 24310 24311 24312 24313 24314 24315 24316 24317 24318 24319 24320 24321 24322 24323 24324 24325 24326 24327 24328 24329 24330 24331 24332 24333 24334 24335 24336 24337 24338 24339 24340 24341 24342 24343 24344 24345 24346 24347 24348 24349 24350 24351 24352 24353 24354 24355 24356 24357 24358 24359 24360 24361 24362 24363 24364 24365 24366 24367 24368 24369 24370 24371 24372 24373 24374 24375 24376 24377 24378 24379 24380 24381 24382 24383 24384 24385 24386 24387 24388 24389 24390 24391 24392 24393 24394 24395 24396 24397 24398 24399 24400 24401 24402 24403 24404 24405 24406 24407 24408 24409 24410 24411 24412 24413 24414 24415 24416 24417 24418 24419 24420 24421 24422 24423 24424 24425 24426 24427 24428 24429 24430 24431 24432 24433 24434 24435 24436 24437 24438 24439 24440 24441 24442 24443 24444 24445 24446 24447 24448 24449 24450 24451 24452 24453 24454 24455 24456 24457 24458 24459 24460 24461 24462 24463 24464 24465 24466 24467 24468 24469 24470 24471 24472 24473 24474 24475 24476 24477 24478 24479 24480 24481 24482 24483 24484 24485 24486 24487 24488 24489 24490 24491 24492 24493 24494 24495 24496 24497 24498 24499 24500 24501 24502 24503 24504 24505 24506 24507 24508 24509 24510 24511 24512 24513 24514 24515 24516 24517 24518 24519 24520 24521 24522 24523 24524 24525 24526 24527 24528 24529 24530 24531 24532 24533 24534 24535 24536 24537 24538 24539 24540 24541 24542 24543 24544 24545 24546 24547 24548 24549 24550 24551 24552 24553 24554 24555 24556 24557 24558 24559 24560 24561 24562 24563 24564 24565 24566 24567 24568 24569 24570 24571 24572 24573 24574 24575 24576 24577 24578 24579 24580 24581 24582 24583 24584 24585 24586 24587 24588 24589 24590 24591 24592 24593 24594 24595 24596 24597 24598 24599 24600 24601 24602 24603 24604 24605 24606 24607 24608 24609 24610 24611 24612 24613 24614 24615 24616 24617 24618 24619 24620 24621 24622 24623 24624 24625 24626 24627 24628 24629 24630 24631 24632 24633 24634 24635 24636 24637 24638 24639 24640 24641 24642 24643 24644 24645 24646 24647 24648 24649 24650 24651 24652 24653 24654 24655 24656 24657 24658 24659 24660 24661 24662 24663 24664 24665 24666 24667 24668 24669 24670 24671 24672 24673 24674 24675 24676 24677 24678 24679 24680 24681 24682 24683 24684 24685 24686 24687 24688 24689 24690 24691 24692 24693 24694 24695 24696 24697 24698 24699 24700 24701 24702 24703 24704 24705 24706 24707 24708 24709 24710 24711 24712 24713 24714 24715 24716 24717 24718 24719 24720 24721 24722 24723 24724 24725 24726 24727 24728 24729 24730 24731 24732 24733 24734 24735 24736 24737 24738 24739 24740 24741 24742 24743 24744 24745 24746 24747 24748 24749 24750 24751 24752 24753 24754 24755 24756 24757 24758 24759 24760 24761 24762 24763 24764 24765 24766 24767 24768 24769 24770 24771 24772 24773 24774 24775 24776 24777 24778 24779 24780 24781 24782 24783 24784 24785 24786 24787 24788 24789 24790 24791 24792 24793 24794 24795 24796 24797 24798 24799 24800 24801 24802 24803 24804 24805 24806 24807 24808 24809 24810 24811 24812 24813 24814 24815 24816 24817 24818 24819 24820 24821 24822 24823 24824 24825 24826 24827 24828 24829 24830 24831 24832 24833 24834 24835 24836 24837 24838 24839 24840 24841 24842 24843 24844 24845 24846 24847 24848 24849 24850 24851 24852 24853 24854 24855 24856 24857 24858 24859 24860 24861 24862 24863 24864 24865 24866 24867 24868 24869 24870 24871 24872 24873 24874 24875 24876 24877 24878 24879 24880 24881 24882 24883 24884 24885 24886 24887 24888 24889 24890 24891 24892 24893 24894 24895 24896 24897 24898 24899 24900 24901 24902 24903 24904 24905 24906 24907 24908 24909 24910 24911 24912 24913 24914 24915 24916 24917 24918 24919 24920 24921 24922 24923 24924 24925 24926 24927 24928 24929 24930 24931 24932 24933 24934 24935 24936 24937 24938 24939 24940 24941 24942 24943 24944 24945 24946 24947 24948 24949 24950 24951 24952 24953 24954 24955 24956 24957 24958 24959 24960 24961 24962 24963 24964 24965 24966 24967 24968 24969 24970 24971 24972 24973 24974 24975 24976 24977 24978 24979 24980 24981 24982 24983 24984 24985 24986 24987 24988 24989 24990 24991 24992 24993 24994 24995 24996 24997 24998 24999 25000 25001 25002 25003 25004 25005 25006 25007 25008 25009 25010 25011 25012 25013 25014 25015 25016 25017 25018 25019 25020 25021 25022 25023 25024 25025 25026 25027 25028 25029 25030 25031 25032 25033 25034 25035 25036 25037 25038 25039 25040 25041 25042 25043 25044 25045 25046 25047 25048 25049 25050 25051 25052 25053 25054 25055 25056 25057 25058 25059 25060 25061 25062 25063 25064 25065 25066 25067 25068 25069 25070 25071 25072 25073 25074 25075 25076 25077 25078 25079 25080 25081 25082 25083 25084 25085 25086 25087 25088 25089 25090 25091 25092 25093 25094 25095 25096 25097 25098 25099 25100 25101 25102 25103 25104 25105 25106 25107 25108 25109 25110 25111 25112 25113 25114 25115 25116 25117 25118 25119 25120 25121 25122 25123 25124 25125 25126 25127 25128 25129 25130 25131 25132 25133 25134 25135 25136 25137 25138 25139 25140 25141 25142 25143 25144 25145 25146 25147 25148 25149 25150 25151 25152 25153 25154 25155 25156 25157 25158 25159 25160 25161 25162 25163 25164 25165 25166 25167 25168 25169 25170 25171 25172 25173 25174 25175 25176 25177 25178 25179 25180 25181 25182 25183 25184 25185 25186 25187 25188 25189 25190 25191 25192 25193 25194 25195 25196 25197 25198 25199 25200 25201 25202 25203 25204 25205 25206 25207 25208 25209 25210 25211 25212 25213 25214 25215 25216 25217 25218 25219 25220 25221 25222 25223 25224 25225 25226 25227 25228 25229 25230 25231 25232 25233 25234 25235 25236 25237 25238 25239 25240 25241 25242 25243 25244 25245 25246 25247 25248 25249 25250 25251 25252 25253 25254 25255 25256 25257 25258 25259 25260 25261 25262 25263 25264 25265 25266 25267 25268 25269 25270 25271 25272 25273 25274 25275 25276 25277 25278 25279 25280 25281 25282 25283 25284 25285 25286 25287 25288 25289 25290 25291 25292 25293 25294 25295 25296 25297 25298 25299 25300 25301 25302 25303 25304 25305 25306 25307 25308 25309 25310 25311 25312 25313 25314 25315 25316 25317 25318 25319 25320 25321 25322 25323 25324 25325 25326 25327 25328 25329 25330 25331 25332 25333 25334 25335 25336 25337 25338 25339 25340 25341 25342 25343 25344 25345 25346 25347 25348 25349 25350 25351 25352 25353 25354 25355 25356 25357 25358 25359 25360 25361 25362 25363 25364 25365 25366 25367 25368 25369 25370 25371 25372 25373 25374 25375 25376 25377 25378 25379 25380 25381 25382 25383 25384 25385 25386 25387 25388 25389 25390 25391 25392 25393 25394 25395 25396 25397 25398 25399 25400 25401 25402 25403 25404 25405 25406 25407 25408 25409 25410 25411 25412 25413 25414 25415 25416 25417 25418 25419 25420 25421 25422 25423 25424 25425 25426 25427 25428 25429 25430 25431 25432 25433 25434 25435 25436 25437 25438 25439 25440 25441 25442 25443 25444 25445 25446 25447 25448 25449 25450 25451 25452 25453 25454 25455 25456 25457 25458 25459 25460 25461 25462 25463 25464 25465 25466 25467 25468 25469 25470 25471 25472 25473 25474 25475 25476 25477 25478 25479 25480 25481 25482 25483 25484 25485 25486 25487 25488 25489 25490 25491 25492 25493 25494 25495 25496 25497 25498 25499 25500 25501 25502 25503 25504 25505 25506 25507 25508 25509 25510 25511 25512 25513 25514 25515 25516 25517 25518 25519 25520 25521 25522 25523 25524 25525 25526 25527 25528 25529 25530 25531 25532 25533 25534 25535 25536 25537 25538 25539 25540 25541 25542 25543 25544 25545 25546 25547 25548 25549 25550 25551 25552 25553 25554 25555 25556 25557 25558 25559 25560 25561 25562 25563 25564 25565 25566 25567 25568 25569 25570 25571 25572 25573 25574 25575 25576 25577 25578 25579 25580 25581 25582 25583 25584 25585 25586 25587 25588 25589 25590 25591 25592 25593 25594 25595 25596 25597 25598 25599 25600 25601 25602 25603 25604 25605 25606 25607 25608 25609 25610 25611 25612 25613 25614 25615 25616 25617 25618 25619 25620 25621 25622 25623 25624 25625 25626 25627 25628 25629 25630 25631 25632 25633 25634 25635 25636 25637 25638 25639 25640 25641 25642 25643 25644 25645 25646 25647 25648 25649 25650 25651 25652 25653 25654 25655 25656 25657 25658 25659 25660 25661 25662 25663 25664 25665 25666 25667 25668 25669 25670 25671 25672 25673 25674 25675 25676 25677 25678 25679 25680 25681 25682 25683 25684 25685 25686 25687 25688 25689 25690 25691 25692 25693 25694 25695 25696 25697 25698 25699 25700 25701 25702 25703 25704 25705 25706 25707 25708 25709 25710 25711 25712 25713 25714 25715 25716 25717 25718 25719 25720 25721 25722 25723 25724 25725 25726 25727 25728 25729 25730 25731 25732 25733 25734 25735 25736 25737 25738 25739 25740 25741 25742 25743 25744 25745 25746 25747 25748 25749 25750 25751 25752 25753 25754 25755 25756 25757 25758 25759 25760 25761 25762 25763 25764 25765 25766 25767 25768 25769 25770 25771 25772 25773 25774 25775 25776 25777 25778 25779 25780 25781 25782 25783 25784 25785 25786 25787 25788 25789 25790 25791 25792 25793 25794 25795 25796 25797 25798 25799 25800 25801 25802 25803 25804 25805 25806 25807 25808 25809 25810 25811 25812 25813 25814 25815 25816 25817 25818 25819 25820 25821 25822 25823 25824 25825 25826 25827 25828 25829 25830 25831 25832 25833 25834 25835 25836 25837 25838 25839 25840 25841 25842 25843 25844 25845 25846 25847 25848 25849 25850 25851 25852 25853 25854 25855 25856 25857 25858 25859 25860 25861 25862 25863 25864 25865 25866 25867 25868 25869 25870 25871 25872 25873 25874 25875 25876 25877 25878 25879 25880 25881 25882 25883 25884 25885 25886 25887 25888 25889 25890 25891 25892 25893 25894 25895 25896 25897 25898 25899 25900 25901 25902 25903 25904 25905 25906 25907 25908 25909 25910 25911 25912 25913 25914 25915 25916 25917 25918 25919 25920 25921 25922 25923 25924 25925 25926 25927 25928 25929 25930 25931 25932 25933 25934 25935 25936 25937 25938 25939 25940 25941 25942 25943 25944 25945 25946 25947 25948 25949 25950 25951 25952 25953 25954 25955 25956 25957 25958 25959 25960 25961 25962 25963 25964 25965 25966 25967 25968 25969 25970 25971 25972 25973 25974 25975 25976 25977 25978 25979 25980 25981 25982 25983 25984 25985 25986 25987 25988 25989 25990 25991 25992 25993 25994 25995 25996 25997 25998 25999 26000 26001 26002 26003 26004 26005 26006 26007 26008 26009 26010 26011 26012 26013 26014 26015 26016 26017 26018 26019 26020 26021 26022 26023 26024 26025 26026 26027 26028 26029 26030 26031 26032 26033 26034 26035 26036 26037 26038 26039 26040 26041 26042 26043 26044 26045 26046 26047 26048 26049 26050 26051 26052 26053 26054 26055 26056 26057 26058 26059 26060 26061 26062 26063 26064 26065 26066 26067 26068 26069 26070 26071 26072 26073 26074 26075 26076 26077 26078 26079 26080 26081 26082 26083 26084 26085 26086 26087 26088 26089 26090 26091 26092 26093 26094 26095 26096 26097 26098 26099 26100 26101 26102 26103 26104 26105 26106 26107 26108 26109 26110 26111 26112 26113 26114 26115 26116 26117 26118 26119 26120 26121 26122 26123 26124 26125 26126 26127 26128 26129 26130 26131 26132 26133 26134 26135 26136 26137 26138 26139 26140 26141 26142 26143 26144 26145 26146 26147 26148 26149 26150 26151 26152 26153 26154 26155 26156 26157 26158 26159 26160 26161 26162 26163 26164 26165 26166 26167 26168 26169 26170 26171 26172 26173 26174 26175 26176 26177 26178 26179 26180 26181 26182 26183 26184 26185 26186 26187 26188 26189 26190 26191 26192 26193 26194 26195 26196 26197 26198 26199 26200 26201 26202 26203 26204 26205 26206 26207 26208 26209 26210 26211 26212 26213 26214 26215 26216 26217 26218 26219 26220 26221 26222 26223 26224 26225 26226 26227 26228 26229 26230 26231 26232 26233 26234 26235 26236 26237 26238 26239 26240 26241 26242 26243 26244 26245 26246 26247 26248 26249 26250 26251 26252 26253 26254 26255 26256 26257 26258 26259 26260 26261 26262 26263 26264 26265 26266 26267 26268 26269 26270 26271 26272 26273 26274 26275 26276 26277 26278 26279 26280 26281 26282 26283 26284 26285 26286 26287 26288 26289 26290 26291 26292 26293 26294 26295 26296 26297 26298 26299 26300 26301 26302 26303 26304 26305 26306 26307 26308 26309 26310 26311 26312 26313 26314 26315 26316 26317 26318 26319 26320 26321 26322 26323 26324 26325 26326 26327 26328 26329 26330 26331 26332 26333 26334 26335 26336 26337 26338 26339 26340 26341 26342 26343 26344 26345 26346 26347 26348 26349 26350 26351 26352 26353 26354 26355 26356 26357 26358 26359 26360 26361 26362 26363 26364 26365 26366 26367 26368 26369 26370 26371 26372 26373 26374 26375 26376 26377 26378 26379 26380 26381 26382 26383 26384 26385 26386 26387 26388 26389 26390 26391 26392 26393 26394 26395 26396 26397 26398 26399 26400 26401 26402 26403 26404 26405 26406 26407 26408 26409 26410 26411 26412 26413 26414 26415 26416 26417 26418 26419 26420 26421 26422 26423 26424 26425 26426 26427 26428 26429 26430 26431 26432 26433 26434 26435 26436 26437 26438 26439 26440 26441 26442 26443 26444 26445 26446 26447 26448 26449 26450 26451 26452 26453 26454 26455 26456 26457 26458 26459 26460 26461 26462 26463 26464 26465 26466 26467 26468 26469 26470 26471 26472 26473 26474 26475 26476 26477 26478 26479 26480 26481 26482 26483 26484 26485 26486 26487 26488 26489 26490 26491 26492 26493 26494 26495 26496 26497 26498 26499 26500 26501 26502 26503 26504 26505 26506 26507 26508 26509 26510 26511 26512 26513 26514 26515 26516 26517 26518 26519 26520 26521 26522 26523 26524 26525 26526 26527 26528 26529 26530 26531 26532 26533 26534 26535 26536 26537 26538 26539 26540 26541 26542 26543 26544 26545 26546 26547 26548 26549 26550 26551 26552 26553 26554 26555 26556 26557 26558 26559 26560 26561 26562 26563 26564 26565 26566 26567 26568 26569 26570 26571 26572 26573 26574 26575 26576 26577 26578 26579 26580 26581 26582 26583 26584 26585 26586 26587 26588 26589 26590 26591 26592 26593 26594 26595 26596 26597 26598 26599 26600 26601 26602 26603 26604 26605 26606 26607 26608 26609 26610 26611 26612 26613 26614 26615 26616 26617 26618 26619 26620 26621 26622 26623 26624 26625 26626 26627 26628 26629 26630 26631 26632 26633 26634 26635 26636 26637 26638 26639 26640 26641 26642 26643 26644 26645 26646 26647 26648 26649 26650 26651 26652 26653 26654 26655 26656 26657 26658 26659 26660 26661 26662 26663 26664 26665 26666 26667 26668 26669 26670 26671 26672 26673 26674 26675 26676 26677 26678 26679 26680 26681 26682 26683 26684 26685 26686 26687 26688 26689 26690 26691 26692 26693 26694 26695 26696 26697 26698 26699 26700 26701 26702 26703 26704 26705 26706 26707 26708 26709 26710 26711 26712 26713 26714 26715 26716 26717 26718 26719 26720 26721 26722 26723 26724 26725 26726 26727 26728 26729 26730 26731 26732 26733 26734 26735 26736 26737 26738 26739 26740 26741 26742 26743 26744 26745 26746 26747 26748 26749 26750 26751 26752 26753 26754 26755 26756 26757 26758 26759 26760 26761 26762 26763 26764 26765 26766 26767 26768 26769 26770 26771 26772 26773 26774 26775 26776 26777 26778 26779 26780 26781 26782 26783 26784 26785 26786 26787 26788 26789 26790 26791 26792 26793 26794 26795 26796 26797 26798 26799 26800 26801 26802 26803 26804 26805 26806 26807 26808 26809 26810 26811 26812 26813 26814 26815 26816 26817 26818 26819 26820 26821 26822 26823 26824 26825 26826 26827 26828 26829 26830 26831 26832 26833 26834 26835 26836 26837 26838 26839 26840 26841 26842 26843 26844 26845 26846 26847 26848 26849 26850 26851 26852 26853 26854 26855 26856 26857 26858 26859 26860 26861 26862 26863 26864 26865 26866 26867 26868 26869 26870 26871 26872 26873 26874 26875 26876 26877 26878 26879 26880 26881 26882 26883 26884 26885 26886 26887 26888 26889 26890 26891 26892 26893 26894 26895 26896 26897 26898 26899 26900 26901 26902 26903 26904 26905 26906 26907 26908 26909 26910 26911 26912 26913 26914 26915 26916 26917 26918 26919 26920 26921 26922 26923 26924 26925 26926 26927 26928 26929 26930 26931 26932 26933 26934 26935 26936 26937 26938 26939 26940 26941 26942 26943 26944 26945 26946 26947 26948 26949 26950 26951 26952 26953 26954 26955 26956 26957 26958 26959 26960 26961 26962 26963 26964 26965 26966 26967 26968 26969 26970 26971 26972 26973 26974 26975 26976 26977 26978 26979 26980 26981 26982 26983 26984 26985 26986 26987 26988 26989 26990 26991 26992 26993 26994 26995 26996 26997 26998 26999 27000 27001 27002 27003 27004 27005 27006 27007 27008 27009 27010 27011 27012 27013 27014 27015 27016 27017 27018 27019 27020 27021 27022 27023 27024 27025 27026 27027 27028 27029 27030 27031 27032 27033 27034 27035 27036 27037 27038 27039 27040 27041 27042 27043 27044 27045 27046 27047 27048 27049 27050 27051 27052 27053 27054 27055 27056 27057 27058 27059 27060 27061 27062 27063 27064 27065 27066 27067 27068 27069 27070 27071 27072 27073 27074 27075 27076 27077 27078 27079 27080 27081 27082 27083 27084 27085 27086 27087 27088 27089 27090 27091 27092 27093 27094 27095 27096 27097 27098 27099 27100 27101 27102 27103 27104 27105 27106 27107 27108 27109 27110 27111 27112 27113 27114 27115 27116 27117 27118 27119 27120 27121 27122 27123 27124 27125 27126 27127 27128 27129 27130 27131 27132 27133 27134 27135 27136 27137 27138 27139 27140 27141 27142 27143 27144 27145 27146 27147 27148 27149 27150 27151 27152 27153 27154 27155 27156 27157 27158 27159 27160 27161 27162 27163 27164 27165 27166 27167 27168 27169 27170 27171 27172 27173 27174 27175 27176 27177 27178 27179 27180 27181 27182 27183 27184 27185 27186 27187 27188 27189 27190 27191 27192 27193 27194 27195 27196 27197 27198 27199 27200 27201 27202 27203 27204 27205 27206 27207 27208 27209 27210 27211 27212 27213 27214 27215 27216 27217 27218 27219 27220 27221 27222 27223 27224 27225 27226 27227 27228 27229 27230 27231 27232 27233 27234 27235 27236 27237 27238 27239 27240 27241 27242 27243 27244 27245 27246 27247 27248 27249 27250 27251 27252 27253 27254 27255 27256 27257 27258 27259 27260 27261 27262 27263 27264 27265 27266 27267 27268 27269 27270 27271 27272 27273 27274 27275 27276 27277 27278 27279 27280 27281 27282 27283 27284 27285 27286 27287 27288 27289 27290 27291 27292 27293 27294 27295 27296 27297 27298 27299 27300 27301 27302 27303 27304 27305 27306 27307 27308 27309 27310 27311 27312 27313 27314 27315 27316 27317 27318 27319 27320 27321 27322 27323 27324 27325 27326 27327 27328 27329 27330 27331 27332 27333 27334 27335 27336 27337 27338 27339 27340 27341 27342 27343 27344 27345 27346 27347 27348 27349 27350 27351 27352 27353 27354 27355 27356 27357 27358 27359 27360 27361 27362 27363 27364 27365 27366 27367 27368 27369 27370 27371 27372 27373 27374 27375 27376 27377 27378 27379 27380 27381 27382 27383 27384 27385 27386 27387 27388 27389 27390 27391 27392 27393 27394 27395 27396 27397 27398 27399 27400 27401 27402 27403 27404 27405 27406 27407 27408 27409 27410 27411 27412 27413 27414 27415 27416 27417 27418 27419 27420 27421 27422 27423 27424 27425 27426 27427 27428 27429 27430 27431 27432 27433 27434 27435 27436 27437 27438 27439 27440 27441 27442 27443 27444 27445 27446 27447 27448 27449 27450 27451 27452 27453 27454 27455 27456 27457 27458 27459 27460 27461 27462 27463 27464 27465 27466 27467 27468 27469 27470 27471 27472 27473 27474 27475 27476 27477 27478 27479 27480 27481 27482 27483 27484 27485 27486 27487 27488 27489 27490 27491 27492 27493 27494 27495 27496 27497 27498 27499 27500 27501 27502 27503 27504 27505 27506 27507 27508 27509 27510 27511 27512 27513 27514 27515 27516 27517 27518 27519 27520 27521 27522 27523 27524 27525 27526 27527 27528 27529 27530 27531 27532 27533 27534 27535 27536 27537 27538 27539 27540 27541 27542 27543 27544 27545 27546 27547 27548 27549 27550 27551 27552 27553 27554 27555 27556 27557 27558 27559 27560 27561 27562 27563 27564 27565 27566 27567 27568 27569 27570 27571 27572 27573 27574 27575 27576 27577 27578 27579 27580 27581 27582 27583 27584 27585 27586 27587 27588 27589 27590 27591 27592 27593 27594 27595 27596 27597 27598 27599 27600 27601 27602 27603 27604 27605 27606 27607 27608 27609 27610 27611 27612 27613 27614 27615 27616 27617 27618 27619 27620 27621 27622 27623 27624 27625 27626 27627 27628 27629 27630 27631 27632 27633 27634 27635 27636 27637 27638 27639 27640 27641 27642 27643 27644 27645 27646 27647 27648 27649 27650 27651 27652 27653 27654 27655 27656 27657 27658 27659 27660 27661 27662 27663 27664 27665 27666 27667 27668 27669 27670 27671 27672 27673 27674 27675 27676 27677 27678 27679 27680 27681 27682 27683 27684 27685 27686 27687 27688 27689 27690 27691 27692 27693 27694 27695 27696 27697 27698 27699 27700 27701 27702 27703 27704 27705 27706 27707 27708 27709 27710 27711 27712 27713 27714 27715 27716 27717 27718 27719 27720 27721 27722 27723 27724 27725 27726 27727 27728 27729 27730 27731 27732 27733 27734 27735 27736 27737 27738 27739 27740 27741 27742 27743 27744 27745 27746 27747 27748 27749 27750 27751 27752 27753 27754 27755 27756 27757 27758 27759 27760 27761 27762 27763 27764 27765 27766 27767 27768 27769 27770 27771 27772 27773 27774 27775 27776 27777 27778 27779 27780 27781 27782 27783 27784 27785 27786 27787 27788 27789 27790 27791 27792 27793 27794 27795 27796 27797 27798 27799 27800 27801 27802 27803 27804 27805 27806 27807 27808 27809 27810 27811 27812 27813 27814 27815 27816 27817 27818 27819 27820 27821 27822 27823 27824 27825 27826 27827 27828 27829 27830 27831 27832 27833 27834 27835 27836 27837 27838 27839 27840 27841 27842 27843 27844 27845 27846 27847 27848 27849 27850 27851 27852 27853 27854 27855 27856 27857 27858 27859 27860 27861 27862 27863 27864 27865 27866 27867 27868 27869 27870 27871 27872 27873 27874 27875 27876 27877 27878 27879 27880 27881 27882 27883 27884 27885 27886 27887 27888 27889 27890 27891 27892 27893 27894 27895 27896 27897 27898 27899 27900 27901 27902 27903 27904 27905 27906 27907 27908 27909 27910 27911 27912 27913 27914 27915 27916 27917 27918 27919 27920 27921 27922 27923 27924 27925 27926 27927 27928 27929 27930 27931 27932 27933 27934 27935 27936 27937 27938 27939 27940 27941 27942 27943 27944 27945 27946 27947 27948 27949 27950 27951 27952 27953 27954 27955 27956 27957 27958 27959 27960 27961 27962 27963 27964 27965 27966 27967 27968 27969 27970 27971 27972 27973 27974 27975 27976 27977 27978 27979 27980 27981 27982 27983 27984 27985 27986 27987 27988 27989 27990 27991 27992 27993 27994 27995 27996 27997 27998 27999 28000 28001 28002 28003 28004 28005 28006 28007 28008 28009 28010 28011 28012 28013 28014 28015 28016 28017 28018 28019 28020 28021 28022 28023 28024 28025 28026 28027 28028 28029 28030 28031 28032 28033 28034 28035 28036 28037 28038 28039 28040 28041 28042 28043 28044 28045 28046 28047 28048 28049 28050 28051 28052 28053 28054 28055 28056 28057 28058 28059 28060 28061 28062 28063 28064 28065 28066 28067 28068 28069 28070 28071 28072 28073 28074 28075 28076 28077 28078 28079 28080 28081 28082 28083 28084 28085 28086 28087 28088 28089 28090 28091 28092 28093 28094 28095 28096 28097 28098 28099 28100 28101 28102 28103 28104 28105 28106 28107 28108 28109 28110 28111 28112 28113 28114 28115 28116 28117 28118 28119 28120 28121 28122 28123 28124 28125 28126 28127 28128 28129 28130 28131 28132 28133 28134 28135 28136 28137 28138 28139 28140 28141 28142 28143 28144 28145 28146 28147 28148 28149 28150 28151 28152 28153 28154 28155 28156 28157 28158 28159 28160 28161 28162 28163 28164 28165 28166 28167 28168 28169 28170 28171 28172 28173 28174 28175 28176 28177 28178 28179 28180 28181 28182 28183 28184 28185 28186 28187 28188 28189 28190 28191 28192 28193 28194 28195 28196 28197 28198 28199 28200 28201 28202 28203 28204 28205 28206 28207 28208 28209 28210 28211 28212 28213 28214 28215 28216 28217 28218 28219 28220 28221 28222 28223 28224 28225 28226 28227 28228 28229 28230 28231 28232 28233 28234 28235 28236 28237 28238 28239 28240 28241 28242 28243 28244 28245 28246 28247 28248 28249 28250 28251 28252 28253 28254 28255 28256 28257 28258 28259 28260 28261 28262 28263 28264 28265 28266 28267 28268 28269 28270 28271 28272 28273 28274 28275 28276 28277 28278 28279 28280 28281 28282 28283 28284 28285 28286 28287 28288 28289 28290 28291 28292 28293 28294 28295 28296 28297 28298 28299 28300 28301 28302 28303 28304 28305 28306 28307 28308 28309 28310 28311 28312 28313 28314 28315 28316 28317 28318 28319 28320 28321 28322 28323 28324 28325 28326 28327 28328 28329 28330 28331 28332 28333 28334 28335 28336 28337 28338 28339 28340 28341 28342 28343 28344 28345 28346 28347 28348 28349 28350 28351 28352 28353 28354 28355 28356 28357 28358 28359 28360 28361 28362 28363 28364 28365 28366 28367 28368 28369 28370 28371 28372 28373 28374 28375 28376 28377 28378 28379 28380 28381 28382 28383 28384 28385 28386 28387 28388 28389 28390 28391 28392 28393 28394 28395 28396 28397 28398 28399 28400 28401 28402 28403 28404 28405 28406 28407 28408 28409 28410 28411 28412 28413 28414 28415 28416 28417 28418 28419 28420 28421 28422 28423 28424 28425 28426 28427 28428 28429 28430 28431 28432 28433 28434 28435 28436 28437 28438 28439 28440 28441 28442 28443 28444 28445 28446 28447 28448 28449 28450 28451 28452 28453 28454 28455 28456 28457 28458 28459 28460 28461 28462 28463 28464 28465 28466 28467 28468 28469 28470 28471 28472 28473 28474 28475 28476 28477 28478 28479 28480 28481 28482 28483 28484 28485 28486 28487 28488 28489 28490 28491 28492 28493 28494 28495 28496 28497 28498 28499 28500 28501 28502 28503 28504 28505 28506 28507 28508 28509 28510 28511 28512 28513 28514 28515 28516 28517 28518 28519 28520 28521 28522 28523 28524 28525 28526 28527 28528 28529 28530 28531 28532 28533 28534 28535 28536 28537 28538 28539 28540 28541 28542 28543 28544 28545 28546 28547 28548 28549 28550 28551 28552 28553 28554 28555 28556 28557 28558 28559 28560 28561 28562 28563 28564 28565 28566 28567 28568 28569 28570 28571 28572 28573 28574 28575 28576 28577 28578 28579 28580 28581 28582 28583 28584 28585 28586 28587 28588 28589 28590 28591 28592 28593 28594 28595 28596 28597 28598 28599 28600 28601 28602 28603 28604 28605 28606 28607 28608 28609 28610 28611 28612 28613 28614 28615 28616 28617 28618 28619 28620 28621 28622 28623 28624 28625 28626 28627 28628 28629 28630 28631 28632 28633 28634 28635 28636 28637 28638 28639 28640 28641 28642 28643 28644 28645 28646 28647 28648 28649 28650 28651 28652 28653 28654 28655 28656 28657 28658 28659 28660 28661 28662 28663 28664 28665 28666 28667 28668 28669 28670 28671 28672 28673 28674 28675 28676 28677 28678 28679 28680 28681 28682 28683 28684 28685 28686 28687 28688 28689 28690 28691 28692 28693 28694 28695 28696 28697 28698 28699 28700 28701 28702 28703 28704 28705 28706 28707 28708 28709 28710 28711 28712 28713 28714 28715 28716 28717 28718 28719 28720 28721 28722 28723 28724 28725 28726 28727 28728 28729 28730 28731 28732 28733 28734 28735 28736 28737 28738 28739 28740 28741 28742 28743 28744 28745 28746 28747 28748 28749 28750 28751 28752 28753 28754 28755 28756 28757 28758 28759 28760 28761 28762 28763 28764 28765 28766 28767 28768 28769 28770 28771 28772 28773 28774 28775 28776 28777 28778 28779 28780 28781 28782 28783 28784 28785 28786 28787 28788 28789 28790 28791 28792 28793 28794 28795 28796 28797 28798 28799 28800 28801 28802 28803 28804 28805 28806 28807 28808 28809 28810 28811 28812 28813 28814 28815 28816 28817 28818 28819 28820 28821 28822 28823 28824 28825 28826 28827 28828 28829 28830 28831 28832 28833 28834 28835 28836 28837 28838 28839 28840 28841 28842 28843 28844 28845 28846 28847 28848 28849 28850 28851 28852 28853 28854 28855 28856 28857 28858 28859 28860 28861 28862 28863 28864 28865 28866 28867 28868 28869 28870 28871 28872 28873 28874 28875 28876 28877 28878 28879 28880 28881 28882 28883 28884 28885 28886 28887 28888 28889 28890 28891 28892 28893 28894 28895 28896 28897 28898 28899 28900 28901 28902 28903 28904 28905 28906 28907 28908 28909 28910 28911 28912 28913 28914 28915 28916 28917 28918 28919 28920 28921 28922 28923 28924 28925 28926 28927 28928 28929 28930 28931 28932 28933 28934 28935 28936 28937 28938 28939 28940 28941 28942 28943 28944 28945 28946 28947 28948 28949 28950 28951 28952 28953 28954 28955 28956 28957 28958 28959 28960 28961 28962 28963 28964 28965 28966 28967 28968 28969 28970 28971 28972 28973 28974 28975 28976 28977 28978 28979 28980 28981 28982 28983 28984 28985 28986 28987 28988 28989 28990 28991 28992 28993 28994 28995 28996 28997 28998 28999 29000 29001 29002 29003 29004 29005 29006 29007 29008 29009 29010 29011 29012 29013 29014 29015 29016 29017 29018 29019 29020 29021 29022 29023 29024 29025 29026 29027 29028 29029 29030 29031 29032 29033 29034 29035 29036 29037 29038 29039 29040 29041 29042 29043 29044 29045 29046 29047 29048 29049 29050 29051 29052 29053 29054 29055 29056 29057 29058 29059 29060 29061 29062 29063 29064 29065 29066 29067 29068 29069 29070 29071 29072 29073 29074 29075 29076 29077 29078 29079 29080 29081 29082 29083 29084 29085 29086 29087 29088 29089 29090 29091 29092 29093 29094 29095 29096 29097 29098 29099 29100 29101 29102 29103 29104 29105 29106 29107 29108 29109 29110 29111 29112 29113 29114 29115 29116 29117 29118 29119 29120 29121 29122 29123 29124 29125 29126 29127 29128 29129 29130 29131 29132 29133 29134 29135 29136 29137 29138 29139 29140 29141 29142 29143 29144 29145 29146 29147 29148 29149 29150 29151 29152 29153 29154 29155 29156 29157 29158 29159 29160 29161 29162 29163 29164 29165 29166 29167 29168 29169 29170 29171 29172 29173 29174 29175 29176 29177 29178 29179 29180 29181 29182 29183 29184 29185 29186 29187 29188 29189 29190 29191 29192 29193 29194 29195 29196 29197 29198 29199 29200 29201 29202 29203 29204 29205 29206 29207 29208 29209 29210 29211 29212 29213 29214 29215 29216 29217 29218 29219 29220 29221 29222 29223 29224 29225 29226 29227 29228 29229 29230 29231 29232 29233 29234 29235 29236 29237 29238 29239 29240 29241 29242 29243 29244 29245 29246 29247 29248 29249 29250 29251 29252 29253 29254 29255 29256 29257 29258 29259 29260 29261 29262 29263 29264 29265 29266 29267 29268 29269 29270 29271 29272 29273 29274 29275 29276 29277 29278 29279 29280 29281 29282 29283 29284 29285 29286 29287 29288 29289 29290 29291 29292 29293 29294 29295 29296 29297 29298 29299 29300 29301 29302 29303 29304 29305 29306 29307 29308 29309 29310 29311 29312 29313 29314 29315 29316 29317 29318 29319 29320 29321 29322 29323 29324 29325 29326 29327 29328 29329 29330 29331 29332 29333 29334 29335 29336 29337 29338 29339 29340 29341 29342 29343 29344 29345 29346 29347 29348 29349 29350 29351 29352 29353 29354 29355 29356 29357 29358 29359 29360 29361 29362 29363 29364 29365 29366 29367 29368 29369 29370 29371 29372 29373 29374 29375 29376 29377 29378 29379 29380 29381 29382 29383 29384 29385 29386 29387 29388 29389 29390 29391 29392 29393 29394 29395 29396 29397 29398 29399 29400 29401 29402 29403 29404 29405 29406 29407 29408 29409 29410 29411 29412 29413 29414 29415 29416 29417 29418 29419 29420 29421 29422 29423 29424 29425 29426 29427 29428 29429 29430 29431 29432 29433 29434 29435 29436 29437 29438 29439 29440 29441 29442 29443 29444 29445 29446 29447 29448 29449 29450 29451 29452 29453 29454 29455 29456 29457 29458 29459 29460 29461 29462 29463 29464 29465 29466 29467 29468 29469 29470 29471 29472 29473 29474 29475 29476 29477 29478 29479 29480 29481 29482 29483 29484 29485 29486 29487 29488 29489 29490 29491 29492 29493 29494 29495 29496 29497 29498 29499 29500 29501 29502 29503 29504 29505 29506 29507 29508 29509 29510 29511 29512 29513 29514 29515 29516 29517 29518 29519 29520 29521 29522 29523 29524 29525 29526 29527 29528 29529 29530 29531 29532 29533 29534 29535 29536 29537 29538 29539 29540 29541 29542 29543 29544 29545 29546 29547 29548 29549 29550 29551 29552 29553 29554 29555 29556 29557 29558 29559 29560 29561 29562 29563 29564 29565 29566 29567 29568 29569 29570 29571 29572 29573 29574 29575 29576 29577 29578 29579 29580 29581 29582 29583 29584 29585 29586 29587 29588 29589 29590 29591 29592 29593 29594 29595 29596 29597 29598 29599 29600 29601 29602 29603 29604 29605 29606 29607 29608 29609 29610 29611 29612 29613 29614 29615 29616 29617 29618 29619 29620 29621 29622 29623 29624 29625 29626 29627 29628 29629 29630 29631 29632 29633 29634 29635 29636 29637 29638 29639 29640 29641 29642 29643 29644 29645 29646 29647 29648 29649 29650 29651 29652 29653 29654 29655 29656 29657 29658 29659 29660 29661 29662 29663 29664 29665 29666 29667 29668 29669 29670 29671 29672 29673 29674 29675 29676 29677 29678 29679 29680 29681 29682 29683 29684 29685 29686 29687 29688 29689 29690 29691 29692 29693 29694 29695 29696 29697 29698 29699 29700 29701 29702 29703 29704 29705 29706 29707 29708 29709 29710 29711 29712 29713 29714 29715 29716 29717 29718 29719 29720 29721 29722 29723 29724 29725 29726 29727 29728 29729 29730 29731 29732 29733 29734 29735 29736 29737 29738 29739 29740 29741 29742 29743 29744 29745 29746 29747 29748 29749 29750 29751 29752 29753 29754 29755 29756 29757 29758 29759 29760 29761 29762 29763 29764 29765 29766 29767 29768 29769 29770 29771 29772 29773 29774 29775 29776 29777 29778 29779 29780 29781 29782 29783 29784 29785 29786 29787 29788 29789 29790 29791 29792 29793 29794 29795 29796 29797 29798 29799 29800 29801 29802 29803 29804 29805 29806 29807 29808 29809 29810 29811 29812 29813 29814 29815 29816 29817 29818 29819 29820 29821 29822 29823 29824 29825 29826 29827 29828 29829 29830 29831 29832 29833 29834 29835 29836 29837 29838 29839 29840 29841 29842 29843 29844 29845 29846 29847 29848 29849 29850 29851 29852 29853 29854 29855 29856 29857 29858 29859 29860 29861 29862 29863 29864 29865 29866 29867 29868 29869 29870 29871 29872 29873 29874 29875 29876 29877 29878 29879 29880 29881 29882 29883 29884 29885 29886 29887 29888 29889 29890 29891 29892 29893 29894 29895 29896 29897 29898 29899 29900 29901 29902 29903 29904 29905 29906 29907 29908 29909 29910 29911 29912 29913 29914 29915 29916 29917 29918 29919 29920 29921 29922 29923 29924 29925 29926 29927 29928 29929 29930 29931 29932 29933 29934 29935 29936 29937 29938 29939 29940 29941 29942 29943 29944 29945 29946 29947 29948 29949 29950 29951 29952 29953 29954 29955 29956 29957 29958 29959 29960 29961 29962 29963 29964 29965 29966 29967 29968 29969 29970 29971 29972 29973 29974 29975 29976 29977 29978 29979 29980 29981 29982 29983 29984 29985 29986 29987 29988 29989 29990 29991 29992 29993 29994 29995 29996 29997 29998 29999 30000 30001 30002 30003 30004 30005 30006 30007 30008 30009 30010 30011 30012 30013 30014 30015 30016 30017 30018 30019 30020 30021 30022 30023 30024 30025 30026 30027 30028 30029 30030 30031 30032 30033 30034 30035 30036 30037 30038 30039 30040 30041 30042 30043 30044 30045 30046 30047 30048 30049 30050 30051 30052 30053 30054 30055 30056 30057 30058 30059 30060 30061 30062 30063 30064 30065 30066 30067 30068 30069 30070 30071 30072 30073 30074 30075 30076 30077 30078 30079 30080 30081 30082 30083 30084 30085 30086 30087 30088 30089 30090 30091 30092 30093 30094 30095 30096 30097 30098 30099 30100 30101 30102 30103 30104 30105 30106 30107 30108 30109 30110 30111 30112 30113 30114 30115 30116 30117 30118 30119 30120 30121 30122 30123 30124 30125 30126 30127 30128 30129 30130 30131 30132 30133 30134 30135 30136 30137 30138 30139 30140 30141 30142 30143 30144 30145 30146 30147 30148 30149 30150 30151 30152 30153 30154 30155 30156 30157 30158 30159 30160 30161 30162 30163 30164 30165 30166 30167 30168 30169 30170 30171 30172 30173 30174 30175 30176 30177 30178 30179 30180 30181 30182 30183 30184 30185 30186 30187 30188 30189 30190 30191 30192 30193 30194 30195 30196 30197 30198 30199 30200 30201 30202 30203 30204 30205 30206 30207 30208 30209 30210 30211 30212 30213 30214 30215 30216 30217 30218 30219 30220 30221 30222 30223 30224 30225 30226 30227 30228 30229 30230 30231 30232 30233 30234 30235 30236 30237 30238 30239 30240 30241 30242 30243 30244 30245 30246 30247 30248 30249 30250 30251 30252 30253 30254 30255 30256 30257 30258 30259 30260 30261 30262 30263 30264 30265 30266 30267 30268 30269 30270 30271 30272 30273 30274 30275 30276 30277 30278 30279 30280 30281 30282 30283 30284 30285 30286 30287 30288 30289 30290 30291 30292 30293 30294 30295 30296 30297 30298 30299 30300 30301 30302 30303 30304 30305 30306 30307 30308 30309 30310 30311 30312 30313 30314 30315 30316 30317 30318 30319 30320 30321 30322 30323 30324 30325 30326 30327 30328 30329 30330 30331 30332 30333 30334 30335 30336 30337 30338 30339 30340 30341 30342 30343 30344 30345 30346 30347 30348 30349 30350 30351 30352 30353 30354 30355 30356 30357 30358 30359 30360 30361 30362 30363 30364 30365 30366 30367 30368 30369 30370 30371 30372 30373 30374 30375 30376 30377 30378 30379 30380 30381 30382 30383 30384 30385 30386 30387 30388 30389 30390 30391 30392 30393 30394 30395 30396 30397 30398 30399 30400 30401 30402 30403 30404 30405 30406 30407 30408 30409 30410 30411 30412 30413 30414 30415 30416 30417 30418 30419 30420 30421 30422 30423 30424 30425 30426 30427 30428 30429 30430 30431 30432 30433 30434 30435 30436 30437 30438 30439 30440 30441 30442 30443 30444 30445 30446 30447 30448 30449 30450 30451 30452 30453 30454 30455 30456 30457 30458 30459 30460 30461 30462 30463 30464 30465 30466 30467 30468 30469 30470 30471 30472 30473 30474 30475 30476 30477 30478 30479 30480 30481 30482 30483 30484 30485 30486 30487 30488 30489 30490 30491 30492 30493 30494 30495 30496 30497 30498 30499 30500 30501 30502 30503 30504 30505 30506 30507 30508 30509 30510 30511 30512 30513 30514 30515 30516 30517 30518 30519 30520 30521 30522 30523 30524 30525 30526 30527 30528 30529 30530 30531 30532 30533 30534 30535 30536 30537 30538 30539 30540 30541 30542 30543 30544 30545 30546 30547 30548 30549 30550 30551 30552 30553 30554 30555 30556 30557 30558 30559 30560 30561 30562 30563 30564 30565 30566 30567 30568 30569 30570 30571 30572 30573 30574 30575 30576 30577 30578 30579 30580 30581 30582 30583 30584 30585 30586 30587 30588 30589 30590 30591 30592 30593 30594 30595 30596 30597 30598 30599 30600 30601 30602 30603 30604 30605 30606 30607 30608 30609 30610 30611 30612 30613 30614 30615 30616 30617 30618 30619 30620 30621 30622 30623 30624 30625 30626 30627 30628 30629 30630 30631 30632 30633 30634 30635 30636 30637 30638 30639 30640 30641 30642 30643 30644 30645 30646 30647 30648 30649 30650 30651 30652 30653 30654 30655 30656 30657 30658 30659 30660 30661 30662 30663 30664 30665 30666 30667 30668 30669 30670 30671 30672 30673 30674 30675 30676 30677 30678 30679 30680 30681 30682 30683 30684 30685 30686 30687 30688 30689 30690 30691 30692 30693 30694 30695 30696 30697 30698 30699 30700 30701 30702 30703 30704 30705 30706 30707 30708 30709 30710 30711 30712 30713 30714 30715 30716 30717 30718 30719 30720 30721 30722 30723 30724 30725 30726 30727 30728 30729 30730 30731 30732 30733 30734 30735 30736 30737 30738 30739 30740 30741 30742 30743 30744 30745 30746 30747 30748 30749 30750 30751 30752 30753 30754 30755 30756 30757 30758 30759 30760 30761 30762 30763 30764 30765 30766 30767 30768 30769 30770 30771 30772 30773 30774 30775 30776 30777 30778 30779 30780 30781 30782 30783 30784 30785 30786 30787 30788 30789 30790 30791 30792 30793 30794 30795 30796 30797 30798 30799 30800 30801 30802 30803 30804 30805 30806 30807 30808 30809 30810 30811 30812 30813 30814 30815 30816 30817 30818 30819 30820 30821 30822 30823 30824 30825 30826 30827 30828 30829 30830 30831 30832 30833 30834 30835 30836 30837 30838 30839 30840 30841 30842 30843 30844 30845 30846 30847 30848 30849 30850 30851 30852 30853 30854 30855 30856 30857 30858 30859 30860 30861 30862 30863 30864 30865 30866 30867 30868 30869 30870 30871 30872 30873 30874 30875 30876 30877 30878 30879 30880 
</DataArray>
<DataArray type="UInt32" Name="offsets" format="ascii">
3 6 8 11 14 17 20 22 25 28 31 34 37 40 43 46 49 52 55 58 60 63 66 69 72 74 77 80 83 86 89 92 95 97 100 103 106 109 112 115 118 121 123 126 129 132 135 138 141 144 147 150 153 156 158 160 163 166 169 172 175 178 181 184 186 189 192 195 198 201 204 207 210 213 216 219 222 225 228 231 234 237 240 243 246 249 252 254 257 260 263 266 269 272 275 278 281 284 287 289 292 295 298 300 303 306 309 312 315 318 321 324 327 330 333 336 339 342 345 348 351 354 357 360 363 366 369 372 375 378 381 384 387 390 393 396 399 402 405 408 411 414 417 420 423 426 429 432 435 437 440 442 445 448 451 454 457 460 463 466 469 472 475 478 481 484 487 490 493 496 499 502 505 508 511 514 517 520 522 525 528 530 533 535 538 541 544 547 550 553 556 559 562 565 568 571 574 577 579 582 584 587 590 593 596 599 602 605 607 610 612 615 618 621 624 627 630 632 635 638 640 643 646 649 652 655 658 660 662 665 668 670 673 675 678 680 682 685 688 691 693 696 699 702 705 708 711 714 717 720 723 726 729 732 734 737 740 743 746 749 752 755 757 760 763 766 769 772 775 778 780 783 786 789 792 794 797 800 803 806 809 812 814 817 820 823 825 828 831 834 837 840 843 846 848 851 854 857 860 863 866 868 871 874 877 880 883 886 888 891 894 897 900 903 906 909 911 914 917 920 923 926 929 932 935 938 941 944 947 950 953 956 959 962 965 968 971 974 976 978 981 984 987 990 993 995 998 1001 1004 1007 1010 1013 1016 1018 1021 1023 1026 1029 1032 1034 1037 1040 1043 1045 1048 1050 1053 1056 1059 1062 1065 1068 1071 1073 1076 1079 1082 1085 1088 1091 1094 1096 1099 1102 1105 1107 1110 1113 1116 1119 1122 1125 1128 1131 1134 1137 1140 1143 1146 1149 1152 1155 1158 1161 1164 1167 1170 1173 1176 1179 1182 1185 1188 1191 1194 1197 1200 1203 1205 1208 1211 1214 1217 1220 1223 1226 1229 1232 1235 1238 1241 1244 1247 1250 1253 1256 1259 1262 1265 1268 1271 1274 1277 1280 1283 1286 1289 1292 1295 1298 1301 1303 1306 1309 1312 1315 1318 1321 1324 1327 1330 1333 1336 1339 1342 1345 1348 1351 1354 1357 1360 1363 1365 1368 1371 1374 1377 1380 1383 1386 1388 1391 1394 1397 1400 1403 1405 1408 1411 1413 1416 1418 1421 1424 1427 1430 1432 1435 1438 1440 1443 1446 1449 1452 1455 1458 1460 1463 1466 1469 1472 1475 1478 1481 1484 1487 1490 1493 1496 1499 1502 1505 1508 1511 1514 1517 1519 1522 1525 1528 1531 1534 1537 1540 1543 1546 1549 1552 1554 1556 1559 1562 1565 1568 1571 1574 1577 1580 1583 1586 1589 1592 1595 1598 1601 1604 1607 1610 1613 1616 1619 1621 1624 1626 1628 1631 1634 1636 1639 1642 1645 1648 1651 1654 1657 1660 1663 1666 1669 1672 1675 1677 1680 1683 1686 1689 1692 1695 1698 1700 1702 1705 1708 1711 1714 1717 1720 1723 1726 1728 1730 1733 1736 1739 1741 1744 1747 1750 1753 1756 1759 1762 1765 1768 1771 1774 1777 1780 1783 1786 1789 1792 1795 1798 1801 1804 1807 1810 1813 1816 1819 1822 1825 1828 1831 1834 1837 1840 1843 1846 1848 1851 1854 1856 1859 1862 1865 1868 1870 1873 1876 1879 1881 1884 1887 1890 1892 1895 1898 1900 1903 1906 1909 1912 1915 1918 1921 1924 1927 1930 1933 1936 1939 1942 1945 1948 1951 1954 1957 1960 1963 1965 1968 1971 1974 1976 1979 1982 1985 1988 1991 1993 1996 1999 2002 2005 2008 2011 2013 2016 2019 2022 2025 2028 2031 2034 2037 2040 2043 2046 2049 2052 2055 2058 2061 2064 2067 2069 2072 2075 2078 2081 2084 2087 2090 2093 2096 2099 2102 2105 2108 2111 2114 2117 2120 2123 2126 2129 2132 2134 2137 2140 2143 2146 2149 2152 2155 2158 2161 2164 2167 2170 2173 2176 2179 2181 2184 2187 2190 2193 2196 2199 2202 2205 2208 2211 2214 2217 2220 2223 2226 2229 2232 2235 2237 2240 2243 2246 2249 2252 2255 2258 2260 2263 2266 2269 2272 2275 2278 2281 2284 2287 2290 2293 2296 2299 2302 2305 2308 2311 2314 2317 2320 2323 2325 2328 2331 2334 2337 2340 2343 2346 2349 2352 2354 2357 2360 2363 2366 2369 2372 2375 2378 2380 2383 2386 2389 2392 2395 2398 2401 2404 2407 2410 2413 2416 2419 2422 2425 2428 2431 2434 2437 2439 2442 2445 2448 2451 2454 2456 2459 2462 2465 2467 2470 2473 2476 2479 2482 2485 2487 2490 2493 2496 2499 2502 2505 2508 2511 2514 2517 2519 2522 2525 2528 2531 2534 2537 2540 2543 2546 2549 2552 2555 2557 2560 2562 2565 2568 2571 2574 2577 2580 2583 2585 2588 2590 2593 2596 2599 2602 2605 2608 2611 2614 2617 2620 2623 2626 2629 2632 2635 2638 2641 2644 2647 2650 2653 2656 2659 2662 2665 2668 2671 2674 2677 2680 2683 2686 2689 2692 2695 2698 2701 2704 2707 2710 2713 2716 2719 2722 2725 2727 2729 2732 2735 2737 2740 2743 2746 2749 2752 2755 2758 2761 2764 2767 2770 2773 2776 2779 2782 2785 2787 2790 2793 2796 2799 2801 2804 2807 2809 2812 2815 2818 2821 2824 2827 2829 2832 2834 2837 2840 2842 2845 2848 2851 2854 2857 2860 2863 2866 2869 2872 2874 2877 2880 2883 2886 2889 2891 2893 2896 2899 2902 2905 2907 2910 2913 2915 2918 2920 2923 2926 2929 2932 2935 2937 2940 2943 2945 2948 2951 2954 2957 2960 2963 2966 2969 2972 2975 2978 2981 2983 2986 2989 2992 2995 2998 3001 3004 3007 3010 3013 3016 3019 3022 3025 3028 3030 3033 3035 3038 3040 3042 3045 3047 3050 3053 3055 3058 3061 3064 3067 3070 3073 3075 3078 3080 3083 3086 3088 3091 3094 3097 3099 3102 3105 3107 3110 3113 3116 3119 3122 3124 3127 3130 3132 3135 3138 3141 3144 3147 3149 3152 3154 3157 3160 3162 3165 3168 3170 3173 3176 3179 3182 3185 3188 3191 3194 3196 3199 3202 3205 3208 3211 3214 3217 3220 3223 3226 3228 3231 3234 3237 3240 3242 3245 3248 3250 3253 3256 3259 3262 3265 3267 3270 3273 3276 3279 3282 3284 3287 3289 3292 3295 3298 3301 3304 3307 3309 3312 3315 3318 3321 3324 3327 3330 3333 3335 3337 3339 3342 3345 3348 3351 3353 3356 3358 3361 3364 3367 3369 3371 3374 3377 3380 3382 3385 3388 3391 3393 3396 3398 3401 3403 3405 3408 3410 3413 3416 3419 3422 3424 3427 3430 3433 3435 3438 3440 3443 3445 3448 3451 3454 3457 3460 3463 3466 3468 3471 3474 3477 3480 3482 3485 3488 3491 3494 3497 3500 3503 3506 3508 3511 3513 3515 3518 3521 3524 3526 3529 3532 3535 3538 3540 3542 3545 3548 3550 3552 3555 3558 3561 3564 3567 3569 3572 3575 3578 3581 3584 3587 3590 3593 3595 3598 3600 3603 3606 3609 3612 3615 3618 3621 3624 3627 3630 3633 3636 3639 3642 3645 3648 3651 3653 3656 3659 3662 3665 3668 3671 3674 3677 3680 3683 3686 3689 3692 3695 3698 3701 3704 3707 3710 3713 3716 3719 3722 3725 3728 3730 3733 3735 3738 3741 3744 3747 3750 3752 3754 3757 3760 3763 3766 3768 3770 3773 3775 3778 3781 3783 3786 3789 3791 3794 3797 3800 3803 3805 3807 3810 3813 3816 3819 3822 3825 3828 3831 3833 3836 3839 3841 3844 3847 3850 3852 3855 3858 3860 3863 3866 3869 3872 3875 3878 3880 3883 3886 3889 3892 3895 3898 3900 3903 3906 3909 3912 3915 3917 3920 3923 3925 3927 3930 3933 3935 3938 3941 3943 3946 3949 3952 3955 3958 3961 3964 3967 3970 3973 3976 3979 3981 3984 3986 3989 3992 3994 3997 4000 4003 4006 4009 4012 4014 4017 4020 4023 4025 4027 4029 4032 4035 4038 4040 4042 4045 4047 4049 4052 4055 4057 4060 4063 4065 4068 4070 4073 4075 4078 4081 4084 4086 4088 4091 4094 4096 4098 4100 4102 4105 4108 4111 4113 4115 4118 4121 4123 4125 4127 4130 4132 4134 4137 4140 4142 4145 4147 4149 4152 4154 4157 4160 4162 4165 4167 4169 4172 4175 4178 4181 4183 4185 4188 4191 4193 4196 4199 4202 4204 4207 4210 4213 4216 4219 4222 4225 4228 4231 4234 4237 4240 4243 4246 4249 4252 4255 4258 4261 4264 4267 4270 4273 4276 4279 4282 4285 4288 4291 4294 4297 4300 4303 4306 4309 4312 4315 4318 4321 4324 4327 4330 4333 4336 4339 4342 4345 4348 4351 4354 4357 4360 4363 4366 4369 4372 4375 4378 4380 4383 4385 4388 4391 4394 4397 4400 4403 4406 4409 4412 4415 4418 4421 4424 4427 4429 4432 4435 4438 4441 4444 4447 4450 4453 4456 4459 4461 4464 4467 4470 4473 4476 4479 4482 4485 4488 4491 4494 4497 4500 4503 4506 4509 4512 4515 4518 4521 4524 4527 4530 4533 4536 4539 4542 4545 4548 4551 4554 4557 4560 4563 4566 4569 4572 4575 4578 4581 4584 4587 4590 4593 4596 4599 4601 4604 4607 4610 4612 4615 4617 4620 4623 4626 4629 4632 4634 4637 4639 4642 4645 4648 4651 4654 4657 4660 4663 4666 4669 4672 4675 4678 4681 4684 4687 4690 4693 4696 4699 4702 4705 4708 4711 4714 4716 4719 4722 4725 4728 4731 4734 4736 4739 4741 4744 4747 4750 4752 4755 4758 4760 4763 4766 4769 4772 4775 4778 4781 4784 4787 4790 4793 4796 4799 4802 4805 4808 4811 4814 4817 4820 4823 4826 4829 4832 4835 4838 4841 4844 4847 4850 4853 4856 4859 4862 4865 4868 4871 4873 4876 4878 4881 4884 4887 4890 4893 4896 4899 4902 4905 4908 4910 4913 4916 4919 4922 4925 4928 4931 4934 4937 4940 4943 4946 4949 4952 4955 4958 4961 4963 4966 4969 4972 4974 4976 4979 4981 4984 4987 4990 4993 4996 4999 5002 5005 5007 5010 5013 5016 5019 5021 5024 5027 5030 5033 5036 5039 5042 5044 5047 5050 5052 5055 5057 5060 5063 5065 5068 5071 5073 5075 5078 5081 5084 5087 5090 5093 5096 5099 5102 5105 5108 5111 5114 5117 5120 5122 5125 5127 5130 5133 5136 5138 5141 5143 5146 5149 5152 5155 5158 5161 5164 5167 5170 5173 5176 5179 5181 5184 5186 5189 5192 5195 5198 5201 5204 5207 5210 5212 5215 5218 5220 5223 5226 5229 5231 5233 5236 5239 5242 5245 5248 5251 5254 5257 5260 5263 5266 5269 5272 5275 5278 5281 5284 5287 5290 5293 5296 5298 5301 5304 5307 5310 5313 5315 5318 5320 5323 5326 5329 5332 5334 5337 5340 5342 5345 5348 5351 5354 5357 5359 5362 5365 5368 5371 5373 5376 5379 5382 5385 5388 5391 5394 5396 5399 5402 5405 5407 5410 5413 5416 5419 5422 5425 5428 5431 5434 5437 5440 5442 5445 5448 5451 5454 5457 5460 5463 5466 5468 5471 5474 5477 5480 5483 5486 5488 5491 5494 5497 5500 5503 5506 5508 5511 5514 5517 5520 5523 5526 5529 5532 5535 5538 5541 5543 5546 5549 5552 5554 5557 5560 5563 5565 5568 5570 5573 5576 5579 5582 5585 5588 5590 5593 5596 5599 5602 5605 5608 5611 5614 5617 5620 5623 5626 5629 5632 5635 5637 5640 5643 5646 5649 5652 5654 5657 5660 5663 5666 5669 5672 5675 5678 5680 5683 5686 5689 5692 5695 5698 5701 5704 5707 5710 5713 5716 5719 5722 5725 5728 5730 5733 5736 5739 5742 5744 5747 5750 5753 5756 5759 5762 5765 5768 5771 5774 5777 5780 5783 5786 5789 5792 5795 5798 5801 5804 5807 5810 5813 5816 5819 5822 5824 5827 5830 5833 5835 5838 5840 5843 5846 5849 5852 5854 5857 5859 5862 5865 5868 5871 5874 5876 5879 5882 5885 5888 5891 5894 5897 5900 5903 5905 5908 5911 5914 5917 5920 5923 5926 5929 5932 5935 5938 5941 5944 5947 5950 5953 5956 5959 5962 5965 5968 5971 5974 5977 5979 5981 5984 5987 5990 5993 5996 5998 6001 6004 6007 6009 6012 6015 6018 6020 6023 6026 6028 6031 6033 6036 6039 6042 6045 6047 6050 6053 6056 6059 6061 6063 6066 6069 6072 6075 6078 6081 6084 6087 6090 6093 6096 6099 6101 6104 6107 6110 6113 6115 6118 6121 6124 6127 6130 6132 6135 6138 6140 6143 6146 6149 6152 6155 6158 6161 6164 6167 6170 6173 6176 6179 6182 6185 6188 6190 6193 6196 6198 6201 6204 6207 6209 6212 6215 6218 6221 6224 6227 6230 6233 6236 6239 6242 6244 6247 6250 6253 6256 6259 6262 6265 6268 6271 6274 6277 6280 6283 6286 6289 6292 6294 6297 6300 6302 6305 6307 6310 6313 6315 6318 6320 6323 6325 6328 6331 6334 6337 6340 6343 6346 6349 6352 6355 6358 6361 6364 6366 6369 6371 6373 6376 6379 6381 6383 6386 6389 6391 6393 6396 6399 6402 6404 6407 6409 6412 6415 6417 6420 6423 6426 6429 6431 6433 6436 6438 6441 6444 6446 6448 6451 6454 6456 6459 6462 6465 6467 6470 6473 6476 6478 6480 6482 6485 6488 6490 6493 6495 6497 6500 6503 6506 6509 6512 6515 6518 6521 6524 6527 6530 6532 6534 6537 6539 6542 6544 6547 6549 6552 6555 6558 6560 6563 6566 6569 6572 6575 6577 6580 6583 6586 6589 6592 6595 6598 6601 6604 6607 6610 6613 6616 6619 6622 6625 6628 6631 6634 6637 6640 6643 6646 6649 6651 6654 6657 6660 6663 6666 6669 6672 6675 6678 6681 6684 6687 6690 6693 6696 6699 6702 6705 6707 6710 6713 6716 6719 6722 6725 6728 6731 6734 6737 6740 6742 6745 6748 6751 6754 6757 6759 6762 6765 6768 6771 6774 6777 6780 6783 6786 6789 6792 6795 6798 6801 6803 6806 6809 6812 6815 6818 6821 6824 6827 6830 6833 6836 6839 6842 6845 6847 6850 6852 6855 6858 6861 6864 6866 6869 6872 6875 6878 6881 6884 6887 6890 6893 6896 6899 6902 6904 6907 6909 6912 6915 6918 6921 6923 6926 6929 6932 6935 6938 6941 6944 6946 6949 6952 6955 6958 6961 6964 6967 6969 6972 6975 6978 6980 6983 6985 6988 6991 6994 6997 7000 7003 7006 7009 7012 7014 7017 7020 7023 7026 7029 7032 7035 7038 7041 7044 7047 7050 7053 7056 7059 7062 7065 7068 7071 7074 7077 7080 7083 7086 7089 7092 7095 7098 7101 7104 7107 7110 7113 7116 7119 7122 7125 7128 7131 7134 7137 7140 7143 7145 7148 7151 7153 7156 7159 7162 7165 7168 7171 7174 7177 7180 7183 7185 7188 7191 7194 7197 7200 7202 7205 7208 7210 7213 7216 7219 7222 7225 7228 7230 7233 7236 7239 7242 7244 7247 7250 7252 7255 7257 7260 7263 7266 7269 7272 7275 7278 7281 7284 7287 7290 7292 7295 7297 7300 7303 7306 7309 7311 7314 7317 7320 7323 7326 7329 7332 7335 7338 7341 7344 7347 7350 7353 7356 7359 7362 7365 7368 7371 7374 7376 7379 7382 7385 7388 7390 7393 7396 7399 7402 7405 7408 7411 7413 7416 7419 7422 7425 7428 7430 7433 7436 7439 7441 7444 7447 7450 7452 7455 7458 7460 7463 7466 7469 7471 7474 7477 7479 7482 7485 7488 7491 7494 7497 7500 7503 7506 7509 7512 7515 7518 7521 7524 7527 7530 7533 7536 7539 7542 7545 7548 7551 7554 7557 7560 7563 7566 7569 7572 7574 7577 7580 7583 7586 7589 7592 7595 7598 7601 7604 7607 7609 7612 7615 7618 7621 7624 7627 7630 7633 7636 7639 7642 7645 7648 7651 7654 7656 7658 7661 7664 7667 7669 7672 7675 7678 7681 7683 7686 7689 7691 7694 7697 7700 7703 7706 7709 7712 7715 7718 7721 7724 7727 7730 7732 7734 7737 7740 7743 7746 7749 7752 7755 7758 7761 7764 7767 7769 7772 7775 7777 7780 7783 7786 7789 7792 7795 7798 7801 7804 7807 7810 7813 7816 7819 7822 7825 7828 7831 7834 7836 7839 7842 7845 7847 7850 7853 7856 7859 7862 7864 7867 7870 7873 7876 7879 7882 7885 7888 7891 7894 7897 7900 7903 7906 7909 7912 7915 7918 7921 7924 7926 7929 7932 7934 7937 7940 7943 7946 7949 7952 7955 7958 7961 7964 7967 7970 7973 7976 7979 7982 7985 7988 7991 7993 7996 7999 8002 8005 8008 8011 8014 8017 8020 8023 8026 8029 8032 8035 8038 8041 8044 8047 8050 8053 8056 8059 8062 8065 8068 8071 8074 8077 8080 8083 8086 8089 8091 8094 8097 8100 8103 8106 8109 8111 8114 8117 8120 8123 8126 8128 8131 8134 8137 8140 8142 8145 8148 8151 8154 8157 8160 8163 8166 8169 8172 8175 8178 8181 8184 8187 8190 8193 8196 8199 8202 8205 8208 8210 8213 8216 8219 8222 8225 8228 8231 8233 8236 8239 8241 8244 8247 8249 8252 8255 8258 8261 8264 8267 8269 8272 8275 8278 8281 8284 8287 8290 8293 8296 8299 8301 8304 8306 8309 8312 8315 8318 8321 8324 8327 8330 8332 8335 8338 8340 8343 8346 8349 8351 8354 8357 8360 8362 8365 8368 8371 8373 8375 8378 8381 8383 8386 8389 8391 8394 8397 8399 8402 8405 8408 8411 8414 8417 8420 8423 8426 8428 8431 8434 8437 8439 8442 8445 8448 8450 8453 8456 8459 8461 8464 8466 8469 8472 8474 8477 8480 8483 8486 8489 8492 8495 8498 8500 8503 8506 8508 8511 8514 8517 8520 8523 8526 8529 8532 8535 8538 8541 8544 8547 8549 8552 8554 8557 8560 8563 8565 8567 8570 8572 8575 8578 8581 8584 8586 8589 8591 8594 8597 8600 8603 8606 8609 8612 8615 8618 8620 8623 8626 8629 8632 8635 8638 8641 8644 8647 8650 8653 8656 8659 8662 8665 8668 8671 8674 8677 8680 8683 8686 8689 8692 8695 8698 8701 8704 8706 8709 8712 8715 8718 8721 8724 8726 8729 8732 8735 8738 8741 8744 8746 8749 8752 8755 8758 8761 8764 8766 8769 8772 8775 8777 8780 8783 8786 8788 8791 8794 8796 8799 8802 8805 8808 8811 8814 8816 8819 8822 8825 8827 8829 8832 8835 8838 8841 8844 8847 8850 8853 8856 8859 8862 8865 8868 8871 8874 8877 8880 8882 8885 8888 8891 8894 8897 8900 8903 8905 8908 8911 8914 8917 8920 8922 8925 8928 8931 8934 8937 8939 8942 8945 8947 8950 8953 8956 8959 8961 8964 8967 8970 8973 8976 8979 8981 8984 8986 8989 8991 8993 8996 8998 9001 9004 9007 9009 9012 9015 9018 9021 9024 9026 9029 9032 9035 9037 9040 9043 9046 9049 9051 9053 9055 9058 9061 9064 9067 9069 9071 9074 9076 9079 9082 9085 9088 9091 9094 9096 9099 9101 9104 9107 9109 9112 9115 9118 9120 9123 9126 9128 9131 9134 9137 9140 9143 9146 9149 9152 9155 9158 9161 9164 9166 9169 9172 9175 9178 9180 9183 9186 9189 9192 9194 9197 9200 9203 9206 9209 9212 9215 9218 9221 9223 9225 9227 9230 9233 9236 9238 9240 9243 9246 9248 9251 9253 9256 9259 9262 9265 9268 9271 9274 9276 9279 9282 9285 9288 9291 9294 9297 9300 9303 9306 9309 9312 9315 9318 9321 9324 9326 9329 9332 9335 9338 9341 9344 9347 9350 9353 9355 9358 9361 9363 9366 9368 9371 9373 9376 9379 9381 9384 9387 9390 9392 9394 9397 9400 9402 9405 9408 9411 9413 9416 9419 9422 9425 9427 9430 9433 9436 9439 9442 9445 9448 9451 9454 9457 9460 9462 9464 9467 9470 9473 9476 9479 9482 9485 9488 9491 9494 9497 9500 9503 9506 9509 9512 9515 9518 9521 9524 9527 9530 9533 9536 9539 9542 9545 9548 9551 9554 9557 9560 9562 9565 9568 9571 9574 9577 9580 9583 9586 9589 9592 9595 9598 9601 9604 9607 9610 9613 9616 9619 9621 9624 9627 9630 9633 9636 9639 9641 9643 9646 9649 9651 9653 9656 9659 9662 9664 9667 9670 9673 9676 9679 9682 9685 9688 9691 9694 9697 9700 9703 9706 9709 9712 9715 9718 9721 9724 9727 9730 9733 9735 9738 9740 9743 9745 9748 9751 9754 9757 9760 9763 9765 9768 9770 9772 9775 9778 9780 9783 9786 9789 9792 9795 9798 9800 9802 9805 9808 9810 9812 9815 9818 9820 9822 9825 9828 9831 9834 9837 9840 9843 9846 9848 9851 9854 9857 9860 9863 9865 9868 9871 9873 9876 9879 9882 9884 9887 9890 9893 9896 9899 9902 9905 9908 9911 9914 9917 9920 9923 9926 9929 9932 9935 9938 9941 9944 9947 9950 9953 9956 9959 9962 9965 9968 9971 9974 9977 9980 9983 9986 9988 9991 9994 9996 9999 10001 10003 10006 10009 10012 10015 10018 10021 10024 10027 10030 10032 10035 10038 10041 10044 10047 10049 10052 10055 10058 10061 10064 10067 10070 10072 10075 10078 10081 10084 10087 10090 10093 10096 10098 10101 10104 10107 10110 10113 10115 10118 10121 10124 10127 10130 10133 10136 10139 10142 10145 10148 10151 10154 10157 10160 10163 10166 10169 10172 10175 10178 10181 10184 10187 10190 10193 10196 10199 10202 10205 10207 10209 10212 10215 10218 10221 10224 10227 10230 10232 10235 10238 10241 10243 10246 10248 10251 10254 10257 10260 10263 10266 10269 10272 10275 10278 10281 10284 10287 10290 10293 10296 10299 10302 10305 10308 10311 10313 10316 10319 10322 10325 10328 10331 10333 10336 10339 10342 10345 10348 10351 10354 10356 10359 10362 10364 10367 10370 10373 10376 10379 10382 10384 10387 10390 10393 10395 10398 10401 10403 10405 10408 10411 10414 10417 10420 10423 10426 10429 10432 10435 10438 10441 10444 10447 10450 10453 10456 10459 10462 10465 10468 10471 10474 10477 10480 10483 10486 10489 10491 10494 10497 10500 10503 10506 10509 10512 10515 10518 10521 10524 10527 10530 10533 10536 10539 10542 10545 10548 10550 10553 10556 10559 10561 10563 10566 10569 10572 10575 10578 10580 10583 10586 10589 10591 10594 10597 10600 10603 10606 10608 10611 10614 10617 10620 10623 10626 10629 10632 10635 10638 10641 10644 10647 10650 10653 10656 10659 10662 10665 10668 10671 10673 10676 10679 10682 10685 10688 10691 10693 10696 10699 10702 10705 10708 10711 10714 10717 10720 10723 10726 10729 10731 10734 10737 10740 10743 10745 10748 10750 10753 10756 10759 10762 10765 10768 10771 10774 10777 10780 10783 10786 10789 10791 10794 10797 10800 10803 10806 10808 10811 10814 10817 10820 10823 10826 10828 10831 10834 10837 10840 10843 10846 10849 10852 10855 10858 10861 10864 10866 10869 10872 10874 10877 10880 10882 10885 10888 10890 10893 10896 10899 10902 10905 10908 10911 10914 10917 10920 10922 10925 10928 10931 10934 10937 10940 10943 10946 10948 10951 10954 10957 10959 10962 10965 10968 10970 10973 10976 10978 10981 10984 10987 10989 10992 10995 10998 11001 11004 11006 11009 11011 11014 11017 11020 11023 11025 11027 11030 11033 11036 11038 11041 11044 11047 11050 11052 11055 11058 11061 11064 11067 11070 11073 11076 11079 11082 11085 11088 11091 11094 11097 11099 11102 11105 11107 11109 11112 11115 11118 11121 11123 11126 11129 11132 11135 11138 11141 11143 11146 11149 11152 11155 11158 11161 11163 11166 11169 11172 11175 11178 11181 11184 11187 11189 11192 11195 11198 11201 11204 11207 11210 11213 11216 11219 11221 11224 11227 11229 11232 11235 11237 11240 11243 11246 11249 11252 11254 11256 11259 11262 11264 11266 11269 11271 11274 11276 11279 11281 11283 11286 11289 11291 11294 11296 11299 11301 11304 11306 11309 11311 11314 11317 11319 11322 11324 11327 11329 11332 11335 11338 11341 11344 11347 11349 11352 11355 11358 11360 11363 11366 11369 11372 11375 11378 11381 11384 11387 11389 11392 11395 11397 11400 11402 11405 11407 11410 11413 11416 11418 11420 11423 11426 11429 11432 11435 11438 11441 11444 11447 11450 11453 11455 11458 11461 11464 11467 11470 11472 11475 11478 11481 11484 11487 11490 11493 11496 11499 11502 11505 11508 11511 11514 11517 11520 11523 11525 11528 11531 11534 11537 11540 11543 11545 11548 11551 11554 11556 11559 11562 11564 11567 11570 11573 11575 11578 11580 11582 11585 11588 11591 11594 11597 11600 11603 11606 11609 11611 11614 11617 11620 11623 11626 11629 11632 11634 11637 11639 11642 11644 11647 11650 11653 11656 11659 11662 11665 11668 11671 11674 11677 11680 11683 11686 11689 11692 11695 11698 11701 11704 11707 11710 11713 11716 11719 11722 11725 11728 11731 11734 11737 11740 11743 11746 11749 11752 11755 11757 11760 11763 11765 11767 11770 11773 11776 11779 11781 11784 11787 11790 11793 11796 11798 11801 11804 11806 11808 11811 11814 11817 11820 11823 11826 11828 11831 11833 11836 11839 11841 11843 11846 11848 11851 11854 11857 11859 11862 11865 11868 11871 11873 11876 11879 11882 11884 11887 11890 11892 11894 11897 11900 11903 11905 11908 11911 11914 11917 11919 11922 11925 11927 11930 11933 11936 11938 11941 11944 11946 11949 11952 11955 11957 11960 11962 11965 11968 11970 11973 11976 11978 11980 11983 11986 11988 11991 11993 11995 11998 12001 12004 12007 12009 12012 12015 12018 12021 12023 12026 12029 12032 12035 12038 12041 12044 12047 12050 12053 12056 12059 12061 12064 12067 12070 12073 12075 12078 12080 12083 12086 12089 12092 12095 12097 12099 12101 12104 12107 12110 12113 12116 12119 12122 12125 12127 12130 12133 12136 12139 12142 12145 12147 12150 12153 12156 12159 12161 12164 12167 12170 12173 12176 12179 12182 12185 12188 12191 12194 12197 12200 12203 12206 12209 12212 12215 12217 12220 12222 12225 12228 12230 12232 12235 12237 12240 12243 12245 12248 12250 12253 12255 12258 12260 12263 12266 12269 12272 12274 12277 12280 12283 12285 12288 12291 12294 12297 12300 12303 12306 12309 12312 12315 12318 12321 12324 12327 12330 12333 12336 12339 12342 12345 12348 12351 12354 12357 12360 12362 12365 12368 12371 12374 12377 12379 12382 12385 12388 12391 12394 12397 12400 12403 12406 12409 12412 12414 12417 12420 12423 12426 12429 12431 12434 12437 12439 12441 12444 12447 12450 12452 12455 12458 12460 12462 12465 12467 12470 12473 12476 12479 12482 12485 12488 12491 12494 12497 12500 12503 12506 12509 12512 12515 12517 12520 12523 12526 12529 12531 12534 12537 12540 12543 12546 12549 12552 12555 12557 12559 12562 12565 12567 12570 12573 12576 12579 12582 12585 12588 12591 12594 12596 12598 12601 12604 12606 12609 12612 12615 12617 12620 12623 12626 12629 12632 12635 12638 12641 12644 12647 12650 12653 12656 12659 12662 12665 12668 12671 12674 12677 12680 12683 12686 12689 12692 12695 12697 12700 12703 12706 12709 12712 12715 12718 12721 12724 12727 12730 12733 12736 12739 12742 12745 12748 12751 12754 12757 12759 12762 12765 12768 12770 12772 12775 12778 12781 12783 12786 12789 12791 12794 12797 12800 12803 12806 12808 12811 12813 12816 12819 12822 12825 12828 12831 12834 12837 12839 12842 12845 12848 12850 12853 12856 12858 12861 12863 12866 12869 12872 12874 12877 12880 12883 12885 12888 12891 12894 12897 12900 12903 12906 12909 12912 12915 12918 12921 12924 12927 12930 12933 12936 12938 12941 12944 12947 12950 12953 12956 12959 12962 12965 12967 12970 12973 12976 12979 12982 12985 12988 12991 12993 12996 12999 13002 13005 13008 13011 13014 13017 13020 13023 13026 13029 13032 13034 13037 13040 13043 13045 13048 13051 13054 13057 13060 13063 13066 13069 13072 13075 13078 13081 13084 13087 13090 13093 13096 13099 13102 13104 13107 13110 13113 13115 13118 13120 13123 13126 13129 13131 13134 13137 13140 13142 13144 13147 13150 13153 13156 13159 13162 13165 13168 13171 13174 13177 13180 13183 13186 13189 13192 13195 13198 13201 13204 13207 13210 13212 13215 13218 13221 13224 13226 13229 13232 13235 13238 13240 13243 13246 13249 13252 13255 13258 13261 13263 13266 13269 13272 13275 13277 13280 13283 13286 13289 13292 13295 13297 13300 13303 13306 13309 13312 13315 13317 13320 13323 13326 13328 13331 13334 13337 13340 13343 13346 13349 13352 13355 13357 13360 13363 13366 13369 13372 13375 13377 13380 13383 13386 13389 13392 13395 13398 13401 13404 13407 13410 13412 13415 13418 13420 13423 13426 13429 13432 13435 13437 13440 13443 13445 13448 13451 13454 13457 13460 13463 13466 13468 13470 13473 13476 13479 13482 13484 13487 13490 13493 13496 13499 13502 13504 13507 13510 13513 13516 13519 13522 13525 13528 13531 13534 13536 13539 13542 13545 13548 13551 13554 13557 13560 13563 13566 13569 13572 13574 13577 13579 13582 13585 13588 13590 13593 13596 13598 13601 13604 13607 13610 13612 13615 13618 13621 13624 13627 13629 13632 13635 13638 13641 13644 13647 13650 13653 13655 13658 13661 13664 13667 13669 13672 13675 13678 13681 13684 13687 13690 13692 13695 13698 13701 13704 13707 13710 13713 13716 13719 13722 13724 13727 13730 13733 13735 13738 13740 13743 13746 13749 13752 13755 13758 13760 13763 13765 13768 13770 13773 13776 13779 13782 13784 13787 13790 13793 13796 13799 13802 13805 13808 13811 13814 13817 13820 13823 13826 13828 13831 13833 13836 13839 13842 13845 13848 13851 13854 13856 13859 13862 13865 13868 13871 13874 13877 13880 13883 13886 13889 13892 13895 13897 13900 13903 13906 13909 13911 13914 13917 13920 13923 13926 13929 13932 13935 13938 13941 13944 13947 13950 13953 13956 13959 13962 13965 13968 13971 13974 13977 13980 13983 13985 13988 13991 13994 13997 13999 14002 14005 14008 14010 14013 14016 14018 14021 14024 14026 14029 14032 14035 14038 14041 14044 14047 14050 14053 14056 14059 14062 14065 14068 14071 14073 14076 14079 14081 14084 14087 14090 14093 14096 14099 14102 14104 14107 14110 14113 14116 14119 14121 14124 14127 14130 14132 14135 14138 14141 14143 14146 14149 14152 14155 14158 14161 14164 14166 14169 14172 14175 14177 14180 14182 14184 14187 14190 14193 14196 14199 14201 14204 14207 14210 14213 14216 14219 14222 14225 14228 14231 14233 14236 14239 14242 14245 14248 14251 14254 14257 14260 14263 14266 14269 14272 14275 14278 14281 14284 14287 14290 14293 14296 14299 14302 14305 14308 14311 14314 14317 14320 14323 14326 14329 14332 14335 14338 14341 14344 14346 14349 14352 14355 14358 14361 14364 14367 14370 14373 14376 14379 14382 14385 14388 14391 14394 14396 14399 14402 14405 14408 14411 14414 14417 14420 14423 14425 14428 14431 14434 14437 14440 14443 14446 14448 14451 14454 14457 14460 14463 14466 14469 14472 14475 14478 14481 14484 14487 14490 14493 14496 14499 14502 14505 14508 14511 14513 14516 14519 14522 14525 14528 14531 14534 14537 14540 14543 14546 14549 14552 14555 14558 14561 14564 14566 14569 14572 14575 14578 14581 14584 14587 14590 14593 14596 14599 14602 14605 14608 14611 14614 14617 14620 14623 14626 14629 14632 14635 14638 14641 14644 14647 14650 14653 14656 14659 14662 14665 14668 14671 14674 14677 14680 14683 14686 14689 14692 14695 14698 14701 14704 14706 14709 14712 14715 14718 14721 14724 14727 14730 14733 14736 14739 14742 14745 14747 14750 14752 14755 14758 14761 14764 14767 14769 14772 14775 14778 14781 14784 14786 14788 14791 14794 14797 14800 14803 14806 14809 14812 14815 14818 14821 14824 14827 14830 14833 14836 14839 14841 14843 14846 14849 14852 14855 14858 14861 14863 14866 14868 14871 14874 14877 14880 14883 14886 14889 14892 14895 14897 14900 14903 14906 14909 14912 14915 14918 14921 14924 14927 14930 14933 14936 14939 14942 14945 14948 14951 14954 14956 14959 14962 14965 14968 14971 14973 14976 14978 14981 14984 14987 14990 14993 14996 14999 15001 15004 15007 15010 15012 15015 15018 15021 15023 15026 15029 15031 15034 15037 15040 15042 15045 15048 15050 15053 15055 15058 15060 15063 15066 15068 15071 15074 15077 15080 15083 15086 15089 15092 15095 15098 15101 15104 15107 15110 15113 15116 15119 15122 15125 15128 15131 15133 15136 15138 15141 15144 15147 15150 15153 15156 15159 15161 15164 15167 15170 15173 15176 15179 15182 15185 15188 15191 15194 15197 15200 15203 15206 15209 15212 15215 15218 15220 15223 15226 15229 15231 15234 15237 15240 15243 15246 15249 15252 15255 15258 15261 15263 15266 15269 15272 15275 15277 15280 15283 15285 15288 15291 15294 15297 15300 15302 15305 15308 15311 15314 15316 15319 15321 15324 15327 15329 15332 15335 15338 15341 15344 15347 15350 15352 15355 15358 15360 15363 15365 15368 15371 15374 15377 15380 15383 15386 15389 15392 15395 15398 15401 15404 15407 15410 15413 15416 15419 15421 15424 15427 15430 15433 15436 15439 15442 15444 15447 15450 15453 15456 15458 15461 15464 15467 15470 15473 15476 15479 15482 15485 15487 15490 15493 15496 15499 15501 15504 15507 15510 15513 15516 15519 15522 15525 15528 15531 15534 15537 15539 15542 15545 15548 15551 15554 15557 15560 15563 15566 15568 15571 15574 15577 15580 15583 15586 15589 15592 15595 15598 15601 15604 15606 15609 15612 15614 15617 15620 15623 15626 15629 15632 15635 15638 15641 15643 15645 15647 15650 15653 15656 15658 15661 15664 15667 15670 15673 15676 15678 15681 15684 15687 15689 15691 15694 15697 15700 15703 15706 15709 15712 15715 15718 15721 15724 15727 15729 15732 15735 15738 15740 15742 15745 15748 15751 15754 15757 15759 15762 15765 15768 15771 15773 15776 15779 15782 15785 15787 15790 15793 15796 15799 15802 15804 15806 15808 15811 15814 15817 15819 15821 15824 15827 15830 15833 15836 15839 15842 15845 15848 15850 15852 15855 15858 15861 15863 15865 15868 15871 15874 15877 15880 15883 15886 15889 15892 15895 15898 15901 15904 15907 15910 15913 15916 15918 15921 15923 15926 15929 15932 15935 15937 15940 15943 15946 15949 15952 15955 15958 15960 15963 15966 15969 15972 15975 15978 15981 15983 15986 15989 15991 15994 15996 15998 16001 16004 16007 16009 16011 16014 16017 16020 16022 16024 16027 16030 16033 16036 16039 16042 16045 16048 16051 16054 16056 16059 16062 16065 16068 16071 16074 16077 16079 16082 16085 16088 16091 16093 16096 16099 16102 16105 16108 16111 16113 16116 16119 16122 16125 16127 16130 16132 16135 16138 16141 16144 16147 16150 16153 16156 16159 16162 16165 16168 16171 16174 16176 16179 16182 16185 16188 16191 16194 16197 16199 16202 16205 16208 16211 16213 16216 16219 16222 16224 16227 16230 16233 16236 16239 16242 16245 16248 16251 16254 16257 16260 16263 16266 16269 16272 16275 16278 16281 16284 16287 16290 16292 16295 16297 16300 16303 16305 16308 16311 16314 16316 16319 16322 16324 16327 16330 16333 16336 16339 16342 16345 16348 16351 16354 16357 16360 16363 16366 16369 16372 16375 16378 16381 16384 16386 16388 16390 16393 16396 16399 16402 16405 16408 16411 16414 16417 16420 16423 16426 16429 16431 16434 16437 16440 16442 16445 16448 16450 16453 16456 16459 16462 16464 16467 16470 16472 16474 16477 16480 16483 16486 16488 16491 16494 16496 16499 16501 16504 16507 16510 16513 16516 16519 16522 16525 16528 16531 16534 16537 16539 16542 16545 16548 16551 16554 16557 16560 16562 16565 16567 16570 16573 16576 16579 16581 16584 16587 16590 16593 16596 16599 16602 16605 16608 16611 16614 16617 16620 16623 16626 16629 16632 16635 16638 16641 16644 16647 16650 16652 16655 16658 16661 16663 16666 16668 16671 16674 16677 16679 16682 16685 16688 16691 16694 16696 16699 16702 16704 16707 16710 16713 16716 16719 16722 16725 16728 16730 16733 16736 16739 16742 16745 16747 16750 16753 16756 16759 16762 16765 16768 16771 16774 16777 16780 16783 16786 16789 16791 16794 16797 16800 16803 16805 16808 16811 16814 16817 16820 16823 16826 16829 16832 16835 16838 16841 16843 16846 16849 16852 16855 16857 16860 16863 16866 16869 16872 16875 16878 16881 16884 16887 16890 16893 16896 16898 16901 16904 16906 16909 16912 16915 16917 16920 16923 16926 16929 16932 16935 16938 16941 16944 16947 16950 16953 16956 16958 16960 16963 16965 16967 16970 16973 16976 16978 16980 16983 16985 16988 16990 16993 16995 16998 17001 17004 17006 17009 17011 17014 17017 17020 17023 17025 17028 17031 17034 17037 17040 17043 17045 17048 17051 17054 17057 17060 17062 17065 17068 17070 17073 17076 17078 17081 17084 17086 17089 17092 17095 17098 17101 17103 17106 17108 17111 17114 17117 17120 17123 17126 17129 17132 17135 17138 17141 17144 17147 17149 17152 17155 17157 17160 17163 17166 17169 17172 17175 17178 17181 17184 17186 17189 17192 17195 17198 17201 17204 17207 17210 17213 17215 17218 17221 17223 17226 17228 17231 17234 17237 17240 17243 17246 17249 17251 17254 17257 17260 17263 17266 17269 17272 17274 17277 17279 17282 17285 17287 17290 17293 17296 17298 17301 17304 17307 17310 17312 17315 17318 17321 17324 17327 17329 17332 17335 17338 17341 17344 17347 17350 17353 17356 17359 17362 17365 17368 17371 17374 17377 17380 17383 17386 17389 17392 17394 17397 17400 17402 17405 17408 17411 17413 17416 17419 17422 17425 17427 17430 17433 17436 17439 17442 17445 17448 17451 17454 17457 17460 17463 17466 17469 17472 17475 17478 17481 17484 17487 17490 17493 17496 17498 17501 17504 17507 17510 17513 17516 17518 17521 17524 17527 17530 17533 17536 17539 17542 17545 17548 17551 17554 17557 17559 17562 17564 17567 17570 17572 17575 17578 17581 17584 17586 17588 17591 17593 17596 17598 17601 17604 17607 17610 17613 17615 17618 17621 17623 17625 17628 17631 17634 17637 17640 17642 17645 17648 17650 17653 17656 17659 17662 17665 17668 17671 17674 17676 17678 17681 17684 17687 17689 17692 17694 17697 17700 17703 17706 17709 17711 17714 17716 17719 17722 17725 17728 17731 17733 17735 17738 17741 17744 17747 17749 17752 17755 17758 17761 17763 17766 17769 17772 17775 17778 17781 17784 17787 17790 17793 17796 17799 17802 17805 17808 17811 17814 17816 17819 17822 17824 17827 17830 17833 17835 17838 17841 17844 17847 17850 17853 17856 17859 17862 17865 17868 17871 17874 17877 17880 17883 17886 17889 17892 17894 17897 17900 17903 17906 17909 17912 17915 17918 17921 17924 17927 17930 17933 17936 17938 17940 17943 17946 17949 17951 17954 17957 17960 17963 17966 17968 17971 17974 17977 17980 17983 17986 17989 17992 17995 17998 18001 18003 18006 18009 18011 18014 18017 18020 18023 18026 18029 18032 18035 18038 18041 18043 18046 18049 18052 18054 18057 18059 18062 18064 18067 18070 18073 18075 18077 18080 18082 18085 18088 18090 18093 18096 18098 18100 18103 18106 18109 18111 18114 18117 18119 18122 18124 18127 18130 18133 18135 18138 18141 18143 18145 18148 18150 18153 18156 18158 18161 18163 18166 18169 18172 18175 18178 18181 18184 18187 18190 18192 18195 18198 18201 18204 18207 18209 18212 18215 18218 18221 18224 18227 18230 18233 18236 18239 18241 18244 18247 18250 18253 18255 18257 18260 18263 18265 18268 18270 18273 18276 18279 18282 18285 18287 18290 18293 18295 18298 18300 18303 18306 18309 18312 18315 18318 18321 18323 18326 18329 18332 18335 18338 18341 18344 18347 18350 18352 18355 18357 18360 18362 18365 18367 18370 18373 18376 18379 18381 18384 18387 18390 18393 18396 18398 18400 18403 18406 18409 18412 18415 18418 18420 18423 18426 18429 18432 18435 18437 18440 18443 18446 18449 18451 18454 18457 18459 18462 18464 18467 18470 18473 18475 18478 18480 18483 18486 18488 18490 18492 18495 18498 18501 18504 18507 18510 18512 18514 18516 18519 18522 18525 18528 18530 18533 18535 18538 18540 18543 18546 18549 18552 18555 18558 18560 18563 18566 18569 18572 18575 18578 18581 18584 18587 18590 18593 18596 18599 18602 18605 18608 18611 18614 18617 18620 18623 18626 18629 18632 18635 18638 18641 18644 18647 18650 18653 18656 18659 18662 18665 18668 18671 18674 18677 18680 18683 18686 18689 18692 18695 18698 18701 18704 18707 18709 18712 18715 18718 18720 18722 18725 18728 18731 18734 18737 18740 18743 18746 18749 18752 18755 18758 18761 18764 18767 18770 18773 18776 18779 18781 18784 18787 18790 18793 18796 18799 18802 18804 18807 18810 18812 18815 18818 18820 18823 18826 18828 18831 18833 18836 18839 18841 18844 18847 18850 18852 18855 18857 18860 18862 18864 18867 18870 18873 18875 18877 18880 18883 18885 18888 18891 18893 18896 18899 18902 18905 18908 18911 18914 18917 18920 18923 18926 18929 18931 18934 18937 18940 18943 18945 18948 18951 18954 18957 18959 18962 18965 18968 18971 18974 18977 18980 18983 18986 18988 18991 18993 18996 18999 19002 19005 19007 19010 19013 19016 19018 19021 19024 19027 19030 19033 19036 19038 19041 19044 19046 19049 19052 19055 19057 19060 19063 19066 19069 19072 19075 19078 19080 19083 19086 19089 19092 19095 19097 19100 19103 19106 19109 19112 19115 19118 19121 19124 19127 19130 19133 19136 19139 19142 19144 19147 19150 19153 19156 19159 19161 19164 19167 19169 19172 19174 19177 19180 19183 19186 19188 19190 19193 19196 19198 19201 19204 19207 19210 19213 19216 19219 19222 19225 19228 19231 19233 19236 19238 19241 19244 19247 19250 19253 19255 19258 19261 19264 19266 19269 19272 19275 19277 19280 19283 19286 19289 19292 19295 19298 19301 19304 19307 19310 19313 19316 19318 19321 19324 19327 19330 19333 19336 19339 19341 19344 19346 19349 19352 19355 19358 19361 19364 19367 19369 19371 19374 19377 19380 19383 19386 19389 19392 19395 19398 19400 19403 19406 19409 19412 19415 19418 19420 19422 19424 19427 19429 19432 19435 19438 19441 19444 19447 19449 19452 19454 19457 19459 19462 19464 19467 19470 19473 19476 19479 19482 19484 19487 19490 19492 19495 19498 19501 19504 19506 19509 19512 19515 19518 19521 19524 19527 19530 19533 19536 19539 19542 19545 19548 19551 19554 19557 19560 19563 19566 19569 19571 19574 19576 19579 19582 19585 19588 19591 19594 19597 19600 19603 19606 19609 19612 19615 19618 19621 19624 19627 19630 19633 19636 19639 19642 19645 19648 19651 19654 19657 19660 19663 19666 19669 19672 19675 19678 19681 19684 19687 19690 19693 19696 19699 19702 19705 19708 19711 19714 19717 19720 19723 19726 19729 19732 19735 19738 19741 19744 19747 19750 19752 19755 19758 19761 19764 19767 19770 19773 19776 19779 19782 19785 19788 19791 19794 19797 19800 19803 19806 19809 19812 19815 19818 19821 19823 19826 19829 19832 19834 19837 19839 19842 19845 19848 19851 19854 19857 19860 19863 19866 19869 19872 19875 19878 19881 19884 19887 19890 19893 19896 19899 19902 19905 19908 19911 19914 19917 19920 19923 19926 19929 19932 19935 19938 19941 19944 19947 19950 19953 19956 19958 19961 19963 19966 19969 19972 19975 19978 19981 19984 19987 19990 19993 19996 19999 20002 20005 20008 20011 20014 20017 20020 20023 20026 20029 20032 20035 20038 20040 20043 20046 20049 20052 20055 20058 20061 20064 20067 20070 20073 20076 20079 20082 20085 20088 20091 20094 20097 20100 20103 20106 20109 20112 20115 20118 20121 20124 20127 20130 20133 20136 20139 20142 20145 20148 20151 20154 20157 20160 20163 20166 20169 20172 20175 20178 20181 20184 20187 20190 20193 20196 20199 20202 20205 20208 20211 20214 20217 20220 20223 20226 20229 20232 20235 20238 20241 20244 20247 20249 20252 20255 20258 20261 20264 20267 20270 20272 20275 20278 20280 20283 20286 20289 20292 20295 20298 20301 20304 20307 20310 20313 20316 20319 20322 20325 20328 20331 20334 20337 20340 20342 20345 20348 20351 20354 20357 20360 20363 20366 20369 20372 20375 20378 20381 20384 20387 20390 20393 20396 20399 20402 20405 20408 20411 20414 20417 20420 20423 20426 20429 20432 20435 20438 20440 20443 20446 20449 20452 20454 20457 20459 20462 20465 20468 20471 20474 20477 20479 20482 20485 20487 20490 20493 20495 20497 20500 20502 20505 20508 20511 20513 20516 20519 20522 20525 20528 20531 20534 20537 20540 20543 20546 20549 20552 20555 20558 20560 20563 20566 20569 20572 20575 20578 20581 20584 20586 20589 20592 20595 20598 20601 20604 20607 20610 20613 20616 20619 20622 20625 20628 20631 20634 20637 20640 20643 20646 20649 20652 20655 20658 20661 20664 20667 20670 20673 20676 20679 20682 20685 20688 20691 20694 20696 20699 20702 20705 20708 20711 20714 20717 20719 20722 20725 20727 20730 20732 20735 20738 20741 20744 20747 20750 20753 20756 20759 20762 20765 20767 20769 20772 20775 20777 20780 20783 20785 20787 20790 20793 20796 20799 20801 20804 20806 20809 20812 20814 20817 20819 20821 20824 20826 20829 20831 20834 20837 20840 20843 20846 20849 20852 20854 20857 20859 20862 20865 20868 20871 20874 20876 20879 20882 20885 20887 20890 20893 20895 20898 20900 20903 20905 20907 20910 20913 20915 20918 20921 20924 20927 20930 20933 20935 20938 20941 20944 20947 20950 20953 20956 20959 20961 20963 20966 20969 20972 20974 20977 20980 20983 20986 20988 20990 20993 20995 20998 21001 21004 21006 21009 21012 21015 21018 21021 21024 21027 21030 21033 21036 21039 21042 21045 21048 21051 21054 21056 21059 21062 21065 21068 21071 21074 21076 21079 21081 21084 21087 21090 21092 21094 21097 21100 21102 21105 21107 21110 21113 21116 21119 21122 21125 21128 21131 21134 21137 21140 21143 21145 21147 21150 21153 21156 21159 21162 21164 21167 21170 21173 21176 21179 21182 21185 21187 21190 21193 21196 21198 21201 21203 21206 21209 21211 21214 21217 21220 21223 21226 21229 21232 21235 21238 21240 21243 21246 21248 21251 21254 21257 21260 21263 21266 21269 21272 21275 21278 21281 21283 21286 21289 21292 21295 21298 21301 21304 21307 21310 21313 21316 21319 21322 21325 21328 21331 21334 21337 21340 21343 21346 21349 21351 21354 21357 21360 21363 21366 21369 21372 21375 21378 21381 21384 21386 21389 21392 21395 21398 21400 21403 21406 21409 21412 21415 21418 21421 21424 21427 21430 21433 21435 21438 21441 21444 21447 21450 21452 21455 21457 21460 21463 21466 21469 21472 21475 21478 21481 21484 21486 21489 21492 21494 21497 21500 21502 21505 21508 21511 21514 21516 21519 21522 21525 21528 21531 21534 21537 21540 21543 21546 21549 21552 21555 21558 21561 21564 21567 21570 21573 21576 21579 21581 21584 21587 21589 21592 21594 21597 21600 21603 21606 21609 21612 21615 21618 21621 21623 21626 21629 21631 21633 21635 21638 21641 21644 21646 21649 21652 21655 21658 21661 21664 21666 21668 21671 21673 21676 21679 21681 21684 21687 21689 21692 21695 21698 21701 21703 21706 21709 21712 21715 21717 21720 21723 21726 21729 21732 21735 21738 21741 21744 21747 21750 21752 21755 21758 21760 21763 21765 21767 21770 21773 21775 21777 21779 21782 21785 21788 21791 21794 21797 21800 21803 21806 21809 21811 21814 21817 21820 21823 21826 21829 21832 21835 21838 21840 21843 21846 21849 21852 21855 21857 21860 21863 21866 21869 21872 21875 21878 21881 21884 21887 21889 21892 21895 21898 21901 21904 21907 21910 21913 21916 21919 21922 21925 21928 21931 21934 21937 21940 21943 21946 21949 21952 21955 21958 21961 21963 21965 21968 21971 21974 21977 21980 21983 21986 21989 21991 21994 21997 22000 22003 22006 22009 22012 22015 22018 22021 22024 22027 22030 22033 22036 22039 22041 22044 22047 22050 22053 22055 22058 22061 22064 22066 22068 22071 22074 22077 22080 22083 22086 22088 22091 22093 22096 22099 22102 22104 22107 22110 22113 22116 22119 22122 22125 22128 22130 22133 22135 22137 22140 22143 22146 22149 22152 22155 22158 22161 22164 22167 22170 22173 22175 22178 22181 22183 22186 22188 22191 22194 22197 22200 22203 22206 22209 22212 22215 22218 22221 22224 22227 22230 22233 22236 22239 22242 22245 22248 22251 22254 22257 22259 22262 22265 22268 22271 22274 22276 22279 22282 22285 22288 22291 22294 22297 22300 22303 22306 22308 22311 22314 22317 22319 22322 22325 22328 22331 22334 22337 22340 22343 22346 22349 22352 22354 22356 22359 22362 22365 22368 22371 22373 22376 22379 22382 22384 22387 22390 22393 22396 22399 22402 22405 22408 22411 22414 22416 22419 22422 22425 22428 22431 22434 22437 22439 22441 22444 22446 22449 22452 22455 22458 22460 22463 22466 22469 22472 22475 22477 22480 22483 22486 22489 22492 22495 22498 22501 22504 22507 22509 22512 22515 22518 22521 22524 22527 22530 22533 22536 22539 22541 22544 22547 22550 22553 22556 22559 22562 22564 22567 22570 22573 22576 22579 22582 22585 22588 22591 22594 22597 22600 22603 22606 22609 22612 22615 22618 22621 22624 22626 22629 22632 22635 22637 22640 22643 22646 22649 22652 22655 22658 22661 22664 22667 22670 22673 22676 22678 22681 22683 22685 22688 22690 22692 22695 22698 22701 22704 22707 22709 22712 22715 22718 22721 22724 22727 22730 22732 22735 22738 22740 22743 22746 22748 22751 22754 22756 22759 22762 22764 22766 22768 22770 22773 22776 22778 22780 22783 22786 22788 22791 22794 22796 22799 22802 22805 22808 22810 22812 22814 22816 22819 22822 22825 22827 22830 22832 22835 22837 22840 22842 22844 22847 22850 22853 22856 22859 22862 22865 22867 22870 22873 22875 22878 22880 22883 22886 22888 22890 22893 22896 22899 22902 22905 22908 22911 22914 22917 22920 22923 22926 22929 22932 22935 22938 22941 22943 22946 22949 22952 22955 22958 22961 22964 22967 22970 22973 22976 22979 22982 22985 22988 22991 22994 22996 22999 23002 23005 23008 23011 23014 23017 23020 23023 23026 23029 23032 23035 23038 23040 23042 23045 23048 23051 23054 23056 23059 23061 23064 23067 23070 23072 23074 23077 23079 23082 23085 23088 23091 23094 23097 23100 23103 23106 23109 23112 23115 23118 23121 23124 23127 23130 23133 23136 23138 23141 23143 23146 23149 23152 23155 23157 23160 23163 23166 23169 23172 23175 23178 23181 23184 23187 23190 23193 23196 23199 23202 23205 23208 23211 23214 23217 23219 23222 23225 23228 23231 23234 23237 23240 23243 23246 23249 23252 23255 23258 23261 23263 23266 23269 23272 23275 23278 23281 23284 23287 23290 23293 23296 23299 23302 23305 23308 23311 23314 23317 23320 23323 23326 23329 23332 23335 23338 23341 23344 23347 23350 23353 23356 23359 23362 23365 23368 23371 23374 23377 23380 23383 23386 23389 23392 23395 23398 23401 23404 23407 23410 23413 23416 23419 23422 23425 23428 23431 23434 23437 23440 23443 23446 23449 23451 23454 23457 23460 23462 23465 23468 23470 23473 23476 23479 23482 23485 23488 23491 23494 23497 23500 23503 23505 23508 23511 23514 23517 23519 23522 23525 23528 23531 23534 23537 23540 23543 23546 23549 23552 23555 23558 23561 23564 23567 23570 23573 23576 23579 23582 23585 23588 23591 23594 23597 23600 23603 23606 23608 23611 23614 23617 23620 23622 23625 23628 23631 23634 23637 23640 23643 23646 23649 23652 23654 23657 23660 23662 23665 23668 23671 23674 23677 23680 23683 23686 23689 23692 23695 23698 23700 23703 23706 23709 23712 23715 23718 23721 23724 23726 23729 23732 23735 23738 23741 23744 23747 23750 23753 23756 23758 23761 23763 23766 23769 23772 23774 23777 23780 23783 23785 23788 23790 23793 23795 23797 23800 23803 23806 23809 23812 23814 23817 23820 23823 23826 23829 23832 23835 23838 23841 23844 23847 23850 23853 23856 23859 23862 23865 23868 23871 23874 23877 23880 23883 23885 23888 23891 23893 23896 23899 23902 23904 23907 23909 23912 23915 23918 23921 23924 23927 23930 23933 23936 23939 23942 23945 23947 23950 23953 23956 23959 23962 23965 23968 23971 23974 23977 23980 23983 23986 23989 23992 23995 23998 24001 24004 24006 24009 24012 24015 24018 24021 24024 24027 24030 24033 24036 24039 24042 24045 24048 24051 24054 24057 24060 24063 24066 24069 24072 24075 24078 24081 24084 24087 24089 24092 24095 24098 24101 24104 24107 24110 24113 24116 24119 24122 24125 24128 24131 24134 24137 24140 24143 24145 24148 24151 24154 24156 24159 24162 24165 24167 24169 24172 24175 24178 24181 24184 24186 24189 24192 24195 24198 24201 24204 24207 24209 24211 24214 24217 24220 24222 24225 24227 24230 24233 24236 24239 24242 24245 24247 24249 24252 24255 24257 24259 24262 24265 24268 24271 24274 24277 24280 24283 24286 24289 24291 24294 24297 24300 24303 24306 24309 24311 24314 24317 24320 24323 24326 24329 24332 24335 24338 24341 24344 24347 24350 24353 24356 24359 24362 24364 24367 24370 24373 24376 24378 24381 24384 24386 24389 24392 24395 24398 24401 24404 24407 24410 24413 24416 24419 24421 24424 24426 24429 24431 24434 24437 24440 24443 24446 24449 24452 24455 24458 24461 24464 24467 24470 24473 24476 24479 24482 24485 24488 24490 24493 24496 24498 24501 24504 24507 24509 24512 24515 24517 24520 24523 24526 24529 24531 24534 24537 24540 24543 24546 24549 24552 24554 24557 24560 24563 24566 24569 24572 24575 24578 24581 24584 24587 24590 24593 24596 24599 24602 24605 24608 24611 24614 24617 24620 24623 24626 24629 24632 24635 24638 24641 24643 24646 24649 24652 24655 24658 24661 24664 24667 24670 24673 24676 24679 24682 24685 24688 24691 24694 24697 24700 24703 24706 24709 24712 24715 24718 24721 24724 24727 24730 24733 24736 24739 24742 24745 24748 24751 24754 24756 24758 24760 24763 24766 24768 24771 24774 24777 24779 24782 24784 24787 24790 24793 24796 24799 24801 24804 24807 24810 24813 24816 24819 24822 24824 24827 24830 24833 24836 24839 24842 24845 24848 24851 24854 24857 24860 24863 24866 24868 24871 24874 24877 24879 24882 24884 24887 24890 24893 24896 24899 24902 24905 24908 24910 24913 24916 24919 24922 24925 24928 24931 24933 24936 24938 24941 24943 24946 24949 24952 24955 24958 24961 24964 24967 24969 24972 24975 24977 24979 24981 24984 24986 24989 24991 24994 24997 25000 25003 25006 25009 25012 25015 25018 25021 25024 25027 25030 25033 25036 25039 25042 25045 25048 25051 25054 25056 25059 25062 25064 25066 25069 25072 25075 25077 25080 25083 25086 25089 25092 25095 25098 25100 25103 25105 25108 25111 25114 25117 25119 25122 25125 25127 25130 25133 25136 25139 25142 25145 25148 25150 25153 25156 25158 25161 25164 25167 25169 25172 25175 25178 25181 25184 25187 25190 25193 25196 25198 25201 25204 25207 25210 25213 25216 25218 25221 25224 25226 25229 25232 25235 25238 25240 25243 25246 25249 25252 25255 25258 25260 25262 25264 25267 25270 25273 25275 25278 25280 25283 25285 25288 25291 25294 25297 25300 25303 25305 25308 25311 25314 25316 25319 25322 25325 25327 25330 25333 25336 25339 25342 25345 25348 25351 25354 25357 25360 25363 25365 25368 25371 25374 25376 25379 25382 25385 25388 25391 25393 25395 25398 25401 25403 25406 25408 25410 25412 25415 25418 25421 25423 25426 25429 25432 25435 25438 25440 25443 25446 25449 25452 25455 25458 25461 25464 25467 25470 25473 25476 25478 25481 25484 25487 25490 25493 25496 25498 25501 25504 25506 25509 25512 25514 25517 25520 25523 25526 25529 25531 25534 25537 25539 25542 25544 25547 25549 25552 25555 25558 25561 25564 25567 25569 25572 25575 25578 25581 25583 25586 25589 25592 25595 25598 25601 25604 25607 25610 25613 25615 25618 25621 25624 25627 25630 25632 25635 25638 25641 25644 25647 25650 25653 25656 25659 25662 25665 25668 25671 25674 25677 25679 25682 25685 25688 25691 25694 25696 25699 25701 25704 25707 25710 25713 25716 25718 25721 25724 25727 25730 25733 25735 25738 25741 25744 25747 25750 25752 25755 25758 25761 25764 25767 25770 25773 25776 25779 25782 25784 25787 25789 25792 25794 25797 25800 25802 25805 25808 25811 25814 25817 25820 25823 25826 25828 25831 25833 25836 25839 25842 25845 25848 25851 25854 25857 25860 25863 25865 25868 25871 25874 25877 25880 25883 25886 25889 25892 25895 25897 25900 25903 25906 25908 25911 25913 25915 25918 25921 25924 25926 25929 25932 25935 25937 25939 25942 25945 25948 25951 25954 25957 25960 25963 25966 25969 25971 25973 25976 25979 25982 25985 25988 25990 25993 25996 25999 26002 26005 26008 26011 26014 26017 26020 26022 26025 26027 26029 26031 26034 26037 26040 26043 26046 26049 26052 26055 26057 26060 26063 26066 26069 26072 26075 26078 26081 26084 26087 26090 26093 26096 26099 26102 26105 26108 26111 26114 26117 26120 26123 26126 26129 26132 26135 26138 26141 26144 26146 26149 26152 26155 26158 26160 26163 26166 26169 26172 26175 26178 26181 26184 26186 26189 26192 26195 26198 26201 26204 26207 26210 26212 26215 26218 26221 26224 26227 26230 26233 26236 26239 26242 26245 26248 26251 26254 26257 26260 26263 26266 26269 26272 26275 26278 26281 26284 26287 26290 26292 26295 26298 26301 26304 26307 26310 26312 26315 26317 26320 26323 26325 26328 26331 26334 26336 26339 26341 26344 26347 26350 26352 26355 26358 26361 26363 26366 26369 26372 26375 26378 26381 26383 26386 26389 26392 26395 26398 26401 26404 26407 26410 26413 26416 26419 26422 26425 26428 26431 26434 26437 26440 26443 26446 26449 26452 26455 26458 26461 26464 26466 26469 26471 26474 26477 26480 26483 26485 26488 26491 26494 26497 26500 26503 26506 26509 26512 26515 26518 26521 26524 26526 26529 26532 26534 26537 26540 26542 26545 26548 26551 26554 26557 26559 26562 26565 26568 26571 26574 26577 26580 26583 26585 26588 26590 26593 26596 26599 26602 26605 26607 26609 26612 26615 26617 26620 26623 26626 26628 26631 26634 26637 26640 26643 26646 26649 26651 26654 26657 26660 26663 26666 26669 26672 26675 26678 26681 26684 26687 26690 26693 26696 26699 26701 26704 26707 26710 26713 26716 26718 26721 26723 26726 26729 26732 26735 26738 26741 26744 26747 26750 26753 26756 26759 26761 26764 26766 26769 26772 26775 26778 26781 26784 26786 26788 26791 26794 26797 26800 26803 26806 26809 26812 26815 26818 26821 26824 26827 26830 26833 26836 26839 26842 26845 26848 26851 26853 26856 26859 26861 26864 26867 26870 26873 26876 26878 26881 26884 26887 26890 26893 26896 26898 26901 26904 26907 26910 26913 26916 26919 26922 26925 26928 26931 26934 26937 26940 26943 26946 26948 26951 26954 26956 26959 26962 26965 26968 26970 26973 26976 26979 26982 26985 26988 26991 26994 26997 27000 27003 27005 27008 27011 27014 27017 27020 27023 27026 27029 27032 27035 27038 27041 27044 27047 27050 27053 27056 27059 27062 27064 27067 27070 27073 27076 27079 27082 27085 27088 27091 27094 27097 27100 27102 27105 27108 27111 27114 27117 27120 27123 27126 27129 27132 27135 27138 27141 27143 27145 27148 27151 27154 27157 27160 27163 27165 27168 27171 27174 27177 27180 27183 27186 27189 27192 27195 27198 27201 27204 27207 27210 27213 27216 27219 27222 27225 27228 27231 27234 27237 27240 27243 27246 27249 27252 27255 27258 27261 27264 27267 27270 27272 27275 27278 27281 27284 27287 27290 27293 27296 27298 27301 27304 27307 27310 27313 27316 27319 27322 27325 27328 27331 27334 27336 27339 27342 27345 27348 27350 27353 27355 27358 27361 27364 27367 27370 27373 27376 27379 27381 27384 27387 27390 27393 27396 27399 27402 27405 27408 27411 27413 27416 27419 27422 27424 27427 27430 27432 27435 27438 27441 27444 27446 27449 27452 27454 27457 27460 27463 27466 27469 27472 27475 27478 27480 27483 27486 27489 27491 27494 27497 27500 27503 27506 27509 27512 27514 27517 27519 27522 27524 27527 27529 27531 27534 27537 27540 27542 27544 27546 27549 27552 27554 27557 27560 27563 27565 27568 27571 27574 27577 27579 27582 27585 27588 27591 27594 27597 27600 27603 27606 27609 27612 27615 27618 27621 27624 27627 27630 27633 27636 27639 27642 27645 27648 27651 27654 27657 27660 27663 27666 27669 27672 27675 27678 27681 27684 27687 27690 27693 27695 27698 27701 27704 27707 27710 27713 27716 27719 27721 27724 27727 27730 27733 27735 27738 27741 27743 27746 27749 27751 27754 27757 27760 27763 27765 27768 27771 27774 27777 27780 27782 27785 27788 27791 27794 27797 27800 27803 27806 27809 27812 27815 27818 27821 27823 27825 27828 27831 27834 27836 27839 27842 27845 27848 27851 27854 27857 27860 27863 27866 27869 27872 27875 27878 27880 27883 27886 27889 27892 27895 27898 27900 27903 27906 27908 27911 27914 27917 27920 27923 27926 27929 27932 27935 27938 27940 27943 27946 27949 27952 27955 27957 27960 27963 27966 27969 27972 27975 27978 27981 27984 27987 27989 27992 27995 27998 28001 28004 28007 28010 28013 28016 28019 28022 28025 28028 28031 28034 28036 28039 28042 28045 28048 28051 28054 28057 28060 28063 28066 28069 28072 28075 28078 28081 28084 28087 28090 28093 28096 28099 28102 28105 28107 28110 28112 28115 28118 28121 28123 28126 28129 28132 28135 28138 28141 28144 28147 28150 28152 28155 28158 28161 28163 28166 28169 28172 28175 28178 28181 28184 28187 28190 28193 28196 28199 28202 28205 28208 28211 28213 28216 28219 28222 28225 28228 28230 28233 28236 28239 28241 28244 28246 28249 28252 28255 28258 28261 28264 28266 28269 28272 28275 28278 28281 28284 28287 28290 28293 28296 28299 28302 28305 28308 28311 28314 28317 28320 28323 28326 28329 28332 28335 28338 28341 28344 28347 28349 28352 28355 28357 28360 28363 28366 28369 28372 28375 28378 28380 28383 28386 28389 28392 28394 28397 28400 28402 28405 28408 28411 28414 28417 28420 28422 28425 28428 28431 28433 28436 28439 28442 28444 28447 28450 28453 28456 28459 28461 28464 28467 28470 28473 28476 28478 28481 28484 28487 28490 28493 28496 28499 28502 28504 28507 28510 28512 28515 28518 28521 28524 28526 28529 28532 28535 28538 28540 28543 28546 28549 28552 28554 28557 28560 28563 28565 28568 28570 28573 28576 28579 28582 28585 28588 28591 28594 28597 28600 28602 28605 28608 28611 28614 28617 28620 28623 28625 28627 28630 28633 28636 28639 28642 28644 28647 28650 28653 28656 28659 28661 28664 28667 28670 28672 28675 28678 28680 28683 28686 28688 28691 28694 28697 28699 28702 28705 28708 28711 28714 28717 28719 28722 28725 28728 28731 28734 28736 28739 28742 28745 28748 28751 28753 28756 28759 28762 28765 28768 28771 28773 28776 28779 28782 28785 28787 28790 28793 28796 28799 28802 28804 28807 28810 28813 28816 28819 28822 28825 28828 28831 28834 28836 28839 28842 28845 28848 28851 28854 28857 28859 28862 28865 28868 28871 28873 28875 28878 28881 28883 28886 28889 28892 28895 28898 28901 28904 28906 28909 28912 28915 28918 28921 28924 28927 28929 28932 28934 28937 28940 28942 28945 28948 28951 28954 28956 28959 28961 28964 28967 28970 28973 28976 28979 28982 28985 28988 28991 28993 28996 28999 29002 29005 29008 29010 29013 29016 29019 29021 29024 29027 29030 29033 29035 29038 29041 29043 29046 29049 29052 29055 29058 29060 29063 29065 29068 29070 29072 29075 29078 29081 29084 29086 29088 29091 29094 29097 29100 29103 29106 29109 29112 29115 29118 29121 29124 29127 29129 29132 29135 29138 29141 29144 29147 29149 29151 29154 29157 29160 29163 29166 29169 29172 29175 29178 29181 29184 29187 29190 29192 29195 29198 29201 29204 29207 29210 29213 29216 29219 29222 29225 29228 29231 29234 29237 29240 29243 29246 29249 29252 29255 29258 29261 29264 29267 29270 29273 29276 29279 29282 29285 29288 29291 29293 29296 29299 29301 29304 29307 29310 29313 29316 29319 29322 29324 29327 29330 29333 29335 29338 29341 29343 29346 29349 29352 29354 29356 29359 29362 29365 29368 29370 29372 29375 29378 29381 29384 29387 29390 29393 29396 29399 29402 29405 29408 29411 29414 29416 29419 29422 29424 29427 29430 29433 29435 29438 29441 29444 29447 29449 29452 29455 29457 29460 29463 29466 29469 29472 29475 29478 29481 29484 29487 29490 29492 29495 29498 29501 29504 29507 29510 29513 29515 29518 29521 29524 29527 29530 29533 29536 29539 29542 29545 29548 29551 29554 29557 29560 29563 29566 29569 29571 29574 29577 29580 29583 29586 29589 29591 29594 29596 29599 29602 29605 29608 29611 29613 29616 29619 29621 29624 29627 29630 29632 29635 29638 29641 29643 29646 29649 29652 29655 29658 29661 29664 29667 29670 29673 29676 29679 29682 29685 29687 29690 29693 29696 29699 29701 29703 29706 29709 29712 29715 29718 29721 29724 29727 29730 29733 29736 29739 29742 29745 29748 29751 29754 29757 29760 29762 29765 29768 29771 29774 29777 29780 29783 29786 29788 29791 29793 29796 29799 29802 29805 29808 29811 29814 29816 29819 29821 29824 29827 29830 29833 29836 29838 29841 29844 29847 29850 29853 29856 29858 29861 29864 29867 29870 29873 29875 29877 29880 29883 29886 29888 29890 29892 29895 29898 29901 29904 29907 29909 29912 29915 29918 29921 29924 29926 29929 29932 29935 29938 29940 29943 29945 29947 29950 29952 29954 29957 29960 29963 29965 29968 29971 29974 29976 29979 29982 29985 29987 29990 29993 29996 29998 30001 30004 30007 30010 30013 30016 30019 30022 30024 30027 30030 30033 30035 30038 30041 30044 30047 30050 30053 30055 30058 30061 30064 30067 30070 30073 30075 30078 30081 30084 30087 30090 30093 30096 30099 30102 30105 30108 30111 30114 30117 30119 30122 30124 30127 30130 30133 30135 30138 30141 30143 30146 30148 30151 30153 30156 30159 30161 30164 30167 30170 30173 30176 30179 30181 30184 30187 30190 30193 30195 30198 30201 30204 30207 30210 30213 30215 30218 30221 30224 30227 30230 30233 30236 30239 30242 30245 30247 30250 30253 30256 30259 30262 30265 30268 30271 30274 30277 30280 30283 30286 30289 30292 30295 30298 30301 30304 30306 30308 30311 30314 30317 30319 30322 30325 30327 30330 30333 30335 30338 30341 30343 30346 30349 30351 30353 30356 30359 30362 30365 30367 30370 30373 30376 30379 30382 30385 30388 30391 30394 30397 30400 30402 30404 30407 30410 30413 30415 30418 30420 30423 30425 30428 30431 30434 30437 30440 30442 30445 30448 30450 30453 30455 30458 30461 30463 30465 30467 30470 30473 30476 30479 30481 30484 30487 30489 30492 30494 30497 30500 30502 30505 30508 30511 30514 30517 30520 30523 30526 30528 30531 30533 30535 30538 30541 30544 30547 30550 30552 30554 30557 30560 30563 30565 30567 30570 30573 30576 30579 30582 30585 30588 30591 30593 30596 30598 30601 30604 30607 30610 30613 30616 30619 30622 30625 30628 30631 30634 30637 30640 30643 30646 30649 30652 30655 30658 30661 30664 30667 30670 30673 30676 30679 30682 30685 30687 30690 30693 30696 30699 30702 30705 30708 30711 30714 30717 30720 30723 30726 30729 30732 30734 30737 30740 30742 30745 30748 30751 30754 30757 30759 30762 30765 30768 30771 30774 30777 30780 30783 30786 30789 30792 30795 30798 30800 30803 30806 30809 30812 30815 30818 30821 30824 30827 30829 30832 30835 30837 30840 30843 30846 30849 30851 30853 30855 30858 30861 30864 30867 30870 30872 30875 30878 30881 
</DataArray>
<DataArray type="UInt32" Name="types" format="ascii">
5 5 3 5 5 5 5 3 5 5 5 5 5 5 5 5 5 5 5 5 3 5 5 5 5 3 5 5 5 5 5 5 5 3 5 5 5 5 5 5 5 5 3 5 5 5 5 5 5 5 5 5 5 5 3 3 5 5 5 5 5 5 5 5 3 5 5 5 5 5 5 5 5 5 5 5 5 5 5 5 5 5 5 5 5 5 5 3 5 5 5 5 5 5 5 5 5 5 5 3 5 5 5 3 5 5 5 5 5 5 5 5 5 5 5 5 5 5 5 5 5 5 5 5 5 5 5 5 5 5 5 5 5 5 5 5 5 5 5 5 5 5 5 5 5 5 5 5 5 3 5 3 5 5 5 5 5 5 5 5 5 5 5 5 5 5 5 5 5 5 5 5 5 5 5 5 5 5 3 5 5 3 5 3 5 5 5 5 5 5 5 5 5 5 5 5 5 5 3 5 3 5 5 5 5 5 5 5 3 5 3 5 5 5 5 5 5 3 5 5 3 5 5 5 5 5 5 3 3 5 5 3 5 3 5 3 3 5 5 5 3 5 5 5 5 5 5 5 5 5 5 5 5 5 3 5 5 5 5 5 5 5 3 5 5 5 5 5 5 5 3 5 5 5 5 3 5 5 5 5 5 5 3 5 5 5 3 5 5 5 5 5 5 5 3 5 5 5 5 5 5 3 5 5 5 5 5 5 3 5 5 5 5 5 5 5 3 5 5 5 5 5 5 5 5 5 5 5 5 5 5 5 5 5 5 5 5 5 3 3 5 5 5 5 5 3 5 5 5 5 5 5 5 3 5 3 5 5 5 3 5 5 5 3 5 3 5 5 5 5 5 5 5 3 5 5 5 5 5 5 5 3 5 5 5 3 5 5 5 5 5 5 5 5 5 5 5 5 5 5 5 5 5 5 5 5 5 5 5 5 5 5 5 5 5 5 5 5 3 5 5 5 5 5 5 5 5 5 5 5 5 5 5 5 5 5 5 5 5 5 5 5 5 5 5 5 5 5 5 5 5 3 5 5 5 5 5 5 5 5 5 5 5 5 5 5 5 5 5 5 5 5 3 5 5 5 5 5 5 5 3 5 5 5 5 5 3 5 5 3 5 3 5 5 5 5 3 5 5 3 5 5 5 5 5 5 3 5 5 5 5 5 5 5 5 5 5 5 5 5 5 5 5 5 5 5 3 5 5 5 5 5 5 5 5 5 5 5 3 3 5 5 5 5 5 5 5 5 5 5 5 5 5 5 5 5 5 5 5 5 5 3 5 3 3 5 5 3 5 5 5 5 5 5 5 5 5 5 5 5 5 3 5 5 5 5 5 5 5 3 3 5 5 5 5 5 5 5 5 3 3 5 5 5 3 5 5 5 5 5 5 5 5 5 5 5 5 5 5 5 5 5 5 5 5 5 5 5 5 5 5 5 5 5 5 5 5 5 5 5 3 5 5 3 5 5 5 5 3 5 5 5 3 5 5 5 3 5 5 3 5 5 5 5 5 5 5 5 5 5 5 5 5 5 5 5 5 5 5 5 5 3 5 5 5 3 5 5 5 5 5 3 5 5 5 5 5 5 3 5 5 5 5 5 5 5 5 5 5 5 5 5 5 5 5 5 5 3 5 5 5 5 5 5 5 5 5 5 5 5 5 5 5 5 5 5 5 5 5 3 5 5 5 5 5 5 5 5 5 5 5 5 5 5 5 3 5 5 5 5 5 5 5 5 5 5 5 5 5 5 5 5 5 5 3 5 5 5 5 5 5 5 3 5 5 5 5 5 5 5 5 5 5 5 5 5 5 5 5 5 5 5 5 5 3 5 5 5 5 5 5 5 5 5 3 5 5 5 5 5 5 5 5 3 5 5 5 5 5 5 5 5 5 5 5 5 5 5 5 5 5 5 5 3 5 5 5 5 5 3 5 5 5 3 5 5 5 5 5 5 3 5 5 5 5 5 5 5 5 5 5 3 5 5 5 5 5 5 5 5 5 5 5 5 3 5 3 5 5 5 5 5 5 5 3 5 3 5 5 5 5 5 5 5 5 5 5 5 5 5 5 5 5 5 5 5 5 5 5 5 5 5 5 5 5 5 5 5 5 5 5 5 5 5 5 5 5 5 5 5 5 5 3 3 5 5 3 5 5 5 5 5 5 5 5 5 5 5 5 5 5 5 5 3 5 5 5 5 3 5 5 3 5 5 5 5 5 5 3 5 3 5 5 3 5 5 5 5 5 5 5 5 5 5 3 5 5 5 5 5 3 3 5 5 5 5 3 5 5 3 5 3 5 5 5 5 5 3 5 5 3 5 5 5 5 5 5 5 5 5 5 5 5 3 5 5 5 5 5 5 5 5 5 5 5 5 5 5 5 3 5 3 5 3 3 5 3 5 5 3 5 5 5 5 5 5 3 5 3 5 5 3 5 5 5 3 5 5 3 5 5 5 5 5 3 5 5 3 5 5 5 5 5 3 5 3 5 5 3 5 5 3 5 5 5 5 5 5 5 5 3 5 5 5 5 5 5 5 5 5 5 3 5 5 5 5 3 5 5 3 5 5 5 5 5 3 5 5 5 5 5 3 5 3 5 5 5 5 5 5 3 5 5 5 5 5 5 5 5 3 3 3 5 5 5 5 3 5 3 5 5 5 3 3 5 5 5 3 5 5 5 3 5 3 5 3 3 5 3 5 5 5 5 3 5 5 5 3 5 3 5 3 5 5 5 5 5 5 5 3 5 5 5 5 3 5 5 5 5 5 5 5 5 3 5 3 3 5 5 5 3 5 5 5 5 3 3 5 5 3 3 5 5 5 5 5 3 5 5 5 5 5 5 5 5 3 5 3 5 5 5 5 5 5 5 5 5 5 5 5 5 5 5 5 5 3 5 5 5 5 5 5 5 5 5 5 5 5 5 5 5 5 5 5 5 5 5 5 5 5 5 3 5 3 5 5 5 5 5 3 3 5 5 5 5 3 3 5 3 5 5 3 5 5 3 5 5 5 5 3 3 5 5 5 5 5 5 5 5 3 5 5 3 5 5 5 3 5 5 3 5 5 5 5 5 5 3 5 5 5 5 5 5 3 5 5 5 5 5 3 5 5 3 3 5 5 3 5 5 3 5 5 5 5 5 5 5 5 5 5 5 5 3 5 3 5 5 3 5 5 5 5 5 5 3 5 5 5 3 3 3 5 5 5 3 3 5 3 3 5 5 3 5 5 3 5 3 5 3 5 5 5 3 3 5 5 3 3 3 3 5 5 5 3 3 5 5 3 3 3 5 3 3 5 5 3 5 3 3 5 3 5 5 3 5 3 3 5 5 5 5 3 3 5 5 3 5 5 5 3 5 5 5 5 5 5 5 5 5 5 5 5 5 5 5 5 5 5 5 5 5 5 5 5 5 5 5 5 5 5 5 5 5 5 5 5 5 5 5 5 5 5 5 5 5 5 5 5 5 5 5 5 5 5 5 5 5 5 3 5 3 5 5 5 5 5 5 5 5 5 5 5 5 5 5 3 5 5 5 5 5 5 5 5 5 5 3 5 5 5 5 5 5 5 5 5 5 5 5 5 5 5 5 5 5 5 5 5 5 5 5 5 5 5 5 5 5 5 5 5 5 5 5 5 5 5 5 5 5 5 5 5 5 3 5 5 5 3 5 3 5 5 5 5 5 3 5 3 5 5 5 5 5 5 5 5 5 5 5 5 5 5 5 5 5 5 5 5 5 5 5 5 5 3 5 5 5 5 5 5 3 5 3 5 5 5 3 5 5 3 5 5 5 5 5 5 5 5 5 5 5 5 5 5 5 5 5 5 5 5 5 5 5 5 5 5 5 5 5 5 5 5 5 5 5 5 5 3 5 3 5 5 5 5 5 5 5 5 5 5 3 5 5 5 5 5 5 5 5 5 5 5 5 5 5 5 5 5 3 5 5 5 3 3 5 3 5 5 5 5 5 5 5 5 3 5 5 5 5 3 5 5 5 5 5 5 5 3 5 5 3 5 3 5 5 3 5 5 3 3 5 5 5 5 5 5 5 5 5 5 5 5 5 5 5 3 5 3 5 5 5 3 5 3 5 5 5 5 5 5 5 5 5 5 5 5 3 5 3 5 5 5 5 5 5 5 5 3 5 5 3 5 5 5 3 3 5 5 5 5 5 5 5 5 5 5 5 5 5 5 5 5 5 5 5 5 5 3 5 5 5 5 5 3 5 3 5 5 5 5 3 5 5 3 5 5 5 5 5 3 5 5 5 5 3 5 5 5 5 5 5 5 3 5 5 5 3 5 5 5 5 5 5 5 5 5 5 5 3 5 5 5 5 5 5 5 5 3 5 5 5 5 5 5 3 5 5 5 5 5 5 3 5 5 5 5 5 5 5 5 5 5 5 3 5 5 5 3 5 5 5 3 5 3 5 5 5 5 5 5 3 5 5 5 5 5 5 5 5 5 5 5 5 5 5 5 3 5 5 5 5 5 3 5 5 5 5 5 5 5 5 3 5 5 5 5 5 5 5 5 5 5 5 5 5 5 5 5 3 5 5 5 5 3 5 5 5 5 5 5 5 5 5 5 5 5 5 5 5 5 5 5 5 5 5 5 5 5 5 5 3 5 5 5 3 5 3 5 5 5 5 3 5 3 5 5 5 5 5 3 5 5 5 5 5 5 5 5 5 3 5 5 5 5 5 5 5 5 5 5 5 5 5 5 5 5 5 5 5 5 5 5 5 5 3 3 5 5 5 5 5 3 5 5 5 3 5 5 5 3 5 5 3 5 3 5 5 5 5 3 5 5 5 5 3 3 5 5 5 5 5 5 5 5 5 5 5 5 3 5 5 5 5 3 5 5 5 5 5 3 5 5 3 5 5 5 5 5 5 5 5 5 5 5 5 5 5 5 5 3 5 5 3 5 5 5 3 5 5 5 5 5 5 5 5 5 5 5 3 5 5 5 5 5 5 5 5 5 5 5 5 5 5 5 5 3 5 5 3 5 3 5 5 3 5 3 5 3 5 5 5 5 5 5 5 5 5 5 5 5 5 3 5 3 3 5 5 3 3 5 5 3 3 5 5 5 3 5 3 5 5 3 5 5 5 5 3 3 5 3 5 5 3 3 5 5 3 5 5 5 3 5 5 5 3 3 3 5 5 3 5 3 3 5 5 5 5 5 5 5 5 5 5 5 3 3 5 3 5 3 5 3 5 5 5 3 5 5 5 5 5 3 5 5 5 5 5 5 5 5 5 5 5 5 5 5 5 5 5 5 5 5 5 5 5 5 3 5 5 5 5 5 5 5 5 5 5 5 5 5 5 5 5 5 5 3 5 5 5 5 5 5 5 5 5 5 5 3 5 5 5 5 5 3 5 5 5 5 5 5 5 5 5 5 5 5 5 5 3 5 5 5 5 5 5 5 5 5 5 5 5 5 5 3 5 3 5 5 5 5 3 5 5 5 5 5 5 5 5 5 5 5 5 3 5 3 5 5 5 5 3 5 5 5 5 5 5 5 3 5 5 5 5 5 5 5 3 5 5 5 3 5 3 5 5 5 5 5 5 5 5 5 3 5 5 5 5 5 5 5 5 5 5 5 5 5 5 5 5 5 5 5 5 5 5 5 5 5 5 5 5 5 5 5 5 5 5 5 5 5 5 5 5 5 5 5 3 5 5 3 5 5 5 5 5 5 5 5 5 5 3 5 5 5 5 5 3 5 5 3 5 5 5 5 5 5 3 5 5 5 5 3 5 5 3 5 3 5 5 5 5 5 5 5 5 5 5 5 3 5 3 5 5 5 5 3 5 5 5 5 5 5 5 5 5 5 5 5 5 5 5 5 5 5 5 5 5 3 5 5 5 5 3 5 5 5 5 5 5 5 3 5 5 5 5 5 3 5 5 5 3 5 5 5 3 5 5 3 5 5 5 3 5 5 3 5 5 5 5 5 5 5 5 5 5 5 5 5 5 5 5 5 5 5 5 5 5 5 5 5 5 5 5 5 5 5 3 5 5 5 5 5 5 5 5 5 5 5 3 5 5 5 5 5 5 5 5 5 5 5 5 5 5 5 3 3 5 5 5 3 5 5 5 5 3 5 5 3 5 5 5 5 5 5 5 5 5 5 5 5 5 3 3 5 5 5 5 5 5 5 5 5 5 5 3 5 5 3 5 5 5 5 5 5 5 5 5 5 5 5 5 5 5 5 5 5 5 3 5 5 5 3 5 5 5 5 5 3 5 5 5 5 5 5 5 5 5 5 5 5 5 5 5 5 5 5 5 5 3 5 5 3 5 5 5 5 5 5 5 5 5 5 5 5 5 5 5 5 5 5 5 3 5 5 5 5 5 5 5 5 5 5 5 5 5 5 5 5 5 5 5 5 5 5 5 5 5 5 5 5 5 5 5 5 3 5 5 5 5 5 5 3 5 5 5 5 5 3 5 5 5 5 3 5 5 5 5 5 5 5 5 5 5 5 5 5 5 5 5 5 5 5 5 5 5 3 5 5 5 5 5 5 5 3 5 5 3 5 5 3 5 5 5 5 5 5 3 5 5 5 5 5 5 5 5 5 5 3 5 3 5 5 5 5 5 5 5 5 3 5 5 3 5 5 5 3 5 5 5 3 5 5 5 3 3 5 5 3 5 5 3 5 5 3 5 5 5 5 5 5 5 5 5 3 5 5 5 3 5 5 5 3 5 5 5 3 5 3 5 5 3 5 5 5 5 5 5 5 5 3 5 5 3 5 5 5 5 5 5 5 5 5 5 5 5 5 3 5 3 5 5 5 3 3 5 3 5 5 5 5 3 5 3 5 5 5 5 5 5 5 5 5 3 5 5 5 5 5 5 5 5 5 5 5 5 5 5 5 5 5 5 5 5 5 5 5 5 5 5 5 5 3 5 5 5 5 5 5 3 5 5 5 5 5 5 3 5 5 5 5 5 5 3 5 5 5 3 5 5 5 3 5 5 3 5 5 5 5 5 5 3 5 5 5 3 3 5 5 5 5 5 5 5 5 5 5 5 5 5 5 5 5 5 3 5 5 5 5 5 5 5 3 5 5 5 5 5 3 5 5 5 5 5 3 5 5 3 5 5 5 5 3 5 5 5 5 5 5 3 5 3 5 3 3 5 3 5 5 5 3 5 5 5 5 5 3 5 5 5 3 5 5 5 5 3 3 3 5 5 5 5 3 3 5 3 5 5 5 5 5 5 3 5 3 5 5 3 5 5 5 3 5 5 3 5 5 5 5 5 5 5 5 5 5 5 5 3 5 5 5 5 3 5 5 5 5 3 5 5 5 5 5 5 5 5 5 3 3 3 5 5 5 3 3 5 5 3 5 3 5 5 5 5 5 5 5 3 5 5 5 5 5 5 5 5 5 5 5 5 5 5 5 5 3 5 5 5 5 5 5 5 5 5 3 5 5 3 5 3 5 3 5 5 3 5 5 5 3 3 5 5 3 5 5 5 3 5 5 5 5 3 5 5 5 5 5 5 5 5 5 5 5 3 3 5 5 5 5 5 5 5 5 5 5 5 5 5 5 5 5 5 5 5 5 5 5 5 5 5 5 5 5 5 5 5 5 3 5 5 5 5 5 5 5 5 5 5 5 5 5 5 5 5 5 5 5 3 5 5 5 5 5 5 3 3 5 5 3 3 5 5 5 3 5 5 5 5 5 5 5 5 5 5 5 5 5 5 5 5 5 5 5 5 5 5 5 3 5 3 5 3 5 5 5 5 5 5 3 5 3 3 5 5 3 5 5 5 5 5 5 3 3 5 5 3 3 5 5 3 3 5 5 5 5 5 5 5 5 3 5 5 5 5 5 3 5 5 3 5 5 5 3 5 5 5 5 5 5 5 5 5 5 5 5 5 5 5 5 5 5 5 5 5 5 5 5 5 5 5 5 5 5 5 5 5 5 3 5 5 3 5 3 3 5 5 5 5 5 5 5 5 5 3 5 5 5 5 5 3 5 5 5 5 5 5 5 3 5 5 5 5 5 5 5 5 3 5 5 5 5 5 3 5 5 5 5 5 5 5 5 5 5 5 5 5 5 5 5 5 5 5 5 5 5 5 5 5 5 5 5 5 5 3 3 5 5 5 5 5 5 5 3 5 5 5 3 5 3 5 5 5 5 5 5 5 5 5 5 5 5 5 5 5 5 5 5 5 5 5 3 5 5 5 5 5 5 3 5 5 5 5 5 5 5 3 5 5 3 5 5 5 5 5 5 3 5 5 5 3 5 5 3 3 5 5 5 5 5 5 5 5 5 5 5 5 5 5 5 5 5 5 5 5 5 5 5 5 5 5 5 5 3 5 5 5 5 5 5 5 5 5 5 5 5 5 5 5 5 5 5 5 3 5 5 5 3 3 5 5 5 5 5 3 5 5 5 3 5 5 5 5 5 3 5 5 5 5 5 5 5 5 5 5 5 5 5 5 5 5 5 5 5 5 5 3 5 5 5 5 5 5 3 5 5 5 5 5 5 5 5 5 5 5 5 3 5 5 5 5 3 5 3 5 5 5 5 5 5 5 5 5 5 5 5 5 3 5 5 5 5 5 3 5 5 5 5 5 5 3 5 5 5 5 5 5 5 5 5 5 5 5 3 5 5 3 5 5 3 5 5 3 5 5 5 5 5 5 5 5 5 5 3 5 5 5 5 5 5 5 5 3 5 5 5 3 5 5 5 3 5 5 3 5 5 5 3 5 5 5 5 5 3 5 3 5 5 5 5 3 3 5 5 5 3 5 5 5 5 3 5 5 5 5 5 5 5 5 5 5 5 5 5 5 5 3 5 5 3 3 5 5 5 5 3 5 5 5 5 5 5 3 5 5 5 5 5 5 3 5 5 5 5 5 5 5 5 3 5 5 5 5 5 5 5 5 5 5 3 5 5 3 5 5 3 5 5 5 5 5 3 3 5 5 3 3 5 3 5 3 5 3 3 5 5 3 5 3 5 3 5 3 5 3 5 5 3 5 3 5 3 5 5 5 5 5 5 3 5 5 5 3 5 5 5 5 5 5 5 5 5 3 5 5 3 5 3 5 3 5 5 5 3 3 5 5 5 5 5 5 5 5 5 5 5 3 5 5 5 5 5 3 5 5 5 5 5 5 5 5 5 5 5 5 5 5 5 5 5 3 5 5 5 5 5 5 3 5 5 5 3 5 5 3 5 5 5 3 5 3 3 5 5 5 5 5 5 5 5 5 3 5 5 5 5 5 5 5 3 5 3 5 3 5 5 5 5 5 5 5 5 5 5 5 5 5 5 5 5 5 5 5 5 5 5 5 5 5 5 5 5 5 5 5 5 5 5 5 5 5 3 5 5 3 3 5 5 5 5 3 5 5 5 5 5 3 5 5 3 3 5 5 5 5 5 5 3 5 3 5 5 3 3 5 3 5 5 5 3 5 5 5 5 3 5 5 5 3 5 5 3 3 5 5 5 3 5 5 5 5 3 5 5 3 5 5 5 3 5 5 3 5 5 5 3 5 3 5 5 3 5 5 3 3 5 5 3 5 3 3 5 5 5 5 3 5 5 5 5 3 5 5 5 5 5 5 5 5 5 5 5 5 3 5 5 5 5 3 5 3 5 5 5 5 5 3 3 3 5 5 5 5 5 5 5 5 3 5 5 5 5 5 5 3 5 5 5 5 3 5 5 5 5 5 5 5 5 5 5 5 5 5 5 5 5 5 5 3 5 3 5 5 3 3 5 3 5 5 3 5 3 5 3 5 3 5 5 5 5 3 5 5 5 3 5 5 5 5 5 5 5 5 5 5 5 5 5 5 5 5 5 5 5 5 5 5 5 5 5 3 5 5 5 5 5 3 5 5 5 5 5 5 5 5 5 5 5 3 5 5 5 5 5 3 5 5 3 3 5 5 5 3 5 5 3 3 5 3 5 5 5 5 5 5 5 5 5 5 5 5 5 5 5 5 3 5 5 5 5 3 5 5 5 5 5 5 5 5 3 3 5 5 3 5 5 5 5 5 5 5 5 5 3 3 5 5 3 5 5 5 3 5 5 5 5 5 5 5 5 5 5 5 5 5 5 5 5 5 5 5 5 5 5 5 5 5 5 3 5 5 5 5 5 5 5 5 5 5 5 5 5 5 5 5 5 5 5 5 3 5 5 5 3 3 5 5 5 3 5 5 3 5 5 5 5 5 3 5 3 5 5 5 5 5 5 5 5 3 5 5 5 3 5 5 3 5 3 5 5 5 3 5 5 5 3 5 5 5 5 5 5 5 5 5 5 5 5 5 5 5 5 5 3 5 5 5 5 5 5 5 5 5 3 5 5 5 5 5 5 5 5 3 5 5 5 5 5 5 5 5 5 5 5 5 5 3 5 5 5 3 5 5 5 5 5 5 5 5 5 5 5 5 5 5 5 5 5 5 5 3 5 5 5 3 5 3 5 5 5 3 5 5 5 3 3 5 5 5 5 5 5 5 5 5 5 5 5 5 5 5 5 5 5 5 5 5 5 3 5 5 5 5 3 5 5 5 5 3 5 5 5 5 5 5 5 3 5 5 5 5 3 5 5 5 5 5 5 3 5 5 5 5 5 5 3 5 5 5 3 5 5 5 5 5 5 5 5 5 3 5 5 5 5 5 5 3 5 5 5 5 5 5 5 5 5 5 5 3 5 5 3 5 5 5 5 5 3 5 5 3 5 5 5 5 5 5 5 3 3 5 5 5 5 3 5 5 5 5 5 5 3 5 5 5 5 5 5 5 5 5 5 3 5 5 5 5 5 5 5 5 5 5 5 5 3 5 3 5 5 5 3 5 5 3 5 5 5 5 3 5 5 5 5 5 3 5 5 5 5 5 5 5 5 3 5 5 5 5 3 5 5 5 5 5 5 5 3 5 5 5 5 5 5 5 5 5 5 3 5 5 5 3 5 3 5 5 5 5 5 5 3 5 3 5 3 5 5 5 5 3 5 5 5 5 5 5 5 5 5 5 5 5 5 5 3 5 3 5 5 5 5 5 5 5 3 5 5 5 5 5 5 5 5 5 5 5 5 5 3 5 5 5 5 3 5 5 5 5 5 5 5 5 5 5 5 5 5 5 5 5 5 5 5 5 5 5 5 5 3 5 5 5 5 3 5 5 5 3 5 5 3 5 5 3 5 5 5 5 5 5 5 5 5 5 5 5 5 5 5 3 5 5 3 5 5 5 5 5 5 5 3 5 5 5 5 5 3 5 5 5 3 5 5 5 3 5 5 5 5 5 5 5 3 5 5 5 3 5 3 3 5 5 5 5 5 3 5 5 5 5 5 5 5 5 5 5 3 5 5 5 5 5 5 5 5 5 5 5 5 5 5 5 5 5 5 5 5 5 5 5 5 5 5 5 5 5 5 5 5 5 5 5 5 5 3 5 5 5 5 5 5 5 5 5 5 5 5 5 5 5 5 3 5 5 5 5 5 5 5 5 5 3 5 5 5 5 5 5 5 3 5 5 5 5 5 5 5 5 5 5 5 5 5 5 5 5 5 5 5 5 5 3 5 5 5 5 5 5 5 5 5 5 5 5 5 5 5 5 5 3 5 5 5 5 5 5 5 5 5 5 5 5 5 5 5 5 5 5 5 5 5 5 5 5 5 5 5 5 5 5 5 5 5 5 5 5 5 5 5 5 5 5 5 5 5 5 3 5 5 5 5 5 5 5 5 5 5 5 5 5 3 5 3 5 5 5 5 5 3 5 5 5 5 5 3 3 5 5 5 5 5 5 5 5 5 5 5 5 5 5 5 5 5 3 3 5 5 5 5 5 5 3 5 3 5 5 5 5 5 5 5 5 5 3 5 5 5 5 5 5 5 5 5 5 5 5 5 5 5 5 5 5 5 3 5 5 5 5 5 3 5 3 5 5 5 5 5 5 5 3 5 5 5 3 5 5 5 3 5 5 3 5 5 5 3 5 5 3 5 3 5 3 5 5 3 5 5 5 5 5 5 5 5 5 5 5 5 5 5 5 5 5 5 5 5 5 3 5 3 5 5 5 5 5 5 5 3 5 5 5 5 5 5 5 5 5 5 5 5 5 5 5 5 5 5 5 3 5 5 5 3 5 5 5 5 5 5 5 5 5 5 3 5 5 5 5 3 5 5 3 5 5 5 5 5 3 5 5 5 5 3 5 3 5 5 3 5 5 5 5 5 5 5 3 5 5 3 5 3 5 5 5 5 5 5 5 5 5 5 5 5 5 5 5 5 5 5 3 5 5 5 5 5 5 5 3 5 5 5 5 3 5 5 5 5 5 5 5 5 5 3 5 5 5 5 3 5 5 5 5 5 5 5 5 5 5 5 5 3 5 5 5 5 5 5 5 5 5 3 5 5 5 5 5 5 5 5 5 5 5 5 3 5 5 3 5 5 5 5 5 5 5 5 5 3 3 3 5 5 5 3 5 5 5 5 5 5 3 5 5 5 3 3 5 5 5 5 5 5 5 5 5 5 5 5 3 5 5 5 3 3 5 5 5 5 5 3 5 5 5 5 3 5 5 5 5 3 5 5 5 5 5 3 3 3 5 5 5 3 3 5 5 5 5 5 5 5 5 5 3 3 5 5 5 3 3 5 5 5 5 5 5 5 5 5 5 5 5 5 5 5 5 5 3 5 3 5 5 5 5 3 5 5 5 5 5 5 5 3 5 5 5 5 5 5 5 3 5 5 3 5 3 3 5 5 5 3 3 5 5 5 3 3 5 5 5 5 5 5 5 5 5 5 3 5 5 5 5 5 5 5 3 5 5 5 5 3 5 5 5 5 5 5 3 5 5 5 5 3 5 3 5 5 5 5 5 5 5 5 5 5 5 5 5 5 3 5 5 5 5 5 5 5 3 5 5 5 5 3 5 5 5 3 5 5 5 5 5 5 5 5 5 5 5 5 5 5 5 5 5 5 5 5 5 5 3 5 3 5 5 3 5 5 5 3 5 5 3 5 5 5 5 5 5 5 5 5 5 5 5 5 5 5 5 5 5 5 5 3 3 3 5 5 5 5 5 5 5 5 5 5 5 5 5 3 5 5 5 3 5 5 3 5 5 5 5 3 5 5 3 3 5 5 5 5 3 5 5 3 5 3 5 5 5 5 5 5 5 5 5 5 5 5 3 5 5 5 5 5 5 5 3 5 3 5 5 5 5 3 5 5 5 5 5 5 5 5 5 5 5 5 5 5 5 5 5 5 5 5 5 5 5 3 5 5 5 3 5 3 5 5 5 3 5 5 5 5 5 3 5 5 3 5 5 5 5 5 5 5 5 3 5 5 5 5 5 3 5 5 5 5 5 5 5 5 5 5 5 5 5 5 3 5 5 5 5 3 5 5 5 5 5 5 5 5 5 5 5 5 3 5 5 5 5 3 5 5 5 5 5 5 5 5 5 5 5 5 5 3 5 5 3 5 5 5 3 5 5 5 5 5 5 5 5 5 5 5 5 5 3 3 5 3 3 5 5 5 3 3 5 3 5 3 5 3 5 5 5 3 5 3 5 5 5 5 3 5 5 5 5 5 5 3 5 5 5 5 5 3 5 5 3 5 5 3 5 5 3 5 5 5 5 5 3 5 3 5 5 5 5 5 5 5 5 5 5 5 5 5 3 5 5 3 5 5 5 5 5 5 5 5 5 3 5 5 5 5 5 5 5 5 5 3 5 5 3 5 3 5 5 5 5 5 5 5 3 5 5 5 5 5 5 5 3 5 3 5 5 3 5 5 5 3 5 5 5 5 3 5 5 5 5 5 3 5 5 5 5 5 5 5 5 5 5 5 5 5 5 5 5 5 5 5 5 5 3 5 5 3 5 5 5 3 5 5 5 5 3 5 5 5 5 5 5 5 5 5 5 5 5 5 5 5 5 5 5 5 5 5 5 5 3 5 5 5 5 5 5 3 5 5 5 5 5 5 5 5 5 5 5 5 5 3 5 3 5 5 3 5 5 5 5 3 3 5 3 5 3 5 5 5 5 5 3 5 5 3 3 5 5 5 5 5 3 5 5 3 5 5 5 5 5 5 5 5 3 3 5 5 5 3 5 3 5 5 5 5 5 3 5 3 5 5 5 5 5 3 3 5 5 5 5 3 5 5 5 5 3 5 5 5 5 5 5 5 5 5 5 5 5 5 5 5 5 5 3 5 5 3 5 5 5 3 5 5 5 5 5 5 5 5 5 5 5 5 5 5 5 5 5 5 5 3 5 5 5 5 5 5 5 5 5 5 5 5 5 5 3 3 5 5 5 3 5 5 5 5 5 3 5 5 5 5 5 5 5 5 5 5 5 3 5 5 3 5 5 5 5 5 5 5 5 5 5 3 5 5 5 3 5 3 5 3 5 5 5 3 3 5 3 5 5 3 5 5 3 3 5 5 5 3 5 5 3 5 3 5 5 5 3 5 5 3 3 5 3 5 5 3 5 3 5 5 5 5 5 5 5 5 5 3 5 5 5 5 5 3 5 5 5 5 5 5 5 5 5 5 3 5 5 5 5 3 3 5 5 3 5 3 5 5 5 5 5 3 5 5 3 5 3 5 5 5 5 5 5 5 3 5 5 5 5 5 5 5 5 5 3 5 3 5 3 5 3 5 5 5 5 3 5 5 5 5 5 3 3 5 5 5 5 5 5 3 5 5 5 5 5 3 5 5 5 5 3 5 5 3 5 3 5 5 5 3 5 3 5 5 3 3 3 5 5 5 5 5 5 3 3 3 5 5 5 5 3 5 3 5 3 5 5 5 5 5 5 3 5 5 5 5 5 5 5 5 5 5 5 5 5 5 5 5 5 5 5 5 5 5 5 5 5 5 5 5 5 5 5 5 5 5 5 5 5 5 5 5 5 5 5 5 5 5 5 5 5 3 5 5 5 3 3 5 5 5 5 5 5 5 5 5 5 5 5 5 5 5 5 5 5 5 3 5 5 5 5 5 5 5 3 5 5 3 5 5 3 5 5 3 5 3 5 5 3 5 5 5 3 5 3 5 3 3 5 5 5 3 3 5 5 3 5 5 3 5 5 5 5 5 5 5 5 5 5 5 5 3 5 5 5 5 3 5 5 5 5 3 5 5 5 5 5 5 5 5 5 3 5 3 5 5 5 5 3 5 5 5 3 5 5 5 5 5 5 3 5 5 3 5 5 5 3 5 5 5 5 5 5 5 3 5 5 5 5 5 3 5 5 5 5 5 5 5 5 5 5 5 5 5 5 5 3 5 5 5 5 5 3 5 5 3 5 3 5 5 5 5 3 3 5 5 3 5 5 5 5 5 5 5 5 5 5 5 3 5 3 5 5 5 5 5 3 5 5 5 3 5 5 5 3 5 5 5 5 5 5 5 5 5 5 5 5 5 3 5 5 5 5 5 5 5 3 5 3 5 5 5 5 5 5 5 3 3 5 5 5 5 5 5 5 5 5 3 5 5 5 5 5 5 3 3 3 5 3 5 5 5 5 5 5 3 5 3 5 3 5 3 5 5 5 5 5 5 3 5 5 3 5 5 5 5 3 5 5 5 5 5 5 5 5 5 5 5 5 5 5 5 5 5 5 5 5 5 3 5 3 5 5 5 5 5 5 5 5 5 5 5 5 5 5 5 5 5 5 5 5 5 5 5 5 5 5 5 5 5 5 5 5 5 5 5 5 5 5 5 5 5 5 5 5 5 5 5 5 5 5 5 5 5 5 5 5 5 5 3 5 5 5 5 5 5 5 5 5 5 5 5 5 5 5 5 5 5 5 5 5 5 5 3 5 5 5 3 5 3 5 5 5 5 5 5 5 5 5 5 5 5 5 5 5 5 5 5 5 5 5 5 5 5 5 5 5 5 5 5 5 5 5 5 5 5 5 5 5 3 5 3 5 5 5 5 5 5 5 5 5 5 5 5 5 5 5 5 5 5 5 5 5 5 5 5 5 3 5 5 5 5 5 5 5 5 5 5 5 5 5 5 5 5 5 5 5 5 5 5 5 5 5 5 5 5 5 5 5 5 5 5 5 5 5 5 5 5 5 5 5 5 5 5 5 5 5 5 5 5 5 5 5 5 5 5 5 5 5 5 5 5 5 5 5 5 5 3 5 5 5 5 5 5 5 3 5 5 3 5 5 5 5 5 5 5 5 5 5 5 5 5 5 5 5 5 5 5 5 3 5 5 5 5 5 5 5 5 5 5 5 5 5 5 5 5 5 5 5 5 5 5 5 5 5 5 5 5 5 5 5 5 3 5 5 5 5 3 5 3 5 5 5 5 5 5 3 5 5 3 5 5 3 3 5 3 5 5 5 3 5 5 5 5 5 5 5 5 5 5 5 5 5 5 5 3 5 5 5 5 5 5 5 5 3 5 5 5 5 5 5 5 5 5 5 5 5 5 5 5 5 5 5 5 5 5 5 5 5 5 5 5 5 5 5 5 5 5 5 5 5 3 5 5 5 5 5 5 5 3 5 5 3 5 3 5 5 5 5 5 5 5 5 5 5 5 3 3 5 5 3 5 5 3 3 5 5 5 5 3 5 3 5 5 3 5 3 3 5 3 5 3 5 5 5 5 5 5 5 3 5 3 5 5 5 5 5 3 5 5 5 3 5 5 3 5 3 5 3 3 5 5 3 5 5 5 5 5 5 3 5 5 5 5 5 5 5 5 3 3 5 5 5 3 5 5 5 5 3 3 5 3 5 5 5 3 5 5 5 5 5 5 5 5 5 5 5 5 5 5 5 5 3 5 5 5 5 5 5 3 5 3 5 5 5 3 3 5 5 3 5 3 5 5 5 5 5 5 5 5 5 5 5 5 3 3 5 5 5 5 5 3 5 5 5 5 5 5 5 3 5 5 5 3 5 3 5 5 3 5 5 5 5 5 5 5 5 5 3 5 5 3 5 5 5 5 5 5 5 5 5 5 5 3 5 5 5 5 5 5 5 5 5 5 5 5 5 5 5 5 5 5 5 5 5 5 3 5 5 5 5 5 5 5 5 5 5 5 3 5 5 5 5 3 5 5 5 5 5 5 5 5 5 5 5 3 5 5 5 5 5 3 5 3 5 5 5 5 5 5 5 5 5 3 5 5 3 5 5 3 5 5 5 5 3 5 5 5 5 5 5 5 5 5 5 5 5 5 5 5 5 5 5 5 5 5 3 5 5 3 5 3 5 5 5 5 5 5 5 5 5 3 5 5 3 3 3 5 5 5 3 5 5 5 5 5 5 3 3 5 3 5 5 3 5 5 3 5 5 5 5 3 5 5 5 5 3 5 5 5 5 5 5 5 5 5 5 5 3 5 5 3 5 3 3 5 5 3 3 3 5 5 5 5 5 5 5 5 5 5 3 5 5 5 5 5 5 5 5 5 3 5 5 5 5 5 3 5 5 5 5 5 5 5 5 5 5 3 5 5 5 5 5 5 5 5 5 5 5 5 5 5 5 5 5 5 5 5 5 5 5 5 3 3 5 5 5 5 5 5 5 5 3 5 5 5 5 5 5 5 5 5 5 5 5 5 5 5 5 3 5 5 5 5 3 5 5 5 3 3 5 5 5 5 5 5 3 5 3 5 5 5 3 5 5 5 5 5 5 5 5 3 5 3 3 5 5 5 5 5 5 5 5 5 5 5 5 3 5 5 3 5 3 5 5 5 5 5 5 5 5 5 5 5 5 5 5 5 5 5 5 5 5 5 5 5 3 5 5 5 5 5 3 5 5 5 5 5 5 5 5 5 5 3 5 5 5 3 5 5 5 5 5 5 5 5 5 5 5 3 3 5 5 5 5 5 3 5 5 5 3 5 5 5 5 5 5 5 5 5 5 3 5 5 5 5 5 5 5 3 3 5 3 5 5 5 5 3 5 5 5 5 5 3 5 5 5 5 5 5 5 5 5 5 3 5 5 5 5 5 5 5 5 5 5 3 5 5 5 5 5 5 5 3 5 5 5 5 5 5 5 5 5 5 5 5 5 5 5 5 5 5 5 5 3 5 5 5 3 5 5 5 5 5 5 5 5 5 5 5 5 5 3 5 3 3 5 3 3 5 5 5 5 5 3 5 5 5 5 5 5 5 3 5 5 3 5 5 3 5 5 3 5 5 3 3 3 3 5 5 3 3 5 5 3 5 5 3 5 5 5 5 3 3 3 3 5 5 5 3 5 3 5 3 5 3 3 5 5 5 5 5 5 5 3 5 5 3 5 3 5 5 3 3 5 5 5 5 5 5 5 5 5 5 5 5 5 5 5 5 5 3 5 5 5 5 5 5 5 5 5 5 5 5 5 5 5 5 5 3 5 5 5 5 5 5 5 5 5 5 5 5 5 5 3 3 5 5 5 5 3 5 3 5 5 5 3 3 5 3 5 5 5 5 5 5 5 5 5 5 5 5 5 5 5 5 5 5 5 3 5 3 5 5 5 5 3 5 5 5 5 5 5 5 5 5 5 5 5 5 5 5 5 5 5 5 5 3 5 5 5 5 5 5 5 5 5 5 5 5 5 5 3 5 5 5 5 5 5 5 5 5 5 5 5 5 5 5 5 5 5 5 5 5 5 5 5 5 5 5 5 5 5 5 5 5 5 5 5 5 5 5 5 5 5 5 5 5 5 5 5 5 5 5 5 5 5 5 5 5 5 5 5 5 5 3 5 5 5 3 5 5 3 5 5 5 5 5 5 5 5 5 5 5 3 5 5 5 5 3 5 5 5 5 5 5 5 5 5 5 5 5 5 5 5 5 5 5 5 5 5 5 5 5 5 5 5 5 5 3 5 5 5 5 3 5 5 5 5 5 5 5 5 5 5 3 5 5 3 5 5 5 5 5 5 5 5 5 5 5 5 3 5 5 5 5 5 5 5 5 3 5 5 5 5 5 5 5 5 5 5 3 5 3 5 5 5 3 5 5 5 3 5 3 5 3 3 5 5 5 5 5 3 5 5 5 5 5 5 5 5 5 5 5 5 5 5 5 5 5 5 5 5 5 5 5 3 5 5 3 5 5 5 3 5 3 5 5 5 5 5 5 5 5 5 5 5 5 3 5 5 5 5 5 5 5 5 5 5 5 5 5 5 5 5 5 5 5 3 5 5 5 5 5 5 5 5 5 5 5 5 5 5 5 5 5 5 5 5 5 5 5 5 5 5 5 3 5 5 5 5 5 5 5 5 5 5 5 5 5 5 5 5 5 5 3 5 5 5 3 5 5 5 3 3 5 5 5 5 5 3 5 5 5 5 5 5 5 3 3 5 5 5 3 5 3 5 5 5 5 5 5 3 3 5 5 3 3 5 5 5 5 5 5 5 5 5 5 3 5 5 5 5 5 5 3 5 5 5 5 5 5 5 5 5 5 5 5 5 5 5 5 5 3 5 5 5 5 3 5 5 3 5 5 5 5 5 5 5 5 5 5 5 3 5 3 5 3 5 5 5 5 5 5 5 5 5 5 5 5 5 5 5 5 5 5 5 3 5 5 3 5 5 5 3 5 5 3 5 5 5 5 3 5 5 5 5 5 5 5 3 5 5 5 5 5 5 5 5 5 5 5 5 5 5 5 5 5 5 5 5 5 5 5 5 5 5 5 5 5 3 5 5 5 5 5 5 5 5 5 5 5 5 5 5 5 5 5 5 5 5 5 5 5 5 5 5 5 5 5 5 5 5 5 5 5 5 5 3 3 3 5 5 3 5 5 5 3 5 3 5 5 5 5 5 3 5 5 5 5 5 5 5 3 5 5 5 5 5 5 5 5 5 5 5 5 5 5 3 5 5 5 3 5 3 5 5 5 5 5 5 5 5 3 5 5 5 5 5 5 5 3 5 3 5 3 5 5 5 5 5 5 5 5 3 5 5 3 3 3 5 3 5 3 5 5 5 5 5 5 5 5 5 5 5 5 5 5 5 5 5 5 5 5 5 3 5 5 3 3 5 5 5 3 5 5 5 5 5 5 5 3 5 3 5 5 5 5 3 5 5 3 5 5 5 5 5 5 5 3 5 5 3 5 5 5 3 5 5 5 5 5 5 5 5 5 3 5 5 5 5 5 5 3 5 5 3 5 5 5 5 3 5 5 5 5 5 5 3 3 3 5 5 5 3 5 3 5 3 5 5 5 5 5 5 3 5 5 5 3 5 5 5 3 5 5 5 5 5 5 5 5 5 5 5 5 3 5 5 5 3 5 5 5 5 5 3 3 5 5 3 5 3 3 3 5 5 5 3 5 5 5 5 5 3 5 5 5 5 5 5 5 5 5 5 5 5 3 5 5 5 5 5 5 3 5 5 3 5 5 3 5 5 5 5 5 3 5 5 3 5 3 5 3 5 5 5 5 5 5 3 5 5 5 5 3 5 5 5 5 5 5 5 5 5 5 3 5 5 5 5 5 3 5 5 5 5 5 5 5 5 5 5 5 5 5 5 5 3 5 5 5 5 5 3 5 3 5 5 5 5 5 3 5 5 5 5 5 3 5 5 5 5 5 3 5 5 5 5 5 5 5 5 5 5 3 5 3 5 3 5 5 3 5 5 5 5 5 5 5 5 3 5 3 5 5 5 5 5 5 5 5 5 5 3 5 5 5 5 5 5 5 5 5 5 3 5 5 5 3 5 3 3 5 5 5 3 5 5 5 3 3 5 5 5 5 5 5 5 5 5 5 3 3 5 5 5 5 5 3 5 5 5 5 5 5 5 5 5 5 3 5 3 3 3 5 5 5 5 5 5 5 5 3 5 5 5 5 5 5 5 5 5 5 5 5 5 5 5 5 5 5 5 5 5 5 5 5 5 5 5 5 5 3 5 5 5 5 3 5 5 5 5 5 5 5 5 3 5 5 5 5 5 5 5 5 3 5 5 5 5 5 5 5 5 5 5 5 5 5 5 5 5 5 5 5 5 5 5 5 5 5 5 3 5 5 5 5 5 5 3 5 3 5 5 3 5 5 5 3 5 3 5 5 5 3 5 5 5 3 5 5 5 5 5 5 3 5 5 5 5 5 5 5 5 5 5 5 5 5 5 5 5 5 5 5 5 5 5 5 5 5 5 5 3 5 3 5 5 5 5 3 5 5 5 5 5 5 5 5 5 5 5 5 5 3 5 5 3 5 5 3 5 5 5 5 5 3 5 5 5 5 5 5 5 5 3 5 3 5 5 5 5 5 3 3 5 5 3 5 5 5 3 5 5 5 5 5 5 5 3 5 5 5 5 5 5 5 5 5 5 5 5 5 5 5 5 3 5 5 5 5 5 3 5 3 5 5 5 5 5 5 5 5 5 5 5 5 3 5 3 5 5 5 5 5 5 3 3 5 5 5 5 5 5 5 5 5 5 5 5 5 5 5 5 5 5 5 5 5 3 5 5 3 5 5 5 5 5 3 5 5 5 5 5 5 3 5 5 5 5 5 5 5 5 5 5 5 5 5 5 5 5 3 5 5 3 5 5 5 5 3 5 5 5 5 5 5 5 5 5 5 5 3 5 5 5 5 5 5 5 5 5 5 5 5 5 5 5 5 5 5 5 3 5 5 5 5 5 5 5 5 5 5 5 5 3 5 5 5 5 5 5 5 5 5 5 5 5 5 3 3 5 5 5 5 5 5 3 5 5 5 5 5 5 5 5 5 5 5 5 5 5 5 5 5 5 5 5 5 5 5 5 5 5 5 5 5 5 5 5 5 5 5 3 5 5 5 5 5 5 5 5 3 5 5 5 5 5 5 5 5 5 5 5 5 3 5 5 5 5 3 5 3 5 5 5 5 5 5 5 5 3 5 5 5 5 5 5 5 5 5 5 3 5 5 5 3 5 5 3 5 5 5 5 3 5 5 3 5 5 5 5 5 5 5 5 3 5 5 5 3 5 5 5 5 5 5 5 3 5 3 5 3 5 3 3 5 5 5 3 3 3 5 5 3 5 5 5 3 5 5 5 5 3 5 5 5 5 5 5 5 5 5 5 5 5 5 5 5 5 5 5 5 5 5 5 5 5 5 5 5 5 5 5 5 5 5 5 5 5 5 5 3 5 5 5 5 5 5 5 5 3 5 5 5 5 3 5 5 3 5 5 3 5 5 5 5 3 5 5 5 5 5 3 5 5 5 5 5 5 5 5 5 5 5 5 5 3 3 5 5 5 3 5 5 5 5 5 5 5 5 5 5 5 5 5 5 3 5 5 5 5 5 5 3 5 5 3 5 5 5 5 5 5 5 5 5 5 3 5 5 5 5 5 3 5 5 5 5 5 5 5 5 5 5 3 5 5 5 5 5 5 5 5 5 5 5 5 5 5 5 3 5 5 5 5 5 5 5 5 5 5 5 5 5 5 5 5 5 5 5 5 5 5 5 3 5 3 5 5 5 3 5 5 5 5 5 5 5 5 5 3 5 5 5 3 5 5 5 5 5 5 5 5 5 5 5 5 5 5 5 5 3 5 5 5 5 5 3 5 5 5 3 5 3 5 5 5 5 5 5 3 5 5 5 5 5 5 5 5 5 5 5 5 5 5 5 5 5 5 5 5 5 5 5 5 5 5 5 3 5 5 3 5 5 5 5 5 5 5 3 5 5 5 5 3 5 5 3 5 5 5 5 5 5 3 5 5 5 3 5 5 5 3 5 5 5 5 5 3 5 5 5 5 5 3 5 5 5 5 5 5 5 5 3 5 5 3 5 5 5 5 3 5 5 5 5 3 5 5 5 5 3 5 5 5 3 5 3 5 5 5 5 5 5 5 5 5 5 3 5 5 5 5 5 5 5 3 3 5 5 5 5 5 3 5 5 5 5 5 3 5 5 5 3 5 5 3 5 5 3 5 5 5 3 5 5 5 5 5 5 3 5 5 5 5 5 3 5 5 5 5 5 3 5 5 5 5 5 5 3 5 5 5 5 3 5 5 5 5 5 3 5 5 5 5 5 5 5 5 5 5 3 5 5 5 5 5 5 5 3 5 5 5 5 3 3 5 5 3 5 5 5 5 5 5 5 3 5 5 5 5 5 5 5 3 5 3 5 5 3 5 5 5 5 3 5 3 5 5 5 5 5 5 5 5 5 5 3 5 5 5 5 5 3 5 5 5 3 5 5 5 5 3 5 5 3 5 5 5 5 5 3 5 3 5 3 3 5 5 5 5 3 3 5 5 5 5 5 5 5 5 5 5 5 5 5 3 5 5 5 5 5 5 3 3 5 5 5 5 5 5 5 5 5 5 5 5 5 3 5 5 5 5 5 5 5 5 5 5 5 5 5 5 5 5 5 5 5 5 5 5 5 5 5 5 5 5 5 5 5 5 5 3 5 5 3 5 5 5 5 5 5 5 3 5 5 5 3 5 5 3 5 5 5 3 3 5 5 5 5 3 3 5 5 5 5 5 5 5 5 5 5 5 5 5 5 3 5 5 3 5 5 5 3 5 5 5 5 3 5 5 3 5 5 5 5 5 5 5 5 5 5 5 3 5 5 5 5 5 5 5 3 5 5 5 5 5 5 5 5 5 5 5 5 5 5 5 5 5 5 3 5 5 5 5 5 5 3 5 3 5 5 5 5 5 3 5 5 3 5 5 5 3 5 5 5 3 5 5 5 5 5 5 5 5 5 5 5 5 5 5 3 5 5 5 5 3 3 5 5 5 5 5 5 5 5 5 5 5 5 5 5 5 5 5 5 5 3 5 5 5 5 5 5 5 5 3 5 3 5 5 5 5 5 5 5 3 5 3 5 5 5 5 5 3 5 5 5 5 5 5 3 5 5 5 5 5 3 3 5 5 5 3 3 3 5 5 5 5 5 3 5 5 5 5 5 3 5 5 5 5 3 5 3 3 5 3 3 5 5 5 3 5 5 5 3 5 5 5 3 5 5 5 3 5 5 5 5 5 5 5 5 3 5 5 5 3 5 5 5 5 5 5 3 5 5 5 5 5 5 3 5 5 5 5 5 5 5 5 5 5 5 5 5 5 3 5 3 5 5 5 3 5 5 3 5 3 5 3 5 5 3 5 5 5 5 5 5 3 5 5 5 5 3 5 5 5 5 5 5 3 5 5 5 5 5 5 5 5 5 5 3 5 5 5 5 5 5 5 5 5 5 5 5 5 5 5 5 5 5 5 3 3 5 5 5 3 5 5 3 5 5 3 5 5 3 5 5 3 3 5 5 5 5 3 5 5 5 5 5 5 5 5 5 5 5 3 3 5 5 5 3 5 3 5 3 5 5 5 5 5 3 5 5 3 5 3 5 5 3 3 3 5 5 5 5 3 5 5 3 5 3 5 5 3 5 5 5 5 5 5 5 5 3 5 3 3 5 5 5 5 5 3 3 5 5 5 3 3 5 5 5 5 5 5 5 5 3 5 3 5 5 5 5 5 5 5 5 5 5 5 5 5 5 5 5 5 5 5 5 5 5 5 5 5 5 5 5 5 3 5 5 5 5 5 5 5 5 5 5 5 5 5 5 5 3 5 5 3 5 5 5 5 5 3 5 5 5 5 5 5 5 5 5 5 5 5 5 3 5 5 5 5 5 5 5 5 5 3 5 5 3 5 5 5 5 3 3 3 5 5 5 5 5 3 5 5 5 
</DataArray>
</Cells>
<PointData Scalars="" Vectors="displacement," Tensors="">
<DataArray type="Float64" Name="displacement" NumberOfComponents="3" format="ascii">
-1.0431348696280264e-06 0.073023079770607596 0 6.9564241993813027e-07 0.074995814183064238 0 -3.3945259176896225e-07 0.074940384505387397 0 6.9564241993813027e-07 0.074995814183064238 0 -3.3945259176896225e-07 0.074940384505387397 0 -3.4510867115402743e-07 0.075001843210171074 0 -2.4118276758200917e-07 0.07301809273031537 0 6.8137793141219431e-06 0.073954982606718997 0 2.7104725471286751e-07 0.073011959163830853 0 0.0003929157201763589 0.071877237343954112 0 0.00037040677775791009 0.07260175712031329 0 2.7104725471286751e-07 0.073011959163830853 0 0.0003929157201763589 0.071877237343954112 0 2.1907215420993587e-06 0.069900035440239899 0 0.0003929157201763589 0.071877237343954112 0 0.0002279630766183331 0.073362875196824912 0 0.00031745679058080929 0.072833815998225443 0 0.0003929157201763589 0.071877237343954112 0 0.00037040677775791009 0.07260175712031329 0 0.0002279630766183331 0.073362875196824912 0 6.8137793141219431e-06 0.073954982606718997 0 3.5268661471511732e-07 0.074998231296753662 0 0.00037040677775791009 0.07260175712031329 0 2.551559771308083e-06 0.07499489350101253 0 0.0002279630766183331 0.073362875196824912 0 2.551559771308083e-06 0.07499489350101253 0 0.0002279630766183331 0.073362875196824912 0 0.00021949098560912058 0.074026121559274474 0 0.0002279630766183331 0.073362875196824912 0 0.00021949098560912058 0.074026121559274474 0 0.00031745679058080929 0.072833815998225443 0 0.0003455187640011944 0.073437677800570228 0 0.00021949098560912058 0.074026121559274474 0 0.00031745679058080929 0.072833815998225443 0 0.0003455187640011944 0.073437677800570228 0 0.00021949098560912058 0.074026121559274474 0 0.00015300997139692911 0.074057123782587941 0 0.00021949098560912058 0.074026121559274474 0 -7.1713128150547364e-07 0.074998852377845787 0 0.00015300997139692911 0.074057123782587941 0 2.551559771308083e-06 0.07499489350101253 0 0.00021949098560912058 0.074026121559274474 0 -7.1713128150547364e-07 0.074998852377845787 0 0.0004444199521839764 0.072729885345166057 0 0.0015014439267954497 0.071484804791890483 0 0.0009898822916398957 0.072432416308639766 0 0.0003455187640011944 0.073437677800570228 0 0.0004444199521839764 0.072729885345166057 0 0.00031745679058080929 0.072833815998225443 0 0.0003455187640011944 0.073437677800570228 0 0.0004444199521839764 0.072729885345166057 0 0.00055081981061938349 0.073144531865134602 0 0.0004444199521839764 0.072729885345166057 0 0.00031745679058080929 0.072833815998225443 0 -0.00056568888289010874 0.072333833793210844 0 0.0004444199521839764 0.072729885345166057 0 -0.00056568888289010874 0.072333833793210844 0 0.0015014439267954497 0.071484804791890483 0 0.00031798283230909102 0.068551911535959964 0 0.00046187580485782399 0.069702334138668373 0 0.00031745679058080929 0.072833815998225443 0 -0.00056568888289010874 0.072333833793210844 0 0.00036508607211453546 0.070791428525578654 0 0.0003929157201763589 0.071877237343954112 0 0.00031745679058080929 0.072833815998225443 0 0.00036508607211453546 0.070791428525578654 0 0.0003929157201763589 0.071877237343954112 0 0.00036508607211453546 0.070791428525578654 0 2.1907215420993587e-06 0.069900035440239899 0 0.00036508607211453546 0.070791428525578654 0 2.1907215420993587e-06 0.069900035440239899 0 -4.1528866481402021e-06 0.06678919995818916 0 0.00031798283230909102 0.068551911535959964 0 7.9377955588230497e-07 0.066783890403915858 0 0.001757249224841265 0.06470489251546449 0 4.7298512424684663e-07 0.066774796069143785 0 0.00072100689550244027 0.064377713202546843 0 -0.00056568888289010874 0.072333833793210844 0 0.00036508607211453546 0.070791428525578654 0 -4.1528866481402021e-06 0.06678919995818916 0 4.7298512424684663e-07 0.066774796069143785 0 0.00072100689550244027 0.064377713202546843 0 1.891483204400866e-06 0.062390537368629158 0 0.00072100689550244027 0.064377713202546843 0 1.891483204400866e-06 0.062390537368629158 0 7.2026518874380478e-05 0.063884302188283504 0 1.891483204400866e-06 0.062390537368629158 0 7.2026518874380478e-05 0.063884302188283504 0 -0.00017270708572296114 0.06156650657150893 0 0.001757249224841265 0.06470489251546449 0 0.00072100689550244027 0.064377713202546843 0 7.2026518874380478e-05 0.063884302188283504 0 -3.3319667805825967e-06 0.057993542843291376 0 -0.00139915282609561 0.06248564855955728 0 -0.00053491093524316718 0.05568257701718049 0 -5.4773013230152643e-05 0.058904061876433565 0 -6.9289499169611672e-05 0.058414963226794285 0 -3.3319667805825967e-06 0.057993542843291376 0 -0.00017270708572296114 0.06156650657150893 0 -0.00139915282609561 0.06248564855955728 0 1.891483204400866e-06 0.062390537368629158 0 -3.3319667805825967e-06 0.057993542843291376 0 -0.00017270708572296114 0.06156650657150893 0 7.2026518874380478e-05 0.063884302188283504 0 -0.00017270708572296114 0.06156650657150893 0 -0.00139915282609561 0.06248564855955728 0 7.2026518874380478e-05 0.063884302188283504 0 -0.00139915282609561 0.06248564855955728 0 -0.0013554072712848374 0.066781189734234178 0 -0.00080500242218208224 0.051010268807759496 0 -0.00037006705192478714 0.052153130476655943 0 -0.00053878043086031378 0.051123082636607295 0 -0.00080500242218208224 0.051010268807759496 0 -0.00053491093524316718 0.05568257701718049 0 -0.00037006705192478714 0.052153130476655943 0 0.00012405414319904275 0.051635871691495791 0 -0.00053878043086031378 0.051123082636607295 0 -0.00069780882054171136 0.051588493440620005 0 -0.00080500242218208224 0.051010268807759496 0 0.00012405414319904275 0.051635871691495791 0 -0.00053878043086031378 0.051123082636607295 0 -5.4773013230152643e-05 0.058904061876433565 0 0.00044706525345479666 0.060591548244756759 0 -0.00080500242218208224 0.051010268807759496 0 0.00012405414319904275 0.051635871691495791 0 0.0019347566465891153 0.051400297997094162 0 0.0017572957648057756 0.052572068774123147 0 0.0033611530591021793 0.052232311233306586 0 0.0019753354883494394 0.054181844239241252 0 0.00012405414319904275 0.051635871691495791 0 0.0017572957648057756 0.052572068774123147 0 0.00076732651478450282 0.05337817464378234 0 0.00012405414319904275 0.051635871691495791 0 0.0017572957648057756 0.052572068774123147 0 0.0019347566465891153 0.051400297997094162 0 0.00012405414319904275 0.051635871691495791 0 -0.00065326858173272366 0.053177668115581479 0 0.00076732651478450282 0.05337817464378234 0 0.00012405414319904275 0.051635871691495791 0 -0.00065326858173272366 0.053177668115581479 0 -0.00069780882054171136 0.051588493440620005 0 0.001757249224841265 0.06470489251546449 0 0.00030268582807266693 0.067551643441226619 0 0.0015014439267954497 0.071484804791890483 0 0.001757249224841265 0.06470489251546449 0 7.2026518874380478e-05 0.063884302188283504 0 0.00030268582807266693 0.067551643441226619 0 0.00030268582807266693 0.067551643441226619 0 -0.0013554072712848374 0.066781189734234178 0 -0.0008379891295615205 0.069336964053983513 0 7.2026518874380478e-05 0.063884302188283504 0 0.00030268582807266693 0.067551643441226619 0 -0.0013554072712848374 0.066781189734234178 0 0.0017572957648057756 0.052572068774123147 0 0.0019347566465891153 0.051400297997094162 0 0.0033611530591021793 0.052232311233306586 0 0.00044706525345479666 0.060591548244756759 0 0.00077311297052106342 0.061828241010260208 0 0.00077311297052106342 0.061828241010260208 0 0.0014512792351997583 0.063136693815693742 0 0.00030268582807266693 0.067551643441226619 0 0.00069843759592120279 0.071782559111880279 0 0.0015014439267954497 0.071484804791890483 0 0.00030268582807266693 0.067551643441226619 0 -0.0008379891295615205 0.069336964053983513 0 0.00069843759592120279 0.071782559111880279 0 0.00069843759592120279 0.071782559111880279 0 0.0015014439267954497 0.071484804791890483 0 0.001209602943990674 0.072147887814725961 0 0.001209602943990674 0.072147887814725961 0 0.0011708421011643177 0.072092287281297018 0 0.0012080427903945622 0.072352186294033533 0 0.00069843759592120279 0.071782559111880279 0 0.001209602943990674 0.072147887814725961 0 0.0011708421011643177 0.072092287281297018 0 0.0033611530591021793 0.052232311233306586 0 0.0040927078749287884 0.055834409475245886 0 0.0019753354883494394 0.054181844239241252 0 0.00052872173634029972 0.07168976688784276 0 0.00069843759592120279 0.071782559111880279 0 0.0011708421011643177 0.072092287281297018 0 0.00052872173634029972 0.07168976688784276 0 0.0011708421011643177 0.072092287281297018 0 0.0015859758360430875 0.072196310542757838 0 0.00077311297052106342 0.061828241010260208 0 0.0020556873830753775 0.063961940149283428 0 0.0011708421011643177 0.072092287281297018 0 0.0015859758360430875 0.072196310542757838 0 0.0014226774975225705 0.072111149765667987 0 0.0015859758360430875 0.072196310542757838 0 0.0014226774975225705 0.072111149765667987 0 0.0016366096017167999 0.071734246309754571 0 0.0014226774975225705 0.072111149765667987 0 0.0016366096017167999 0.071734246309754571 0 0.0012080427903945622 0.072352186294033533 0 0.0011708421011643177 0.072092287281297018 0 0.0014226774975225705 0.072111149765667987 0 0.0012080427903945622 0.072352186294033533 0 -0.00065326858173272366 0.053177668115581479 0 0.00035869018620306989 0.054579825687011072 0 -0.00088926332362194115 0.055571220434489088 0 -0.00065326858173272366 0.053177668115581479 0 0.00035869018620306989 0.054579825687011072 0 0.00076732651478450282 0.05337817464378234 0 0.00035869018620306989 0.054579825687011072 0 0.00076732651478450282 0.05337817464378234 0 0.0019753354883494394 0.054181844239241252 0 0.0017572957648057756 0.052572068774123147 0 0.00076732651478450282 0.05337817464378234 0 0.0019753354883494394 0.054181844239241252 0 0.0040927078749287884 0.055834409475245886 0 0.00083963775369140731 0.056947391041384091 0 0.0018126520543545444 0.059783313133099945 0 0.00035869018620306989 0.054579825687011072 0 0.0019753354883494394 0.054181844239241252 0 0.00083963775369140731 0.056947391041384091 0 0.0040927078749287884 0.055834409475245886 0 0.0019753354883494394 0.054181844239241252 0 0.00083963775369140731 0.056947391041384091 0 0.00035869018620306989 0.054579825687011072 0 0.00083963775369140731 0.056947391041384091 0 -0.00088926332362194115 0.055571220434489088 0 0.00083963775369140731 0.056947391041384091 0 -0.00088926332362194115 0.055571220434489088 0 -0.0011742849744524164 0.057784546105245665 0 -0.00071198149254478272 0.059859561111026763 0 -0.0011742849744524164 0.057784546105245665 0 -0.0026046002839082926 0.059371389624352872 0 0.00083963775369140731 0.056947391041384091 0 -0.00071198149254478272 0.059859561111026763 0 -0.0011742849744524164 0.057784546105245665 0 0.00083963775369140731 0.056947391041384091 0 -0.00071198149254478272 0.059859561111026763 0 0.0018126520543545444 0.059783313133099945 0 0.0018126520543545444 0.059783313133099945 0 0.0045007941226648815 0.061307102652690196 0 0.0017327585334152517 0.064096185018955934 0 0.0018126520543545444 0.059783313133099945 0 -0.00098358887168367086 0.063837264985377576 0 0.0017327585334152517 0.064096185018955934 0 -0.00071198149254478272 0.059859561111026763 0 0.0018126520543545444 0.059783313133099945 0 -0.00098358887168367086 0.063837264985377576 0 -0.00071198149254478272 0.059859561111026763 0 -0.00098358887168367086 0.063837264985377576 0 -0.002621339422106338 0.061692305801994023 0 0.0015859758360430875 0.072196310542757838 0 0.0016366096017167999 0.071734246309754571 0 0.0028100225217032354 0.071127210800477778 0 0.0040927078749287884 0.055834409475245886 0 0.0018126520543545444 0.059783313133099945 0 0.0045007941226648815 0.061307102652690196 0 0.0020556873830753775 0.063961940149283428 0 0.0027220717498178167 0.065874802845033498 0 0.0028100225217032354 0.071127210800477778 0 0.0019675456107069718 0.070723808803609498 0 0.0024922363325431533 0.069255530757747513 0 0.0019675456107069718 0.070723808803609498 0 0.0012734422599567847 0.071021875465872894 0 0.0018865607024242381 0.069853621191613174 0 0.0016366096017167999 0.071734246309754571 0 0.0019675456107069718 0.070723808803609498 0 0.0012734422599567847 0.071021875465872894 0 0.0016366096017167999 0.071734246309754571 0 0.0028100225217032354 0.071127210800477778 0 0.0019675456107069718 0.070723808803609498 0 0.0012734422599567847 0.071021875465872894 0 0.00099826557597840768 0.072198844298018872 0 0.00056364277342207676 0.071609325607260479 0 0.0016366096017167999 0.071734246309754571 0 0.0012734422599567847 0.071021875465872894 0 0.00099826557597840768 0.072198844298018872 0 0.00099826557597840768 0.072198844298018872 0 0.00056364277342207676 0.071609325607260479 0 0.00035258646964032598 0.072571623408235836 0 0.0012734422599567847 0.071021875465872894 0 0.00056364277342207676 0.071609325607260479 0 0.00065432732200108748 0.070593998968683541 0 0.00056364277342207676 0.071609325607260479 0 -0.00014399380275746781 0.071092358116459559 0 0.00065432732200108748 0.070593998968683541 0 -0.00014399380275746781 0.071092358116459559 0 -0.0011223155137668076 0.071936505412671284 0 1.9124359840559518e-06 0.072059717858760516 0 0.00056364277342207676 0.071609325607260479 0 -0.00014399380275746781 0.071092358116459559 0 1.9124359840559518e-06 0.072059717858760516 0 -7.0536871256728835e-05 0.073707737916810651 0 0.0001968749078077147 0.074324576899816114 0 -4.5362194533493843e-05 0.075077071165593659 0 -4.4987617456670176e-08 0.074998654661546926 0 -5.9424178157982451e-08 0.075000900233760034 0 -4.5362194533493843e-05 0.075077071165593659 0 1.7969693707581715e-05 0.074992820839574106 0 -5.9424178157982451e-08 0.075000900233760034 0 -0.00014399380275746781 0.071092358116459559 0 -0.0011223155137668076 0.071936505412671284 0 -0.0012305129411490684 0.070490007850340819 0 -7.0536871256728835e-05 0.073707737916810651 0 -0.0001225102041377527 0.073766062303087104 0 -0.0011223155137668076 0.071936505412671284 0 1.9124359840559518e-06 0.072059717858760516 0 -7.6798309775380253e-05 0.07303236705276249 0 -4.5362194533493843e-05 0.075077071165593659 0 -4.4987617456670176e-08 0.074998654661546926 0 -0.00028604745982876794 0.074399825500211972 0 -0.0011223155137668076 0.071936505412671284 0 -7.6798309775380253e-05 0.07303236705276249 0 -0.00028604745982876794 0.074399825500211972 0 0.00056364277342207676 0.071609325607260479 0 1.9124359840559518e-06 0.072059717858760516 0 0.00035258646964032598 0.072571623408235836 0 1.9124359840559518e-06 0.072059717858760516 0 -7.6798309775380253e-05 0.07303236705276249 0 0.00035258646964032598 0.072571623408235836 0 0.00035258646964032598 0.072571623408235836 0 0.00022947412903962007 0.073568898362827165 0 0.00064521884461213547 0.072872586656119981 0 -7.6798309775380253e-05 0.07303236705276249 0 0.00022947412903962007 0.073568898362827165 0 -0.00028604745982876794 0.074399825500211972 0 -7.6798309775380253e-05 0.07303236705276249 0 0.00035258646964032598 0.072571623408235836 0 0.00022947412903962007 0.073568898362827165 0 0.00022947412903962007 0.073568898362827165 0 -0.00028604745982876794 0.074399825500211972 0 -7.6403420523081709e-06 0.074279813610853271 0 -4.4987617456670176e-08 0.074998654661546926 0 -0.00028604745982876794 0.074399825500211972 0 -7.1713128150547364e-07 0.074998852377845787 0 -0.00028604745982876794 0.074399825500211972 0 -7.6403420523081709e-06 0.074279813610853271 0 -7.1713128150547364e-07 0.074998852377845787 0 -7.6403420523081709e-06 0.074279813610853271 0 -7.1713128150547364e-07 0.074998852377845787 0 0.00015300997139692911 0.074057123782587941 0 0.0003455187640011944 0.073437677800570228 0 0.00015300997139692911 0.074057123782587941 0 0.00055081981061938349 0.073144531865134602 0 0.00022947412903962007 0.073568898362827165 0 0.00015300997139692911 0.074057123782587941 0 0.00055081981061938349 0.073144531865134602 0 0.00022947412903962007 0.073568898362827165 0 -7.6403420523081709e-06 0.074279813610853271 0 0.00015300997139692911 0.074057123782587941 0 0.0004444199521839764 0.072729885345166057 0 0.00055081981061938349 0.073144531865134602 0 0.0009898822916398957 0.072432416308639766 0 0.00055081981061938349 0.073144531865134602 0 0.00092316199919677429 0.072638281198206658 0 0.00064521884461213547 0.072872586656119981 0 0.00055081981061938349 0.073144531865134602 0 0.0009898822916398957 0.072432416308639766 0 0.00092316199919677429 0.072638281198206658 0 0.0015014439267954497 0.071484804791890483 0 0.001209602943990674 0.072147887814725961 0 0.0009898822916398957 0.072432416308639766 0 0.001209602943990674 0.072147887814725961 0 0.0009898822916398957 0.072432416308639766 0 0.0012080427903945622 0.072352186294033533 0 0.0009898822916398957 0.072432416308639766 0 0.00092316199919677429 0.072638281198206658 0 0.0012080427903945622 0.072352186294033533 0 0.0016366096017167999 0.071734246309754571 0 0.00099826557597840768 0.072198844298018872 0 0.0012080427903945622 0.072352186294033533 0 0.00099826557597840768 0.072198844298018872 0 0.00092316199919677429 0.072638281198206658 0 0.0012080427903945622 0.072352186294033533 0 0.00099826557597840768 0.072198844298018872 0 0.00092316199919677429 0.072638281198206658 0 0.00064521884461213547 0.072872586656119981 0 0.00099826557597840768 0.072198844298018872 0 0.00035258646964032598 0.072571623408235836 0 0.00064521884461213547 0.072872586656119981 0 0.00022947412903962007 0.073568898362827165 0 0.00055081981061938349 0.073144531865134602 0 0.00064521884461213547 0.072872586656119981 0 0.00030206202135039473 0.042881646995547806 0 0.00040058229422922759 0.044089872902187993 0 -0.00028273670597872531 0.043795239099851176 0 0.00030206202135039473 0.042881646995547806 0 0.00077432641759221166 0.043965689129021893 0 0.00040058229422922759 0.044089872902187993 0 0.00030206202135039473 0.042881646995547806 0 -0.00028273670597872531 0.043795239099851176 0 -0.00032340600439105137 0.042513333936423946 0 0.00030206202135039473 0.042881646995547806 0 0.00077432641759221166 0.043965689129021893 0 0.00077503060407880641 0.042913342750886069 0 0.00077432641759221166 0.043965689129021893 0 0.00077503060407880641 0.042913342750886069 0 0.00093462727175004331 0.044463662339944574 0 0.00077503060407880641 0.042913342750886069 0 0.00027154984562245037 0.039911570329040538 0 -4.0317649927790799e-05 0.041261258209510897 0 0.00030206202135039473 0.042881646995547806 0 0.00077503060407880641 0.042913342750886069 0 -4.0317649927790799e-05 0.041261258209510897 0 0.00030206202135039473 0.042881646995547806 0 -4.0317649927790799e-05 0.041261258209510897 0 -0.00032340600439105137 0.042513333936423946 0 0.00027154984562245037 0.039911570329040538 0 7.9699968473669597e-07 0.040418445751304724 0 7.813905693832384e-07 0.036022762242098529 0 0.00027154984562245037 0.039911570329040538 0 7.9699968473669597e-07 0.040418445751304724 0 0.00051406930523222158 0.042772043453685828 0 0.00077503060407880641 0.042913342750886069 0 0.00027154984562245037 0.039911570329040538 0 0.00051406930523222158 0.042772043453685828 0 0.00077503060407880641 0.042913342750886069 0 0.00051406930523222158 0.042772043453685828 0 0.0007104310469944478 0.044997744078845971 0 0.00051406930523222158 0.042772043453685828 0 1.2146719682456778e-06 0.044811874659910669 0 0.0007104310469944478 0.044997744078845971 0 7.9699968473669597e-07 0.040418445751304724 0 0.00051406930523222158 0.042772043453685828 0 1.2146719682456778e-06 0.044811874659910669 0 1.2146719682456778e-06 0.044811874659910669 0 0.0007104310469944478 0.044997744078845971 0 0.00016566438074927298 0.047778845979579911 0 0.0007104310469944478 0.044997744078845971 0 0.00093462727175004331 0.044463662339944574 0 0.00029686948742347301 0.046274165791475572 0 0.00077503060407880641 0.042913342750886069 0 0.0007104310469944478 0.044997744078845971 0 0.00093462727175004331 0.044463662339944574 0 0.00077432641759221166 0.043965689129021893 0 0.00093462727175004331 0.044463662339944574 0 0.00087802717190027361 0.044259265219382796 0 0.00093462727175004331 0.044463662339944574 0 0.00029686948742347301 0.046274165791475572 0 0.00074283328566584681 0.044360696428566437 0 -0.0013163157614484646 0.043630540268266252 0 -0.0018613186811117862 0.043073692450275251 0 0.00029686948742347301 0.046274165791475572 0 -0.0013056843202925036 0.049051288349844291 0 -0.0013054904387842759 0.044951629162241255 0 -0.0025656234830871002 0.049392616758180151 0 -0.0028889845120945714 0.049814948949168568 0 0.00029686948742347301 0.046274165791475572 0 -0.0013056843202925036 0.049051288349844291 0 0.00016566438074927298 0.047778845979579911 0 0.0007104310469944478 0.044997744078845971 0 0.00029686948742347301 0.046274165791475572 0 0.00016566438074927298 0.047778845979579911 0 1.2146719682456778e-06 0.044811874659910669 0 0.00016566438074927298 0.047778845979579911 0 1.2379165473028625e-07 0.049204870901937273 0 0.00016566438074927298 0.047778845979579911 0 1.2379165473028625e-07 0.049204870901937273 0 -0.00015764290831606846 0.050511121910323226 0 1.2379165473028625e-07 0.049204870901937273 0 -3.5654735553777549e-07 0.053598045022176188 0 -0.00015764290831606846 0.050511121910323226 0 -0.0013056843202925036 0.049051288349844291 0 0.00016566438074927298 0.047778845979579911 0 -0.00015764290831606846 0.050511121910323226 0 -0.0013056843202925036 0.049051288349844291 0 -0.00039244456467393379 0.051042828241923195 0 -0.00015764290831606846 0.050511121910323226 0 -0.00039244456467393379 0.051042828241923195 0 -0.00015764290831606846 0.050511121910323226 0 -0.00010102365159674219 0.05265036361583382 0 -3.5654735553777549e-07 0.053598045022176188 0 -0.00015764290831606846 0.050511121910323226 0 -0.00010102365159674219 0.05265036361583382 0 -3.5654735553777549e-07 0.053598045022176188 0 -0.00053491093524316718 0.05568257701718049 0 -0.00010102365159674219 0.05265036361583382 0 -3.3319667805825967e-06 0.057993542843291376 0 -3.5654735553777549e-07 0.053598045022176188 0 -0.00053491093524316718 0.05568257701718049 0 -0.00053491093524316718 0.05568257701718049 0 -0.00010102365159674219 0.05265036361583382 0 -0.00037006705192478714 0.052153130476655943 0 -0.00039244456467393379 0.051042828241923195 0 -0.00037006705192478714 0.052153130476655943 0 -0.00053878043086031378 0.051123082636607295 0 -0.00039244456467393379 0.051042828241923195 0 -0.00010102365159674219 0.05265036361583382 0 -0.00037006705192478714 0.052153130476655943 0 -0.00053878043086031378 0.051123082636607295 0 -0.00084604532203459953 0.050615578620324127 0 -0.00069780882054171136 0.051588493440620005 0 -0.00039244456467393379 0.051042828241923195 0 -0.00053878043086031378 0.051123082636607295 0 -0.00084604532203459953 0.050615578620324127 0 -0.0013056843202925036 0.049051288349844291 0 -0.00039244456467393379 0.051042828241923195 0 -0.00084604532203459953 0.050615578620324127 0 -0.0013056843202925036 0.049051288349844291 0 -0.00084604532203459953 0.050615578620324127 0 -0.0015947589860909775 0.052276971629478051 0 -0.0013056843202925036 0.049051288349844291 0 -0.0015947589860909775 0.052276971629478051 0 -0.0033855540140197661 0.052858373100515638 0 -0.00065326858173272366 0.053177668115581479 0 -0.0015947589860909775 0.052276971629478051 0 -0.00069780882054171136 0.051588493440620005 0 -0.00084604532203459953 0.050615578620324127 0 -0.0015947589860909775 0.052276971629478051 0 -0.00069780882054171136 0.051588493440620005 0 -0.00065326858173272366 0.053177668115581479 0 -0.00088926332362194115 0.055571220434489088 0 -0.0020442800304519412 0.054380046433391324 0 -0.00065326858173272366 0.053177668115581479 0 -0.0015947589860909775 0.052276971629478051 0 -0.0020442800304519412 0.054380046433391324 0 -0.0015947589860909775 0.052276971629478051 0 -0.0020442800304519412 0.054380046433391324 0 -0.0026672105569736245 0.054251087164386806 0 -0.0015947589860909775 0.052276971629478051 0 -0.0026672105569736245 0.054251087164386806 0 -0.0033855540140197661 0.052858373100515638 0 -0.0020442800304519412 0.054380046433391324 0 -0.0026672105569736245 0.054251087164386806 0 -0.0021497457413306473 0.055093853419508274 0 -0.0033255427682627498 0.057158887276855475 0 -0.0039711161003299494 0.053211159501162071 0 -0.0026672105569736245 0.054251087164386806 0 -0.0021497457413306473 0.055093853419508274 0 -0.0036947182413177449 0.05511389999726915 0 -0.0020442800304519412 0.054380046433391324 0 -0.0040069688444158832 0.057192895687879976 0 -0.0028096381261997743 0.057325126440217783 0 -0.0033255427682627498 0.057158887276855475 0 -0.003319535970134878 0.057162438658064613 0 -0.00088926332362194115 0.055571220434489088 0 -0.0020442800304519412 0.054380046433391324 0 -0.0028096381261997743 0.057325126440217783 0 -0.0031033987982378606 0.056560169968063415 0 -0.0033255427682627498 0.057158887276855475 0 -0.00088926332362194115 0.055571220434489088 0 -0.0011742849744524164 0.057784546105245665 0 -0.0028096381261997743 0.057325126440217783 0 -0.0011742849744524164 0.057784546105245665 0 -0.0028096381261997743 0.057325126440217783 0 -0.0026046002839082926 0.059371389624352872 0 -0.0048360201714369036 0.057224034459115662 0 -0.0036418875472950976 0.058670075525967917 0 -0.0043802016046031629 0.06062407876062937 0 -0.0028096381261997743 0.057325126440217783 0 -0.0036418875472950976 0.058670075525967917 0 -0.0026046002839082926 0.059371389624352872 0 -0.0048360201714369036 0.057224034459115662 0 -0.0028096381261997743 0.057325126440217783 0 -0.0036418875472950976 0.058670075525967917 0 -0.0043802016046031629 0.06062407876062937 0 -0.0026046002839082926 0.059371389624352872 0 -0.002621339422106338 0.061692305801994023 0 -0.0036418875472950976 0.058670075525967917 0 -0.0043802016046031629 0.06062407876062937 0 -0.0026046002839082926 0.059371389624352872 0 -0.00071198149254478272 0.059859561111026763 0 -0.0026046002839082926 0.059371389624352872 0 -0.002621339422106338 0.061692305801994023 0 -0.0043802016046031629 0.06062407876062937 0 -0.002621339422106338 0.061692305801994023 0 -0.0037228576484667182 0.063753876978008897 0 -0.00098358887168367086 0.063837264985377576 0 -0.002621339422106338 0.061692305801994023 0 -0.0037228576484667182 0.063753876978008897 0 -0.0043802016046031629 0.06062407876062937 0 -0.0037228576484667182 0.063753876978008897 0 -0.0068032383893523634 0.062983182862472953 0 -0.0048360201714369036 0.057224034459115662 0 -0.0043802016046031629 0.06062407876062937 0 -0.0068032383893523634 0.062983182862472953 0 -0.0044466755751088631 0.062204737494818377 0 -0.0055617530837405197 0.065403231563262582 0 -0.0062176360997779076 0.063598569873216923 0 -0.0044466755751088631 0.062204737494818377 0 -0.0062176360997779076 0.063598569873216923 0 -0.0072564029907112833 0.06197286371841175 0 -0.0033255427682627498 0.057158887276855475 0 -0.0056422557530455206 0.06347318437481296 0 -0.0062176360997779076 0.063598569873216923 0 -0.0075959590010923643 0.064797312347517705 0 -0.0072564029907112833 0.06197286371841175 0 -0.0055699717262176086 0.05968160656759023 0 -0.0039711161003299494 0.053211159501162071 0 -0.0055617530837405197 0.065403231563262582 0 -0.0062176360997779076 0.063598569873216923 0 -0.0075959590010923643 0.064797312347517705 0 -0.0055617530837405197 0.065403231563262582 0 -0.0075959590010923643 0.064797312347517705 0 -0.0069213931970028729 0.066528819685028356 0 -0.0053925398840791719 0.056277841220352939 0 -0.0078409789671304436 0.058200686418542688 0 -0.0087968195151831696 0.054706059808679951 0 -0.0078409789671304436 0.058200686418542688 0 -0.0087968195151831696 0.054706059808679951 0 -0.010438065663605948 0.058086783392021647 0 -0.0053925398840791719 0.056277841220352939 0 -0.0087968195151831696 0.054706059808679951 0 -0.0047718571841566136 0.05144043683977869 0 -0.0087968195151831696 0.054706059808679951 0 -0.0047718571841566136 0.05144043683977869 0 -0.0095577529340594262 0.051034915684725159 0 -0.00095664809720316418 0.042653548734180972 0 0.00013618975819590089 0.044102909900646671 0 0.0010782100592762131 0.042842440772253881 0 -0.0039711161003299494 0.053211159501162071 0 -0.0045599451504081583 0.048069031842764259 0 -0.0026672105569736245 0.054251087164386806 0 -0.0036947182413177449 0.05511389999726915 0 -0.0033855540140197661 0.052858373100515638 0 -0.0039711161003299494 0.053211159501162071 0 -0.0028889845120945714 0.049814948949168568 0 -0.00095664809720316418 0.042653548734180972 0 -0.0013054904387842759 0.044951629162241255 0 0.00013618975819590089 0.044102909900646671 0 0.00013618975819590089 0.044102909900646671 0 0.0016415446488895554 0.044613256439415105 0 0.0010782100592762131 0.042842440772253881 0 0.00029686948742347301 0.046274165791475572 0 -0.0013054904387842759 0.044951629162241255 0 0.00013618975819590089 0.044102909900646671 0 0.00029686948742347301 0.046274165791475572 0 0.00013618975819590089 0.044102909900646671 0 0.0016415446488895554 0.044613256439415105 0 0.00093462727175004331 0.044463662339944574 0 0.00074283328566584681 0.044360696428566437 0 0.00087802717190027361 0.044259265219382796 0 0.00074283328566584681 0.044360696428566437 0 0.00087802717190027361 0.044259265219382796 0 0.00092581732833409917 0.044429398459345397 0 -0.0018613186811117862 0.043073692450275251 0 -0.0057193521956727554 0.043428361502794631 0 0.00077432641759221166 0.043965689129021893 0 0.00087802717190027361 0.044259265219382796 0 0.00092581732833409917 0.044429398459345397 0 0.0016415446488895554 0.044613256439415105 0 0.0030436048135250651 0.043018833924181987 0 0.0010782100592762131 0.042842440772253881 0 -0.0057193521956727554 0.043428361502794631 0 -0.0045599451504081583 0.048069031842764259 0 -0.014334623862810956 0.050619039343395213 0 -0.0095577529340594262 0.051034915684725159 0 -0.013037081086449159 0.05481165212597134 0 -0.0087968195151831696 0.054706059808679951 0 -0.0095577529340594262 0.051034915684725159 0 -0.013037081086449159 0.05481165212597134 0 -0.0087968195151831696 0.054706059808679951 0 -0.010438065663605948 0.058086783392021647 0 -0.013037081086449159 0.05481165212597134 0 -0.013037081086449159 0.05481165212597134 0 -0.018032657962808375 0.054689066738288938 0 -0.015639760150088937 0.059309240455831969 0 -0.010438065663605948 0.058086783392021647 0 -0.013037081086449159 0.05481165212597134 0 -0.015639760150088937 0.059309240455831969 0 -0.014334623862810956 0.050619039343395213 0 -0.013037081086449159 0.05481165212597134 0 -0.018032657962808375 0.054689066738288938 0 -0.0057193521956727554 0.043428361502794631 0 -0.0072867291045866037 0.038565892837251821 0 -0.0072867291045866037 0.038565892837251821 0 -0.009874192365609151 0.039621015689723565 0 -0.0088169387217351854 0.023473190188803127 0 -0.0076172777330733316 0.022106878572933832 0 -0.0097010677354573121 0.021685245720440539 0 -0.0092894567177434634 0.023739495317389503 0 -0.0076172777330733316 0.022106878572933832 0 -0.0074499434649270575 0.024313384692767143 0 -0.0072867291045866037 0.038565892837251821 0 -0.0047041002468497968 0.032457806545023019 0 -0.0092894567177434634 0.023739495317389503 0 -0.0074499434649270575 0.024313384692767143 0 -0.0079939615692946903 0.026617846493960158 0 -0.0072867291045866037 0.038565892837251821 0 -0.0052123552069101818 0.038208063083024074 0 -0.0074499434649270575 0.024313384692767143 0 -0.0079939615692946903 0.026617846493960158 0 -0.0063097419983495131 0.02685596119831328 0 -0.0052123552069101818 0.038208063083024074 0 -0.0056281589111615415 0.037592699940561962 0 -0.0057193521956727554 0.043428361502794631 0 -0.0052123552069101818 0.038208063083024074 0 0.00092581732833409917 0.044429398459345397 0 0.0002883832141372732 0.044498690100697763 0 0.00040058229422922759 0.044089872902187993 0 -0.0058250475140957563 0.040377339130402097 0 -0.0059396388577486383 0.040497194701061043 0 -0.0060129775881583121 0.040354927427570901 0 0.00077432641759221166 0.043965689129021893 0 0.00092581732833409917 0.044429398459345397 0 0.00040058229422922759 0.044089872902187993 0 -0.0052123552069101818 0.038208063083024074 0 -0.0042515153177587004 0.037305147126806729 0 0.0002883832141372732 0.044498690100697763 0 0.00040058229422922759 0.044089872902187993 0 -0.00028273670597872531 0.043795239099851176 0 -0.0077168299845388321 0.026752179310586387 0 -0.006253982416808742 0.029294671176070399 0 -0.0063097419983495131 0.02685596119831328 0 -0.0079905130275705304 0.017744484487896436 0 -0.0076411358817815717 0.019005548756390437 0 -0.0070069282903039466 0.017892541668391854 0 -0.0079905130275705304 0.017744484487896436 0 -0.0090314527599802616 0.017345366045498592 0 -0.0081583312053891029 0.016700414092470028 0 -0.0079905130275705304 0.017744484487896436 0 -0.0090314527599802616 0.017345366045498592 0 -0.0089449888825881407 0.018744770608065335 0 -0.0090314527599802616 0.017345366045498592 0 -0.0089449888825881407 0.018744770608065335 0 -0.009961825020002691 0.018013715741129446 0 -0.0089449888825881407 0.018744770608065335 0 -0.0076411358817815717 0.019005548756390437 0 -0.0084433885043776278 0.020332699513904592 0 -0.0079905130275705304 0.017744484487896436 0 -0.0089449888825881407 0.018744770608065335 0 -0.0076411358817815717 0.019005548756390437 0 -0.0076411358817815717 0.019005548756390437 0 -0.0084433885043776278 0.020332699513904592 0 -0.0069347943020635809 0.020331812537010458 0 -0.0076172777330733316 0.022106878572933832 0 -0.0084433885043776278 0.020332699513904592 0 -0.0069347943020635809 0.020331812537010458 0 -0.0076172777330733316 0.022106878572933832 0 -0.0084433885043776278 0.020332699513904592 0 -0.0097010677354573121 0.021685245720440539 0 -0.0084433885043776278 0.020332699513904592 0 -0.010467670185299935 0.019896472939914471 0 -0.0097010677354573121 0.021685245720440539 0 -0.0089449888825881407 0.018744770608065335 0 -0.0084433885043776278 0.020332699513904592 0 -0.010467670185299935 0.019896472939914471 0 -0.010333934015591163 0.041272448914008088 0 -0.009874192365609151 0.039621015689723565 0 -0.010438065663605948 0.058086783392021647 0 -0.015639760150088937 0.059309240455831969 0 -0.011616829024900991 0.060981250953561453 0 -0.013198187796388485 0.063950497736757428 0 -0.015639760150088937 0.059309240455831969 0 -0.011616829024900991 0.060981250953561453 0 -0.010438065663605948 0.058086783392021647 0 -0.011616829024900991 0.060981250953561453 0 -0.0088941590980730709 0.06044713940490111 0 -0.011616829024900991 0.060981250953561453 0 -0.009248052612995673 0.063135012051727474 0 -0.0088941590980730709 0.06044713940490111 0 -0.013198187796388485 0.063950497736757428 0 -0.0093222626392233752 0.065836364500669195 0 -0.009248052612995673 0.063135012051727474 0 -0.013198187796388485 0.063950497736757428 0 -0.011616829024900991 0.060981250953561453 0 -0.009248052612995673 0.063135012051727474 0 -0.013198187796388485 0.063950497736757428 0 -0.010578077380929059 0.068447121413254666 0 -0.0093222626392233752 0.065836364500669195 0 -0.010333934015591163 0.041272448914008088 0 -0.0098781358432149177 0.042738746529358364 0 -0.010578077380929059 0.068447121413254666 0 -0.0086532843475710733 0.067665154068388522 0 -0.0093222626392233752 0.065836364500669195 0 -0.0089449888825881407 0.018744770608065335 0 -0.010467670185299935 0.019896472939914471 0 -0.009961825020002691 0.018013715741129446 0 -0.010467670185299935 0.019896472939914471 0 -0.009961825020002691 0.018013715741129446 0 -0.011044916604598968 0.018267619162499884 0 -0.009961825020002691 0.018013715741129446 0 -0.010632145170486046 0.017472900654716666 0 -0.009930261073037943 0.016900259293585348 0 -0.0090314527599802616 0.017345366045498592 0 -0.009961825020002691 0.018013715741129446 0 -0.009930261073037943 0.016900259293585348 0 -0.011044916604598968 0.018267619162499884 0 -0.011447066177439768 0.017179944666100063 0 -0.010632145170486046 0.017472900654716666 0 -0.009961825020002691 0.018013715741129446 0 -0.011044916604598968 0.018267619162499884 0 -0.010632145170486046 0.017472900654716666 0 -0.0098781358432149177 0.042738746529358364 0 -0.008793091172067476 0.044103313156413471 0 -0.0079001441209472969 0.07020371695006708 0 -0.0076600163356190295 0.070096135028978074 0 -0.0079106380562003909 0.069508636589864323 0 -0.010578077380929059 0.068447121413254666 0 -0.0079001441209472969 0.07020371695006708 0 -0.0083939437996694392 0.07104530193157195 0 -0.0079001441209472969 0.07020371695006708 0 -0.0068144655747738453 0.066009717420933478 0 -0.0086532843475710733 0.067665154068388522 0 -0.010578077380929059 0.068447121413254666 0 -0.0079001441209472969 0.07020371695006708 0 -0.0086532843475710733 0.067665154068388522 0 -0.0072883774758344859 0.068195418659152574 0 -0.0070469845318304998 0.06684078839496306 0 -0.0079001441209472969 0.07020371695006708 0 -0.0073709135109589659 0.0705778942399546 0 -0.0076600163356190295 0.070096135028978074 0 -0.0076600163356190295 0.070096135028978074 0 -0.0064980622709285294 0.070376313565206697 0 -0.006840691461197093 0.070682992650907245 0 -0.0073709135109589659 0.0705778942399546 0 -0.0076600163356190295 0.070096135028978074 0 -0.006840691461197093 0.070682992650907245 0 -0.0073709135109589659 0.0705778942399546 0 -0.006840691461197093 0.070682992650907245 0 -0.0068654213032069353 0.070936766350599645 0 -0.0076600163356190295 0.070096135028978074 0 -0.0079106380562003909 0.069508636589864323 0 -0.0067442492605881083 0.068318546568214261 0 -0.0076600163356190295 0.070096135028978074 0 -0.0078039071609302584 0.068000786477626501 0 -0.0069414357909810646 0.069568666911567573 0 -0.0073239105379970092 0.068544038140237531 0 -0.0068758509199684549 0.067120366428786077 0 -0.0076600163356190295 0.070096135028978074 0 -0.0069414357909810646 0.069568666911567573 0 -0.0064980622709285294 0.070376313565206697 0 -0.0068144655747738453 0.066009717420933478 0 -0.0086532843475710733 0.067665154068388522 0 -0.0093222626392233752 0.065836364500669195 0 -0.0068144655747738453 0.066009717420933478 0 -0.0093222626392233752 0.065836364500669195 0 -0.009248052612995673 0.063135012051727474 0 -0.0070469845318304998 0.06684078839496306 0 -0.0064761085329920432 0.063813740714628461 0 -0.0068144655747738453 0.066009717420933478 0 -0.009248052612995673 0.063135012051727474 0 -0.0060406980951721138 0.061148329263590026 0 -0.0053925398840791719 0.056277841220352939 0 -0.0078409789671304436 0.058200686418542688 0 -0.0060406980951721138 0.061148329263590026 0 -0.009248052612995673 0.063135012051727474 0 -0.0088941590980730709 0.06044713940490111 0 -0.0060406980951721138 0.061148329263590026 0 -0.0078409789671304436 0.058200686418542688 0 -0.0088941590980730709 0.06044713940490111 0 -0.0060406980951721138 0.061148329263590026 0 -0.0078409789671304436 0.058200686418542688 0 -0.010438065663605948 0.058086783392021647 0 -0.0088941590980730709 0.06044713940490111 0 -0.0075959590010923643 0.064797312347517705 0 -0.0069213931970028729 0.066528819685028356 0 -0.0078274516619549848 0.067492862774273132 0 -0.0069213931970028729 0.066528819685028356 0 -0.0078274516619549848 0.067492862774273132 0 -0.0067442492605881083 0.068318546568214261 0 -0.0055699717262176086 0.05968160656759023 0 -0.0064761085329920432 0.063813740714628461 0 -0.0055617530837405197 0.065403231563262582 0 -0.0069213931970028729 0.066528819685028356 0 -0.0067442492605881083 0.068318546568214261 0 -0.0079106380562003909 0.069508636589864323 0 -0.0078274516619549848 0.067492862774273132 0 -0.0067442492605881083 0.068318546568214261 0 -0.0078039071609302584 0.068000786477626501 0 -0.0052729171685830202 0.066306074421581832 0 -0.0056191917304605158 0.069553356581112433 0 -0.0078039071609302584 0.068000786477626501 0 -0.0056191917304605158 0.069553356581112433 0 -0.0069414357909810646 0.069568666911567573 0 -0.0037228576484667182 0.063753876978008897 0 -0.0068032383893523634 0.062983182862472953 0 -0.0052729171685830202 0.066306074421581832 0 -0.0068032383893523634 0.062983182862472953 0 -0.0078039071609302584 0.068000786477626501 0 -0.0052729171685830202 0.066306074421581832 0 -0.0056422557530455206 0.06347318437481296 0 -0.0068758509199684549 0.067120366428786077 0 -0.00098358887168367086 0.063837264985377576 0 -0.0037228576484667182 0.063753876978008897 0 -0.0023948956079281659 0.066755244027282917 0 -0.0037228576484667182 0.063753876978008897 0 -0.0052729171685830202 0.066306074421581832 0 -0.0023948956079281659 0.066755244027282917 0 -0.0052729171685830202 0.066306074421581832 0 -0.0023948956079281659 0.066755244027282917 0 -0.0056191917304605158 0.069553356581112433 0 -0.0023948956079281659 0.066755244027282917 0 -0.0056191917304605158 0.069553356581112433 0 -0.00067516985958884508 0.069868939757695855 0 -0.0056191917304605158 0.069553356581112433 0 -0.0064980622709285294 0.070376313565206697 0 -0.0052970511981388592 0.071302917579974492 0 -0.0056191917304605158 0.069553356581112433 0 -0.0052970511981388592 0.071302917579974492 0 -0.0043534325200084668 0.070181385473066113 0 -0.0037576356704621962 0.070401113278561231 0 -0.0025381539334690209 0.070579408580201744 0 -0.0056191917304605158 0.069553356581112433 0 -0.0069414357909810646 0.069568666911567573 0 -0.0064980622709285294 0.070376313565206697 0 -0.0064980622709285294 0.070376313565206697 0 -0.0062267987190664578 0.070949032593938186 0 -0.0052970511981388592 0.071302917579974492 0 -0.0064980622709285294 0.070376313565206697 0 -0.006840691461197093 0.070682992650907245 0 -0.0062267987190664578 0.070949032593938186 0 -0.006840691461197093 0.070682992650907245 0 -0.0062267987190664578 0.070949032593938186 0 -0.00647181118478048 0.071052926756860882 0 -0.0062267987190664578 0.070949032593938186 0 -0.0052970511981388592 0.071302917579974492 0 -0.0061209648361870359 0.07119908686991995 0 -0.0052970511981388592 0.071302917579974492 0 -0.0061522499835366881 0.07131080640269441 0 -0.0061209648361870359 0.07119908686991995 0 -0.0052970511981388592 0.071302917579974492 0 -0.0059856610789438304 0.074432745998748592 0 -0.0046150226864179128 0.072939030183782741 0 -0.0049208226297029018 0.071879003220566992 0 -0.0047806638210929273 0.072116248038614938 0 -0.0061522499835366881 0.07131080640269441 0 -0.0062809724483806131 0.071285318097766684 0 -0.0061209648361870359 0.07119908686991995 0 -0.0059856610789438304 0.074432745998748592 0 -0.0050848374410247905 0.07452473748853676 0 -0.0046150226864179128 0.072939030183782741 0 -0.0062267987190664578 0.070949032593938186 0 -0.0061209648361870359 0.07119908686991995 0 -0.00647181118478048 0.071052926756860882 0 -0.0061209648361870359 0.07119908686991995 0 -0.00647181118478048 0.071052926756860882 0 -0.0064000531703185407 0.071214164770121144 0 -0.006840691461197093 0.070682992650907245 0 -0.00647181118478048 0.071052926756860882 0 -0.0068654213032069353 0.070936766350599645 0 -0.00647181118478048 0.071052926756860882 0 -0.0068654213032069353 0.070936766350599645 0 -0.0067652656014944726 0.071176501636244352 0 -0.0068654213032069353 0.070936766350599645 0 -0.0067652656014944726 0.071176501636244352 0 -0.0071608745478998438 0.070998590637795192 0 -0.00647181118478048 0.071052926756860882 0 -0.0067652656014944726 0.071176501636244352 0 -0.0064000531703185407 0.071214164770121144 0 -0.0062809724483806131 0.071285318097766684 0 -0.0061209648361870359 0.07119908686991995 0 -0.0064000531703185407 0.071214164770121144 0 -0.0067652656014944726 0.071176501636244352 0 -0.0064000531703185407 0.071214164770121144 0 -0.0065423997224284009 0.071311812544357422 0 -0.0062809724483806131 0.071285318097766684 0 -0.0064000531703185407 0.071214164770121144 0 -0.0065423997224284009 0.071311812544357422 0 -0.0062809724483806131 0.071285318097766684 0 -0.0065423997224284009 0.071311812544357422 0 -0.0064528454944938769 0.071510898128669079 0 -0.0064528454944938769 0.071510898128669079 0 -0.0067006762268258437 0.071729666091730412 0 -0.0063300354514374086 0.072131927624194597 0 -0.0065423997224284009 0.071311812544357422 0 -0.0064528454944938769 0.071510898128669079 0 -0.0067311940651658651 0.071406526340224166 0 -0.0067311940651658651 0.071406526340224166 0 -0.0070491360078383967 0.071553641914062466 0 -0.0071608783473176918 0.071219102430163259 0 -0.0067652656014944726 0.071176501636244352 0 -0.0065423997224284009 0.071311812544357422 0 -0.0067311940651658651 0.071406526340224166 0 -0.0067652656014944726 0.071176501636244352 0 -0.0067311940651658651 0.071406526340224166 0 -0.0071608783473176918 0.071219102430163259 0 -0.0067311940651658651 0.071406526340224166 0 -0.0067006762268258437 0.071729666091730412 0 -0.0070491360078383967 0.071553641914062466 0 -0.0067006762268258437 0.071729666091730412 0 -0.0069099723818990206 0.071948688286382526 0 -0.0070491360078383967 0.071553641914062466 0 -0.0064528454944938769 0.071510898128669079 0 -0.0067311940651658651 0.071406526340224166 0 -0.0067006762268258437 0.071729666091730412 0 -0.0058991767695940958 0.074895956579364473 0 -0.0064553103684054829 0.076681147795917101 0 -0.0044752132436656905 0.075675806499768045 0 -0.0047806638210929273 0.072116248038614938 0 -0.0033501219487467558 0.069475182412571487 0 -0.0034065487401500872 0.073201923036964434 0 -0.0027643407617825968 0.073121686177805817 0 -0.0058991767695940958 0.074895956579364473 0 -0.0050848374410247905 0.07452473748853676 0 -0.0042187714463362775 0.075767227757275193 0 -0.0061522499835366881 0.07131080640269441 0 -0.0064528454944938769 0.071510898128669079 0 -0.0063300354514374086 0.072131927624194597 0 -0.0059856610789438304 0.074432745998748592 0 -0.0058991767695940958 0.074895956579364473 0 -0.0064553103684054829 0.076681147795917101 0 -0.0061522499835366881 0.07131080640269441 0 -0.0062809724483806131 0.071285318097766684 0 -0.0064528454944938769 0.071510898128669079 0 -0.0059856610789438304 0.074432745998748592 0 -0.0058991767695940958 0.074895956579364473 0 -0.0050848374410247905 0.07452473748853676 0 -0.0033501219487467558 0.069475182412571487 0 -0.0027643407617825968 0.073121686177805817 0 3.8651459993423526e-05 0.074291137150639577 0 4.9781951333734212e-05 0.074278410027869321 0 5.0886013596320278e-05 0.074302938582008315 0 3.8651459993423526e-05 0.074291137150639577 0 4.8788666866897465e-05 0.074301853313679306 0 5.0886013596320278e-05 0.074302938582008315 0 3.8651459993423526e-05 0.074291137150639577 0 4.8788666866897465e-05 0.074301853313679306 0 6.2191513093313986e-05 0.074302210879094124 0 4.8788666866897465e-05 0.074301853313679306 0 5.0155262762003043e-05 0.074306818615341441 0 6.2191513093313986e-05 0.074302210879094124 0 4.8788666866897465e-05 0.074301853313679306 0 5.0886013596320278e-05 0.074302938582008315 0 5.0155262762003043e-05 0.074306818615341441 0 0.003060605642322353 0.059430022879195944 0 0.00060296483905743247 0.061850443312539236 0 0.0023428585904317904 0.062719664537382272 0 0.003060605642322353 0.059430022879195944 0 9.8936836812773903e-05 0.060898376095671738 0 0.00060296483905743247 0.061850443312539236 0 -0.0033501219487467558 0.069475182412571487 0 -0.0010831834930340165 0.068857888170853768 0 -0.0063300354514374086 0.072131927624194597 0 -0.0069099723818990206 0.071948688286382526 0 -0.0071825704919995376 0.072606523595792546 0 -0.0033501219487467558 0.069475182412571487 0 -0.0015505544592319005 0.061292543385542957 0 -0.0067006762268258437 0.071729666091730412 0 -0.0063300354514374086 0.072131927624194597 0 -0.0069099723818990206 0.071948688286382526 0 -0.0069099723818990206 0.071948688286382526 0 -0.0072764222389620475 0.071852011885268879 0 -0.0070491360078383967 0.071553641914062466 0 -0.0069099723818990206 0.071948688286382526 0 -0.0072764222389620475 0.071852011885268879 0 -0.0071825704919995376 0.072606523595792546 0 -0.0058654604753421175 0.047717940285024601 0 -0.0015505544592319005 0.061292543385542957 0 -0.0010904903671114577 0.056765252480170419 0 0.00070610247805461023 0.060183120903962682 0 -0.0014092961581954125 0.059126013324199644 0 -0.0072764222389620475 0.071852011885268879 0 -0.0077322826151793424 0.071721860489598929 0 -0.0071825704919995376 0.072606523595792546 0 0.00070610247805461023 0.060183120903962682 0 -0.0020992787931808543 0.060294060993137215 0 -0.0014092961581954125 0.059126013324199644 0 -0.0015505544592319005 0.061292543385542957 0 -0.0023607438764593771 0.06175154690956549 0 7.5042139022055563e-05 0.060842336481872837 0 -0.00072092262483966886 0.062180275184525027 0 -0.0024324611572402077 0.062059465024243671 0 -0.0015505544592319005 0.061292543385542957 0 -0.0014713844912779012 0.061362065093895329 0 -0.00072092262483966886 0.062180275184525027 0 0.00060296483905743247 0.061850443312539236 0 -0.00017746872037139913 0.063074627343574607 0 7.5042139022055563e-05 0.060842336481872837 0 -0.00072092262483966886 0.062180275184525027 0 0.00060296483905743247 0.061850443312539236 0 -0.002187862182619715 0.061647991237259579 0 -0.003444156520993758 0.060312376052111726 0 -0.0049946059199287608 0.063180640354160059 0 0.00070610247805461023 0.060183120903962682 0 -0.002187862182619715 0.061647991237259579 0 -0.0020992787931808543 0.060294060993137215 0 -0.0020992787931808543 0.060294060993137215 0 -0.003444156520993758 0.060312376052111726 0 -0.0014092961581954125 0.059126013324199644 0 -0.002187862182619715 0.061647991237259579 0 -0.0020992787931808543 0.060294060993137215 0 -0.003444156520993758 0.060312376052111726 0 -0.012173733721805947 0.016004549128670359 0 -0.011589479571950142 0.014089663168887368 0 -0.011536559735302113 0.015266909772979904 0 -0.0058654604753421175 0.047717940285024601 0 -0.0055392640353992949 0.040712821095212952 0 -0.011589479571950142 0.014089663168887368 0 -0.011536559735302113 0.015266909772979904 0 -0.011193510609922372 0.014662125885059302 0 -0.0010904903671114577 0.056765252480170419 0 -0.003444156520993758 0.060312376052111726 0 -0.0014092961581954125 0.059126013324199644 0 -0.012173733721805947 0.016004549128670359 0 -0.011536559735302113 0.015266909772979904 0 -0.011691584419650056 0.015834409851813488 0 -0.011536559735302113 0.015266909772979904 0 -0.011288549960909024 0.015791565614138997 0 -0.011691584419650056 0.015834409851813488 0 -0.011288549960909024 0.015791565614138997 0 -0.011523362771396799 0.016252732109434946 0 -0.011068057490592531 0.016446967442695703 0 -0.012173733721805947 0.016004549128670359 0 -0.011523362771396799 0.016252732109434946 0 -0.011447066177439768 0.017179944666100063 0 -0.0077684666854427892 0.071206569085402363 0 -0.0077079277135491831 0.071185131930588716 0 -0.0083939437996694392 0.07104530193157195 0 -0.0058654604753421175 0.047717940285024601 0 -0.008793091172067476 0.044103313156413471 0 -0.011288549960909024 0.015791565614138997 0 -0.011691584419650056 0.015834409851813488 0 -0.011523362771396799 0.016252732109434946 0 -0.011523362771396799 0.016252732109434946 0 -0.011447066177439768 0.017179944666100063 0 -0.011068057490592531 0.016446967442695703 0 -0.012173733721805947 0.016004549128670359 0 -0.011691584419650056 0.015834409851813488 0 -0.011523362771396799 0.016252732109434946 0 -0.0058654604753421175 0.047717940285024601 0 -0.0068172700962244575 0.049718485552726219 0 -0.0072764222389620475 0.071852011885268879 0 -0.0077322826151793424 0.071721860489598929 0 -0.007550366912594207 0.071341578165432434 0 -0.0077684666854427892 0.071206569085402363 0 -0.007550366912594207 0.071341578165432434 0 -0.0077079277135491831 0.071185131930588716 0 -0.0072764222389620475 0.071852011885268879 0 -0.007550366912594207 0.071341578165432434 0 -0.0070491360078383967 0.071553641914062466 0 -0.007550366912594207 0.071341578165432434 0 -0.0070491360078383967 0.071553641914062466 0 -0.0071608783473176918 0.071219102430163259 0 -0.007550366912594207 0.071341578165432434 0 -0.0071608783473176918 0.071219102430163259 0 -0.0077079277135491831 0.071185131930588716 0 -0.0071608783473176918 0.071219102430163259 0 -0.0077079277135491831 0.071185131930588716 0 -0.0075609141631220265 0.070894203217223409 0 -0.0067652656014944726 0.071176501636244352 0 -0.0071608783473176918 0.071219102430163259 0 -0.0071608745478998438 0.070998590637795192 0 -0.0071608783473176918 0.071219102430163259 0 -0.0075609141631220265 0.070894203217223409 0 -0.0071608745478998438 0.070998590637795192 0 -0.0073709135109589659 0.0705778942399546 0 -0.0068654213032069353 0.070936766350599645 0 -0.0071608745478998438 0.070998590637795192 0 -0.0079001441209472969 0.07020371695006708 0 -0.0073709135109589659 0.0705778942399546 0 -0.0075609141631220265 0.070894203217223409 0 -0.0073709135109589659 0.0705778942399546 0 -0.0075609141631220265 0.070894203217223409 0 -0.0071608745478998438 0.070998590637795192 0 -0.0079001441209472969 0.07020371695006708 0 -0.0075609141631220265 0.070894203217223409 0 -0.0083939437996694392 0.07104530193157195 0 -0.0077079277135491831 0.071185131930588716 0 -0.0075609141631220265 0.070894203217223409 0 -0.0083939437996694392 0.07104530193157195 0 -0.011447066177439768 0.017179944666100063 0 -0.010680954057966737 0.016802903552002996 0 -0.010632145170486046 0.017472900654716666 0 -0.011447066177439768 0.017179944666100063 0 -0.010680954057966737 0.016802903552002996 0 -0.011068057490592531 0.016446967442695703 0 -0.010680954057966737 0.016802903552002996 0 -0.009930261073037943 0.016900259293585348 0 -0.010293115447221252 0.015941019118660287 0 -0.010680954057966737 0.016802903552002996 0 -0.010632145170486046 0.017472900654716666 0 -0.009930261073037943 0.016900259293585348 0 -0.010293115447221252 0.015941019118660287 0 -0.0095498557902407837 0.015202904039363679 0 -0.0090880004547305385 0.016043498213601428 0 -0.009930261073037943 0.016900259293585348 0 -0.010293115447221252 0.015941019118660287 0 -0.0090880004547305385 0.016043498213601428 0 -0.010293115447221252 0.015941019118660287 0 -0.010795457304817405 0.015677235000479028 0 -0.010264400989495015 0.014901594910641774 0 -0.010293115447221252 0.015941019118660287 0 -0.010795457304817405 0.015677235000479028 0 -0.011068057490592531 0.016446967442695703 0 -0.010680954057966737 0.016802903552002996 0 -0.010293115447221252 0.015941019118660287 0 -0.011068057490592531 0.016446967442695703 0 -0.011288549960909024 0.015791565614138997 0 -0.010795457304817405 0.015677235000479028 0 -0.011068057490592531 0.016446967442695703 0 -0.011536559735302113 0.015266909772979904 0 -0.011288549960909024 0.015791565614138997 0 -0.011059115843288541 0.015195631367838903 0 -0.011288549960909024 0.015791565614138997 0 -0.010795457304817405 0.015677235000479028 0 -0.011059115843288541 0.015195631367838903 0 -0.010795457304817405 0.015677235000479028 0 -0.011059115843288541 0.015195631367838903 0 -0.010264400989495015 0.014901594910641774 0 -0.010784104877048836 0.014594200738323106 0 -0.010409196859241771 0.014110740755300777 0 -0.010264400989495015 0.014901594910641774 0 -0.011059115843288541 0.015195631367838903 0 -0.010784104877048836 0.014594200738323106 0 -0.010264400989495015 0.014901594910641774 0 -0.011536559735302113 0.015266909772979904 0 -0.011059115843288541 0.015195631367838903 0 -0.011193510609922372 0.014662125885059302 0 -0.011059115843288541 0.015195631367838903 0 -0.010784104877048836 0.014594200738323106 0 -0.011193510609922372 0.014662125885059302 0 -0.010784104877048836 0.014594200738323106 0 -0.011193510609922372 0.014662125885059302 0 -0.010916208097197269 0.014210093147551759 0 -0.011589479571950142 0.014089663168887368 0 -0.010652211516160364 0.013582019385434114 0 -0.010644165802478433 0.012503721991380145 0 -0.0055392640353992949 0.040712821095212952 0 -0.0067366032894997079 0.039299098434934759 0 -0.011589479571950142 0.014089663168887368 0 -0.010916208097197269 0.014210093147551759 0 -0.010652211516160364 0.013582019385434114 0 -0.011589479571950142 0.014089663168887368 0 -0.011193510609922372 0.014662125885059302 0 -0.010916208097197269 0.014210093147551759 0 -0.010916208097197269 0.014210093147551759 0 -0.010409196859241771 0.014110740755300777 0 -0.010652211516160364 0.013582019385434114 0 -0.010409196859241771 0.014110740755300777 0 -0.010652211516160364 0.013582019385434114 0 -0.010065142675809774 0.013634097907102112 0 -0.010784104877048836 0.014594200738323106 0 -0.010916208097197269 0.014210093147551759 0 -0.010409196859241771 0.014110740755300777 0 -0.0094838478081679337 0.013491718362272143 0 -0.010065142675809774 0.013634097907102112 0 -0.0099347757552618217 0.012963021118950136 0 -0.010652211516160364 0.013582019385434114 0 -0.010065142675809774 0.013634097907102112 0 -0.0099347757552618217 0.012963021118950136 0 -0.010409196859241771 0.014110740755300777 0 -0.010065142675809774 0.013634097907102112 0 -0.00987666214390907 0.014078930195926478 0 -0.0094838478081679337 0.013491718362272143 0 -0.00987666214390907 0.014078930195926478 0 -0.0093620110605819439 0.014352587052584308 0 -0.0094838478081679337 0.013491718362272143 0 -0.010065142675809774 0.013634097907102112 0 -0.00987666214390907 0.014078930195926478 0 -0.00987666214390907 0.014078930195926478 0 -0.010264400989495015 0.014901594910641774 0 -0.0093620110605819439 0.014352587052584308 0 -0.010409196859241771 0.014110740755300777 0 -0.00987666214390907 0.014078930195926478 0 -0.010264400989495015 0.014901594910641774 0 -0.010293115447221252 0.015941019118660287 0 -0.010264400989495015 0.014901594910641774 0 -0.0095498557902407837 0.015202904039363679 0 -0.010264400989495015 0.014901594910641774 0 -0.0095498557902407837 0.015202904039363679 0 -0.0093620110605819439 0.014352587052584308 0 -0.0086099511604574783 0.014757347153984243 0 -0.0093620110605819439 0.014352587052584308 0 -0.0087676511417870504 0.013577309441717015 0 -0.0095498557902407837 0.015202904039363679 0 -0.0086099511604574783 0.014757347153984243 0 -0.0093620110605819439 0.014352587052584308 0 -0.0094838478081679337 0.013491718362272143 0 -0.0093620110605819439 0.014352587052584308 0 -0.0087676511417870504 0.013577309441717015 0 -0.0094838478081679337 0.013491718362272143 0 -0.0087676511417870504 0.013577309441717015 0 -0.0090032952522219011 0.01266316196263821 0 -0.0079157468998332283 0.013655230147368755 0 -0.0077483578882736317 0.012447029499680502 0 -0.0070108748385165473 0.013144261206092901 0 -0.0087676511417870504 0.013577309441717015 0 -0.0079157468998332283 0.013655230147368755 0 -0.0077483578882736317 0.012447029499680502 0 -0.0086099511604574783 0.014757347153984243 0 -0.0079157468998332283 0.013655230147368755 0 -0.0074773539380951284 0.014420799780657729 0 -0.0086099511604574783 0.014757347153984243 0 -0.0087676511417870504 0.013577309441717015 0 -0.0079157468998332283 0.013655230147368755 0 -0.0086099511604574783 0.014757347153984243 0 -0.0079468069847449876 0.015586817971307716 0 -0.0074773539380951284 0.014420799780657729 0 -0.0095498557902407837 0.015202904039363679 0 -0.0086099511604574783 0.014757347153984243 0 -0.0090880004547305385 0.016043498213601428 0 -0.0086099511604574783 0.014757347153984243 0 -0.0079468069847449876 0.015586817971307716 0 -0.0090880004547305385 0.016043498213601428 0 -0.0090314527599802616 0.017345366045498592 0 -0.0090880004547305385 0.016043498213601428 0 -0.0081583312053891029 0.016700414092470028 0 -0.0090314527599802616 0.017345366045498592 0 -0.009930261073037943 0.016900259293585348 0 -0.0090880004547305385 0.016043498213601428 0 -0.0079468069847449876 0.015586817971307716 0 -0.0090880004547305385 0.016043498213601428 0 -0.0081583312053891029 0.016700414092470028 0 -0.0079468069847449876 0.015586817971307716 0 -0.0081583312053891029 0.016700414092470028 0 -0.0071809665154193422 0.0167516737899959 0 -0.0079905130275705304 0.017744484487896436 0 -0.0081583312053891029 0.016700414092470028 0 -0.0071809665154193422 0.0167516737899959 0 -0.00020943180684323537 0.07375568728608152 0 -0.00036631163851920319 0.073691851360652677 0 -0.0002200816886211195 0.074029367837799995 0 -0.00020943180684323537 0.07375568728608152 0 -0.0002200816886211195 0.074029367837799995 0 -0.00010160474923932349 0.074291246708169306 0 -0.00051754040848296049 0.073266768457201453 0 -0.00012829080389215711 0.072184250618061357 0 -0.00020943180684323537 0.07375568728608152 0 -0.00057398272128895912 0.073343034679674513 0 -0.00036631163851920319 0.073691851360652677 0 -0.00020943180684323537 0.07375568728608152 0 -0.00057398272128895912 0.073343034679674513 0 -0.00086891151996183909 0.072703427398679923 0 -0.00057398272128895912 0.073343034679674513 0 -0.00036631163851920319 0.073691851360652677 0 -0.00044602875110839174 0.073758820065031289 0 -0.00057398272128895912 0.073343034679674513 0 -0.00044602875110839174 0.073758820065031289 0 -0.00072358424217470704 0.073412455853148567 0 -0.00044602875110839174 0.073758820065031289 0 -0.00054938741907583093 0.073894984524346508 0 -0.00072358424217470704 0.073412455853148567 0 -0.00044602875110839174 0.073758820065031289 0 -0.00054938741907583093 0.073894984524346508 0 -0.000337424098947856 0.074168724267782413 0 -0.0002200816886211195 0.074029367837799995 0 -0.00015015567020719179 0.074373962005861036 0 -0.000337424098947856 0.074168724267782413 0 -0.0002200816886211195 0.074029367837799995 0 -0.00015015567020719179 0.074373962005861036 0 -7.1980166431590418e-05 0.074467877042751471 0 -0.00044602875110839174 0.073758820065031289 0 -0.0002200816886211195 0.074029367837799995 0 -0.000337424098947856 0.074168724267782413 0 -0.00036631163851920319 0.073691851360652677 0 -0.00044602875110839174 0.073758820065031289 0 -0.0002200816886211195 0.074029367837799995 0 -0.00015015567020719179 0.074373962005861036 0 -7.1980166431590418e-05 0.074467877042751471 0 -2.8932109287487334e-05 0.074718702666199677 0 -7.1980166431590418e-05 0.074467877042751471 0 -1.8005593787188091e-05 0.074722278477000414 0 -2.8932109287487334e-05 0.074718702666199677 0 -0.0002200816886211195 0.074029367837799995 0 -7.1980166431590418e-05 0.074467877042751471 0 -0.00010160474923932349 0.074291246708169306 0 -7.1980166431590418e-05 0.074467877042751471 0 -1.8005593787188091e-05 0.074722278477000414 0 -3.7483297247461705e-05 0.074592567356963999 0 6.220229214816797e-08 0.07499922719819592 0 -1.8005593787188091e-05 0.074722278477000414 0 -2.8932109287487334e-05 0.074718702666199677 0 6.220229214816797e-08 0.07499922719819592 0 -1.8005593787188091e-05 0.074722278477000414 0 2.4718639431210502e-05 0.074893289862560095 0 6.220229214816797e-08 0.07499922719819592 0 2.4718639431210502e-05 0.074893289862560095 0 7.5037541337591416e-09 0.074999791919557635 0 2.4718639431210502e-05 0.074893289862560095 0 -2.7867491211774143e-05 0.074654129684525755 0 9.9161445408399042e-05 0.074410530255748078 0 -1.8005593787188091e-05 0.074722278477000414 0 2.4718639431210502e-05 0.074893289862560095 0 -3.7483297247461705e-05 0.074592567356963999 0 2.4718639431210502e-05 0.074893289862560095 0 -3.7483297247461705e-05 0.074592567356963999 0 -2.7867491211774143e-05 0.074654129684525755 0 -0.00051754040848296049 0.073266768457201453 0 -0.00037352861494398314 0.073621621607814935 0 -0.00020943180684323537 0.07375568728608152 0 -2.7867491211774143e-05 0.074654129684525755 0 -0.00010160474923932349 0.074291246708169306 0 -3.7483297247461705e-05 0.074592567356963999 0 -2.7867491211774143e-05 0.074654129684525755 0 -0.00010160474923932349 0.074291246708169306 0 -7.1980166431590418e-05 0.074467877042751471 0 -3.7483297247461705e-05 0.074592567356963999 0 -0.00010160474923932349 0.074291246708169306 0 -2.7867491211774143e-05 0.074654129684525755 0 -0.00036252027866368622 0.074470345009175126 0 -0.00014278437630888877 0.074413870503900637 0 -0.00056793861169918884 0.074600399970094614 0 -2.7867491211774143e-05 0.074654129684525755 0 -0.00036252027866368622 0.074470345009175126 0 -0.00014278437630888877 0.074413870503900637 0 -7.8591036478152063e-05 0.074290199108357297 0 -0.00033799771596320814 0.074266224005025569 0 -0.00036252027866368622 0.074470345009175126 0 -0.00014278437630888877 0.074413870503900637 0 -0.00033799771596320814 0.074266224005025569 0 0.0001499084401262963 0.074641543771708896 0 0.00016154856447829383 0.074558018603678639 0 2.4718639431210502e-05 0.074893289862560095 0 7.5037541337591416e-09 0.074999791919557635 0 8.6537329756230322e-06 0.075012264920857191 0 7.5037541337591416e-09 0.074999791919557635 0 8.6537329756230322e-06 0.075012264920857191 0 9.0346127441679128e-09 0.075000134031546276 0 -2.7867491211774143e-05 0.074654129684525755 0 -0.00014278437630888877 0.074413870503900637 0 9.9161445408399042e-05 0.074410530255748078 0 -0.00014278437630888877 0.074413870503900637 0 9.9161445408399042e-05 0.074410530255748078 0 -7.8591036478152063e-05 0.074290199108357297 0 9.9161445408399042e-05 0.074410530255748078 0 -7.8591036478152063e-05 0.074290199108357297 0 7.344755837023166e-05 0.074074589720008174 0 0.00016154856447829383 0.074558018603678639 0 0.0001968749078077147 0.074324576899816114 0 -7.8591036478152063e-05 0.074290199108357297 0 7.344755837023166e-05 0.074074589720008174 0 -0.00033799771596320814 0.074266224005025569 0 8.6537329756230322e-06 0.075012264920857191 0 -6.5426653194597419e-07 0.075001474082815961 0 9.0346127441679128e-09 0.075000134031546276 0 0.0001968749078077147 0.074324576899816114 0 -9.8492157469577563e-08 0.074995412080904517 0 -0.00014399380275746781 0.071092358116459559 0 -0.0012305129411490684 0.070490007850340819 0 -1.0607000306444544e-05 0.06988435158745647 0 0.0001968749078077147 0.074324576899816114 0 0.00021460780006749355 0.073078934713048563 0 -0.00014399380275746781 0.071092358116459559 0 -1.0607000306444544e-05 0.06988435158745647 0 0.00065432732200108748 0.070593998968683541 0 0.00065432732200108748 0.070593998968683541 0 0.00073399721234389617 0.069872043174066076 0 0.0012935531870870041 0.069810252704119793 0 -1.0607000306444544e-05 0.06988435158745647 0 0.00065432732200108748 0.070593998968683541 0 0.00073399721234389617 0.069872043174066076 0 -1.0607000306444544e-05 0.06988435158745647 0 0.00073399721234389617 0.069872043174066076 0 0.00098424897126616674 0.069152207919961559 0 0.00021460780006749355 0.073078934713048563 0 0.00024505229842653386 0.072392494082021794 0 -0.00036252027866368622 0.074470345009175126 0 -0.00033799771596320814 0.074266224005025569 0 -0.00070669678174634576 0.074437894284829512 0 -0.00056793861169918884 0.074600399970094614 0 -0.00036252027866368622 0.074470345009175126 0 -0.00070669678174634576 0.074437894284829512 0 0.00024505229842653386 0.072392494082021794 0 -0.00012829080389215711 0.072184250618061357 0 0.00098424897126616674 0.069152207919961559 0 0.0012935531870870041 0.069810252704119793 0 0.0022915666801306567 0.06841165807589282 0 -0.00056793861169918884 0.074600399970094614 0 -0.00070669678174634576 0.074437894284829512 0 -0.001048056145768791 0.074579103129142288 0 0.0012734422599567847 0.071021875465872894 0 0.0012935531870870041 0.069810252704119793 0 0.0018865607024242381 0.069853621191613174 0 0.0012734422599567847 0.071021875465872894 0 0.00065432732200108748 0.070593998968683541 0 0.0012935531870870041 0.069810252704119793 0 0.00073399721234389617 0.069872043174066076 0 0.00098424897126616674 0.069152207919961559 0 0.0012935531870870041 0.069810252704119793 0 0.0019675456107069718 0.070723808803609498 0 0.0018865607024242381 0.069853621191613174 0 0.0024922363325431533 0.069255530757747513 0 0.0027220717498178167 0.065874802845033498 0 0.0028594959471300741 0.06695071751302456 0 0.0028100225217032354 0.071127210800477778 0 0.0024922363325431533 0.069255530757747513 0 0.0033047522898918035 0.068214371546504865 0 0.0028358750627658835 0.06865335857429157 0 0.0029533544237359799 0.069095223910917145 0 0.0022915666801306567 0.06841165807589282 0 0.0024922363325431533 0.069255530757747513 0 0.0033047522898918035 0.068214371546504865 0 0.0028358750627658835 0.06865335857429157 0 0.0033047522898918035 0.068214371546504865 0 0.0028358750627658835 0.06865335857429157 0 0.0029533544237359799 0.069095223910917145 0 0.0012935531870870041 0.069810252704119793 0 0.0018865607024242381 0.069853621191613174 0 0.0022915666801306567 0.06841165807589282 0 0.0018865607024242381 0.069853621191613174 0 0.0024922363325431533 0.069255530757747513 0 0.0022915666801306567 0.06841165807589282 0 0.0024922363325431533 0.069255530757747513 0 0.0028358750627658835 0.06865335857429157 0 0.0022915666801306567 0.06841165807589282 0 -0.00098358887168367086 0.063837264985377576 0 0.0017327585334152517 0.064096185018955934 0 0.00047536960741708349 0.067129890455967789 0 -0.00098358887168367086 0.063837264985377576 0 -0.0023948956079281659 0.066755244027282917 0 0.00047536960741708349 0.067129890455967789 0 0.0045007941226648815 0.061307102652690196 0 0.0033047522898918035 0.068214371546504865 0 0.0017327585334152517 0.064096185018955934 0 0.0033047522898918035 0.068214371546504865 0 0.0017327585334152517 0.064096185018955934 0 0.00047536960741708349 0.067129890455967789 0 0.0033047522898918035 0.068214371546504865 0 0.0016222894865862772 0.068543269815188074 0 0.00047536960741708349 0.067129890455967789 0 0.0016222894865862772 0.068543269815188074 0 -0.00067516985958884508 0.069868939757695855 0 0.0029533544237359799 0.069095223910917145 0 0.0033047522898918035 0.068214371546504865 0 0.0016222894865862772 0.068543269815188074 0 0.0029533544237359799 0.069095223910917145 0 -0.0023948956079281659 0.066755244027282917 0 0.00047536960741708349 0.067129890455967789 0 -0.00067516985958884508 0.069868939757695855 0 0.0016222894865862772 0.068543269815188074 0 0.00047536960741708349 0.067129890455967789 0 -0.00067516985958884508 0.069868939757695855 0 -0.0052970511981388592 0.071302917579974492 0 -0.0043534325200084668 0.070181385473066113 0 -0.0041059046493704572 0.071670753950572041 0 -0.0043534325200084668 0.070181385473066113 0 -0.0032307587358713784 0.071400388802783904 0 -0.0041059046493704572 0.071670753950572041 0 -0.0043534325200084668 0.070181385473066113 0 -0.0032307587358713784 0.071400388802783904 0 -0.002234518625350357 0.070753424320866204 0 -0.0025381539334690209 0.070579408580201744 0 -0.00068634883917711282 0.071085631457770235 0 -0.0032307587358713784 0.071400388802783904 0 -0.0024638444312011227 0.072179842194165081 0 -0.0018370830769509226 0.071931019214971664 0 -0.0032307587358713784 0.071400388802783904 0 -0.002234518625350357 0.070753424320866204 0 -0.0018370830769509226 0.071931019214971664 0 -0.0024638444312011227 0.072179842194165081 0 -0.0031551648994994478 0.072593170402652368 0 -0.0021731807515170893 0.072855488872060059 0 -0.0031551648994994478 0.072593170402652368 0 -0.0021731807515170893 0.072855488872060059 0 -0.0023885812546089922 0.073526052326642138 0 -0.0032307587358713784 0.071400388802783904 0 -0.0024638444312011227 0.072179842194165081 0 -0.0031551648994994478 0.072593170402652368 0 -0.0032307587358713784 0.071400388802783904 0 -0.0031551648994994478 0.072593170402652368 0 -0.0041059046493704572 0.071670753950572041 0 -0.0031551648994994478 0.072593170402652368 0 -0.0041059046493704572 0.071670753950572041 0 -0.0046150226864179128 0.072939030183782741 0 -0.0052970511981388592 0.071302917579974492 0 -0.0041059046493704572 0.071670753950572041 0 -0.0046150226864179128 0.072939030183782741 0 -0.00086891151996183909 0.072703427398679923 0 -0.001094017894169183 0.073168305749189547 0 -0.00072358424217470704 0.073412455853148567 0 -0.00057398272128895912 0.073343034679674513 0 -0.00086891151996183909 0.072703427398679923 0 -0.00072358424217470704 0.073412455853148567 0 -0.00086891151996183909 0.072703427398679923 0 -0.0015324675947219117 0.072633190677485152 0 -0.001094017894169183 0.073168305749189547 0 -0.00012829080389215711 0.072184250618061357 0 -0.00075341315692207113 0.07231764596858431 0 -0.00068634883917711282 0.071085631457770235 0 -0.00012829080389215711 0.072184250618061357 0 -0.00086891151996183909 0.072703427398679923 0 -0.0018370830769509226 0.071931019214971664 0 -0.0015324675947219117 0.072633190677485152 0 -0.002234518625350357 0.070753424320866204 0 0.00074956740864174688 0.070796175564598884 0 -0.0018370830769509226 0.071931019214971664 0 -0.0024638444312011227 0.072179842194165081 0 -0.0018370830769509226 0.071931019214971664 0 -0.0015324675947219117 0.072633190677485152 0 -0.0015324675947219117 0.072633190677485152 0 -0.0016182058363030341 0.073256998216573027 0 -0.001094017894169183 0.073168305749189547 0 -0.0024638444312011227 0.072179842194165081 0 -0.0015324675947219117 0.072633190677485152 0 -0.0021731807515170893 0.072855488872060059 0 -0.0015324675947219117 0.072633190677485152 0 -0.0021731807515170893 0.072855488872060059 0 -0.0016182058363030341 0.073256998216573027 0 -0.0021731807515170893 0.072855488872060059 0 -0.0016182058363030341 0.073256998216573027 0 -0.0023885812546089922 0.073526052326642138 0 -0.0016182058363030341 0.073256998216573027 0 -0.001094017894169183 0.073168305749189547 0 -0.001216086996731655 0.07364250955721019 0 -0.001094017894169183 0.073168305749189547 0 -0.00080519712606995743 0.073817052600333749 0 -0.001216086996731655 0.07364250955721019 0 -0.001094017894169183 0.073168305749189547 0 -0.00072358424217470704 0.073412455853148567 0 -0.00080519712606995743 0.073817052600333749 0 -0.00054938741907583093 0.073894984524346508 0 -0.00072358424217470704 0.073412455853148567 0 -0.00080519712606995743 0.073817052600333749 0 -0.00080519712606995743 0.073817052600333749 0 -0.00077411443553943981 0.074264803343580058 0 -0.00053534202749370421 0.074213578381999976 0 -0.00080519712606995743 0.073817052600333749 0 -0.00077411443553943981 0.074264803343580058 0 -0.0010930126859925468 0.074072336908356906 0 -0.00077411443553943981 0.074264803343580058 0 -0.0010930126859925468 0.074072336908356906 0 -0.00096625173832882885 0.074436796847563907 0 -0.00080519712606995743 0.073817052600333749 0 -0.0010930126859925468 0.074072336908356906 0 -0.001216086996731655 0.07364250955721019 0 -0.0016182058363030341 0.073256998216573027 0 -0.001216086996731655 0.07364250955721019 0 -0.0016052803899830072 0.073864070797145076 0 -0.0010930126859925468 0.074072336908356906 0 -0.001216086996731655 0.07364250955721019 0 -0.0016052803899830072 0.073864070797145076 0 -0.0016182058363030341 0.073256998216573027 0 -0.0016052803899830072 0.073864070797145076 0 -0.0023885812546089922 0.073526052326642138 0 -0.0016052803899830072 0.073864070797145076 0 -0.0023885812546089922 0.073526052326642138 0 -0.0022099173736183416 0.074137496859253055 0 -0.0016052803899830072 0.073864070797145076 0 -0.001594924762941036 0.074295592959243179 0 -0.0022099173736183416 0.074137496859253055 0 -0.0010930126859925468 0.074072336908356906 0 -0.0012372335334278034 0.074208268728769497 0 -0.00096625173832882885 0.074436796847563907 0 -0.0016416728077616866 0.073785993644730805 0 -0.0016874710063133841 0.07378911049139715 0 -0.0010930126859925468 0.074072336908356906 0 -0.0016052803899830072 0.073864070797145076 0 -0.0016181214494426369 0.074304436648140598 0 -0.0016863099664166416 0.073805516853507669 0 -0.0016874710063133841 0.07378911049139715 0 -0.0016874710063133841 0.07378911049139715 0 -0.0023310789961752372 0.07360249080797758 0 -0.0016085126540922256 0.073588566594675511 0 -0.0016099452725530481 0.073682112004871625 0 -0.0016988570029596479 0.073632612966247443 0 -0.0012372335334278034 0.074208268728769497 0 -0.0011428514100895073 0.074602929970703183 0 -0.00096625173832882885 0.074436796847563907 0 -0.0016874710063133841 0.07378911049139715 0 -0.0012956180324745329 0.074088280546624266 0 -0.0011428514100895073 0.074602929970703183 0 -0.00096625173832882885 0.074436796847563907 0 -0.00079788555812116378 0.074753485076830328 0 -0.00096625173832882885 0.074436796847563907 0 -0.00079788555812116378 0.074753485076830328 0 -0.00054249111733430111 0.074583929978682378 0 -0.00077411443553943981 0.074264803343580058 0 -0.00096625173832882885 0.074436796847563907 0 -0.00054249111733430111 0.074583929978682378 0 -0.0031551648994994478 0.072593170402652368 0 -0.0046150226864179128 0.072939030183782741 0 -0.0034566326993223759 0.073731898034795448 0 -0.0050848374410247905 0.07452473748853676 0 -0.0043092799221748903 0.074384627296977965 0 -0.0046150226864179128 0.072939030183782741 0 -0.0043092799221748903 0.074384627296977965 0 -0.0034566326993223759 0.073731898034795448 0 -0.0036111400485545108 0.074682032063528983 0 -0.0043092799221748903 0.074384627296977965 0 -0.0046150226864179128 0.072939030183782741 0 -0.0034566326993223759 0.073731898034795448 0 -0.0028159286829334308 0.074168799741876457 0 -0.0034566326993223759 0.073731898034795448 0 -0.0023885812546089922 0.073526052326642138 0 -0.0028159286829334308 0.074168799741876457 0 -0.0034566326993223759 0.073731898034795448 0 -0.0036111400485545108 0.074682032063528983 0 -0.0031551648994994478 0.072593170402652368 0 -0.0034566326993223759 0.073731898034795448 0 -0.0023885812546089922 0.073526052326642138 0 -0.0028159286829334308 0.074168799741876457 0 -0.0022099173736183416 0.074137496859253055 0 -0.002766824922285244 0.074943256297966915 0 -0.0028159286829334308 0.074168799741876457 0 -0.0023885812546089922 0.073526052326642138 0 -0.0022099173736183416 0.074137496859253055 0 -0.001594924762941036 0.074295592959243179 0 -0.0022099173736183416 0.074137496859253055 0 -0.002766824922285244 0.074943256297966915 0 -0.0023310789961752372 0.07360249080797758 0 -0.0027643407617825968 0.073121686177805817 0 -0.0016988570029596479 0.073632612966247443 0 -0.0017908185378118335 0.073676266935970208 0 -0.0017004767357403196 0.07372683215442119 0 -0.0016099452725530481 0.073682112004871625 0 -0.0016988570029596479 0.073632612966247443 0 -0.0017004767357403196 0.07372683215442119 0 -0.0028159286829334308 0.074168799741876457 0 -0.002766824922285244 0.074943256297966915 0 -0.0036111400485545108 0.074682032063528983 0 -0.002766824922285244 0.074943256297966915 0 -0.0036111400485545108 0.074682032063528983 0 -0.0042187714463362775 0.075767227757275193 0 -0.0043092799221748903 0.074384627296977965 0 -0.0036111400485545108 0.074682032063528983 0 -0.0042187714463362775 0.075767227757275193 0 -0.0050848374410247905 0.07452473748853676 0 -0.0043092799221748903 0.074384627296977965 0 -0.0042187714463362775 0.075767227757275193 0 4.9781951333734212e-05 0.074278410027869321 0 6.8885782194380042e-05 0.074285242129579571 0 5.0886013596320278e-05 0.074302938582008315 0 -0.0027643407617825968 0.073121686177805817 0 -0.0014840310326489749 0.073901307274635106 0 -0.0014840310326489749 0.073901307274635106 0 -0.00088513327612848214 0.074370719147806991 0 6.8885782194380042e-05 0.074285242129579571 0 7.4908853059736275e-05 0.074303476292703521 0 0.00010007651013852162 0.074293816771831472 0 7.4908853059736275e-05 0.074303476292703521 0 5.0886013596320278e-05 0.074302938582008315 0 6.304297513042504e-05 0.074325409501768844 0 6.8885782194380042e-05 0.074285242129579571 0 7.4908853059736275e-05 0.074303476292703521 0 5.0886013596320278e-05 0.074302938582008315 0 7.4908853059736275e-05 0.074303476292703521 0 0.00011130270564218721 0.074334029366631069 0 6.304297513042504e-05 0.074325409501768844 0 -0.00079788555812116378 0.074753485076830328 0 -0.00052652022469522753 0.075047363668277398 0 -0.00054264832786268227 0.074826819835814892 0 -0.00079788555812116378 0.074753485076830328 0 -0.00054264832786268227 0.074826819835814892 0 -0.00054249111733430111 0.074583929978682378 0 -0.0011428514100895073 0.074602929970703183 0 -0.00079788555812116378 0.074753485076830328 0 -0.0010818627531555386 0.074917791104569129 0 -0.0016099452725530481 0.073682112004871625 0 -0.0017004767357403196 0.07372683215442119 0 -0.0016107268283542856 0.073777323285768928 0 -0.0012956180324745329 0.074088280546624266 0 -0.00088513327612848214 0.074370719147806991 0 -0.00088513327612848214 0.074370719147806991 0 -0.00057888639896712456 0.074470851928558679 0 0.00012849811576335718 0.074911024046475622 0 -7.1322714042128274e-05 0.074807273601224689 0 0.00013398210555923637 0.074745800896739351 0 7.4908853059736275e-05 0.074303476292703521 0 0.00010007651013852162 0.074293816771831472 0 0.00011130270564218721 0.074334029366631069 0 -0.00079788555812116378 0.074753485076830328 0 -0.0010818627531555386 0.074917791104569129 0 -0.00052652022469522753 0.075047363668277398 0 -0.00088513327612848214 0.074370719147806991 0 -0.0004258344681684151 0.074723752984839756 0 -0.00052652022469522753 0.075047363668277398 0 -0.00021572167415269202 0.074928797425694332 0 -0.00032879665774777325 0.074828006257011234 0 -0.00052652022469522753 0.075047363668277398 0 -0.00032879665774777325 0.074828006257011234 0 -0.00054264832786268227 0.074826819835814892 0 -0.00052652022469522753 0.075047363668277398 0 -0.00021572167415269202 0.074928797425694332 0 -0.00020107578061764165 0.074871100471531199 0 -0.00032879665774777325 0.074828006257011234 0 -0.00025731488117052784 0.074660911333644595 0 -0.00015105610833446203 0.074840813953118812 0 -0.00021572167415269202 0.074928797425694332 0 -0.00032879665774777325 0.074828006257011234 0 -0.00015105610833446203 0.074840813953118812 0 -0.00032879665774777325 0.074828006257011234 0 -0.00054264832786268227 0.074826819835814892 0 -0.00054249111733430111 0.074583929978682378 0 -0.00054249111733430111 0.074583929978682378 0 -0.00035514366172937489 0.074445839898080179 0 -0.00025731488117052784 0.074660911333644595 0 -0.00054249111733430111 0.074583929978682378 0 -0.00035514366172937489 0.074445839898080179 0 -0.00053534202749370421 0.074213578381999976 0 -0.00032879665774777325 0.074828006257011234 0 -0.00054249111733430111 0.074583929978682378 0 -0.00025731488117052784 0.074660911333644595 0 -0.00077411443553943981 0.074264803343580058 0 -0.00054249111733430111 0.074583929978682378 0 -0.00053534202749370421 0.074213578381999976 0 -0.00025731488117052784 0.074660911333644595 0 -0.0001128796020743193 0.074729158338575075 0 -0.00015105610833446203 0.074840813953118812 0 -0.00025731488117052784 0.074660911333644595 0 -0.00018381771316097878 0.074516927722154888 0 -0.0001128796020743193 0.074729158338575075 0 -0.00035514366172937489 0.074445839898080179 0 -0.00025731488117052784 0.074660911333644595 0 -0.00018381771316097878 0.074516927722154888 0 -0.00035514366172937489 0.074445839898080179 0 -0.00018381771316097878 0.074516927722154888 0 -0.000337424098947856 0.074168724267782413 0 -0.00015015567020719179 0.074373962005861036 0 -0.00018381771316097878 0.074516927722154888 0 -0.000337424098947856 0.074168724267782413 0 -0.00054938741907583093 0.073894984524346508 0 -0.000337424098947856 0.074168724267782413 0 -0.00053534202749370421 0.074213578381999976 0 -0.00054938741907583093 0.073894984524346508 0 -0.00080519712606995743 0.073817052600333749 0 -0.00053534202749370421 0.074213578381999976 0 -0.00035514366172937489 0.074445839898080179 0 -0.000337424098947856 0.074168724267782413 0 -0.00053534202749370421 0.074213578381999976 0 6.220229214816797e-08 0.07499922719819592 0 -2.8932109287487334e-05 0.074718702666199677 0 2.3206946016651344e-09 0.0749997549786552 0 -0.00018381771316097878 0.074516927722154888 0 -2.8932109287487334e-05 0.074718702666199677 0 -0.0001128796020743193 0.074729158338575075 0 -0.00015015567020719179 0.074373962005861036 0 -0.00018381771316097878 0.074516927722154888 0 -2.8932109287487334e-05 0.074718702666199677 0 -2.8932109287487334e-05 0.074718702666199677 0 -0.0001128796020743193 0.074729158338575075 0 -3.0123125044835647e-05 0.074912795854968933 0 -2.8932109287487334e-05 0.074718702666199677 0 2.3206946016651344e-09 0.0749997549786552 0 -3.0123125044835647e-05 0.074912795854968933 0 -3.4841076930464751e-08 0.074999878609227827 0 -3.0123125044835647e-05 0.074912795854968933 0 -7.5521710015615269e-05 0.074943204203311395 0 2.3206946016651344e-09 0.0749997549786552 0 -3.4841076930464751e-08 0.074999878609227827 0 -3.0123125044835647e-05 0.074912795854968933 0 -3.0123125044835647e-05 0.074912795854968933 0 -0.00015105610833446203 0.074840813953118812 0 -7.5521710015615269e-05 0.074943204203311395 0 -0.0001128796020743193 0.074729158338575075 0 -3.0123125044835647e-05 0.074912795854968933 0 -0.00015105610833446203 0.074840813953118812 0 -0.00021572167415269202 0.074928797425694332 0 -0.00015105610833446203 0.074840813953118812 0 -7.5521710015615269e-05 0.074943204203311395 0 -0.00021572167415269202 0.074928797425694332 0 -7.5521710015615269e-05 0.074943204203311395 0 -0.00012026300033114902 0.074974574079187964 0 -3.4841076930464751e-08 0.074999878609227827 0 -7.5521710015615269e-05 0.074943204203311395 0 -4.612776212210167e-08 0.074999991932615612 0 -7.5521710015615269e-05 0.074943204203311395 0 -4.612776212210167e-08 0.074999991932615612 0 -0.00012026300033114902 0.074974574079187964 0 -4.612776212210167e-08 0.074999991932615612 0 -0.00012026300033114902 0.074974574079187964 0 -7.5644681472472768e-05 0.074987363417076444 0 -0.00012026300033114902 0.074974574079187964 0 -7.5644681472472768e-05 0.074987363417076444 0 -6.3184554066976961e-05 0.074986729719664386 0 -4.612776212210167e-08 0.074999991932615612 0 -7.5644681472472768e-05 0.074987363417076444 0 -7.9488185687295013e-08 0.075000028757343129 0 -7.1322714042128274e-05 0.074807273601224689 0 -0.00010598010104840177 0.074738090622763112 0 -0.00020107578061764165 0.074871100471531199 0 -0.0004258344681684151 0.074723752984839756 0 -0.00034639933725955422 0.074782384871479812 0 -0.00021572167415269202 0.074928797425694332 0 -0.00012026300033114902 0.074974574079187964 0 -0.00020107578061764165 0.074871100471531199 0 -0.00012026300033114902 0.074974574079187964 0 -0.00020107578061764165 0.074871100471531199 0 -0.00023206399595363241 0.074696483461653279 0 -0.0001087261397137666 0.074835647421152354 0 -9.0391274266070666e-05 0.074785819549441829 0 -7.5644681472472768e-05 0.074987363417076444 0 -6.3184554066976961e-05 0.074986729719664386 0 -7.0003851521293961e-05 0.074942746667975985 0 -0.00010598010104840177 0.074738090622763112 0 -0.00020107578061764165 0.074871100471531199 0 -0.00023206399595363241 0.074696483461653279 0 -0.00010598010104840177 0.074738090622763112 0 -0.00023206399595363241 0.074696483461653279 0 -3.3138619316301049e-05 0.07459357626622562 0 -6.3184554066976961e-05 0.074986729719664386 0 -7.0003851521293961e-05 0.074942746667975985 0 2.20589589655509e-05 0.074879383489245582 0 -9.0391274266070666e-05 0.074785819549441829 0 -2.9465778025036744e-05 0.074679129244417511 0 -7.0003851521293961e-05 0.074942746667975985 0 -5.5735842648625228e-05 0.074869935567004081 0 2.20589589655509e-05 0.074879383489245582 0 -0.00023206399595363241 0.074696483461653279 0 -2.2202818196664302e-05 0.074382732041123181 0 -3.3138619316301049e-05 0.07459357626622562 0 -7.0003851521293961e-05 0.074942746667975985 0 -5.5735842648625228e-05 0.074869935567004081 0 -8.0685210326779123e-05 0.074971023444984186 0 3.8005963926519614e-06 0.074869974146429569 0 -2.0452556954169443e-05 0.074941410842362902 0 -2.5078921702504345e-06 0.074863430770992029 0 1.3329156084823676e-05 0.074816302397871903 0 -5.9122949480754232e-06 0.074930189129811101 0 -2.5078921702504345e-06 0.074863430770992029 0 1.3329156084823676e-05 0.074816302397871903 0 5.6545952217359365e-06 0.074789087914918326 0 -5.5735842648625228e-05 0.074869935567004081 0 2.20589589655509e-05 0.074879383489245582 0 4.532993530665927e-05 0.074638094983083159 0 3.8005963926519614e-06 0.074869974146429569 0 3.8866301281746449e-05 0.07482288728797129 0 1.3329156084823676e-05 0.074816302397871903 0 2.120491860170668e-05 0.074728518871853888 0 4.532993530665927e-05 0.074638094983083159 0 1.3329156084823676e-05 0.074816302397871903 0 5.6545952217359365e-06 0.074789087914918326 0 2.120491860170668e-05 0.074728518871853888 0 -5.1134028293004547e-08 0.074999889620213381 0 -2.0452556954169443e-05 0.074941410842362902 0 -1.2454170115780937e-08 0.07499996872996853 0 -5.9122949480754232e-06 0.074930189129811101 0 -8.6628394011856997e-06 0.074932034747041257 0 -7.5644681472472768e-05 0.074987363417076444 0 -7.9488185687295013e-08 0.075000028757343129 0 -8.0685210326779123e-05 0.074971023444984186 0 -7.5644681472472768e-05 0.074987363417076444 0 -7.0003851521293961e-05 0.074942746667975985 0 -8.0685210326779123e-05 0.074971023444984186 0 -2.5078921702504345e-06 0.074863430770992029 0 -5.9122949480754232e-06 0.074930189129811101 0 -8.6628394011856997e-06 0.074932034747041257 0 -2.5078921702504345e-06 0.074863430770992029 0 -8.6628394011856997e-06 0.074932034747041257 0 -3.7816597128386313e-06 0.074851795694625273 0 -1.2454170115780937e-08 0.07499996872996853 0 -8.6628394011856997e-06 0.074932034747041257 0 -1.2434696305519003e-08 0.074999844029357887 0 -8.6628394011856997e-06 0.074932034747041257 0 -1.2434696305519003e-08 0.074999844029357887 0 -4.9116184542208917e-06 0.074921202188155248 0 -1.2434696305519003e-08 0.074999844029357887 0 -4.9116184542208917e-06 0.074921202188155248 0 1.1501907390109872e-09 0.074999881685048994 0 -4.2609693651543515e-06 0.074889653816693408 0 -4.9116184542208917e-06 0.074921202188155248 0 1.1501907390109872e-09 0.074999881685048994 0 -4.2609693651543515e-06 0.074889653816693408 0 -4.9116184542208917e-06 0.074921202188155248 0 -1.9581139375138542e-06 0.074836103351087188 0 -4.9116184542208917e-06 0.074921202188155248 0 -3.7816597128386313e-06 0.074851795694625273 0 -1.9581139375138542e-06 0.074836103351087188 0 -8.6628394011856997e-06 0.074932034747041257 0 -4.9116184542208917e-06 0.074921202188155248 0 -3.7816597128386313e-06 0.074851795694625273 0 -2.5078921702504345e-06 0.074863430770992029 0 -3.7816597128386313e-06 0.074851795694625273 0 5.6545952217359365e-06 0.074789087914918326 0 -3.7816597128386313e-06 0.074851795694625273 0 5.6545952217359365e-06 0.074789087914918326 0 5.0890973325656733e-06 0.074769958116387633 0 -3.7816597128386313e-06 0.074851795694625273 0 5.0890973325656733e-06 0.074769958116387633 0 -1.9581139375138542e-06 0.074836103351087188 0 2.120491860170668e-05 0.074728518871853888 0 1.751343442464854e-05 0.07470851835775516 0 3.0732218605711275e-05 0.074662242091326075 0 5.6545952217359365e-06 0.074789087914918326 0 2.120491860170668e-05 0.074728518871853888 0 1.751343442464854e-05 0.07470851835775516 0 5.0890973325656733e-06 0.074769958116387633 0 1.751343442464854e-05 0.07470851835775516 0 2.2370426600253719e-05 0.074676086297287073 0 5.6545952217359365e-06 0.074789087914918326 0 5.0890973325656733e-06 0.074769958116387633 0 1.751343442464854e-05 0.07470851835775516 0 1.751343442464854e-05 0.07470851835775516 0 2.2370426600253719e-05 0.074676086297287073 0 4.5449101398694174e-05 0.074573077238377319 0 -0.00016310321108823592 0.074582936163509764 0 -0.00013953860757647308 0.074479725206891695 0 -8.9743862821583086e-05 0.0744567405153259 0 -4.78948310523659e-05 0.074732286988486399 0 -1.1766614249710204e-05 0.074639243470052227 0 2.2370426600253719e-05 0.074676086297287073 0 7.1516590115032656e-06 0.074748984912176519 0 4.0806179294684075e-05 0.074579725738491462 0 5.0890973325656733e-06 0.074769958116387633 0 2.2370426600253719e-05 0.074676086297287073 0 7.1516590115032656e-06 0.074748984912176519 0 -4.2609693651543515e-06 0.074889653816693408 0 -1.9581139375138542e-06 0.074836103351087188 0 7.1516590115032656e-06 0.074748984912176519 0 -4.1809176076879143e-05 0.074857849761388498 0 -4.78948310523659e-05 0.074732286988486399 0 5.0890973325656733e-06 0.074769958116387633 0 -1.9581139375138542e-06 0.074836103351087188 0 7.1516590115032656e-06 0.074748984912176519 0 -6.0987370590679662e-05 0.07476939580813162 0 -0.00016310321108823592 0.074582936163509764 0 -0.00014709509170427156 0.074680251762912764 0 -0.00016310321108823592 0.074582936163509764 0 -0.00014709509170427156 0.074680251762912764 0 -0.00013953860757647308 0.074479725206891695 0 -0.00014709509170427156 0.074680251762912764 0 -0.00013953860757647308 0.074479725206891695 0 -0.00014893491099227866 0.074282549390650168 0 -0.00021080230978626723 0.074824213432642062 0 -0.00012436265538458483 0.074839892321348994 0 -0.00014816063562518429 0.074880407047814374 0 -0.0008607643674495032 0.073398429750294203 0 -0.0010231298167476773 0.072990471713750574 0 -0.00014709509170427156 0.074680251762912764 0 -0.00012436265538458483 0.074839892321348994 0 -3.4383160404903138e-05 0.074881334062500346 0 -0.00014709509170427156 0.074680251762912764 0 -0.00021080230978626723 0.074824213432642062 0 -0.00012436265538458483 0.074839892321348994 0 -3.4383160404903138e-05 0.074881334062500346 0 -6.9814262912896619e-05 0.07491138759243586 0 -2.6059330065166532e-05 0.074952924512161526 0 -0.00012436265538458483 0.074839892321348994 0 -3.4383160404903138e-05 0.074881334062500346 0 -6.9814262912896619e-05 0.07491138759243586 0 -3.4383160404903138e-05 0.074881334062500346 0 -1.5399326196139347e-09 0.074999945065592932 0 -2.6059330065166532e-05 0.074952924512161526 0 -6.0987370590679662e-05 0.07476939580813162 0 -3.4383160404903138e-05 0.074881334062500346 0 2.2987415011361289e-08 0.074999671025677325 0 -4.1809176076879143e-05 0.074857849761388498 0 -5.6394967139813967e-08 0.07499969001733231 0 -3.4383160404903138e-05 0.074881334062500346 0 -1.5399326196139347e-09 0.074999945065592932 0 2.2987415011361289e-08 0.074999671025677325 0 -6.0987370590679662e-05 0.07476939580813162 0 -0.00014709509170427156 0.074680251762912764 0 -3.4383160404903138e-05 0.074881334062500346 0 9.6244736388901959e-05 0.074146724644233844 0 3.8485623729802909e-05 0.074282462221206838 0 0.00012232717068373785 0.074205747148109846 0 0.00015728882714508341 0.074083573162896071 0 9.6244736388901959e-05 0.074146724644233844 0 0.00012232717068373785 0.074205747148109846 0 0.00015728882714508341 0.074083573162896071 0 0.00012232717068373785 0.074205747148109846 0 0.00018432540133941306 0.07404328084999548 0 0.00015728882714508341 0.074083573162896071 0 0.00012392812541481209 0.074055982476376653 0 9.6244736388901959e-05 0.074146724644233844 0 0.00015728882714508341 0.074083573162896071 0 0.00020582758482048602 0.074017951687032138 0 0.00016915830584856553 0.074006926426315775 0 0.00015728882714508341 0.074083573162896071 0 0.00012392812541481209 0.074055982476376653 0 0.00016915830584856553 0.074006926426315775 0 0.00012392812541481209 0.074055982476376653 0 9.6244736388901959e-05 0.074146724644233844 0 6.3308979594413938e-05 0.074097524989859567 0 9.6244736388901959e-05 0.074146724644233844 0 6.3308979594413938e-05 0.074097524989859567 0 6.5195145767365861e-06 0.074203620423243744 0 9.6244736388901959e-05 0.074146724644233844 0 6.5195145767365861e-06 0.074203620423243744 0 3.8485623729802909e-05 0.074282462221206838 0 6.3308979594413938e-05 0.074097524989859567 0 6.5195145767365861e-06 0.074203620423243744 0 -2.519412862604217e-05 0.074051482735977822 0 -0.00014893491099227866 0.074282549390650168 0 6.5195145767365861e-06 0.074203620423243744 0 -6.8804809514182643e-05 0.074349776192753167 0 -0.00014893491099227866 0.074282549390650168 0 6.5195145767365861e-06 0.074203620423243744 0 -2.519412862604217e-05 0.074051482735977822 0 -0.00013953860757647308 0.074479725206891695 0 -6.8804809514182643e-05 0.074349776192753167 0 -8.9743862821583086e-05 0.0744567405153259 0 -0.00013953860757647308 0.074479725206891695 0 -0.00014893491099227866 0.074282549390650168 0 -6.8804809514182643e-05 0.074349776192753167 0 -6.8804809514182643e-05 0.074349776192753167 0 3.8485623729802909e-05 0.074282462221206838 0 -8.9743862821583086e-05 0.0744567405153259 0 6.5195145767365861e-06 0.074203620423243744 0 -6.8804809514182643e-05 0.074349776192753167 0 3.8485623729802909e-05 0.074282462221206838 0 1.8867180583770079e-05 0.07460045620022597 0 -1.1766614249710204e-05 0.074639243470052227 0 3.8485623729802909e-05 0.074282462221206838 0 5.7881190192670915e-05 0.074365925311360825 0 -8.9743862821583086e-05 0.0744567405153259 0 5.7881190192670915e-05 0.074365925311360825 0 4.0806179294684075e-05 0.074579725738491462 0 4.5449101398694174e-05 0.074573077238377319 0 2.2370426600253719e-05 0.074676086297287073 0 4.0806179294684075e-05 0.074579725738491462 0 4.5449101398694174e-05 0.074573077238377319 0 2.120491860170668e-05 0.074728518871853888 0 3.0732218605711275e-05 0.074662242091326075 0 4.532993530665927e-05 0.074638094983083159 0 1.751343442464854e-05 0.07470851835775516 0 4.5449101398694174e-05 0.074573077238377319 0 3.0732218605711275e-05 0.074662242091326075 0 4.5449101398694174e-05 0.074573077238377319 0 7.4668703385452135e-05 0.074462717973913239 0 4.532993530665927e-05 0.074638094983083159 0 4.5449101398694174e-05 0.074573077238377319 0 3.0732218605711275e-05 0.074662242091326075 0 4.532993530665927e-05 0.074638094983083159 0 7.4668703385452135e-05 0.074462717973913239 0 7.2247073848825236e-05 0.074308934464279747 0 5.9677463254372686e-05 0.074371341775593 0 5.7881190192670915e-05 0.074365925311360825 0 4.5449101398694174e-05 0.074573077238377319 0 7.4668703385452135e-05 0.074462717973913239 0 5.7881190192670915e-05 0.074365925311360825 0 7.4668703385452135e-05 0.074462717973913239 0 7.2247073848825236e-05 0.074308934464279747 0 5.7881190192670915e-05 0.074365925311360825 0 7.2247073848825236e-05 0.074308934464279747 0 0.00012232717068373785 0.074205747148109846 0 3.8485623729802909e-05 0.074282462221206838 0 5.7881190192670915e-05 0.074365925311360825 0 0.00012232717068373785 0.074205747148109846 0 0.00012232717068373785 0.074205747148109846 0 0.00010383212281956718 0.074184375563869809 0 0.00018407019115726934 0.074123467422481187 0 7.2247073848825236e-05 0.074308934464279747 0 0.00012232717068373785 0.074205747148109846 0 0.00010383212281956718 0.074184375563869809 0 7.2247073848825236e-05 0.074308934464279747 0 0.00010383212281956718 0.074184375563869809 0 6.8292639285981102e-05 0.07426635752149878 0 7.2247073848825236e-05 0.074308934464279747 0 6.7896895155361025e-05 0.074343172100682586 0 5.9677463254372686e-05 0.074371341775593 0 7.2247073848825236e-05 0.074308934464279747 0 6.8292639285981102e-05 0.07426635752149878 0 6.7896895155361025e-05 0.074343172100682586 0 6.7896895155361025e-05 0.074343172100682586 0 7.8708344895186079e-05 0.074400435937424389 0 6.4714979263726821e-05 0.074353284303712214 0 6.8292639285981102e-05 0.07426635752149878 0 6.7896895155361025e-05 0.074343172100682586 0 6.4714979263726821e-05 0.074353284303712214 0 6.8292639285981102e-05 0.07426635752149878 0 6.4714979263726821e-05 0.074353284303712214 0 5.1581943693646569e-05 0.074264898715160163 0 7.4668703385452135e-05 0.074462717973913239 0 2.20589589655509e-05 0.074879383489245582 0 4.532993530665927e-05 0.074638094983083159 0 7.4535380985438127e-06 0.074617075755916515 0 -2.9465778025036744e-05 0.074679129244417511 0 -2.2202818196664302e-05 0.074382732041123181 0 5.1168838238589809e-05 0.07440551197653518 0 3.7216702467565275e-05 0.074401989770405533 0 7.4668703385452135e-05 0.074462717973913239 0 -2.2202818196664302e-05 0.074382732041123181 0 5.1168838238589809e-05 0.07440551197653518 0 5.1168838238589809e-05 0.07440551197653518 0 6.0439536616178991e-05 0.074386901290116603 0 3.7216702467565275e-05 0.074401989770405533 0 7.4668703385452135e-05 0.074462717973913239 0 5.1168838238589809e-05 0.07440551197653518 0 5.9677463254372686e-05 0.074371341775593 0 5.1168838238589809e-05 0.07440551197653518 0 5.9677463254372686e-05 0.074371341775593 0 6.0439536616178991e-05 0.074386901290116603 0 6.7896895155361025e-05 0.074343172100682586 0 5.9677463254372686e-05 0.074371341775593 0 6.0439536616178991e-05 0.074386901290116603 0 6.7896895155361025e-05 0.074343172100682586 0 6.0439536616178991e-05 0.074386901290116603 0 7.8708344895186079e-05 0.074400435937424389 0 7.8708344895186079e-05 0.074400435937424389 0 4.4004422707737832e-05 0.074443608762627497 0 0.00010678502182343035 0.07446961361343353 0 6.0439536616178991e-05 0.074386901290116603 0 3.7216702467565275e-05 0.074401989770405533 0 4.4004422707737832e-05 0.074443608762627497 0 6.0439536616178991e-05 0.074386901290116603 0 7.8708344895186079e-05 0.074400435937424389 0 4.4004422707737832e-05 0.074443608762627497 0 -2.2202818196664302e-05 0.074382732041123181 0 4.4004422707737832e-05 0.074443608762627497 0 -3.3138619316301049e-05 0.07459357626622562 0 -2.2202818196664302e-05 0.074382732041123181 0 3.7216702467565275e-05 0.074401989770405533 0 4.4004422707737832e-05 0.074443608762627497 0 -0.00010598010104840177 0.074738090622763112 0 -3.3138619316301049e-05 0.07459357626622562 0 1.0282649965374285e-05 0.07465813381560589 0 -3.3138619316301049e-05 0.07459357626622562 0 0.00010678502182343035 0.07446961361343353 0 1.0282649965374285e-05 0.07465813381560589 0 4.4004422707737832e-05 0.074443608762627497 0 -3.3138619316301049e-05 0.07459357626622562 0 0.00010678502182343035 0.07446961361343353 0 -0.00048656630971029573 0.074480106489749426 0 -0.00057888639896712456 0.074470851928558679 0 0.00010678502182343035 0.07446961361343353 0 0.00013398210555923637 0.074745800896739351 0 1.0282649965374285e-05 0.07465813381560589 0 0.00010678502182343035 0.07446961361343353 0 0.00011130270564218721 0.074334029366631069 0 6.5127018626994602e-05 0.074370084906601325 0 -7.1322714042128274e-05 0.074807273601224689 0 0.00013398210555923637 0.074745800896739351 0 1.0282649965374285e-05 0.07465813381560589 0 -7.1322714042128274e-05 0.074807273601224689 0 -0.00010598010104840177 0.074738090622763112 0 1.0282649965374285e-05 0.07465813381560589 0 6.4714979263726821e-05 0.074353284303712214 0 5.0056408707747682e-05 0.074326552314001121 0 5.1581943693646569e-05 0.074264898715160163 0 6.4714979263726821e-05 0.074353284303712214 0 6.5127018626994602e-05 0.074370084906601325 0 5.0056408707747682e-05 0.074326552314001121 0 7.8708344895186079e-05 0.074400435937424389 0 0.00010678502182343035 0.07446961361343353 0 6.4714979263726821e-05 0.074353284303712214 0 0.00010678502182343035 0.07446961361343353 0 6.4714979263726821e-05 0.074353284303712214 0 6.5127018626994602e-05 0.074370084906601325 0 6.5127018626994602e-05 0.074370084906601325 0 6.304297513042504e-05 0.074325409501768844 0 5.0056408707747682e-05 0.074326552314001121 0 0.00011130270564218721 0.074334029366631069 0 6.5127018626994602e-05 0.074370084906601325 0 6.304297513042504e-05 0.074325409501768844 0 5.0886013596320278e-05 0.074302938582008315 0 6.304297513042504e-05 0.074325409501768844 0 5.0056408707747682e-05 0.074326552314001121 0 5.0886013596320278e-05 0.074302938582008315 0 5.0056408707747682e-05 0.074326552314001121 0 5.0155262762003043e-05 0.074306818615341441 0 5.0056408707747682e-05 0.074326552314001121 0 5.0155262762003043e-05 0.074306818615341441 0 5.7514723572185287e-05 0.074292947245824983 0 5.0155262762003043e-05 0.074306818615341441 0 5.7514723572185287e-05 0.074292947245824983 0 6.2191513093313986e-05 0.074302210879094124 0 5.7514723572185287e-05 0.074292947245824983 0 5.1581943693646569e-05 0.074264898715160163 0 9.4186851867292156e-05 0.074249087409272455 0 5.0056408707747682e-05 0.074326552314001121 0 5.7514723572185287e-05 0.074292947245824983 0 5.1581943693646569e-05 0.074264898715160163 0 0.0016336336906777596 0.06618151674172551 0 0.0023428585904317904 0.062719664537382272 0 0.00084854857198989823 0.063650354308916385 0 5.7514723572185287e-05 0.074292947245824983 0 9.4186851867292156e-05 0.074249087409272455 0 6.2191513093313986e-05 0.074302210879094124 0 -0.00032839551359574725 0.070108122310281934 0 -0.0010831834930340165 0.068857888170853768 0 0.00060296483905743247 0.061850443312539236 0 0.0023428585904317904 0.062719664537382272 0 0.00084854857198989823 0.063650354308916385 0 0.00060296483905743247 0.061850443312539236 0 0.00084854857198989823 0.063650354308916385 0 -0.00017746872037139913 0.063074627343574607 0 -0.00072092262483966886 0.062180275184525027 0 -0.00017746872037139913 0.063074627343574607 0 -0.0015998261308702204 0.063497490942991494 0 -0.0002592316523731309 0.064743295625145331 0 -0.0015998261308702204 0.063497490942991494 0 -0.0017252016889841152 0.065220500779662169 0 -0.00017746872037139913 0.063074627343574607 0 -0.0002592316523731309 0.064743295625145331 0 -0.0015998261308702204 0.063497490942991494 0 0.00084854857198989823 0.063650354308916385 0 -0.00017746872037139913 0.063074627343574607 0 -0.0002592316523731309 0.064743295625145331 0 -0.0024324611572402077 0.062059465024243671 0 -0.0036864492610947839 0.063411782975897155 0 -0.0049946059199287608 0.063180640354160059 0 -0.0023607438764593771 0.06175154690956549 0 -0.0031257849272169971 0.062149917420590423 0 -0.0024324611572402077 0.062059465024243671 0 -0.0036864492610947839 0.063411782975897155 0 -0.0026882793164335478 0.063333652120619255 0 -0.0024324611572402077 0.062059465024243671 0 -0.0015998261308702204 0.063497490942991494 0 -0.0026882793164335478 0.063333652120619255 0 -0.00072092262483966886 0.062180275184525027 0 -0.0024324611572402077 0.062059465024243671 0 -0.0015998261308702204 0.063497490942991494 0 -0.0015998261308702204 0.063497490942991494 0 -0.0026882793164335478 0.063333652120619255 0 -0.0030389254685155944 0.064389258963197041 0 -0.0015998261308702204 0.063497490942991494 0 -0.0030389254685155944 0.064389258963197041 0 -0.0017252016889841152 0.065220500779662169 0 -0.0036864492610947839 0.063411782975897155 0 -0.0030389254685155944 0.064389258963197041 0 -0.0043991039503715528 0.064147968933709359 0 -0.0036864492610947839 0.063411782975897155 0 -0.0026882793164335478 0.063333652120619255 0 -0.0030389254685155944 0.064389258963197041 0 -0.0026954125147463956 0.066621998044900266 0 -0.0044755283138205966 0.065759955521352539 0 -0.0043191032981511985 0.068340360346524978 0 -0.0030389254685155944 0.064389258963197041 0 -0.0026954125147463956 0.066621998044900266 0 -0.0044755283138205966 0.065759955521352539 0 -0.0030389254685155944 0.064389258963197041 0 -0.0017252016889841152 0.065220500779662169 0 -0.0026954125147463956 0.066621998044900266 0 -0.0017252016889841152 0.065220500779662169 0 -0.0026954125147463956 0.066621998044900266 0 -0.00076163343620579138 0.066875657144876699 0 0.0016336336906777596 0.06618151674172551 0 -0.0002592316523731309 0.064743295625145331 0 -0.00076163343620579138 0.066875657144876699 0 0.0016336336906777596 0.06618151674172551 0 0.00084854857198989823 0.063650354308916385 0 -0.0002592316523731309 0.064743295625145331 0 -0.0002592316523731309 0.064743295625145331 0 -0.0017252016889841152 0.065220500779662169 0 -0.00076163343620579138 0.066875657144876699 0 -0.00076163343620579138 0.066875657144876699 0 -0.0022201826974611355 0.068787126209549965 0 0.00084875062258694175 0.069763253767135061 0 0.0016336336906777596 0.06618151674172551 0 -0.00076163343620579138 0.066875657144876699 0 0.00084875062258694175 0.069763253767135061 0 -0.0026954125147463956 0.066621998044900266 0 -0.0022201826974611355 0.068787126209549965 0 -0.0043191032981511985 0.068340360346524978 0 -0.0026954125147463956 0.066621998044900266 0 -0.00076163343620579138 0.066875657144876699 0 -0.0022201826974611355 0.068787126209549965 0 -0.0022201826974611355 0.068787126209549965 0 -0.0032506538968938427 0.070715256846558314 0 -0.0043191032981511985 0.068340360346524978 0 -0.0022201826974611355 0.068787126209549965 0 -0.0032506538968938427 0.070715256846558314 0 -0.0013385474320576701 0.070803678893846242 0 -0.0032506538968938427 0.070715256846558314 0 -0.0013385474320576701 0.070803678893846242 0 -0.002124441337874863 0.072436430699287679 0 -0.00021542094710571102 0.071579981484198502 0 -0.00029597711188879809 0.072396106020527151 0 -0.0013385474320576701 0.070803678893846242 0 0.00084875062258694175 0.069763253767135061 0 -0.00024231024829159855 0.073614394788901832 0 -0.0022201826974611355 0.068787126209549965 0 -0.0013385474320576701 0.070803678893846242 0 0.00084875062258694175 0.069763253767135061 0 7.0310910156720616e-05 0.074075120619612064 0 5.8239998232357921e-05 0.074158425169103828 0 6.713923317243173e-05 0.074044907526838746 0 7.0310910156720616e-05 0.074075120619612064 0 6.713923317243173e-05 0.074044907526838746 0 -0.00024231024829159855 0.073614394788901832 0 0.00010383212281956718 0.074184375563869809 0 6.8292639285981102e-05 0.07426635752149878 0 5.8239998232357921e-05 0.074158425169103828 0 0.00010383212281956718 0.074184375563869809 0 5.8239998232357921e-05 0.074158425169103828 0 6.713923317243173e-05 0.074044907526838746 0 5.1581943693646569e-05 0.074264898715160163 0 9.4186851867292156e-05 0.074249087409272455 0 5.8239998232357921e-05 0.074158425169103828 0 6.8292639285981102e-05 0.07426635752149878 0 5.1581943693646569e-05 0.074264898715160163 0 5.8239998232357921e-05 0.074158425169103828 0 9.4186851867292156e-05 0.074249087409272455 0 7.0310910156720616e-05 0.074075120619612064 0 5.8239998232357921e-05 0.074158425169103828 0 -0.00032839551359574725 0.070108122310281934 0 -0.00021542094710571102 0.071579981484198502 0 -0.0077483578882736317 0.012447029499680502 0 -0.0084949954475436826 0.011864721459619719 0 -0.0076892903655238825 0.011095901186795048 0 -0.0084949954475436826 0.011864721459619719 0 -0.0087651586241643681 0.011134760683183611 0 -0.0076892903655238825 0.011095901186795048 0 -0.0077483578882736317 0.012447029499680502 0 -0.0090032952522219011 0.01266316196263821 0 -0.0084949954475436826 0.011864721459619719 0 -0.0087676511417870504 0.013577309441717015 0 -0.0077483578882736317 0.012447029499680502 0 -0.0090032952522219011 0.01266316196263821 0 -0.0090032952522219011 0.01266316196263821 0 -0.0084949954475436826 0.011864721459619719 0 -0.0093686695810435133 0.012034381950776803 0 -0.0097003234899826866 0.011210425142802512 0 -0.0093686695810435133 0.012034381950776803 0 -0.0087651586241643681 0.011134760683183611 0 -0.0084949954475436826 0.011864721459619719 0 -0.0093686695810435133 0.012034381950776803 0 -0.0087651586241643681 0.011134760683183611 0 -0.0097003234899826866 0.011210425142802512 0 -0.0093686695810435133 0.012034381950776803 0 -0.010644165802478433 0.012503721991380145 0 -0.0074165957191460238 0.03881011968236129 0 -0.0067366032894997079 0.039299098434934759 0 -0.0076884102348286519 0.066982883298537008 0 -0.0056896691632128274 0.06390837488192902 0 -0.0057270686108950768 0.066952445442100258 0 -0.0090032952522219011 0.01266316196263821 0 -0.0093686695810435133 0.012034381950776803 0 -0.0099347757552618217 0.012963021118950136 0 -0.0093686695810435133 0.012034381950776803 0 -0.0099347757552618217 0.012963021118950136 0 -0.010644165802478433 0.012503721991380145 0 -0.0094838478081679337 0.013491718362272143 0 -0.0090032952522219011 0.01266316196263821 0 -0.0099347757552618217 0.012963021118950136 0 -0.003444156520993758 0.060312376052111726 0 -0.0056896691632128274 0.06390837488192902 0 -0.0049946059199287608 0.063180640354160059 0 -0.010652211516160364 0.013582019385434114 0 -0.0099347757552618217 0.012963021118950136 0 -0.010644165802478433 0.012503721991380145 0 -0.0056896691632128274 0.06390837488192902 0 -0.0043991039503715528 0.064147968933709359 0 -0.0044755283138205966 0.065759955521352539 0 -0.0036864492610947839 0.063411782975897155 0 -0.0049946059199287608 0.063180640354160059 0 -0.0043991039503715528 0.064147968933709359 0 -0.0056896691632128274 0.06390837488192902 0 -0.0049946059199287608 0.063180640354160059 0 -0.0043991039503715528 0.064147968933709359 0 -0.0030389254685155944 0.064389258963197041 0 -0.0043991039503715528 0.064147968933709359 0 -0.0044755283138205966 0.065759955521352539 0 -0.0044755283138205966 0.065759955521352539 0 -0.0057270686108950768 0.066952445442100258 0 -0.0043191032981511985 0.068340360346524978 0 -0.0056896691632128274 0.06390837488192902 0 -0.0044755283138205966 0.065759955521352539 0 -0.0057270686108950768 0.066952445442100258 0 -0.0057270686108950768 0.066952445442100258 0 -0.0043191032981511985 0.068340360346524978 0 -0.0064630791671118999 0.069739216846226235 0 -0.0043191032981511985 0.068340360346524978 0 -0.0047370271095694893 0.070008821934551213 0 -0.0064630791671118999 0.069739216846226235 0 -0.0032506538968938427 0.070715256846558314 0 -0.0043191032981511985 0.068340360346524978 0 -0.0047370271095694893 0.070008821934551213 0 -0.0050018823495711255 0.071557768443332184 0 -0.0064630791671118999 0.069739216846226235 0 -0.0064980509288155141 0.072982599541336818 0 -0.0032506538968938427 0.070715256846558314 0 -0.0047370271095694893 0.070008821934551213 0 -0.0050018823495711255 0.071557768443332184 0 -0.0032506538968938427 0.070715256846558314 0 -0.0050018823495711255 0.071557768443332184 0 -0.0034486447317462567 0.072961189942705923 0 -0.0047370271095694893 0.070008821934551213 0 -0.0050018823495711255 0.071557768443332184 0 -0.0064630791671118999 0.069739216846226235 0 -0.0061203496598690602 0.03626171604542703 0 -0.00402142392791165 0.041349241861930418 0 -0.0064630791671118999 0.069739216846226235 0 -0.0097457563433062111 0.070009481417312114 0 -0.0064980509288155141 0.072982599541336818 0 -0.0076884102348286519 0.066982883298537008 0 -0.0064630791671118999 0.069739216846226235 0 -0.0097457563433062111 0.070009481417312114 0 -0.0076884102348286519 0.066982883298537008 0 -0.0057270686108950768 0.066952445442100258 0 -0.0064630791671118999 0.069739216846226235 0 -0.0087651586241643681 0.011134760683183611 0 -0.0088613405914480005 0.010097298644791869 0 -0.0076892903655238825 0.011095901186795048 0 -0.0097003234899826866 0.011210425142802512 0 -0.0087651586241643681 0.011134760683183611 0 -0.0088613405914480005 0.010097298644791869 0 -0.0074165957191460238 0.03881011968236129 0 -0.0061203496598690602 0.03626171604542703 0 -0.0071937385406563581 0.010649845944277923 0 -0.0076456479529740974 0.010551524647185026 0 -0.0060842139710867984 0.012864195210466198 0 -0.0071937385406563581 0.010649845944277923 0 -0.0070136352954338031 0.010364437866627109 0 -0.0060842139710867984 0.012864195210466198 0 -0.0071937385406563581 0.010649845944277923 0 -0.0072835439809926699 0.010523104222192867 0 -0.0076456479529740974 0.010551524647185026 0 -0.0059895508205150107 0.035960687248346029 0 -0.0061203496598690602 0.03626171604542703 0 -0.0072835439809926699 0.010523104222192867 0 -0.0076456479529740974 0.010551524647185026 0 -0.0074637501046013466 0.010634826266350553 0 -0.0076456479529740974 0.010551524647185026 0 -0.0073644030645632205 0.01025780142597744 0 -0.0075320790364808718 0.009903423877947971 0 -0.0076456479529740974 0.010551524647185026 0 -0.0073644030645632205 0.01025780142597744 0 -0.0074637501046013466 0.010634826266350553 0 -0.0073644030645632205 0.01025780142597744 0 -0.0074637501046013466 0.010634826266350553 0 -0.0070024437848598383 0.010478392881668835 0 -0.0072835439809926699 0.010523104222192867 0 -0.0074637501046013466 0.010634826266350553 0 -0.0074231325913205731 0.010990198513302865 0 -0.0074637501046013466 0.010634826266350553 0 -0.0074231325913205731 0.010990198513302865 0 -0.0070024437848598383 0.010478392881668835 0 -0.0061203496598690602 0.03626171604542703 0 -0.011226149991601328 0.019648996357874291 0 -0.0078022678902231633 0.0092733835886962372 0 -0.0074994502559040613 0.0094323421678795209 0 -0.0072079701720250125 0.0089406665846712904 0 -0.0078022678902231633 0.0092733835886962372 0 -0.0080828710790992117 0.0090872029944710914 0 -0.0072079701720250125 0.0089406665846712904 0 -0.0078022678902231633 0.0092733835886962372 0 -0.0074994502559040613 0.0094323421678795209 0 -0.0077988103806444472 0.0096098955264178887 0 -0.0074994502559040613 0.0094323421678795209 0 -0.0075320790364808718 0.009903423877947971 0 -0.0072038462699099814 0.0095424404221431253 0 -0.0073644030645632205 0.01025780142597744 0 -0.0075320790364808718 0.009903423877947971 0 -0.0072038462699099814 0.0095424404221431253 0 -0.0076456479529740974 0.010551524647185026 0 -0.0075320790364808718 0.009903423877947971 0 -0.0078904369017983866 0.0099932181727050515 0 -0.0074994502559040613 0.0094323421678795209 0 -0.0075320790364808718 0.009903423877947971 0 -0.0077988103806444472 0.0096098955264178887 0 -0.0075320790364808718 0.009903423877947971 0 -0.0077988103806444472 0.0096098955264178887 0 -0.0078904369017983866 0.0099932181727050515 0 -0.0076456479529740974 0.010551524647185026 0 -0.0078904369017983866 0.0099932181727050515 0 -0.0084357302287978303 0.0097860757094135591 0 -0.0077988103806444472 0.0096098955264178887 0 -0.0080707319224922434 0.0097120383609487302 0 -0.0081622981793705515 0.0094764255968582383 0 -0.011129470389779754 0.016842507287478159 0 -0.010896243277878163 0.02011839208765788 0 -0.0077988103806444472 0.0096098955264178887 0 -0.0080707319224922434 0.0097120383609487302 0 -0.0078904369017983866 0.0099932181727050515 0 -0.0080707319224922434 0.0097120383609487302 0 -0.0078904369017983866 0.0099932181727050515 0 -0.0084357302287978303 0.0097860757094135591 0 -0.0080707319224922434 0.0097120383609487302 0 -0.0081622981793705515 0.0094764255968582383 0 -0.0084357302287978303 0.0097860757094135591 0 -0.0081622981793705515 0.0094764255968582383 0 -0.0083992322783350525 0.0094993750134349086 0 -0.0084357302287978303 0.0097860757094135591 0 -0.0081622981793705515 0.0094764255968582383 0 -0.0083938471516968628 0.0093127284493357103 0 -0.0083992322783350525 0.0094993750134349086 0 -0.0078022678902231633 0.0092733835886962372 0 -0.0077988103806444472 0.0096098955264178887 0 -0.0081622981793705515 0.0094764255968582383 0 -0.0078022678902231633 0.0092733835886962372 0 -0.0081622981793705515 0.0094764255968582383 0 -0.0081410503001721271 0.0092772348248704624 0 -0.0078022678902231633 0.0092733835886962372 0 -0.0081410503001721271 0.0092772348248704624 0 -0.0080828710790992117 0.0090872029944710914 0 -0.0081410503001721271 0.0092772348248704624 0 -0.0083938471516968628 0.0093127284493357103 0 -0.0080828710790992117 0.0090872029944710914 0 -0.0081622981793705515 0.0094764255968582383 0 -0.0081410503001721271 0.0092772348248704624 0 -0.0083938471516968628 0.0093127284493357103 0 -0.0083938471516968628 0.0093127284493357103 0 -0.0086012434696975983 0.0094219825565229048 0 -0.0090451291726732167 0.0092759687247588683 0 -0.0083938471516968628 0.0093127284493357103 0 -0.0090451291726732167 0.0092759687247588683 0 -0.0080828710790992117 0.0090872029944710914 0 -0.0059140575491495465 0.035681527310486814 0 -0.0083949177665518515 0.020474844116555833 0 -0.0086012434696975983 0.0094219825565229048 0 -0.0084357302287978303 0.0097860757094135591 0 -0.0090451291726732167 0.0092759687247588683 0 -0.010896243277878163 0.02011839208765788 0 -0.0059140575491495465 0.035681527310486814 0 -0.0086012434696975983 0.0094219825565229048 0 -0.0083992322783350525 0.0094993750134349086 0 -0.0084357302287978303 0.0097860757094135591 0 -0.0083938471516968628 0.0093127284493357103 0 -0.0086012434696975983 0.0094219825565229048 0 -0.0083992322783350525 0.0094993750134349086 0 -0.0060842139710867984 0.012864195210466198 0 -0.0046416479747467569 0.012601765573827518 0 -0.0034734756792323936 0.015502935746198111 0 -0.0070136352954338031 0.010364437866627109 0 -0.0060842139710867984 0.012864195210466198 0 -0.0046416479747467569 0.012601765573827518 0 -0.0064980509288155141 0.072982599541336818 0 -0.0045330541862198771 0.073302394328013484 0 -0.0031887455081908026 0.075591689463480383 0 -0.0050018823495711255 0.071557768443332184 0 -0.0064980509288155141 0.072982599541336818 0 -0.0045330541862198771 0.073302394328013484 0 -0.0050018823495711255 0.071557768443332184 0 -0.0045330541862198771 0.073302394328013484 0 -0.0034486447317462567 0.072961189942705923 0 -0.00402142392791165 0.041349241861930418 0 -0.00028359929573844962 0.045826994308056743 0 -0.0046416479747467569 0.012601765573827518 0 -0.0034734756792323936 0.015502935746198111 0 -0.0017180436692370679 0.015351940262040406 0 -0.0059140575491495465 0.035681527310486814 0 -0.00028359929573844962 0.045826994308056743 0 -0.0043174303713120659 0.011710365766924677 0 -0.0036725398786528764 0.01369569210391865 0 0.00077397974445342355 0.013464714369634973 0 -0.0049228414191473859 0.0081902494085284421 0 -0.0043174303713120659 0.011710365766924677 0 0.00077397974445342355 0.013464714369634973 0 -0.0049228414191473859 0.0081902494085284421 0 -0.0043174303713120659 0.011710365766924677 0 -0.0071627877501024397 0.010572681447623468 0 -0.0066177944072042735 0.01263326133772035 0 -0.0043174303713120659 0.011710365766924677 0 -0.0071627877501024397 0.010572681447623468 0 -0.0066177944072042735 0.01263326133772035 0 -0.0043174303713120659 0.011710365766924677 0 -0.0036725398786528764 0.01369569210391865 0 -0.0036725398786528764 0.01369569210391865 0 -0.0058612352218845492 0.015379970425467352 0 -0.0021259027703752669 0.016594468927537128 0 -0.0058612352218845492 0.015379970425467352 0 -0.0021259027703752669 0.016594468927537128 0 -0.0060136748944174603 0.018648129808287197 0 -0.0066177944072042735 0.01263326133772035 0 -0.0036725398786528764 0.01369569210391865 0 -0.0058612352218845492 0.015379970425467352 0 -0.0066177944072042735 0.01263326133772035 0 -0.0058612352218845492 0.015379970425467352 0 -0.0088800731037320599 0.013685332320753916 0 -0.0058612352218845492 0.015379970425467352 0 -0.0088800731037320599 0.013685332320753916 0 -0.0087006689127051128 0.016618390626608314 0 -0.0058612352218845492 0.015379970425467352 0 -0.0087006689127051128 0.016618390626608314 0 -0.0060136748944174603 0.018648129808287197 0 -0.0087006689127051128 0.016618390626608314 0 -0.011536712686927774 0.014541544078516568 0 -0.011403782323474198 0.017799599646613994 0 -0.0087006689127051128 0.016618390626608314 0 -0.011403782323474198 0.017799599646613994 0 -0.0093975873893010226 0.019648324412634074 0 -0.0088800731037320599 0.013685332320753916 0 -0.0087006689127051128 0.016618390626608314 0 -0.011536712686927774 0.014541544078516568 0 -0.0049228414191473859 0.0081902494085284421 0 -0.0097802543331099324 0.010458605044961556 0 -0.013736808823688634 0.0095259670000775679 0 -0.0088800731037320599 0.013685332320753916 0 -0.010957363116411574 0.011975135148400162 0 -0.011536712686927774 0.014541544078516568 0 -0.0049228414191473859 0.0081902494085284421 0 -0.0071627877501024397 0.010572681447623468 0 -0.0097802543331099324 0.010458605044961556 0 -0.010957363116411574 0.011975135148400162 0 -0.0090346739190178202 0.011763842746635791 0 -0.0097802543331099324 0.010458605044961556 0 -0.0088800731037320599 0.013685332320753916 0 -0.010957363116411574 0.011975135148400162 0 -0.0090346739190178202 0.011763842746635791 0 -0.0066177944072042735 0.01263326133772035 0 -0.0090346739190178202 0.011763842746635791 0 -0.0071627877501024397 0.010572681447623468 0 -0.0066177944072042735 0.01263326133772035 0 -0.0088800731037320599 0.013685332320753916 0 -0.0090346739190178202 0.011763842746635791 0 -0.0090346739190178202 0.011763842746635791 0 -0.0071627877501024397 0.010572681447623468 0 -0.0097802543331099324 0.010458605044961556 0 -0.010957363116411574 0.011975135148400162 0 -0.0097802543331099324 0.010458605044961556 0 -0.012605741586735298 0.010485467924543055 0 -0.0097802543331099324 0.010458605044961556 0 -0.012605741586735298 0.010485467924543055 0 -0.013736808823688634 0.0095259670000775679 0 -0.012605741586735298 0.010485467924543055 0 -0.013304540210855515 0.0099959465596436703 0 -0.013268700129897419 0.0108604770634959 0 -0.012605741586735298 0.010485467924543055 0 -0.013304540210855515 0.0099959465596436703 0 -0.013736808823688634 0.0095259670000775679 0 -0.013268700129897419 0.0108604770634959 0 -0.013633982727224984 0.0094536712285893526 0 -0.014363740117628086 0.012388364450359768 0 -0.013304540210855515 0.0099959465596436703 0 -0.013736808823688634 0.0095259670000775679 0 -0.013633982727224984 0.0094536712285893526 0 -0.013304540210855515 0.0099959465596436703 0 -0.013268700129897419 0.0108604770634959 0 -0.013633982727224984 0.0094536712285893526 0 -0.013268700129897419 0.0108604770634959 0 -0.014363740117628086 0.012388364450359768 0 -0.012729945035543228 0.012316050307816332 0 -0.014363740117628086 0.012388364450359768 0 -0.012729945035543228 0.012316050307816332 0 -0.013632695307595737 0.014065910151918527 0 -0.010957363116411574 0.011975135148400162 0 -0.012729945035543228 0.012316050307816332 0 -0.011536712686927774 0.014541544078516568 0 -0.012605741586735298 0.010485467924543055 0 -0.013268700129897419 0.0108604770634959 0 -0.012729945035543228 0.012316050307816332 0 -0.010957363116411574 0.011975135148400162 0 -0.012605741586735298 0.010485467924543055 0 -0.012729945035543228 0.012316050307816332 0 -0.011536712686927774 0.014541544078516568 0 -0.01386954376200206 0.016652444619572156 0 -0.013632695307595737 0.014065910151918527 0 -0.012729945035543228 0.012316050307816332 0 -0.011536712686927774 0.014541544078516568 0 -0.013632695307595737 0.014065910151918527 0 -0.011536712686927774 0.014541544078516568 0 -0.011403782323474198 0.017799599646613994 0 -0.01386954376200206 0.016652444619572156 0 -0.01386954376200206 0.016652444619572156 0 -0.015741098595279873 0.014876283011010481 0 -0.016990840712087792 0.017026140229647747 0 -0.014363740117628086 0.012388364450359768 0 -0.013632695307595737 0.014065910151918527 0 -0.015741098595279873 0.014876283011010481 0 -0.01386954376200206 0.016652444619572156 0 -0.013632695307595737 0.014065910151918527 0 -0.015741098595279873 0.014876283011010481 0 -0.015741098595279873 0.014876283011010481 0 -0.016990840712087792 0.017026140229647747 0 -0.018645441121798601 0.014259717374909695 0 -0.014363740117628086 0.012388364450359768 0 -0.015741098595279873 0.014876283011010481 0 -0.018645441121798601 0.014259717374909695 0 -0.016990840712087792 0.017026140229647747 0 -0.018645441121798601 0.014259717374909695 0 -0.023242825707434942 0.018905242119156042 0 -0.013633982727224984 0.0094536712285893526 0 -0.012257444789454452 0.0073834886584693742 0 -0.010903140601999995 0.0091389766009300696 0 -0.013736808823688634 0.0095259670000775679 0 -0.013633982727224984 0.0094536712285893526 0 -0.010903140601999995 0.0091389766009300696 0 -0.0083949177665518515 0.020474844116555833 0 -0.0083257389077621251 0.01438140566757583 0 -0.012782390951889336 0.01249738987019001 0 -0.013016408855432881 0.013548532618306717 0 -0.013633982727224984 0.0094536712285893526 0 -0.014363740117628086 0.012388364450359768 0 -0.018645441121798601 0.014259717374909695 0 0.00018407019115726934 0.074123467422481187 0 8.9987562495282345e-05 0.073815025246033852 0 0.00015442732367004254 0.073959113926489226 0 -0.0012118007404970058 0.062767983592385709 0 -0.001417785551146671 0.05916345035034478 0 0.00018407019115726934 0.074123467422481187 0 4.6997429441953959e-05 0.074099167970692603 0 -0.0001211109483816768 0.074677052046400488 0 0.00018407019115726934 0.074123467422481187 0 0.00015442732367004254 0.073959113926489226 0 0.00018432540133941306 0.07404328084999548 0 0.00012232717068373785 0.074205747148109846 0 0.00018407019115726934 0.074123467422481187 0 0.00018432540133941306 0.07404328084999548 0 0.00010383212281956718 0.074184375563869809 0 0.00018407019115726934 0.074123467422481187 0 6.713923317243173e-05 0.074044907526838746 0 0.00018407019115726934 0.074123467422481187 0 6.713923317243173e-05 0.074044907526838746 0 4.6997429441953959e-05 0.074099167970692603 0 6.713923317243173e-05 0.074044907526838746 0 4.6997429441953959e-05 0.074099167970692603 0 -0.00024231024829159855 0.073614394788901832 0 4.6997429441953959e-05 0.074099167970692603 0 -0.00024231024829159855 0.073614394788901832 0 -0.0001211109483816768 0.074677052046400488 0 -0.0013385474320576701 0.070803678893846242 0 -0.00024231024829159855 0.073614394788901832 0 -0.002124441337874863 0.072436430699287679 0 -0.00024231024829159855 0.073614394788901832 0 -0.002124441337874863 0.072436430699287679 0 -0.0017261147949607411 0.07395354398117146 0 -0.00024231024829159855 0.073614394788901832 0 -0.0017261147949607411 0.07395354398117146 0 -0.0001211109483816768 0.074677052046400488 0 -0.0045330541862198771 0.073302394328013484 0 -0.0034486447317462567 0.072961189942705923 0 -0.0031887455081908026 0.075591689463480383 0 -0.0032506538968938427 0.070715256846558314 0 -0.0034486447317462567 0.072961189942705923 0 -0.002124441337874863 0.072436430699287679 0 -0.0034486447317462567 0.072961189942705923 0 -0.002124441337874863 0.072436430699287679 0 -0.0017261147949607411 0.07395354398117146 0 -0.0034486447317462567 0.072961189942705923 0 -0.0017261147949607411 0.07395354398117146 0 -0.0031887455081908026 0.075591689463480383 0 -0.0017261147949607411 0.07395354398117146 0 -0.0031887455081908026 0.075591689463480383 0 -0.0001211109483816768 0.074677052046400488 0 -3.1121061339252764e-05 0.073663338500202499 0 8.9987562495282345e-05 0.073815025246033852 0 -4.7298438026408053e-06 0.073740629782981779 0 -0.00028359929573844962 0.045826994308056743 0 -0.001417785551146671 0.05916345035034478 0 8.9987562495282345e-05 0.073815025246033852 0 9.7514943245682911e-05 0.073867568218697416 0 -4.7298438026408053e-06 0.073740629782981779 0 -4.7298438026408053e-06 0.073740629782981779 0 -0.00028904686239671919 0.073959520149747854 0 -2.1982155512023652e-05 0.073925542293416899 0 -4.7298438026408053e-06 0.073740629782981779 0 7.8448095446403878e-05 0.073924719540956488 0 -2.1982155512023652e-05 0.073925542293416899 0 9.7514943245682911e-05 0.073867568218697416 0 -4.7298438026408053e-06 0.073740629782981779 0 7.8448095446403878e-05 0.073924719540956488 0 -0.0059140575491495465 0.035681527310486814 0 -0.0012224530063415482 0.04357482040194588 0 -0.00071056818993402398 0.072869550462488553 0 -4.7298438026408053e-06 0.073740629782981779 0 -0.00028904686239671919 0.073959520149747854 0 -0.0014456207898389866 0.072902116243943382 0 -0.00071056818993402398 0.072869550462488553 0 -0.00028904686239671919 0.073959520149747854 0 -0.00028359929573844962 0.045826994308056743 0 0.0036747785986663011 0.053061573568286252 0 0.00077397974445342355 0.013464714369634973 0 0.0013152128751311475 0.017400305066747591 0 -0.0021259027703752669 0.016594468927537128 0 -0.0036725398786528764 0.01369569210391865 0 0.00077397974445342355 0.013464714369634973 0 -0.0021259027703752669 0.016594468927537128 0 0.00077397974445342355 0.013464714369634973 0 0.0013152128751311475 0.017400305066747591 0 0.0046585465399593389 0.01704434302887152 0 0.0013152128751311475 0.017400305066747591 0 0.0046585465399593389 0.01704434302887152 0 0.0065597335157862357 0.018793763573233768 0 7.8448095446403878e-05 0.073924719540956488 0 7.1878733849536103e-05 0.074033589882578341 0 0.00013491677577349696 0.07399696907830329 0 7.8448095446403878e-05 0.073924719540956488 0 -2.1982155512023652e-05 0.073925542293416899 0 7.1878733849536103e-05 0.074033589882578341 0 -0.0012224530063415482 0.04357482040194588 0 9.5828215054457943e-05 0.047575229893810203 0 -0.00028904686239671919 0.073959520149747854 0 -2.1982155512023652e-05 0.073925542293416899 0 7.1878733849536103e-05 0.074033589882578341 0 9.5828215054457943e-05 0.047575229893810203 0 0.00044554595453047722 0.049616392754867962 0 7.1878733849536103e-05 0.074033589882578341 0 0.00013491677577349696 0.07399696907830329 0 0.00011279031232665188 0.074032677688013512 0 0.00013491677577349696 0.07399696907830329 0 0.00020582758482048602 0.074017951687032138 0 0.00011279031232665188 0.074032677688013512 0 -0.0023135069502482238 0.055532370703617141 0 0.00044554595453047722 0.049616392754867962 0 0.00013491677577349696 0.07399696907830329 0 0.00015569093437288161 0.073967079662625224 0 0.00020582758482048602 0.074017951687032138 0 7.8448095446403878e-05 0.073924719540956488 0 0.00013491677577349696 0.07399696907830329 0 0.00015569093437288161 0.073967079662625224 0 9.7514943245682911e-05 0.073867568218697416 0 7.8448095446403878e-05 0.073924719540956488 0 0.00015569093437288161 0.073967079662625224 0 0.00015569093437288161 0.073967079662625224 0 0.00015442732367004254 0.073959113926489226 0 0.00018432540133941306 0.07404328084999548 0 8.9987562495282345e-05 0.073815025246033852 0 9.7514943245682911e-05 0.073867568218697416 0 0.00015442732367004254 0.073959113926489226 0 9.7514943245682911e-05 0.073867568218697416 0 0.00015569093437288161 0.073967079662625224 0 0.00015442732367004254 0.073959113926489226 0 0.00015569093437288161 0.073967079662625224 0 0.00018432540133941306 0.07404328084999548 0 0.00020582758482048602 0.074017951687032138 0 0.00015728882714508341 0.074083573162896071 0 0.00018432540133941306 0.07404328084999548 0 0.00020582758482048602 0.074017951687032138 0 0.00020582758482048602 0.074017951687032138 0 0.00021669400605268987 0.073947132183707784 0 0.00030656357582718025 0.073913526284872716 0 0.00020582758482048602 0.074017951687032138 0 0.00021669400605268987 0.073947132183707784 0 0.00016915830584856553 0.074006926426315775 0 0.0016381073090438415 0.05925539853879043 0 -6.8349207571693902e-05 0.064196534177891285 0 0.00021669400605268987 0.073947132183707784 0 0.00023959370007335784 0.073876615820654565 0 0.00017264244585761383 0.073937733531450708 0 0.00031783247049258759 0.061228432548309862 0 0.0017004439435078815 0.061279760158128235 0 0.0012667280780694551 0.061653912487718565 0 0.00031783247049258759 0.061228432548309862 0 0.00099703713524888337 0.061972317567522472 0 0.0012667280780694551 0.061653912487718565 0 0.0018167865808786569 0.053031961788115346 0 0.0020268882235512068 0.053908538422242858 0 0.0029793356744988206 0.054311104812516567 0 0.0018167865808786569 0.053031961788115346 0 0.0020268882235512068 0.053908538422242858 0 0.0012061045078728696 0.053724596064072115 0 0.0016381073090438415 0.05925539853879043 0 0.00082497968147661883 0.060522636252224538 0 0.0016381073090438415 0.05925539853879043 0 0.00053815684449172625 0.057676907594761712 0 0.0018823772109319431 0.052997342117436043 0 0.00014848250728936841 0.052927709626088296 0 0.00027741355873895203 0.051238676351467873 0 0.0018167865808786569 0.053031961788115346 0 0.0012061045078728696 0.053724596064072115 0 0.00012387444477929562 0.052954896339813817 0 0.0012061045078728696 0.053724596064072115 0 0.00012387444477929562 0.052954896339813817 0 -0.0003190650925319824 0.053956440884582964 0 0.00021669400605268987 0.073947132183707784 0 0.00023959370007335784 0.073876615820654565 0 0.00030656357582718025 0.073913526284872716 0 0.0016381073090438415 0.05925539853879043 0 0.0012287638488064725 0.052589621452830977 0 0.00020582758482048602 0.074017951687032138 0 0.00030656357582718025 0.073913526284872716 0 0.00032550075455388731 0.07392130428059715 0 0.00014848250728936841 0.052927709626088296 0 0.00027741355873895203 0.051238676351467873 0 -0.00011793110827499609 0.05080628832391651 0 0.0012287638488064725 0.052589621452830977 0 0.00044554595453047722 0.049616392754867962 0 0.00014848250728936841 0.052927709626088296 0 -0.00094579647747089133 0.051773790859415879 0 -0.00011793110827499609 0.05080628832391651 0 0.00044554595453047722 0.049616392754867962 0 -0.0016311846818592183 0.042341752194134601 0 -0.00094579647747089133 0.051773790859415879 0 -0.00011793110827499609 0.05080628832391651 0 -0.0029950246325007382 0.051526247344181549 0 0.0013152128751311475 0.017400305066747591 0 0.0065597335157862357 0.018793763573233768 0 -0.001316203712918018 0.020731938089547059 0 -0.00094579647747089133 0.051773790859415879 0 -0.0029950246325007382 0.051526247344181549 0 -0.0015869288827531412 0.052857929592476281 0 0.0013152128751311475 0.017400305066747591 0 -0.0021259027703752669 0.016594468927537128 0 -0.001316203712918018 0.020731938089547059 0 -0.0029950246325007382 0.051526247344181549 0 -0.0030607657672116441 0.053115668999395016 0 -0.0015869288827531412 0.052857929592476281 0 -0.0037823067068643106 0.047935857744389326 0 -0.0015647468630809161 0.052884486783754792 0 -0.0054865099818938862 0.048629015865310529 0 -0.0023255151541498502 0.049610973348895179 0 -0.0037874245449416905 0.050284154079515836 0 -0.0030607657672116441 0.053115668999395016 0 -0.0015869288827531412 0.052857929592476281 0 -0.0003190650925319824 0.053956440884582964 0 0.00053815684449172625 0.057676907594761712 0 -2.3640495235721498e-05 0.057179098606015319 0 0.00012387444477929562 0.052954896339813817 0 -0.0015869288827531412 0.052857929592476281 0 -0.0003190650925319824 0.053956440884582964 0 0.00014848250728936841 0.052927709626088296 0 -0.00094579647747089133 0.051773790859415879 0 -0.0015869288827531412 0.052857929592476281 0 -0.0023255151541498502 0.049610973348895179 0 -0.0037874245449416905 0.050284154079515836 0 -0.0026036244428204436 0.051090985596985272 0 -0.0037874245449416905 0.050284154079515836 0 -0.0026036244428204436 0.051090985596985272 0 -0.003684346342391771 0.051481037411302707 0 -0.0023255151541498502 0.049610973348895179 0 -0.0026036244428204436 0.051090985596985272 0 -0.0012916295416345442 0.051183666901354313 0 -0.0054865099818938862 0.048629015865310529 0 -0.0049298748080178713 0.050503368404180481 0 -0.0058960679264149661 0.049681774285709496 0 -0.0054865099818938862 0.048629015865310529 0 -0.0037874245449416905 0.050284154079515836 0 -0.0049298748080178713 0.050503368404180481 0 -0.0049298748080178713 0.050503368404180481 0 -0.0047797269806933076 0.051542813116089332 0 -0.003684346342391771 0.051481037411302707 0 -0.0037874245449416905 0.050284154079515836 0 -0.0049298748080178713 0.050503368404180481 0 -0.003684346342391771 0.051481037411302707 0 -0.0049298748080178713 0.050503368404180481 0 -0.0047797269806933076 0.051542813116089332 0 -0.0060867714853189104 0.051312481402558299 0 -0.0049298748080178713 0.050503368404180481 0 -0.0058960679264149661 0.049681774285709496 0 -0.0060867714853189104 0.051312481402558299 0 -0.0042799812421243661 0.052754228476389407 0 -0.0060867714853189104 0.051312481402558299 0 -0.0048792823158797152 0.054274978308604803 0 -0.0039082658179884124 0.048648740558107383 0 -0.0029748590309804025 0.044511636107284709 0 -0.0047797269806933076 0.051542813116089332 0 -0.0042799812421243661 0.052754228476389407 0 -0.0060867714853189104 0.051312481402558299 0 -0.0047797269806933076 0.051542813116089332 0 -0.0042799812421243661 0.052754228476389407 0 -0.003684346342391771 0.051481037411302707 0 -0.0042799812421243661 0.052754228476389407 0 -0.0023641441529764552 0.052386562851415394 0 -0.0024262060928572022 0.054261099145981283 0 -0.0042799812421243661 0.052754228476389407 0 -0.003684346342391771 0.051481037411302707 0 -0.0023641441529764552 0.052386562851415394 0 -0.0026036244428204436 0.051090985596985272 0 -0.003684346342391771 0.051481037411302707 0 -0.0023641441529764552 0.052386562851415394 0 -0.0026036244428204436 0.051090985596985272 0 -0.0023641441529764552 0.052386562851415394 0 -0.0012916295416345442 0.051183666901354313 0 -0.0023641441529764552 0.052386562851415394 0 -0.00051497831165967856 0.052840362070587996 0 -0.0024262060928572022 0.054261099145981283 0 -0.0023641441529764552 0.052386562851415394 0 -0.00051497831165967856 0.052840362070587996 0 -0.0012916295416345442 0.051183666901354313 0 -0.00051497831165967856 0.052840362070587996 0 -8.3173060683452429e-05 0.051652353615862741 0 -0.0012916295416345442 0.051183666901354313 0 -0.00051497831165967856 0.052840362070587996 0 0.00071553248578211696 0.051989594470819959 0 0.0010099629820424288 0.053811250102611292 0 0.00071553248578211696 0.051989594470819959 0 0.0010099629820424288 0.053811250102611292 0 0.0023439935227099508 0.051072263963690585 0 -0.00051497831165967856 0.052840362070587996 0 0.00071553248578211696 0.051989594470819959 0 -8.3173060683452429e-05 0.051652353615862741 0 0.00071553248578211696 0.051989594470819959 0 -8.3173060683452429e-05 0.051652353615862741 0 0.00075342431563262457 0.05060853716153893 0 0.00040221506950504585 0.059273774666613863 0 0.00081484489079851515 0.059151501059772946 0 0.0011194398410513315 0.059483620600641225 0 0.00071553248578211696 0.051989594470819959 0 0.00075342431563262457 0.05060853716153893 0 0.0023439935227099508 0.051072263963690585 0 0.00076202665518714256 0.058642623426596492 0 0.00052827747423032435 0.0606656988693254 0 0.0020268882235512068 0.053908538422242858 0 0.0023811017319405265 0.054769560155116713 0 0.0029742193828234268 0.054308889224056862 0 0.00078029724630810315 0.060228147350236828 0 0.00082497968147661883 0.060522636252224538 0 0.0023811017319405265 0.054769560155116713 0 0.0029742193828234268 0.054308889224056862 0 0.0031797821232933876 0.054534635135551623 0 0.00076202665518714256 0.058642623426596492 0 0.00075271417520191225 0.060519724966364284 0 0.00082497968147661883 0.060522636252224538 0 0.00075271417520191225 0.060519724966364284 0 0.0020268882235512068 0.053908538422242858 0 0.0012061045078728696 0.053724596064072115 0 0.0023811017319405265 0.054769560155116713 0 -0.0015647468630809161 0.052884486783754792 0 0.00076202665518714256 0.058642623426596492 0 -8.3173060683452429e-05 0.051652353615862741 0 0.00075342431563262457 0.05060853716153893 0 -0.0012916295416345442 0.051183666901354313 0 -0.0023255151541498502 0.049610973348895179 0 0.00082166833655444751 0.050577888905193623 0 -0.0012916295416345442 0.051183666901354313 0 0.00076202665518714256 0.058642623426596492 0 0.0008252497901816558 0.057631204167618556 0 0.0012061045078728696 0.053724596064072115 0 -0.0003190650925319824 0.053956440884582964 0 0.0023811017319405265 0.054769560155116713 0 -0.0080272634285152682 0.022615860818843422 0 -0.0074415935210052622 0.024690128169141231 0 -0.010543578051126936 0.02319587038326763 0 -0.0080272634285152682 0.022615860818843422 0 -0.0085785660995077728 0.020793039208339418 0 -0.010543578051126936 0.02319587038326763 0 -0.016990840712087792 0.017026140229647747 0 -0.018236655481694994 0.020369300495813276 0 -0.013168103381408842 0.021861029182525048 0 -0.016990840712087792 0.017026140229647747 0 -0.018236655481694994 0.020369300495813276 0 -0.023242825707434942 0.018905242119156042 0 -0.0080272634285152682 0.022615860818843422 0 -0.0085785660995077728 0.020793039208339418 0 -0.0062235602830893111 0.0214838286088837 0 -0.012850370007177887 0.02326100864783982 0 -0.0117201643420441 0.031309615811806302 0 -0.011403782323474198 0.017799599646613994 0 -0.01386954376200206 0.016652444619572156 0 -0.013362735462778512 0.021567825888840181 0 -0.014669770452130625 0.026462144282186819 0 -0.0117201643420441 0.031309615811806302 0 -0.01386954376200206 0.016652444619572156 0 -0.016990840712087792 0.017026140229647747 0 -0.013362735462778512 0.021567825888840181 0 -0.011403782323474198 0.017799599646613994 0 -0.013362735462778512 0.021567825888840181 0 -0.0093975873893010226 0.019648324412634074 0 -0.0117201643420441 0.031309615811806302 0 -0.006832043920378666 0.040711023096136195 0 -0.0062235602830893111 0.0214838286088837 0 -0.0040163091365358373 0.024271428181145836 0 -0.0074415935210052622 0.024690128169141231 0 -0.0080272634285152682 0.022615860818843422 0 -0.0062235602830893111 0.0214838286088837 0 -0.0074415935210052622 0.024690128169141231 0 -0.009722139766596815 0.047188598971339826 0 -0.008755104424502419 0.047794885793277155 0 -0.0080696665890451717 0.049105746019317047 0 -0.0117201643420441 0.031309615811806302 0 -0.0074152330807810696 0.036508048692881614 0 -0.0082139087734912943 0.047660971923421017 0 -0.0070476697898019811 0.048315853804759085 0 -0.0080696665890451717 0.049105746019317047 0 -0.009722139766596815 0.047188598971339826 0 -0.0081355250763181178 0.047612679372910374 0 -0.008755104424502419 0.047794885793277155 0 -0.006832043920378666 0.040711023096136195 0 -0.0070111544300328794 0.040861422277096979 0 -0.0082139087734912943 0.047660971923421017 0 -0.008755104424502419 0.047794885793277155 0 -0.0080696665890451717 0.049105746019317047 0 -0.013362735462778512 0.021567825888840181 0 -0.0090129225776698785 0.02283331766206656 0 -0.0093975873893010226 0.019648324412634074 0 -0.0087006689127051128 0.016618390626608314 0 -0.0093975873893010226 0.019648324412634074 0 -0.0060136748944174603 0.018648129808287197 0 -0.0090129225776698785 0.02283331766206656 0 -0.0093975873893010226 0.019648324412634074 0 -0.0060136748944174603 0.018648129808287197 0 -0.001316203712918018 0.020731938089547059 0 -0.0090129225776698785 0.02283331766206656 0 -0.0060136748944174603 0.018648129808287197 0 -0.0016311846818592183 0.042341752194134601 0 -0.006832043920378666 0.040711023096136195 0 -0.0021259027703752669 0.016594468927537128 0 -0.001316203712918018 0.020731938089547059 0 -0.0060136748944174603 0.018648129808287197 0 -0.0029950246325007382 0.051526247344181549 0 -0.0030607657672116441 0.053115668999395016 0 -0.0058104278909472985 0.05227770870256028 0 -0.0037823067068643106 0.047935857744389326 0 -0.006832043920378666 0.040711023096136195 0 -0.0054865099818938862 0.048629015865310529 0 -0.0082139087734912943 0.047660971923421017 0 -0.0070476697898019811 0.048315853804759085 0 -0.0054865099818938862 0.048629015865310529 0 -0.0070476697898019811 0.048315853804759085 0 -0.0058960679264149661 0.049681774285709496 0 -0.0063349328121625548 0.050217122709966582 0 -0.006755836753942937 0.05056080822371329 0 -0.0080696665890451717 0.049105746019317047 0 -0.0070476697898019811 0.048315853804759085 0 -0.0063349328121625548 0.050217122709966582 0 -0.0080696665890451717 0.049105746019317047 0 -0.0070476697898019811 0.048315853804759085 0 -0.0058960679264149661 0.049681774285709496 0 -0.0060867714853189104 0.051312481402558299 0 -0.0046531478152315366 0.048556258009525156 0 -0.0039082658179884124 0.048648740558107383 0 -0.0063349328121625548 0.050217122709966582 0 -0.006755836753942937 0.05056080822371329 0 -0.005636570000885942 0.05186261587686021 0 -0.0051952420157579549 0.039904651154913193 0 -0.0029748590309804025 0.044511636107284709 0 -0.0017907884111866227 0.027077118041172462 0 -0.0045583093414152979 0.027426303163741044 0 -0.0021558974028436716 0.029670866315243828 0 -0.0017907884111866227 0.027077118041172462 0 -0.0045583093414152979 0.027426303163741044 0 -0.0040163091365358373 0.024271428181145836 0 -0.0051952420157579549 0.039904651154913193 0 -0.0074152330807810696 0.036508048692881614 0 -0.0045583093414152979 0.027426303163741044 0 -0.0040163091365358373 0.024271428181145836 0 -0.0074415935210052622 0.024690128169141231 0 -0.0045583093414152979 0.027426303163741044 0 -0.0075614046674278811 0.028499160492510153 0 -0.0074415935210052622 0.024690128169141231 0 -0.0055013764062350184 0.019454794785961498 0 -0.0081075650520512996 0.015518927576759945 0 -0.0075614046674278811 0.028499160492510153 0 -0.0074415935210052622 0.024690128169141231 0 -0.010746280797848838 0.026635028740542105 0 -0.0012501637723745089 0.015283833806897403 0 0.0017438798227351869 0.012346740353804425 0 0.0010167341043493363 0.019283790081316549 0 -0.0058977333333529438 0.014846810739476524 0 -0.0038604118709718483 0.014954442314385603 0 -0.0053144925115808277 0.016647907631865008 0 -0.0038604118709718483 0.014954442314385603 0 -0.0028390014087268478 0.016899980836768917 0 -0.0053144925115808277 0.016647907631865008 0 -0.0038604118709718483 0.014954442314385603 0 -0.0051768396080724075 0.013111344860814979 0 -0.0019400032753896701 0.012790507617884738 0 -0.0058977333333529438 0.014846810739476524 0 -0.0038604118709718483 0.014954442314385603 0 -0.0051768396080724075 0.013111344860814979 0 -0.0031556954529826245 0.0094085253202748666 0 -0.0051768396080724075 0.013111344860814979 0 -0.0076773110640497187 0.010807359002312012 0 -0.0031556954529826245 0.0094085253202748666 0 -0.0051768396080724075 0.013111344860814979 0 -0.0019400032753896701 0.012790507617884738 0 -0.0055013764062350184 0.019454794785961498 0 -0.0027042601518075088 0.023829786331611383 0 -0.0045583093414152979 0.027426303163741044 0 -0.0075614046674278811 0.028499160492510153 0 -0.004351281397252476 0.030380926852067572 0 -0.0031556954529826245 0.0094085253202748666 0 -0.0019400032753896701 0.012790507617884738 0 0.0017438798227351869 0.012346740353804425 0 -0.0019400032753896701 0.012790507617884738 0 -0.0012501637723745089 0.015283833806897403 0 0.0017438798227351869 0.012346740353804425 0 -0.0038604118709718483 0.014954442314385603 0 -0.0019400032753896701 0.012790507617884738 0 -0.0012501637723745089 0.015283833806897403 0 -0.0038604118709718483 0.014954442314385603 0 -0.0012501637723745089 0.015283833806897403 0 -0.0028390014087268478 0.016899980836768917 0 0.0017438798227351869 0.012346740353804425 0 0.006505514070060745 0.015193714888664353 0 0.0010167341043493363 0.019283790081316549 0 -0.0045583093414152979 0.027426303163741044 0 -0.004351281397252476 0.030380926852067572 0 -0.0021558974028436716 0.029670866315243828 0 -0.0017907884111866227 0.027077118041172462 0 -0.0021558974028436716 0.029670866315243828 0 0.00045114565304290314 0.029906443217297983 0 -0.0021558974028436716 0.029670866315243828 0 -0.0011094048800013806 0.032271313750289451 0 0.00045114565304290314 0.029906443217297983 0 -0.004351281397252476 0.030380926852067572 0 -0.0021558974028436716 0.029670866315243828 0 -0.0011094048800013806 0.032271313750289451 0 -0.0027042601518075088 0.023829786331611383 0 -0.00062878597460630297 0.029707136229832169 0 0.006505514070060745 0.015193714888664353 0 0.0067767761762860838 0.020244866026726972 0 0.0010167341043493363 0.019283790081316549 0 0.0042407771126613076 0.034854847265802111 0 0.0050355766245927212 0.035984113063897975 0 0.0035636079015746512 0.035964075380509393 0 0.0042407771126613076 0.034854847265802111 0 0.00239618030129849 0.034517293790902057 0 0.0035636079015746512 0.035964075380509393 0 0.00239618030129849 0.034517293790902057 0 0.0022155225990054522 0.035654830795779593 0 0.0035636079015746512 0.035964075380509393 0 0.0037347997783580417 0.032726662577116705 0 0.00098017161968280741 0.029076058393912949 0 -0.0012501637723745089 0.015283833806897403 0 0.0010167341043493363 0.019283790081316549 0 -0.0028390014087268478 0.016899980836768917 0 0.0010167341043493363 0.019283790081316549 0 -0.004726651919169619 0.018332221780275302 0 -0.0028390014087268478 0.016899980836768917 0 0.00098017161968280741 0.029076058393912949 0 -0.0035567618372112876 0.02667400785749216 0 0.00239618030129849 0.034517293790902057 0 0.0015377659784393599 0.035141508905958234 0 0.00048863959812287601 0.034190600778605043 0 0.00239618030129849 0.034517293790902057 0 0.0022155225990054522 0.035654830795779593 0 0.0015377659784393599 0.035141508905958234 0 0.0022155225990054522 0.035654830795779593 0 0.0015377659784393599 0.035141508905958234 0 0.0012222312824689931 0.036185334693088926 0 -0.0048370224115019938 0.020977940633087153 0 -0.0043103826051526187 0.018731993103228806 0 -0.0016707793256353378 0.026148381953027832 0 0.0015377659784393599 0.035141508905958234 0 0.00048863959812287601 0.034190600778605043 0 0.0012222312824689931 0.036185334693088926 0 -0.0035567618372112876 0.02667400785749216 0 -0.00095703671467360922 0.03127716526979496 0 -0.0048370224115019938 0.020977940633087153 0 -0.0063598158562321915 0.022535257532938224 0 -0.0016707793256353378 0.026148381953027832 0 -0.0048370224115019938 0.020977940633087153 0 -0.0063817365216788926 0.019695274059962662 0 -0.0063598158562321915 0.022535257532938224 0 -0.0048370224115019938 0.020977940633087153 0 -0.0043103826051526187 0.018731993103228806 0 -0.0047239466392951165 0.018664597516271388 0 -0.0048370224115019938 0.020977940633087153 0 -0.0047239466392951165 0.018664597516271388 0 -0.0063817365216788926 0.019695274059962662 0 -0.0047239466392951165 0.018664597516271388 0 -0.0063593084057278456 0.017808466751409478 0 -0.0063817365216788926 0.019695274059962662 0 -0.0035567618372112876 0.02667400785749216 0 -0.0035636410015570767 0.026665991024640345 0 -0.004726651919169619 0.018332221780275302 0 -0.0028390014087268478 0.016899980836768917 0 -0.0053144925115808277 0.016647907631865008 0 -0.0035567618372112876 0.02667400785749216 0 -0.0038504976717332259 0.025725492013639197 0 -0.0043223233735055948 0.018722638562060662 0 -0.0047239466392951165 0.018664597516271388 0 -0.0053144925115808277 0.016647907631865008 0 -0.0047239466392951165 0.018664597516271388 0 -0.0053144925115808277 0.016647907631865008 0 -0.0063593084057278456 0.017808466751409478 0 -0.0015487968218811233 0.055878825555341016 0 -0.0004735985288992672 0.056569651229665611 0 -0.00082664285275157632 0.054649542291424824 0 -0.0015487968218811233 0.055878825555341016 0 -0.0028704161503290246 0.056669427164610708 0 -0.0011929081577593875 0.057108868885544728 0 -0.0015487968218811233 0.055878825555341016 0 -0.0004735985288992672 0.056569651229665611 0 -0.0011929081577593875 0.057108868885544728 0 -0.0004735985288992672 0.056569651229665611 0 0.00059575364626742388 0.056213608171102797 0 -0.0001225249742685368 0.057871345446863412 0 0.00099794377510819664 0.056245322476665249 0 0.0013761447868476848 0.056238559657353381 0 -0.0004735985288992672 0.056569651229665611 0 0.00059575364626742388 0.056213608171102797 0 0.0004373628967797569 0.054956671376080748 0 0.00059575364626742388 0.056213608171102797 0 0.0004373628967797569 0.054956671376080748 0 0.0011281525362937298 0.054957149762998314 0 -0.0004735985288992672 0.056569651229665611 0 0.0010099629820424288 0.053811250102611292 0 -0.00082664285275157632 0.054649542291424824 0 -0.00051497831165967856 0.052840362070587996 0 0.0010099629820424288 0.053811250102611292 0 -0.00082664285275157632 0.054649542291424824 0 -0.00051497831165967856 0.052840362070587996 0 -0.00082664285275157632 0.054649542291424824 0 -0.0024262060928572022 0.054261099145981283 0 -0.0015487968218811233 0.055878825555341016 0 -0.00082664285275157632 0.054649542291424824 0 -0.0024262060928572022 0.054261099145981283 0 -0.0042799812421243661 0.052754228476389407 0 -0.0024262060928572022 0.054261099145981283 0 -0.0048792823158797152 0.054274978308604803 0 -0.0024262060928572022 0.054261099145981283 0 -0.0048792823158797152 0.054274978308604803 0 -0.0028704161503290246 0.056669427164610708 0 -0.0029748590309804025 0.044511636107284709 0 -0.0017725306253426681 0.040966786385265699 0 -0.0029748590309804025 0.044511636107284709 0 -0.0010098991556274919 0.048707631945921717 0 -0.00062878597460630297 0.029707136229832169 0 -0.00028202650581194989 0.0392123496920702 0 -0.0031659818131662227 0.043648939761863972 0 -0.0026696417743804646 0.0448439953538321 0 -0.0018109334208592147 0.045325452025795458 0 -0.0011094048800013806 0.032271313750289451 0 0.00045114565304290314 0.029906443217297983 0 0.0013070823688100691 0.032027001540788101 0 -0.0011094048800013806 0.032271313750289451 0 0.0013070823688100691 0.032027001540788101 0 0.0021591146400682906 0.034160309896785264 0 -0.0015487968218811233 0.055878825555341016 0 -0.0024262060928572022 0.054261099145981283 0 -0.0028704161503290246 0.056669427164610708 0 -0.0017725306253426681 0.040966786385265699 0 -0.00028202650581194989 0.0392123496920702 0 -0.0026696417743804646 0.0448439953538321 0 -0.0018109334208592147 0.045325452025795458 0 -0.0021777689255926469 0.046045992291668746 0 -0.00028202650581194989 0.0392123496920702 0 0.00024244152069524729 0.049648144694255263 0 -0.0018109334208592147 0.045325452025795458 0 -0.0021777689255926469 0.046045992291668746 0 -0.00045135396371709445 0.047024697426984036 0 -0.0026834032061168731 0.044048286811400793 0 -0.0019414518966572054 0.045905575612568555 0 0.0012142945103735092 0.046291740398636254 0 0.011255699480168599 0.018020637940556125 0 0.010367965677132733 0.018515180254333255 0 0.012095023436815554 0.020177470590684605 0 -0.00028202650581194989 0.0392123496920702 0 0.0013874321287579061 0.03876881146335287 0 0.0012604043265646973 0.037326580804239125 0 0.0013874321287579061 0.03876881146335287 0 0.006505514070060745 0.015193714888664353 0 0.0067767761762860838 0.020244866026726972 0 0.010367965677132733 0.018515180254333255 0 0.006505514070060745 0.015193714888664353 0 0.011255699480168599 0.018020637940556125 0 0.010367965677132733 0.018515180254333255 0 0.0067767761762860838 0.020244866026726972 0 0.010367965677132733 0.018515180254333255 0 0.012068195714635686 0.020110582535184666 0 0.0037347997783580417 0.032726662577116705 0 0.0020971463374003666 0.039335207870940803 0 0.0067767761762860838 0.020244866026726972 0 0.012493082002964159 0.021193028016711454 0 0.012068195714635686 0.020110582535184666 0 0.0042407771126613076 0.034854847265802111 0 0.0060662337141082611 0.03516538717931357 0 0.0050355766245927212 0.035984113063897975 0 0.00023523499354320029 0.044667744473299451 0 0.00095929162280704273 0.044780741413722708 0 0.0014777865077819829 0.047777842022549331 0 0.0020971463374003666 0.039335207870940803 0 0.0019808957700430531 0.043967249196107033 0 -0.00076697660092026488 0.046988164860142116 0 -0.0019414518966572054 0.045905575612568555 0 0.0012142945103735092 0.046291740398636254 0 0.0020971463374003666 0.039335207870940803 0 0.0015783208527631284 0.040693288540578236 0 0.0011037576305789041 0.040689243483358888 0 0.0012056473268598738 0.040706032318640159 0 0.0010541185704777351 0.040563977715144903 0 0.0015783208527631284 0.040693288540578236 0 0.0013874321287579061 0.03876881146335287 0 0.0020971463374003666 0.039335207870940803 0 0.0013874321287579061 0.03876881146335287 0 0.0060662337141082611 0.03516538717931357 0 0.0058126917559367256 0.036103559150088047 0 0.0050355766245927212 0.035984113063897975 0 0.0015783208527631284 0.040693288540578236 0 0.0017674939647270131 0.041468551247803048 0 -0.00076697660092026488 0.046988164860142116 0 0.0024923768072752056 0.047504887225111779 0 0.0012142945103735092 0.046291740398636254 0 -0.00076660444397089373 0.046989761697211793 0 0.0024923768072752056 0.047504887225111779 0 0.0032740513232837123 0.050734254160940871 0 -0.0028704161503290246 0.056669427164610708 0 -0.0010068425201526763 0.05847967362746187 0 -0.0011929081577593875 0.057108868885544728 0 -0.0010068425201526763 0.05847967362746187 0 -0.0011929081577593875 0.057108868885544728 0 -0.0001225249742685368 0.057871345446863412 0 -0.0010098991556274919 0.048707631945921717 0 0.00024244152069524729 0.049648144694255263 0 -0.0004735985288992672 0.056569651229665611 0 -0.0011929081577593875 0.057108868885544728 0 -0.0001225249742685368 0.057871345446863412 0 0.00027964850981000553 0.057174354772948681 0 -0.0001225249742685368 0.057871345446863412 0 0.00050044168831539179 0.057745068164455647 0 -0.0001225249742685368 0.057871345446863412 0 0.00031503951052721006 0.058904728064022416 0 0.00050044168831539179 0.057745068164455647 0 0.00091005007079092914 0.057683445406132301 0 0.00075423766616777323 0.057714996833010457 0 -0.0010068425201526763 0.05847967362746187 0 -0.0001225249742685368 0.057871345446863412 0 0.00031503951052721006 0.058904728064022416 0 0.00024244152069524729 0.049648144694255263 0 0.00019463836711961665 0.058982982947363802 0 0.0024923768072752056 0.047504887225111779 0 0.0012142945103735092 0.046291740398636254 0 0.0049317033129231535 0.048438837265792151 0 0.00019463836711961665 0.058982982947363802 0 -0.00051944056390443912 0.064840129495557106 0 -0.00023505687832951766 0.074763540347643501 0 -0.00022210714354742748 0.074787742608631108 0 -0.0002321174548379025 0.074771108252728535 0 -0.00022210714354742748 0.074787742608631108 0 -0.00020879952219363584 0.074803791684786639 0 -0.00021271525226244386 0.074797873201038381 0 -0.00022210714354742748 0.074787742608631108 0 -0.00021271525226244386 0.074797873201038381 0 -0.0002321174548379025 0.074771108252728535 0 -0.00021271525226244386 0.074797873201038381 0 -0.0002321174548379025 0.074771108252728535 0 -0.00019700599840909427 0.074755160876404797 0 0.00031503951052721006 0.058904728064022416 0 0.0008545327867272082 0.057737205835014273 0 0.00050044168831539179 0.057745068164455647 0 0.0008545327867272082 0.057737205835014273 0 0.00050044168831539179 0.057745068164455647 0 0.00071703778818166307 0.057664263977418542 0 0.00050044168831539179 0.057745068164455647 0 0.00071605122624682129 0.057604051707760118 0 0.00071703778818166307 0.057664263977418542 0 0.00082834346071055927 0.057940534773644893 0 0.00085192114961475879 0.058051138329255715 0 0.00027964850981000553 0.057174354772948681 0 0.00050044168831539179 0.057745068164455647 0 0.00055585472801208317 0.057082692314219724 0 0.00071605122624682129 0.057604051707760118 0 0.00078018351841679999 0.057646564179644352 0 0.00075642837403764186 0.057614599651721929 0 0.00071605122624682129 0.057604051707760118 0 0.00078018351841679999 0.057646564179644352 0 0.00071703778818166307 0.057664263977418542 0 0.0008545327867272082 0.057737205835014273 0 0.00078018351841679999 0.057646564179644352 0 0.00071703778818166307 0.057664263977418542 0 -0.00051944056390443912 0.064840129495557106 0 0.00028018721389050475 0.066525619766373514 0 0.00078018351841679999 0.057646564179644352 0 0.00077153840035798494 0.057621395180917599 0 0.00077626302622352196 0.057602121324055781 0 0.0008545327867272082 0.057737205835014273 0 0.00078018351841679999 0.057646564179644352 0 0.00077626302622352196 0.057602121324055781 0 -0.0002321174548379025 0.074771108252728535 0 -0.00019700599840909427 0.074755160876404797 0 -0.00019479378929767612 0.074683178413945714 0 0.00078018351841679999 0.057646564179644352 0 0.00077153840035798494 0.057621395180917599 0 0.00075642837403764186 0.057614599651721929 0 0.00077153840035798494 0.057621395180917599 0 0.00076228083764160349 0.057626335882744822 0 0.00075642837403764186 0.057614599651721929 0 0.00076228083764160349 0.057626335882744822 0 0.00075718816802547028 0.05763316320885685 0 0.00075880035054688634 0.057641869218083897 0 0.00077153840035798494 0.057621395180917599 0 0.00076228083764160349 0.057626335882744822 0 0.00075813939827749227 0.057631902650632748 0 0.00076228083764160349 0.057626335882744822 0 0.00075718816802547028 0.05763316320885685 0 0.00075813939827749227 0.057631902650632748 0 0.0005619528912355578 0.06611638696869912 0 0.00028018721389050475 0.066525619766373514 0 0.00027964850981000553 0.057174354772948681 0 0.00055585472801208317 0.057082692314219724 0 0.00062333664367426682 0.056458320531648426 0 0.00085192114961475879 0.058051138329255715 0 0.00087972835144771704 0.058773654885444393 0 0.00091005007079092914 0.057683445406132301 0 0.00087972835144771704 0.058773654885444393 0 0.00071605122624682129 0.057604051707760118 0 0.00075941627521633524 0.057622354050436295 0 0.00075642837403764186 0.057614599651721929 0 0.00076228083764160349 0.057626335882744822 0 0.00075941627521633524 0.057622354050436295 0 0.00075642837403764186 0.057614599651721929 0 0.00011057209148870307 0.069232151345711382 0 -3.8005683926316974e-05 0.069272786516470689 0 0.00014397258573960666 0.069342259982018623 0 7.1973221843195774e-05 0.069682978836238377 0 0.00029633364470143012 0.071352578036938563 0 -8.5029031701046521e-05 0.074824403893579791 0 -7.9381636909766563e-05 0.074848941268537972 0 -6.7725711280097137e-05 0.07484527270909308 0 0.00011057209148870307 0.069232151345711382 0 0.00019067969502154818 0.069263365376739633 0 0.00014397258573960666 0.069342259982018623 0 0.00011057209148870307 0.069232151345711382 0 0.00019067969502154818 0.069263365376739633 0 0.00027080211801262501 0.069202103937406306 0 -8.5029031701046521e-05 0.074824403893579791 0 -0.00010595681835313164 0.074811292670961649 0 -9.0570648626396038e-05 0.074842096055816015 0 7.1973221843195774e-05 0.069682978836238377 0 0.00018101159428632644 0.066990466216829053 0 0.00018101159428632644 0.066990466216829053 0 8.4241925220767319e-05 0.068071533561340269 0 0.00019067969502154818 0.069263365376739633 0 0.00027080211801262501 0.069202103937406306 0 0.00016748360442916268 0.069348755612900881 0 -0.00018859818186669962 0.074672594967497216 0 -0.00019479378929767612 0.074683178413945714 0 -0.00017750204497468374 0.074723957028187793 0 0.00018101159428632644 0.066990466216829053 0 0.00028018721389050475 0.066525619766373514 0 0.00018101159428632644 0.066990466216829053 0 0.0014020850804901479 0.07065907400649292 0 -0.00019700599840909427 0.074755160876404797 0 -0.00019479378929767612 0.074683178413945714 0 -0.00017750204497468374 0.074723957028187793 0 -0.00018859818186669962 0.074672594967497216 0 -0.00017750204497468374 0.074723957028187793 0 -0.00013092641371331571 0.074741790560566665 0 -0.00019700599840909427 0.074755160876404797 0 -0.00017750204497468374 0.074723957028187793 0 -0.00015621990044098293 0.074796774839527486 0 -0.00017750204497468374 0.074723957028187793 0 -0.00013092641371331571 0.074741790560566665 0 -0.00015621990044098293 0.074796774839527486 0 -8.5029031701046521e-05 0.074824403893579791 0 -9.0570648626396038e-05 0.074842096055816015 0 -7.9381636909766563e-05 0.074848941268537972 0 0.0014020850804901479 0.07065907400649292 0 0.0015814393609464472 0.071476987232125533 0 -9.0570648626396038e-05 0.074842096055816015 0 -7.9381636909766563e-05 0.074848941268537972 0 -8.4407876563361928e-05 0.074852615189232682 0 -7.9381636909766563e-05 0.074848941268537972 0 -8.4407876563361928e-05 0.074852615189232682 0 -6.5300325139078586e-05 0.074868882395313446 0 -8.4407876563361928e-05 0.074852615189232682 0 -0.00015621990044098293 0.074796774839527486 0 -0.00011326666523352196 0.074903104017401148 0 -8.4407876563361928e-05 0.074852615189232682 0 -0.00011326666523352196 0.074903104017401148 0 -5.7394100808383837e-05 0.074900870093084215 0 -0.00013092641371331571 0.074741790560566665 0 -8.4407876563361928e-05 0.074852615189232682 0 -0.00015621990044098293 0.074796774839527486 0 -0.00021271525226244386 0.074797873201038381 0 -0.00015621990044098293 0.074796774839527486 0 -0.00011326666523352196 0.074903104017401148 0 -0.00021271525226244386 0.074797873201038381 0 -0.00019700599840909427 0.074755160876404797 0 -0.00015621990044098293 0.074796774839527486 0 -0.00020879952219363584 0.074803791684786639 0 -0.00021271525226244386 0.074797873201038381 0 -0.00018336561880684474 0.074798001303714987 0 -0.00016187406747281919 0.074850846288053538 0 -0.00013258003600074032 0.074868107819928892 0 -0.00020879952219363584 0.074803791684786639 0 -0.00018336561880684474 0.074798001303714987 0 -0.00019771691342918718 0.074825238028924157 0 -0.00013258003600074032 0.074868107819928892 0 -8.2096868824484926e-05 0.074900312107564218 0 -0.00018336561880684474 0.074798001303714987 0 -0.00010248787765078071 0.074838726662286817 0 -0.00017481058901166145 0.074849132590746575 0 -0.00011326666523352196 0.074903104017401148 0 -4.7772569249288748e-05 0.074959158721508962 0 -5.7394100808383837e-05 0.074900870093084215 0 -4.7772569249288748e-05 0.074959158721508962 0 -2.5215633368890631e-05 0.074943073154304027 0 -5.7394100808383837e-05 0.074900870093084215 0 -4.7772569249288748e-05 0.074959158721508962 0 -2.5215633368890631e-05 0.074943073154304027 0 -7.1034507272750201e-06 0.074989462441182139 0 -2.5215633368890631e-05 0.074943073154304027 0 -1.5866759644426064e-05 0.074930644450698261 0 -4.159084247737052e-05 0.074900392900601839 0 -2.5215633368890631e-05 0.074943073154304027 0 -4.159084247737052e-05 0.074900392900601839 0 -5.7394100808383837e-05 0.074900870093084215 0 -4.159084247737052e-05 0.074900392900601839 0 -5.7394100808383837e-05 0.074900870093084215 0 -6.5300325139078586e-05 0.074868882395313446 0 -8.4407876563361928e-05 0.074852615189232682 0 -5.7394100808383837e-05 0.074900870093084215 0 -6.5300325139078586e-05 0.074868882395313446 0 1.1448152512324381e-08 0.074999963892418892 0 -3.0780503410472759e-06 0.074966907261756449 0 1.6775217890989554e-07 0.074991979152072064 0 -3.0780503410472759e-06 0.074966907261756449 0 -7.1034507272750201e-06 0.074989462441182139 0 1.6775217890989554e-07 0.074991979152072064 0 -2.5215633368890631e-05 0.074943073154304027 0 -3.0780503410472759e-06 0.074966907261756449 0 -7.1034507272750201e-06 0.074989462441182139 0 -2.5215633368890631e-05 0.074943073154304027 0 -1.5866759644426064e-05 0.074930644450698261 0 -3.0780503410472759e-06 0.074966907261756449 0 -1.5866759644426064e-05 0.074930644450698261 0 -3.0780503410472759e-06 0.074966907261756449 0 9.5770800345715631e-08 0.07495308834500812 0 1.1448152512324381e-08 0.074999963892418892 0 9.5770800345715631e-08 0.07495308834500812 0 8.2082684922002033e-06 0.074959274409031842 0 1.1448152512324381e-08 0.074999963892418892 0 -3.0780503410472759e-06 0.074966907261756449 0 9.5770800345715631e-08 0.07495308834500812 0 1.1448152512324381e-08 0.074999963892418892 0 -6.0709957970898766e-09 0.074999935614619734 0 8.2082684922002033e-06 0.074959274409031842 0 -6.0709957970898766e-09 0.074999935614619734 0 8.2082684922002033e-06 0.074959274409031842 0 9.5179203919265735e-06 0.074982864989630083 0 0.00054746434547006358 0.073695533619803091 0 0.00049716032311023048 0.07347100607198162 0 8.2082684922002033e-06 0.074959274409031842 0 2.3405658684719764e-05 0.074978378465566237 0 9.5179203919265735e-06 0.074982864989630083 0 9.5770800345715631e-08 0.07495308834500812 0 8.2082684922002033e-06 0.074959274409031842 0 -8.8121334609649202e-06 0.074916405101440167 0 -1.5866759644426064e-05 0.074930644450698261 0 9.5770800345715631e-08 0.07495308834500812 0 -8.8121334609649202e-06 0.074916405101440167 0 -8.8121334609649202e-06 0.074916405101440167 0 -1.6107808147820927e-08 0.07487207297998609 0 -2.1944425602971104e-05 0.074879442609833397 0 8.2082684922002033e-06 0.074959274409031842 0 -8.8121334609649202e-06 0.074916405101440167 0 -1.6107808147820927e-08 0.07487207297998609 0 2.3405658684719764e-05 0.074978378465566237 0 2.1688959657957307e-05 0.074983814715130714 0 9.5179203919265735e-06 0.074982864989630083 0 2.3405658684719764e-05 0.074978378465566237 0 2.1688959657957307e-05 0.074983814715130714 0 2.7042145097706016e-05 0.074983109487017252 0 2.1688959657957307e-05 0.074983814715130714 0 1.4211026505753704e-05 0.07498984433018327 0 2.6622883488764525e-05 0.074989533113610854 0 1.4211026505753704e-05 0.07498984433018327 0 9.5179203919265735e-06 0.074982864989630083 0 4.4645376482349402e-06 0.074994109930515529 0 2.1688959657957307e-05 0.074983814715130714 0 1.4211026505753704e-05 0.07498984433018327 0 9.5179203919265735e-06 0.074982864989630083 0 1.4211026505753704e-05 0.07498984433018327 0 4.4645376482349402e-06 0.074994109930515529 0 8.9869169234969584e-06 0.074998538115475244 0 -6.0709957970898766e-09 0.074999935614619734 0 4.4645376482349402e-06 0.074994109930515529 0 6.8380219369821493e-09 0.075000024624262279 0 -6.0709957970898766e-09 0.074999935614619734 0 9.5179203919265735e-06 0.074982864989630083 0 4.4645376482349402e-06 0.074994109930515529 0 -5.2408799954600517e-05 0.074861708477126837 0 -6.5300325139078586e-05 0.074868882395313446 0 -6.7725711280097137e-05 0.07484527270909308 0 -7.9381636909766563e-05 0.074848941268537972 0 -6.5300325139078586e-05 0.074868882395313446 0 -6.7725711280097137e-05 0.07484527270909308 0 -4.159084247737052e-05 0.074900392900601839 0 -5.2408799954600517e-05 0.074861708477126837 0 -6.5300325139078586e-05 0.074868882395313446 0 -4.159084247737052e-05 0.074900392900601839 0 -5.2408799954600517e-05 0.074861708477126837 0 -3.1118544017649636e-05 0.074891067113039986 0 -1.5866759644426064e-05 0.074930644450698261 0 -4.159084247737052e-05 0.074900392900601839 0 -3.1118544017649636e-05 0.074891067113039986 0 -1.5866759644426064e-05 0.074930644450698261 0 -8.8121334609649202e-06 0.074916405101440167 0 -3.1118544017649636e-05 0.074891067113039986 0 -8.8121334609649202e-06 0.074916405101440167 0 -3.1118544017649636e-05 0.074891067113039986 0 -2.1944425602971104e-05 0.074879442609833397 0 -3.1118544017649636e-05 0.074891067113039986 0 -2.1944425602971104e-05 0.074879442609833397 0 -3.8816154415984904e-05 0.074863302516063546 0 -5.2408799954600517e-05 0.074861708477126837 0 -3.1118544017649636e-05 0.074891067113039986 0 -3.8816154415984904e-05 0.074863302516063546 0 -5.2408799954600517e-05 0.074861708477126837 0 -5.0418686305360887e-05 0.074849511415973541 0 -3.8816154415984904e-05 0.074863302516063546 0 -5.0418686305360887e-05 0.074849511415973541 0 -3.8816154415984904e-05 0.074863302516063546 0 -2.4109487227119238e-05 0.074847798303446414 0 -2.4109487227119238e-05 0.074847798303446414 0 -6.0542411337088018e-05 0.074795087844262059 0 -0.00013005299504708265 0.074778354173966277 0 0.00054717245276018011 0.072039552062287987 0 0.00029633364470143012 0.071352578036938563 0 -5.0418686305360887e-05 0.074849511415973541 0 -2.4109487227119238e-05 0.074847798303446414 0 -6.2576799431510456e-05 0.074826458848573599 0 0.00049716032311023048 0.07347100607198162 0 0.00023800551307221799 0.072668651216948044 0 -1.6107808147820927e-08 0.07487207297998609 0 -2.4109487227119238e-05 0.074847798303446414 0 -6.0542411337088018e-05 0.074795087844262059 0 -1.6107808147820927e-08 0.07487207297998609 0 -2.1944425602971104e-05 0.074879442609833397 0 -2.4109487227119238e-05 0.074847798303446414 0 -2.1944425602971104e-05 0.074879442609833397 0 -3.8816154415984904e-05 0.074863302516063546 0 -2.4109487227119238e-05 0.074847798303446414 0 2.1688959657957307e-05 0.074983814715130714 0 2.7042145097706016e-05 0.074983109487017252 0 2.6622883488764525e-05 0.074989533113610854 0 2.3405658684719764e-05 0.074978378465566237 0 2.7042145097706016e-05 0.074983109487017252 0 3.135740859370518e-05 0.074982471616462459 0 0.00025462013792437759 0.072712657501122741 0 0.00023800551307221799 0.072668651216948044 0 -8.1859490566267028e-05 0.073804100092226502 0 -5.4493119844755391e-05 0.0737466638474297 0 2.7042145097706016e-05 0.074983109487017252 0 2.7288146529954308e-05 0.074981135549694267 0 2.6622883488764525e-05 0.074989533113610854 0 2.7042145097706016e-05 0.074983109487017252 0 2.7288146529954308e-05 0.074981135549694267 0 2.5960496088087346e-05 0.07498044626545744 0 2.7288146529954308e-05 0.074981135549694267 0 1.960714965811197e-05 0.074974848432447255 0 3.4757238477119941e-05 0.074969921974459869 0 2.7288146529954308e-05 0.074981135549694267 0 2.5960496088087346e-05 0.07498044626545744 0 1.960714965811197e-05 0.074974848432447255 0 0.00023800551307221799 0.072668651216948044 0 0.0001303548186361664 0.072723403782729804 0 0.00023800551307221799 0.072668651216948044 0 0.00019160907592924868 0.072060349947067726 0 0.00046308049970493026 0.072049812228618892 0 0.00025634583311080083 0.071866966199655824 0 2.3476721532895348e-05 0.071921983843208595 0 0.0001303548186361664 0.072723403782729804 0 0.00019160907592924868 0.072060349947067726 0 -8.5029031701046521e-05 0.074824403893579791 0 -6.2576799431510456e-05 0.074826458848573599 0 -6.7725711280097137e-05 0.07484527270909308 0 -6.0542411337088018e-05 0.074795087844262059 0 -0.00010053403023740048 0.074775906724664873 0 -0.00013005299504708265 0.074778354173966277 0 0.00019160907592924868 0.072060349947067726 0 0.00029633364470143012 0.071352578036938563 0 -5.0418686305360887e-05 0.074849511415973541 0 -6.2576799431510456e-05 0.074826458848573599 0 -6.7725711280097137e-05 0.07484527270909308 0 -5.2408799954600517e-05 0.074861708477126837 0 -5.0418686305360887e-05 0.074849511415973541 0 -6.7725711280097137e-05 0.07484527270909308 0 0.00019160907592924868 0.072060349947067726 0 0.00011465950384042824 0.068815762229061911 0 -0.0010232201037244687 0.073831526591416619 0 -0.00089881106642341723 0.073802560763705963 0 -0.0004759752833972273 0.074325596790724827 0 -5.9539142719225137e-05 0.074853526509191498 0 -3.2274546222287558e-05 0.074844886505412128 0 -6.5216112365819659e-05 0.07487195026787824 0 -0.00089881106642341723 0.073802560763705963 0 -0.0004759752833972273 0.074325596790724827 0 1.328414255639937e-05 0.074072950391219028 0 0.00065431815213514832 0.070588495497304102 0 0.00047879798248642348 0.070627554833297163 0 -0.00027306713221881938 0.070301973824515362 0 0.0001303548186361664 0.072723403782729804 0 0.00027669241635666511 0.073682003076447011 0 0.0001303548186361664 0.072723403782729804 0 -5.4493119844755391e-05 0.0737466638474297 0 -5.9539142719225137e-05 0.074853526509191498 0 -7.2372927007046826e-05 0.074858604894628866 0 -6.5216112365819659e-05 0.07487195026787824 0 -6.6574862090422191e-05 0.074887425667531191 0 -7.2857501607200353e-05 0.074928472942561178 0 -8.423823112074494e-05 0.074928384694332092 0 -6.5216112365819659e-05 0.07487195026787824 0 -6.6574862090422191e-05 0.074887425667531191 0 -7.2857501607200353e-05 0.074928472942561178 0 -6.6574862090422191e-05 0.074887425667531191 0 -4.8781859949640359e-05 0.074877046509254405 0 -8.423823112074494e-05 0.074928384694332092 0 -3.2274546222287558e-05 0.074844886505412128 0 -6.6574862090422191e-05 0.074887425667531191 0 -4.8781859949640359e-05 0.074877046509254405 0 -3.2274546222287558e-05 0.074844886505412128 0 -6.5216112365819659e-05 0.07487195026787824 0 -6.6574862090422191e-05 0.074887425667531191 0 -4.8781859949640359e-05 0.074877046509254405 0 -3.9947538933376823e-05 0.07489711708310802 0 -1.5965835967460034e-05 0.074850270028385277 0 -3.2274546222287558e-05 0.074844886505412128 0 -4.8781859949640359e-05 0.074877046509254405 0 -1.5965835967460034e-05 0.074850270028385277 0 -2.4707707524580445e-07 0.074998573344232114 0 -5.2112013345080031e-05 0.074453509513755983 0 4.4645376482349402e-06 0.074994109930515529 0 6.8380219369821493e-09 0.075000024624262279 0 8.9869169234969584e-06 0.074998538115475244 0 -2.2954306123063767e-09 0.074999993822815025 0 1.068493385572445e-06 0.074995707068636619 0 6.1503067392395638e-07 0.074999085217185041 0 -5.4493119844755391e-05 0.0737466638474297 0 -5.2112013345080031e-05 0.074453509513755983 0 1.4211026505753704e-05 0.07498984433018327 0 2.6622883488764525e-05 0.074989533113610854 0 8.9869169234969584e-06 0.074998538115475244 0 -7.2372927007046826e-05 0.074858604894628866 0 -6.5216112365819659e-05 0.07487195026787824 0 -7.2857501607200353e-05 0.074928472942561178 0 4.324450270797889e-06 0.07499220266191492 0 1.068493385572445e-06 0.074995707068636619 0 6.1503067392395638e-07 0.074999085217185041 0 -5.4493119844755391e-05 0.0737466638474297 0 -0.000143294970710955 0.074668438307896642 0 -2.2954306123063767e-09 0.074999993822815025 0 6.1503067392395638e-07 0.074999085217185041 0 1.2707439733549133e-09 0.07500000008065337 0 6.1503067392395638e-07 0.074999085217185041 0 1.2707439733549133e-09 0.07500000008065337 0 -9.603106791503818e-10 0.075000000329658492 0 -0.000143294970710955 0.074668438307896642 0 -3.342122028959722e-07 0.074999582562287823 0 -7.2857501607200353e-05 0.074928472942561178 0 -8.7937230513616654e-08 0.074999868123356794 0 -5.2626659449998495e-05 0.074950780518354493 0 -7.2857501607200353e-05 0.074928472942561178 0 -5.2626659449998495e-05 0.074950780518354493 0 -8.423823112074494e-05 0.074928384694332092 0 -5.2626659449998495e-05 0.074950780518354493 0 -6.9814262912896619e-05 0.07491138759243586 0 -8.423823112074494e-05 0.074928384694332092 0 -5.2626659449998495e-05 0.074950780518354493 0 -6.9814262912896619e-05 0.07491138759243586 0 -2.6059330065166532e-05 0.074952924512161526 0 -1.5399326196139347e-09 0.074999945065592932 0 -8.7937230513616654e-08 0.074999868123356794 0 -2.6059330065166532e-05 0.074952924512161526 0 -8.7937230513616654e-08 0.074999868123356794 0 -5.2626659449998495e-05 0.074950780518354493 0 -2.6059330065166532e-05 0.074952924512161526 0 -0.0002018864563907957 0.070779594452429304 0 -0.00010498802159691141 0.071481793357275683 0 -0.0001890632782469129 0.074911920653758415 0 -8.423823112074494e-05 0.074928384694332092 0 -0.00014816063562518429 0.074880407047814374 0 -4.8781859949640359e-05 0.074877046509254405 0 -3.9947538933376823e-05 0.07489711708310802 0 -8.423823112074494e-05 0.074928384694332092 0 -6.9814262912896619e-05 0.07491138759243586 0 -8.423823112074494e-05 0.074928384694332092 0 -0.00014816063562518429 0.074880407047814374 0 -0.00012436265538458483 0.074839892321348994 0 -6.9814262912896619e-05 0.07491138759243586 0 -0.00014816063562518429 0.074880407047814374 0 -0.00021080230978626723 0.074824213432642062 0 -0.00014816063562518429 0.074880407047814374 0 -0.00021438535564075728 0.074869623474508332 0 -0.0001890632782469129 0.074911920653758415 0 -0.00014816063562518429 0.074880407047814374 0 -0.00021438535564075728 0.074869623474508332 0 -0.0010231298167476773 0.072990471713750574 0 -0.0013530065264253442 0.071388403737995557 0 -0.00021080230978626723 0.074824213432642062 0 -0.00021438535564075728 0.074869623474508332 0 -0.00024148514565196691 0.074855694635798858 0 -0.00021438535564075728 0.074869623474508332 0 -0.00024020673122038659 0.074863012223825978 0 -0.00024148514565196691 0.074855694635798858 0 -3.9947538933376823e-05 0.07489711708310802 0 0.00014404106952454571 0.074920016489134655 0 7.4529484795964404e-05 0.074796095090689477 0 -3.9947538933376823e-05 0.07489711708310802 0 -1.5965835967460034e-05 0.074850270028385277 0 7.4529484795964404e-05 0.074796095090689477 0 -0.0001890632782469129 0.074911920653758415 0 -0.00021438535564075728 0.074869623474508332 0 -0.00023054092667331808 0.074877791929348292 0 -0.0002018864563907957 0.070779594452429304 0 -0.00073907040981946914 0.068386145581807029 0 -0.0001890632782469129 0.074911920653758415 0 -0.00023054092667331808 0.074877791929348292 0 -0.00025234203185752385 0.074869629165924059 0 -0.00021438535564075728 0.074869623474508332 0 -0.00023054092667331808 0.074877791929348292 0 -0.00024020673122038659 0.074863012223825978 0 -0.00073907040981946914 0.068386145581807029 0 -0.00060035061934635083 0.066624464676633563 0 -0.0013530065264253442 0.071388403737995557 0 -0.00060035061934635083 0.066624464676633563 0 0.00014404106952454571 0.074920016489134655 0 0.00066217299324921371 0.074783163452803447 0 0.00034553515365090456 0.074654503761919649 0 -0.00024116753981510958 0.074864900260741968 0 -0.00024020673122038659 0.074863012223825978 0 -0.00025521309291562545 0.074842795810610985 0 -0.00073907040981946914 0.068386145581807029 0 -0.00080679679063299758 0.065402497620441286 0 -0.00024020673122038659 0.074863012223825978 0 -0.00024148514565196691 0.074855694635798858 0 -0.00025521309291562545 0.074842795810610985 0 -0.00023054092667331808 0.074877791929348292 0 -0.00024116753981510958 0.074864900260741968 0 -0.00024020673122038659 0.074863012223825978 0 -0.00081666175099301874 0.068569946227179435 0 -0.00073907040981946914 0.068386145581807029 0 6.3308979594413938e-05 0.074097524989859567 0 -2.519412862604217e-05 0.074051482735977822 0 8.802388872174727e-05 0.074008135536178576 0 -2.519412862604217e-05 0.074051482735977822 0 8.802388872174727e-05 0.074008135536178576 0 9.259457444974381e-05 0.073900440668963757 0 0.00012392812541481209 0.074055982476376653 0 6.3308979594413938e-05 0.074097524989859567 0 8.802388872174727e-05 0.074008135536178576 0 0.00012392812541481209 0.074055982476376653 0 8.802388872174727e-05 0.074008135536178576 0 0.00013729578086960696 0.07398371451472581 0 8.802388872174727e-05 0.074008135536178576 0 0.00013729578086960696 0.07398371451472581 0 0.00011449670016716061 0.073946060742583988 0 0.00012392812541481209 0.074055982476376653 0 0.00016915830584856553 0.074006926426315775 0 0.00013729578086960696 0.07398371451472581 0 0.00013729578086960696 0.07398371451472581 0 0.00017264244585761383 0.073937733531450708 0 0.00014040244994224796 0.073937747938202222 0 0.00013729578086960696 0.07398371451472581 0 0.00014040244994224796 0.073937747938202222 0 0.00011449670016716061 0.073946060742583988 0 0.00016915830584856553 0.074006926426315775 0 0.00013729578086960696 0.07398371451472581 0 0.00017264244585761383 0.073937733531450708 0 0.00021669400605268987 0.073947132183707784 0 0.00016915830584856553 0.074006926426315775 0 0.00017264244585761383 0.073937733531450708 0 0.00023959370007335784 0.073876615820654565 0 0.00017264244585761383 0.073937733531450708 0 0.00015047348071829694 0.073906042323659174 0 0.00017264244585761383 0.073937733531450708 0 0.00015047348071829694 0.073906042323659174 0 0.00014040244994224796 0.073937747938202222 0 -6.8349207571693902e-05 0.064196534177891285 0 -0.00044540533160175225 0.065367452496982795 0 0.00015047348071829694 0.073906042323659174 0 0.00014040244994224796 0.073937747938202222 0 0.00012524622289959711 0.073905836993806595 0 -6.8349207571693902e-05 0.064196534177891285 0 0.00010037496879718529 0.063158688990352471 0 5.668579601947274e-05 0.063844851152483631 0 0.00097953217024857801 0.063875663221134513 0 0.00037186040807214515 0.065125014287037694 0 5.668579601947274e-05 0.063844851152483631 0 -0.00010558672567854723 0.065470849153687019 0 0.00037186040807214515 0.065125014287037694 0 -0.00044540533160175225 0.065367452496982795 0 -0.00010204439202263915 0.063956629096166936 0 0.0017004439435078815 0.061279760158128235 0 0.0012667280780694551 0.061653912487718565 0 0.0016403363509397491 0.061887272270994505 0 -0.0010401806378364153 0.066036107441856715 0 -0.0006453872870968118 0.066040943975228111 0 -0.00068856972608902526 0.066006816332143517 0 -0.0010401806378364153 0.066036107441856715 0 -0.00064385830867255364 0.065909031210779359 0 -0.00068856972608902526 0.066006816332143517 0 8.802388872174727e-05 0.074008135536178576 0 0.00011449670016716061 0.073946060742583988 0 9.259457444974381e-05 0.073900440668963757 0 0.00014040244994224796 0.073937747938202222 0 0.00011449670016716061 0.073946060742583988 0 0.00012524622289959711 0.073905836993806595 0 0.00011449670016716061 0.073946060742583988 0 9.259457444974381e-05 0.073900440668963757 0 0.00013843473394885164 0.07389643686159944 0 -0.00061410868119680028 0.065902493736840109 0 -0.00044540533160175225 0.065367452496982795 0 -0.0006453872870968118 0.066040943975228111 0 -0.00064305801208117217 0.065901843650618949 0 -0.00068856972608902526 0.066006816332143517 0 -0.0006453872870968118 0.066040943975228111 0 -0.00064305801208117217 0.065901843650618949 0 -0.00043226785824549709 0.065882040766364891 0 -0.00014531373923989512 0.06561072778052375 0 -0.00034494034406411136 0.065602538758860018 0 -0.00045817747880511257 0.06583434094062289 0 -0.00060035061934635083 0.066624464676633563 0 -0.00010204439202263915 0.063956629096166936 0 -0.00060035061934635083 0.066624464676633563 0 -0.00044540533160175225 0.065367452496982795 0 -0.00080679679063299758 0.065402497620441286 0 -0.00081187672873440247 0.065423819878264816 0 0.00066217299324921371 0.074783163452803447 0 0.00056537211211622415 0.074564542042735465 0 0.00034553515365090456 0.074654503761919649 0 0.00066217299324921371 0.074783163452803447 0 0.00080272798367732898 0.074481036075825097 0 0.00056537211211622415 0.074564542042735465 0 0.00025683648000801834 0.062913620990345698 0 -0.00011789781039906849 0.063728540278466278 0 -0.00053580788990054118 0.063147937640359322 0 -0.00080679679063299758 0.065402497620441286 0 0.00017356917198318344 0.064124191940996 0 -0.00080679679063299758 0.065402497620441286 0 5.8722018487758672e-05 0.063384119047197457 0 -0.00083460750639638729 0.065248334563855523 0 -0.00094286877709868827 0.065483141688702368 0 9.6263644369632112e-05 0.065790629861184599 0 0.00017356917198318344 0.064124191940996 0 0.00034209870902713804 0.063033337370899237 0 0.00017356917198318344 0.064124191940996 0 0.00045719802189051666 0.066607904876914856 0 0.00080272798367732898 0.074481036075825097 0 0.00056537211211622415 0.074564542042735465 0 0.00044707002324437803 0.074336745573883853 0 0.00056537211211622415 0.074564542042735465 0 0.00044707002324437803 0.074336745573883853 0 0.00034553515365090456 0.074654503761919649 0 0.00082497968147661883 0.060522636252224538 0 0.00064580515941235739 0.061111100680233718 0 0.00048045309755272771 0.060205380110806311 0 -0.00028159388118260492 0.060433143772375852 0 0.0020150385068838134 0.062928062438800003 0 2.4735408882721826e-05 0.061168948746057571 0 0.0012925963274172645 0.061691835289426331 0 0.00067500850647736119 0.061876404626845606 0 0.00064580515941235739 0.061111100680233718 0 0.00075271417520191225 0.060519724966364284 0 0.00099703713524888337 0.061972317567522472 0 0.0012667280780694551 0.061653912487718565 0 0.0012334257248740764 0.0620708181960812 0 0.00064580515941235739 0.061111100680233718 0 0.00010037496879718529 0.063158688990352471 0 0.0012667280780694551 0.061653912487718565 0 0.0012334257248740764 0.0620708181960812 0 0.0016403363509397491 0.061887272270994505 0 0.00064580515941235739 0.061111100680233718 0 0.00023426077008156394 0.062231914145966988 0 -0.00094769695866988668 0.061408605997561497 0 0.0014554856869669506 0.062137362499928149 0 0.0016460948602277008 0.060232499911238441 0 -0.00011789781039906849 0.063728540278466278 0 -0.00068211353955884815 0.063448475858767076 0 -0.00053580788990054118 0.063147937640359322 0 -0.00064305801208117217 0.065901843650618949 0 -0.00040525392674964014 0.065825900031736925 0 -0.00043226785824549709 0.065882040766364891 0 0.00023426077008156394 0.062231914145966988 0 0.00010037496879718529 0.063158688990352471 0 0.00023426077008156394 0.062231914145966988 0 5.8722018487758672e-05 0.063384119047197457 0 0.0001710221919504422 0.063919970570615964 0 0.00028551548352313106 0.062773055753714904 0 0.00066684341953818531 0.062901179780569388 0 -0.00060666173617333668 0.063441065080074105 0 0.00022837106501766538 0.063721929238276506 0 0.00089435508379253975 0.062352732705180484 0 5.8722018487758672e-05 0.063384119047197457 0 -0.00010204439202263915 0.063956629096166936 0 0.00010037496879718529 0.063158688990352471 0 -0.00010204439202263915 0.063956629096166936 0 0.00010037496879718529 0.063158688990352471 0 5.8722018487758672e-05 0.063384119047197457 0 0.00017356917198318344 0.064124191940996 0 0.00023426077008156394 0.062231914145966988 0 0.0015375082437445241 0.063040216269187196 0 -0.00096189568000447704 0.061803230391433747 0 -0.0011276284633537925 0.063459233552682959 0 0.0015375082437445241 0.063040216269187196 0 0.0010539119209960455 0.064090483786634025 0 -0.0011276284633537925 0.063459233552682959 0 0.0015487137659800304 0.062149360693478692 0 0.00099210544627796344 0.061987585244153022 0 0.0013775543151522355 0.062521685382631989 0 0.00034209870902713804 0.063033337370899237 0 0.00033076695099603054 0.061206440240876896 0 0.00023426077008156394 0.062231914145966988 0 0.00033076695099603054 0.061206440240876896 0 0.00048045309755272771 0.060205380110806311 0 0.0029746523499488719 0.060961263009464979 0 0.0020150385068838134 0.062928062438800003 0 -0.00010183793719535148 0.0600900224866334 0 -0.00025414672773831781 0.061616634947984021 0 -0.00077398128785309149 0.061467354707204096 0 0.00023426077008156394 0.062231914145966988 0 0.00052827747423032435 0.0606656988693254 0 0.00033076695099603054 0.061206440240876896 0 0.00052827747423032435 0.0606656988693254 0 0.00075271417520191225 0.060519724966364284 0 0.00052827747423032435 0.0606656988693254 0 0.00076228083764160349 0.057626335882744822 0 0.00075941627521633524 0.057622354050436295 0 0.00075880035054688634 0.057641869218083897 0 0.00087972835144771704 0.058773654885444393 0 0.00043756695959002145 0.062254574915420496 0 0.0013761447868476848 0.056238559657353381 0 0.00052827747423032435 0.0606656988693254 0 0.0004373628967797569 0.054956671376080748 0 0.0012579863573482805 0.053609885201376044 0 0.0011457741155069874 0.053578214141117811 0 0.00080758936625762768 0.059925109084617019 0 0.00060730433133178734 0.061863041355753552 0 0.00018423597432616111 0.061272880213107908 0 0.00087972835144771704 0.058773654885444393 0 0.00033076695099603054 0.061206440240876896 0 0.0004373628967797569 0.054956671376080748 0 0.0011281525362937298 0.054957149762998314 0 0.0012579863573482805 0.053609885201376044 0 0.00033076695099603054 0.061206440240876896 0 0.00043756695959002145 0.062254574915420496 0 0.00034209870902713804 0.063033337370899237 0 0.00043756695959002145 0.062254574915420496 0 -9.1773112533695379e-06 0.065017075295856652 0 -8.1073101183857721e-05 0.065173713160171606 0 0.00048840228768142315 0.065165948581131256 0 0.00018101159428632644 0.066990466216829053 0 0.00043756695959002145 0.062254574915420496 0 0.00057045443747419605 0.065888148555069706 0 -8.1073101183857721e-05 0.065173713160171606 0 0.00048840228768142315 0.065165948581131256 0 -0.00083460750639638729 0.065248334563855523 0 9.6263644369632112e-05 0.065790629861184599 0 0.00015681230304519619 0.065664512723060633 0 0.00034209870902713804 0.063033337370899237 0 0.00023288863805407238 0.065548952354623657 0 0.00057045443747419605 0.065888148555069706 0 0.00048840228768142315 0.065165948581131256 0 0.00098466933907074791 0.065314116868562699 0 0.00045719802189051666 0.066607904876914856 0 8.4241925220767319e-05 0.068071533561340269 0 0.00023288863805407238 0.065548952354623657 0 8.4241925220767319e-05 0.068071533561340269 0 9.6263644369632112e-05 0.065790629861184599 0 0.00015681230304519619 0.065664512723060633 0 0.0011221047647332249 0.066100061108683328 0 8.1584971152879641e-05 0.074158688661106045 0 -5.845671755305314e-05 0.074335436142312389 0 0.00013669058485030427 0.074375153010938319 0 0.00044707002324437803 0.074336745573883853 0 8.1584971152879641e-05 0.074158688661106045 0 0.00013669058485030427 0.074375153010938319 0 0.00019067969502154818 0.069263365376739633 0 0.00016748360442916268 0.069348755612900881 0 0.00014397258573960666 0.069342259982018623 0 0.00029633364470143012 0.071352578036938563 0 0.00011465950384042824 0.068815762229061911 0 8.4241925220767319e-05 0.068071533561340269 0 0.00011465950384042824 0.068815762229061911 0 -0.0004759752833972273 0.074325596790724827 0 1.328414255639937e-05 0.074072950391219028 0 -5.845671755305314e-05 0.074335436142312389 0 0.00011043666904353314 0.07409925178334624 0 1.328414255639937e-05 0.074072950391219028 0 -5.845671755305314e-05 0.074335436142312389 0 8.4241925220767319e-05 0.068071533561340269 0 -0.00016014283945659072 0.068587399424983805 0 -5.845671755305314e-05 0.074335436142312389 0 -3.3670846281178384e-06 0.074511959323002433 0 0.00013669058485030427 0.074375153010938319 0 -0.0004759752833972273 0.074325596790724827 0 -3.3670846281178384e-06 0.074511959323002433 0 7.4529484795964404e-05 0.074796095090689477 0 -3.2274546222287558e-05 0.074844886505412128 0 -1.5965835967460034e-05 0.074850270028385277 0 7.4529484795964404e-05 0.074796095090689477 0 0.00027669241635666511 0.073682003076447011 0 0.00035071361726640092 0.073983464945365035 0 -0.0004759752833972273 0.074325596790724827 0 -5.845671755305314e-05 0.074335436142312389 0 -3.3670846281178384e-06 0.074511959323002433 0 0.00014404106952454571 0.074920016489134655 0 7.4529484795964404e-05 0.074796095090689477 0 0.00034553515365090456 0.074654503761919649 0 -3.3670846281178384e-06 0.074511959323002433 0 7.4529484795964404e-05 0.074796095090689477 0 0.0002027484521727703 0.074533206138145611 0 7.4529484795964404e-05 0.074796095090689477 0 0.00034553515365090456 0.074654503761919649 0 0.0002027484521727703 0.074533206138145611 0 0.00044707002324437803 0.074336745573883853 0 0.00034553515365090456 0.074654503761919649 0 0.0002027484521727703 0.074533206138145611 0 0.00044707002324437803 0.074336745573883853 0 0.00013669058485030427 0.074375153010938319 0 0.0002027484521727703 0.074533206138145611 0 -3.3670846281178384e-06 0.074511959323002433 0 0.00013669058485030427 0.074375153010938319 0 0.0002027484521727703 0.074533206138145611 0 -0.0020709505894247401 -0.0060844615462307024 0 -0.0017744362925853515 -0.0058709863010360094 0 -0.0018083202557850331 -0.0060549105715472047 0 -0.0020709505894247401 -0.0060844615462307024 0 -0.0018083202557850331 -0.0060549105715472047 0 -0.0019460469785487239 -0.0061969267153263513 0 -0.0020709505894247401 -0.0060844615462307024 0 -0.0019460469785487239 -0.0061969267153263513 0 -0.0021239924455013237 -0.0062704501453839708 0 -0.0020709505894247401 -0.0060844615462307024 0 -0.0022399472137441838 -0.0062443527360925757 0 -0.0022828390570208594 -0.0061300684643382005 0 -0.0020709505894247401 -0.0060844615462307024 0 -0.0022399472137441838 -0.0062443527360925757 0 -0.0021239924455013237 -0.0062704501453839708 0 -0.0022399472137441838 -0.0062443527360925757 0 -0.0021239924455013237 -0.0062704501453839708 0 -0.0022323469060507349 -0.0063341568575651713 0 -0.0022399472137441838 -0.0062443527360925757 0 -0.0022828390570208594 -0.0061300684643382005 0 -0.002317869067020745 -0.0062404625195154589 0 -0.0020709505894247401 -0.0060844615462307024 0 -0.0022828390570208594 -0.0061300684643382005 0 -0.0022742281799100548 -0.0059881662516602183 0 -0.0022742281799100548 -0.0059881662516602183 0 -0.0024214843621527329 -0.0061061961924491516 0 -0.002389383489685505 -0.0058850978910494059 0 -0.0022828390570208594 -0.0061300684643382005 0 -0.0022742281799100548 -0.0059881662516602183 0 -0.0024214843621527329 -0.0061061961924491516 0 -0.0022742281799100548 -0.0059881662516602183 0 -0.0021144366789987191 -0.0058687903638688314 0 -0.002389383489685505 -0.0058850978910494059 0 -0.0020709505894247401 -0.0060844615462307024 0 -0.0021144366789987191 -0.0058687903638688314 0 -0.0017744362925853515 -0.0058709863010360094 0 -0.0020709505894247401 -0.0060844615462307024 0 -0.0022742281799100548 -0.0059881662516602183 0 -0.0021144366789987191 -0.0058687903638688314 0 -0.0021144366789987191 -0.0058687903638688314 0 -0.0017744362925853515 -0.0058709863010360094 0 -0.0017889854658674432 -0.005592732790419482 0 -0.0017744362925853515 -0.0058709863010360094 0 -0.0014054035011876731 -0.0056276486799718556 0 -0.0017889854658674432 -0.005592732790419482 0 -0.0017744362925853515 -0.0058709863010360094 0 -0.0014054035011876731 -0.0056276486799718556 0 -0.001399756226968371 -0.0058432071194127076 0 -0.0014054035011876731 -0.0056276486799718556 0 -0.00088769101597344004 -0.0054251390483765188 0 -0.0010708856107809427 -0.0057070465467732989 0 -0.001399756226968371 -0.0058432071194127076 0 -0.0011109350358747042 -0.0058861123232619378 0 -0.0010708856107809427 -0.0057070465467732989 0 -0.0014054035011876731 -0.0056276486799718556 0 -0.001399756226968371 -0.0058432071194127076 0 -0.0010708856107809427 -0.0057070465467732989 0 -0.001399756226968371 -0.0058432071194127076 0 -0.0011109350358747042 -0.0058861123232619378 0 -0.0015238048287288587 -0.0059991938898137443 0 -0.0011109350358747042 -0.0058861123232619378 0 -0.0015238048287288587 -0.0059991938898137443 0 -0.0012665863864204027 -0.0060283378520098784 0 -0.0011109350358747042 -0.0058861123232619378 0 -0.0012665863864204027 -0.0060283378520098784 0 -0.00091765203508192513 -0.0059084456769795141 0 -0.0018083202557850331 -0.0060549105715472047 0 -0.0015238048287288587 -0.0059991938898137443 0 -0.0016576377662302897 -0.0062237393397016789 0 -0.0017744362925853515 -0.0058709863010360094 0 -0.0018083202557850331 -0.0060549105715472047 0 -0.0015238048287288587 -0.0059991938898137443 0 -0.0017744362925853515 -0.0058709863010360094 0 -0.001399756226968371 -0.0058432071194127076 0 -0.0015238048287288587 -0.0059991938898137443 0 -0.0018083202557850331 -0.0060549105715472047 0 -0.0016576377662302897 -0.0062237393397016789 0 -0.0019460469785487239 -0.0061969267153263513 0 -0.0015238048287288587 -0.0059991938898137443 0 -0.0016576377662302897 -0.0062237393397016789 0 -0.0012665863864204027 -0.0060283378520098784 0 -0.0016576377662302897 -0.0062237393397016789 0 -0.0012665863864204027 -0.0060283378520098784 0 -0.0012612697944301705 -0.0061978005961865965 0 -0.0012665863864204027 -0.0060283378520098784 0 -0.0012612697944301705 -0.0061978005961865965 0 -0.00091765203508192513 -0.0059084456769795141 0 -0.0012612697944301705 -0.0061978005961865965 0 -0.0015962955629456404 -0.0064721424833385595 0 -0.0012523071350658856 -0.0066203830171716717 0 -0.0016576377662302897 -0.0062237393397016789 0 -0.0015962955629456404 -0.0064721424833385595 0 -0.0019187062839368576 -0.0064992445622506475 0 -0.0016576377662302897 -0.0062237393397016789 0 -0.0012612697944301705 -0.0061978005961865965 0 -0.0015962955629456404 -0.0064721424833385595 0 -0.0019187062839368576 -0.0064992445622506475 0 -0.0020219234690285345 -0.0063448924582591073 0 -0.0021447261557893684 -0.0064443942424653993 0 -0.0016576377662302897 -0.0062237393397016789 0 -0.0019187062839368576 -0.0064992445622506475 0 -0.0020219234690285345 -0.0063448924582591073 0 -0.0016576377662302897 -0.0062237393397016789 0 -0.0020219234690285345 -0.0063448924582591073 0 -0.0019460469785487239 -0.0061969267153263513 0 -0.0020219234690285345 -0.0063448924582591073 0 -0.0019460469785487239 -0.0061969267153263513 0 -0.0021239924455013237 -0.0062704501453839708 0 -0.0021239924455013237 -0.0062704501453839708 0 -0.002161272543607025 -0.0063594062336622273 0 -0.0022323469060507349 -0.0063341568575651713 0 -0.0020219234690285345 -0.0063448924582591073 0 -0.002161272543607025 -0.0063594062336622273 0 -0.0021447261557893684 -0.0064443942424653993 0 -0.0020219234690285345 -0.0063448924582591073 0 -0.0021239924455013237 -0.0062704501453839708 0 -0.002161272543607025 -0.0063594062336622273 0 -0.002161272543607025 -0.0063594062336622273 0 -0.0022323469060507349 -0.0063341568575651713 0 -0.0022313514572621321 -0.0064042592529229714 0 -0.002161272543607025 -0.0063594062336622273 0 -0.0021447261557893684 -0.0064443942424653993 0 -0.0022313514572621321 -0.0064042592529229714 0 -0.0019187062839368576 -0.0064992445622506475 0 -0.0021447261557893684 -0.0064443942424653993 0 -0.0021500954294539189 -0.0066138414179381707 0 -0.0021447261557893684 -0.0064443942424653993 0 -0.0022310528503206406 -0.006450866978663196 0 -0.0021500954294539189 -0.0066138414179381707 0 -0.0022310528503206406 -0.006450866978663196 0 -0.0022699730230077634 -0.0064271795921119973 0 -0.0021500954294539189 -0.0066138414179381707 0 0.0048037437727195924 -0.012953080945967756 0 0.0047713335416699008 -0.012567138798667962 0 0.0040144854242730376 -0.013445797568019266 0 -0.0022310528503206406 -0.006450866978663196 0 -0.002251732909242962 -0.0064318696536968317 0 -0.0022313514572621321 -0.0064042592529229714 0 -0.0021447261557893684 -0.0064443942424653993 0 -0.0022310528503206406 -0.006450866978663196 0 -0.0022313514572621321 -0.0064042592529229714 0 -0.0022310528503206406 -0.006450866978663196 0 -0.002251732909242962 -0.0064318696536968317 0 -0.0022543747043704278 -0.0064363416698611725 0 -0.0022310528503206406 -0.006450866978663196 0 -0.0022543747043704278 -0.0064363416698611725 0 -0.0022699730230077634 -0.0064271795921119973 0 0.0048037437727195924 -0.012953080945967756 0 0.0047713335416699008 -0.012567138798667962 0 0.0026765195889892675 -0.011429616557915377 0 -0.0022187293239550308 -0.0064484723649610434 0 -0.0021607535952731455 -0.0064698030327681845 0 -0.0020272744449248534 -0.0064355005940064424 0 0.00055191868489510361 -0.0085931309153926775 0 -0.00032443848177908616 -0.0081091934545730604 0 -0.0022699730230077634 -0.0064271795921119973 0 -0.0022187293239550308 -0.0064484723649610434 0 -0.0020272744449248534 -0.0064355005940064424 0 0.0050063016839507193 -0.013787482661315648 0 0.004571063524705851 -0.014016876488088985 0 -0.0022543747043704278 -0.0064363416698611725 0 -0.0022699730230077634 -0.0064271795921119973 0 -0.0022187293239550308 -0.0064484723649610434 0 -0.002251732909242962 -0.0064318696536968317 0 -0.0022543747043704278 -0.0064363416698611725 0 -0.0022187293239550308 -0.0064484723649610434 0 -0.002251732909242962 -0.0064318696536968317 0 -0.0022187293239550308 -0.0064484723649610434 0 -0.0022204314294412297 -0.0064584522322425021 0 -0.002251732909242962 -0.0064318696536968317 0 -0.0022204314294412297 -0.0064584522322425021 0 -0.0022558496753175279 -0.0064092643884291704 0 -0.0022204314294412297 -0.0064584522322425021 0 -0.0021607535952731455 -0.0064698030327681845 0 -0.002131341201615569 -0.0065460675760483479 0 -0.0022187293239550308 -0.0064484723649610434 0 -0.0022204314294412297 -0.0064584522322425021 0 -0.0021607535952731455 -0.0064698030327681845 0 -0.0022192581291627976 -0.0064646084475919697 0 -0.002131341201615569 -0.0065460675760483479 0 -0.002169521664617782 -0.0065152318568690712 0 -0.0022204314294412297 -0.0064584522322425021 0 -0.0022192581291627976 -0.0064646084475919697 0 -0.002131341201615569 -0.0065460675760483479 0 -0.0022204314294412297 -0.0064584522322425021 0 -0.0022192581291627976 -0.0064646084475919697 0 -0.0022558496753175279 -0.0064092643884291704 0 -0.0022192581291627976 -0.0064646084475919697 0 -0.0022558496753175279 -0.0064092643884291704 0 -0.0022642627908280289 -0.0063956691833992997 0 -0.0022558496753175279 -0.0064092643884291704 0 -0.0022323469060507349 -0.0063341568575651713 0 -0.0022313514572621321 -0.0064042592529229714 0 -0.0022558496753175279 -0.0064092643884291704 0 -0.0022323469060507349 -0.0063341568575651713 0 -0.0022743704455722691 -0.0063275606487537307 0 -0.002251732909242962 -0.0064318696536968317 0 -0.0022558496753175279 -0.0064092643884291704 0 -0.0022313514572621321 -0.0064042592529229714 0 -0.0010096536679791335 -0.010466249098504901 0 0.0022730982448741065 -0.0094379585540027271 0 -0.0015073523975948056 -0.0072590247253055155 0 0.0040901808473928726 -0.014910950711553428 0 0.004571063524705851 -0.014016876488088985 0 -0.0010096536679791335 -0.010466249098504901 0 0.0022730982448741065 -0.0094379585540027271 0 0.0026765195889892675 -0.011429616557915377 0 0.0047713335416699008 -0.012567138798667962 0 0.0022730982448741065 -0.0094379585540027271 0 0.0026765195889892675 -0.011429616557915377 0 -0.0021607535952731455 -0.0064698030327681845 0 -0.0020272744449248534 -0.0064355005940064424 0 -0.002131341201615569 -0.0065460675760483479 0 -0.002131341201615569 -0.0065460675760483479 0 -0.00203474945132455 -0.006631087389773525 0 -0.002169521664617782 -0.0065152318568690712 0 -0.002131341201615569 -0.0065460675760483479 0 -0.0019075054049759702 -0.0067412471188665543 0 -0.00203474945132455 -0.006631087389773525 0 -0.0019075054049759702 -0.0067412471188665543 0 -0.0018314566877403438 -0.0068051332002382753 0 -0.00203474945132455 -0.006631087389773525 0 -0.0020272744449248534 -0.0064355005940064424 0 -0.002131341201615569 -0.0065460675760483479 0 -0.0019075054049759702 -0.0067412471188665543 0 -0.0019075054049759702 -0.0067412471188665543 0 -0.0018314566877403438 -0.0068051332002382753 0 -0.0015073523975948056 -0.0072590247253055155 0 -0.0020272744449248534 -0.0064355005940064424 0 -0.0019075054049759702 -0.0067412471188665543 0 -0.0015073523975948056 -0.0072590247253055155 0 -0.0018314566877403438 -0.0068051332002382753 0 -0.0015073523975948056 -0.0072590247253055155 0 -0.0018580340554876723 -0.0067741852585811949 0 -0.00032443848177908616 -0.0081091934545730604 0 -0.0009626215514266412 -0.007796129891369785 0 -0.0018314566877403438 -0.0068051332002382753 0 -0.0019811279476309872 -0.0066195913040964366 0 -0.0018580340554876723 -0.0067741852585811949 0 -0.0018314566877403438 -0.0068051332002382753 0 -0.00203474945132455 -0.006631087389773525 0 -0.0019811279476309872 -0.0066195913040964366 0 -0.00203474945132455 -0.006631087389773525 0 -0.0021486714201939369 -0.0064886131082960785 0 -0.0019811279476309872 -0.0066195913040964366 0 -0.00203474945132455 -0.006631087389773525 0 -0.0021486714201939369 -0.0064886131082960785 0 -0.0022104516073230061 -0.0064568041509957879 0 -0.00203474945132455 -0.006631087389773525 0 -0.002169521664617782 -0.0065152318568690712 0 -0.0022104516073230061 -0.0064568041509957879 0 -0.0021486714201939369 -0.0064886131082960785 0 -0.0019811279476309872 -0.0066195913040964366 0 -0.002094275964186407 -0.0065227590173256344 0 -0.0021486714201939369 -0.0064886131082960785 0 -0.002094275964186407 -0.0065227590173256344 0 -0.0022783433866276183 -0.0063806376488814284 0 -0.0019811279476309872 -0.0066195913040964366 0 -0.0018580340554876723 -0.0067741852585811949 0 -0.0019542112607210337 -0.0066212055866525102 0 -0.0019811279476309872 -0.0066195913040964366 0 -0.002094275964186407 -0.0065227590173256344 0 -0.0019542112607210337 -0.0066212055866525102 0 -0.002317869067020745 -0.0062404625195154589 0 -0.0022642627908280289 -0.0063956691833992997 0 -0.0023325586832629664 -0.0062915207265711393 0 -0.002317869067020745 -0.0062404625195154589 0 -0.0022743704455722691 -0.0063275606487537307 0 -0.0022642627908280289 -0.0063956691833992997 0 -0.0022399472137441838 -0.0062443527360925757 0 -0.002317869067020745 -0.0062404625195154589 0 -0.0022743704455722691 -0.0063275606487537307 0 -0.0022399472137441838 -0.0062443527360925757 0 -0.0022323469060507349 -0.0063341568575651713 0 -0.0022743704455722691 -0.0063275606487537307 0 -0.0022558496753175279 -0.0064092643884291704 0 -0.0022743704455722691 -0.0063275606487537307 0 -0.0022642627908280289 -0.0063956691833992997 0 -0.0022192581291627976 -0.0064646084475919697 0 -0.0022642627908280289 -0.0063956691833992997 0 -0.002169521664617782 -0.0065152318568690712 0 -0.0022642627908280289 -0.0063956691833992997 0 -0.002169521664617782 -0.0065152318568690712 0 -0.0022104516073230061 -0.0064568041509957879 0 -0.0022642627908280289 -0.0063956691833992997 0 -0.0022104516073230061 -0.0064568041509957879 0 -0.0023325586832629664 -0.0062915207265711393 0 -0.0022104516073230061 -0.0064568041509957879 0 -0.0022838246288392405 -0.0063662272492733462 0 -0.0023325586832629664 -0.0062915207265711393 0 -0.0021486714201939369 -0.0064886131082960785 0 -0.0022104516073230061 -0.0064568041509957879 0 -0.0022838246288392405 -0.0063662272492733462 0 -0.0021486714201939369 -0.0064886131082960785 0 -0.0022838246288392405 -0.0063662272492733462 0 -0.0022783433866276183 -0.0063806376488814284 0 -0.0022838246288392405 -0.0063662272492733462 0 -0.0024076683391993955 -0.0062459322778976849 0 -0.0022783433866276183 -0.0063806376488814284 0 -0.0022838246288392405 -0.0063662272492733462 0 -0.0023325586832629664 -0.0062915207265711393 0 -0.0024076683391993955 -0.0062459322778976849 0 -0.0023325586832629664 -0.0062915207265711393 0 -0.0024214843621527329 -0.0061061961924491516 0 -0.0024076683391993955 -0.0062459322778976849 0 -0.002317869067020745 -0.0062404625195154589 0 -0.0023325586832629664 -0.0062915207265711393 0 -0.0024214843621527329 -0.0061061961924491516 0 -0.0022828390570208594 -0.0061300684643382005 0 -0.002317869067020745 -0.0062404625195154589 0 -0.0024214843621527329 -0.0061061961924491516 0 -0.0024214843621527329 -0.0061061961924491516 0 -0.0025574174909601985 -0.0061159288558213301 0 -0.0025162994931964546 -0.005986780632831752 0 -0.0024214843621527329 -0.0061061961924491516 0 -0.0025574174909601985 -0.0061159288558213301 0 -0.0024076683391993955 -0.0062459322778976849 0 -0.0025574174909601985 -0.0061159288558213301 0 -0.0026582549732393195 -0.0058855318424054009 0 -0.0025162994931964546 -0.005986780632831752 0 -0.0024076683391993955 -0.0062459322778976849 0 -0.0024503504995386375 -0.0062799309492900628 0 -0.0022783433866276183 -0.0063806376488814284 0 -0.0025574174909601985 -0.0061159288558213301 0 -0.0024076683391993955 -0.0062459322778976849 0 -0.0024503504995386375 -0.0062799309492900628 0 -0.0024503504995386375 -0.0062799309492900628 0 -0.0027403971313592489 -0.0060826756554985964 0 -0.0024557997376657881 -0.0065526696498013235 0 -0.0027403971313592489 -0.0060826756554985964 0 -0.0028596540942927191 -0.0065491785578965754 0 -0.0024557997376657881 -0.0065526696498013235 0 -0.0024503504995386375 -0.0062799309492900628 0 -0.0021995702846306208 -0.006544716862073253 0 -0.0024557997376657881 -0.0065526696498013235 0 -0.0027403971313592489 -0.0060826756554985964 0 -0.0030178007114120878 -0.0059283965763026816 0 -0.0028596540942927191 -0.0065491785578965754 0 -0.0027403971313592489 -0.0060826756554985964 0 -0.0030178007114120878 -0.0059283965763026816 0 -0.0026582549732393195 -0.0058855318424054009 0 -0.0025574174909601985 -0.0061159288558213301 0 -0.0027403971313592489 -0.0060826756554985964 0 -0.0026582549732393195 -0.0058855318424054009 0 -0.0025574174909601985 -0.0061159288558213301 0 -0.0024503504995386375 -0.0062799309492900628 0 -0.0027403971313592489 -0.0060826756554985964 0 -0.002094275964186407 -0.0065227590173256344 0 -0.0021995702846306208 -0.006544716862073253 0 -0.0019692370349292014 -0.006678770829882605 0 -0.002094275964186407 -0.0065227590173256344 0 -0.0019692370349292014 -0.006678770829882605 0 -0.0019542112607210337 -0.0066212055866525102 0 -0.0024503504995386375 -0.0062799309492900628 0 -0.0022783433866276183 -0.0063806376488814284 0 -0.0021995702846306208 -0.006544716862073253 0 -0.002094275964186407 -0.0065227590173256344 0 -0.0022783433866276183 -0.0063806376488814284 0 -0.0021995702846306208 -0.006544716862073253 0 -0.0021995702846306208 -0.006544716862073253 0 -0.0020631564994188336 -0.0068893356004111408 0 -0.0024557997376657881 -0.0065526696498013235 0 -0.0021995702846306208 -0.006544716862073253 0 -0.0019692370349292014 -0.006678770829882605 0 -0.0020631564994188336 -0.0068893356004111408 0 -0.0020631564994188336 -0.0068893356004111408 0 -0.0023028491117304348 -0.0071773827418598734 0 -0.0019970881602686566 -0.007304982956453954 0 -0.0020631564994188336 -0.0068893356004111408 0 -0.0019970881602686566 -0.007304982956453954 0 -0.0017774429476964564 -0.0072235642243219074 0 -0.0020631564994188336 -0.0068893356004111408 0 -0.0023028491117304348 -0.0071773827418598734 0 -0.0024557997376657881 -0.0065526696498013235 0 -0.0020843370619528416 -0.0075746760476154114 0 -0.002307771047462446 -0.0072080931866809993 0 -0.0019774184546378624 -0.0074287196036576676 0 -0.001223356439188512 -0.0085833476079177125 0 -0.0024365817763728789 -0.008236127453676018 0 -0.0019774184546378624 -0.0074287196036576676 0 -0.002758914950506237 -0.0074144077018204937 0 -0.0024365817763728789 -0.008236127453676018 0 -0.0023028491117304348 -0.0071773827418598734 0 -0.0019970881602686566 -0.007304982956453954 0 -0.0020493286515067448 -0.0076752184689125981 0 -0.0020843370619528416 -0.0075746760476154114 0 -0.0015689059436151138 -0.0084196015932526316 0 -0.0028596540942927191 -0.0065491785578965754 0 -0.002758914950506237 -0.0074144077018204937 0 -0.0035135340738496473 -0.0070873460186988745 0 -0.0038956924612157371 -0.0059340560349850965 0 -0.0039705870913591557 -0.0058566814791399637 0 -0.0030178007114120878 -0.0059283965763026816 0 -0.0028596540942927191 -0.0065491785578965754 0 -0.0035135340738496473 -0.0070873460186988745 0 -0.0028596540942927191 -0.0065491785578965754 0 -0.0024557997376657881 -0.0065526696498013235 0 -0.002758914950506237 -0.0074144077018204937 0 -0.0019774184546378624 -0.0074287196036576676 0 -0.0024557997376657881 -0.0065526696498013235 0 -0.002758914950506237 -0.0074144077018204937 0 -0.002758914950506237 -0.0074144077018204937 0 -0.0030227685080326649 -0.0084819887225216009 0 -0.003675105740622157 -0.0078997993444755357 0 -0.002758914950506237 -0.0074144077018204937 0 -0.0035135340738496473 -0.0070873460186988745 0 -0.003675105740622157 -0.0078997993444755357 0 -0.0039705870913591557 -0.0058566814791399637 0 -0.0041815758035044165 -0.0055400855570908623 0 -0.0041800147714929565 -0.0030331281661720279 0 -0.0042817296707456714 -0.0015391703210635144 0 -0.0059759494068839644 -0.0020538102383533302 0 -0.0035793602824362096 -0.0048705859454108427 0 -0.0041815758035044165 -0.0055400855570908623 0 -0.003014786438091601 -0.004971888640182714 0 -0.0023170481610233122 -0.0047895114456119768 0 -0.0030012714711200325 -0.0044987819493669031 0 -0.0041800147714929565 -0.0030331281661720279 0 -0.0029764860921604949 -0.0018484497316534009 0 -0.0042817296707456714 -0.0015391703210635144 0 -0.0023170481610233122 -0.0047895114456119768 0 -0.002261037801855886 -0.004943042065835534 0 -0.0020806632671301005 -0.0042065000292274158 0 -0.0023170481610233122 -0.0047895114456119768 0 -0.002261037801855886 -0.004943042065835534 0 -0.0025003599550453329 -0.0052540344186802982 0 -0.003014786438091601 -0.004971888640182714 0 -0.0023170481610233122 -0.0047895114456119768 0 -0.0025003599550453329 -0.0052540344186802982 0 -0.0030178007114120878 -0.0059283965763026816 0 -0.003014786438091601 -0.004971888640182714 0 -0.0025003599550453329 -0.0052540344186802982 0 -0.0030178007114120878 -0.0059283965763026816 0 -0.0025003599550453329 -0.0052540344186802982 0 -0.0024281309269036286 -0.0055413878675376511 0 -0.0030178007114120878 -0.0059283965763026816 0 -0.0026582549732393195 -0.0058855318424054009 0 -0.0024281309269036286 -0.0055413878675376511 0 -0.002261037801855886 -0.004943042065835534 0 -0.0025003599550453329 -0.0052540344186802982 0 -0.0024281309269036286 -0.0055413878675376511 0 -0.002261037801855886 -0.004943042065835534 0 -0.0024281309269036286 -0.0055413878675376511 0 -0.0020204661017137419 -0.0053393924381785317 0 -0.0024281309269036286 -0.0055413878675376511 0 -0.0022027875654497663 -0.0056454763237327437 0 -0.002389383489685505 -0.0058850978910494059 0 -0.0024281309269036286 -0.0055413878675376511 0 -0.0022027875654497663 -0.0056454763237327437 0 -0.0020204661017137419 -0.0053393924381785317 0 -0.0021144366789987191 -0.0058687903638688314 0 -0.0022027875654497663 -0.0056454763237327437 0 -0.0017889854658674432 -0.005592732790419482 0 -0.0021144366789987191 -0.0058687903638688314 0 -0.0022027875654497663 -0.0056454763237327437 0 -0.002389383489685505 -0.0058850978910494059 0 -0.0026582549732393195 -0.0058855318424054009 0 -0.0024281309269036286 -0.0055413878675376511 0 -0.002389383489685505 -0.0058850978910494059 0 -0.0024214843621527329 -0.0061061961924491516 0 -0.002389383489685505 -0.0058850978910494059 0 -0.0025162994931964546 -0.005986780632831752 0 -0.0026582549732393195 -0.0058855318424054009 0 -0.002389383489685505 -0.0058850978910494059 0 -0.0025162994931964546 -0.005986780632831752 0 -0.0014054035011876731 -0.0056276486799718556 0 -0.0014095827615893028 -0.0051679047350865377 0 -0.0017889854658674432 -0.005592732790419482 0 -0.0014054035011876731 -0.0056276486799718556 0 -0.0014095827615893028 -0.0051679047350865377 0 -0.00088769101597344004 -0.0054251390483765188 0 -0.0014095827615893028 -0.0051679047350865377 0 -0.0017889854658674432 -0.005592732790419482 0 -0.0020204661017137419 -0.0053393924381785317 0 -0.0022027875654497663 -0.0056454763237327437 0 -0.0017889854658674432 -0.005592732790419482 0 -0.0020204661017137419 -0.0053393924381785317 0 -0.0014095827615893028 -0.0051679047350865377 0 -0.0020204661017137419 -0.0053393924381785317 0 -0.0020806632671301005 -0.0042065000292274158 0 -0.002261037801855886 -0.004943042065835534 0 -0.0020204661017137419 -0.0053393924381785317 0 -0.0020806632671301005 -0.0042065000292274158 0 -0.0014095827615893028 -0.0051679047350865377 0 -0.0020806632671301005 -0.0042065000292274158 0 -0.00068353800875755883 -0.0042025750745589069 0 -0.0020806632671301005 -0.0042065000292274158 0 -0.00089520919281899319 -0.0029333541585770334 0 -0.00068353800875755883 -0.0042025750745589069 0 -0.0035793602824362096 -0.0048705859454108427 0 -0.0030129517716429534 -0.0048638438849191402 0 -0.0020806632671301005 -0.0042065000292274158 0 -0.0015965682397112353 -0.0017201981187598438 0 -0.0029764860921604949 -0.0018484497316534009 0 -0.0041800147714929565 -0.0030331281661720279 0 -0.0020806632671301005 -0.0042065000292274158 0 -0.0029764860921604949 -0.0018484497316534009 0 -0.0020806632671301005 -0.0042065000292274158 0 -0.00089520919281899319 -0.0029333541585770334 0 -0.0015965682397112353 -0.0017201981187598438 0 -0.00089520919281899319 -0.0029333541585770334 0 0.00048198747386932065 -0.0029912524101940257 0 -0.0001505616968374026 -0.00034673587212317026 0 -0.00089520919281899319 -0.0029333541585770334 0 -0.0001505616968374026 -0.00034673587212317026 0 -0.0015965682397112353 -0.0017201981187598438 0 -0.00089520919281899319 -0.0029333541585770334 0 -0.00068353800875755883 -0.0042025750745589069 0 0.00048198747386932065 -0.0029912524101940257 0 -0.0012699315396486677 0.0013463222973506353 0 -0.0022894531236588109 0.0024526743902261649 0 -0.00068353800875755883 -0.0042025750745589069 0 0.00048198747386932065 -0.0029912524101940257 0 0.00038550491794782507 -0.0044448114269889406 0 -0.0012699315396486677 0.0013463222973506353 0 -0.00093185168326562597 0.00081203375165058485 0 -0.00057281590212427335 0.0049109240855085105 0 -0.0020866134499374286 0.0015128401172335444 0 -0.0001505616968374026 -0.00034673587212317026 0 -0.00057281590212427335 0.0049109240855085105 0 -0.0064295842096030783 0.0025636386980784497 0 -0.0020866134499374286 0.0015128401172335444 0 -0.00057281590212427335 0.0049109240855085105 0 -0.0064295842096030783 0.0025636386980784497 0 -0.0066674756561835398 0.0090300968442005771 0 -0.014586831396244669 0.014368470165194335 0 -0.014203782294061057 0.013450314851642107 0 -0.0064295842096030783 0.0025636386980784497 0 -0.0066674756561835398 0.0090300968442005771 0 -0.010886600241208123 0.0076130959856468275 0 -0.00057281590212427335 0.0049109240855085105 0 -0.0066674756561835398 0.0090300968442005771 0 -0.0023032793687164385 0.010045770838717378 0 -0.0022894531236588109 0.0024526743902261649 0 -0.0039235153909948266 0.0033045126573447953 0 -0.0066674756561835398 0.0090300968442005771 0 -0.0023032793687164385 0.010045770838717378 0 -0.0041856702391833414 0.014622268292058534 0 -0.0066674756561835398 0.0090300968442005771 0 -0.0086009517618073107 0.012905012908195039 0 -0.0094188696174480717 0.010199707310462118 0 -0.0066674756561835398 0.0090300968442005771 0 -0.0086009517618073107 0.012905012908195039 0 -0.0041856702391833414 0.014622268292058534 0 -0.0086009517618073107 0.012905012908195039 0 -0.0041856702391833414 0.014622268292058534 0 -0.0072918248251650523 0.015769214924592451 0 0.00038550491794782507 -0.0044448114269889406 0 0.00028470480560957871 -0.0052133294798626826 0 -0.00029608097906495492 -0.0053646725244525465 0 0.00038550491794782507 -0.0044448114269889406 0 -0.00029608097906495492 -0.0053646725244525465 0 -0.00058074935699132266 -0.0049470409674651911 0 -0.0014095827615893028 -0.0051679047350865377 0 -0.00058074935699132266 -0.0049470409674651911 0 -0.00088769101597344004 -0.0054251390483765188 0 -0.00029608097906495492 -0.0053646725244525465 0 -0.00058074935699132266 -0.0049470409674651911 0 -0.00088769101597344004 -0.0054251390483765188 0 -0.0014095827615893028 -0.0051679047350865377 0 -0.00068353800875755883 -0.0042025750745589069 0 -0.00058074935699132266 -0.0049470409674651911 0 -0.00068353800875755883 -0.0042025750745589069 0 0.00038550491794782507 -0.0044448114269889406 0 -0.00058074935699132266 -0.0049470409674651911 0 -0.0053144925115808277 0.016647907631865008 0 -0.0063593084057278456 0.017808466751409478 0 -0.0074137287871981232 0.01597756670559957 0 -0.0063593084057278456 0.017808466751409478 0 -0.0078787789418540196 0.018187736760387326 0 -0.0074137287871981232 0.01597756670559957 0 -0.0093747026131406688 0.016830587676445286 0 -0.0078787789418540196 0.018187736760387326 0 -0.010309947317005979 0.019214663523160039 0 -0.0093747026131406688 0.016830587676445286 0 -0.0078787789418540196 0.018187736760387326 0 -0.0074137287871981232 0.01597756670559957 0 -0.0078787789418540196 0.018187736760387326 0 -0.008300541645599643 0.020279937937907739 0 -0.010309947317005979 0.019214663523160039 0 -0.0078787789418540196 0.018187736760387326 0 -0.008300541645599643 0.020279937937907739 0 -0.0063817365216788926 0.019695274059962662 0 -0.0063593084057278456 0.017808466751409478 0 -0.0078787789418540196 0.018187736760387326 0 -0.0063817365216788926 0.019695274059962662 0 -0.008300541645599643 0.020279937937907739 0 -0.0063817365216788926 0.019695274059962662 0 -0.0063598158562321915 0.022535257532938224 0 -0.0063598158562321915 0.022535257532938224 0 -0.0091892696325455749 0.022423518186144978 0 -0.0075686846520533358 0.026092842927786106 0 -0.008300541645599643 0.020279937937907739 0 -0.0091892696325455749 0.022423518186144978 0 -0.010309947317005979 0.019214663523160039 0 -0.008300541645599643 0.020279937937907739 0 -0.0063598158562321915 0.022535257532938224 0 -0.0091892696325455749 0.022423518186144978 0 -0.0091892696325455749 0.022423518186144978 0 -0.013619791871234863 0.022723172222442568 0 -0.01085906591141146 0.025496637031898552 0 -0.0091892696325455749 0.022423518186144978 0 -0.013619791871234863 0.022723172222442568 0 -0.010309947317005979 0.019214663523160039 0 -0.013619791871234863 0.022723172222442568 0 -0.010309947317005979 0.019214663523160039 0 -0.013580523143924949 0.018111222873541621 0 -0.0093747026131406688 0.016830587676445286 0 -0.010309947317005979 0.019214663523160039 0 -0.011610165432434429 0.016159126932338876 0 -0.010309947317005979 0.019214663523160039 0 -0.013580523143924949 0.018111222873541621 0 -0.011610165432434429 0.016159126932338876 0 -0.013619791871234863 0.022723172222442568 0 -0.013580523143924949 0.018111222873541621 0 -0.019071088682195651 0.019081541538623615 0 -0.013580523143924949 0.018111222873541621 0 -0.019071088682195651 0.019081541538623615 0 -0.013467342595182008 0.013048746795827137 0 -0.013619791871234863 0.022723172222442568 0 -0.019071088682195651 0.019081541538623615 0 -0.018533189231647536 0.025646853946892038 0 -0.024078236460699166 0.024475627494306006 0 -0.019071088682195651 0.019081541538623615 0 -0.018533189231647536 0.025646853946892038 0 -0.0066674756561835398 0.0090300968442005771 0 -0.010886600241208123 0.0076130959856468275 0 -0.0094188696174480717 0.010199707310462118 0 -0.010886600241208123 0.0076130959856468275 0 -0.0094188696174480717 0.010199707310462118 0 -0.011332258922231596 0.011908211836763561 0 -0.0086009517618073107 0.012905012908195039 0 -0.0094188696174480717 0.010199707310462118 0 -0.011332258922231596 0.011908211836763561 0 -0.0086009517618073107 0.012905012908195039 0 -0.011165454498336218 0.014712720086539116 0 -0.0072918248251650523 0.015769214924592451 0 -0.0086009517618073107 0.012905012908195039 0 -0.011332258922231596 0.011908211836763561 0 -0.011165454498336218 0.014712720086539116 0 -0.011165454498336218 0.014712720086539116 0 -0.013218675138019617 0.012823245923030625 0 -0.013786150182308075 0.016083115078573552 0 -0.011332258922231596 0.011908211836763561 0 -0.011165454498336218 0.014712720086539116 0 -0.013218675138019617 0.012823245923030625 0 -0.009344670125359578 0.01040392756348313 0 -0.0085891719264185422 0.008729254605610498 0 -0.013218675138019617 0.012823245923030625 0 -0.012456390551574565 0.012220576491209841 0 -0.013468790168395858 0.0092998350038033771 0 -0.014203782294061057 0.013450314851642107 0 -0.013737619416959012 0.012978267775332659 0 -0.010886600241208123 0.0076130959856468275 0 -0.011332258922231596 0.011908211836763561 0 -0.013467342595182008 0.013048746795827137 0 -0.011332258922231596 0.011908211836763561 0 -0.013218675138019617 0.012823245923030625 0 -0.013467342595182008 0.013048746795827137 0 -0.013218675138019617 0.012823245923030625 0 -0.013467342595182008 0.013048746795827137 0 -0.012456390551574565 0.012220576491209841 0 -0.013580523143924949 0.018111222873541621 0 -0.011610165432434429 0.016159126932338876 0 -0.013467342595182008 0.013048746795827137 0 -0.011610165432434429 0.016159126932338876 0 -0.013467342595182008 0.013048746795827137 0 -0.011596286499392578 0.013729729836657933 0 -0.011610165432434429 0.016159126932338876 0 -0.011596286499392578 0.013729729836657933 0 -0.009711700760391245 0.014698391807648601 0 -0.0093747026131406688 0.016830587676445286 0 -0.011610165432434429 0.016159126932338876 0 -0.009711700760391245 0.014698391807648601 0 -0.011596286499392578 0.013729729836657933 0 -0.010691575071212761 0.011785545914724272 0 -0.009711700760391245 0.014698391807648601 0 -0.013467342595182008 0.013048746795827137 0 -0.011596286499392578 0.013729729836657933 0 -0.012456390551574565 0.012220576491209841 0 -0.011596286499392578 0.013729729836657933 0 -0.012456390551574565 0.012220576491209841 0 -0.010691575071212761 0.011785545914724272 0 -0.0090324618775859868 0.0091000333406590726 0 -0.0085891719264185422 0.008729254605610498 0 -0.012456390551574565 0.012220576491209841 0 -0.010691575071212761 0.011785545914724272 0 -0.013468790168395858 0.0092998350038033771 0 -0.010691575071212761 0.011785545914724272 0 -0.0076773110640497187 0.010807359002312012 0 -0.013468790168395858 0.0092998350038033771 0 -0.010691575071212761 0.011785545914724272 0 -0.0076773110640497187 0.010807359002312012 0 -0.0078736729687726038 0.013292187637593817 0 -0.0051768396080724075 0.013111344860814979 0 -0.0076773110640497187 0.010807359002312012 0 -0.0078736729687726038 0.013292187637593817 0 -0.0058977333333529438 0.014846810739476524 0 -0.0051768396080724075 0.013111344860814979 0 -0.0078736729687726038 0.013292187637593817 0 -0.010691575071212761 0.011785545914724272 0 -0.0078736729687726038 0.013292187637593817 0 -0.009711700760391245 0.014698391807648601 0 -0.0093747026131406688 0.016830587676445286 0 -0.009711700760391245 0.014698391807648601 0 -0.0074137287871981232 0.01597756670559957 0 -0.0078736729687726038 0.013292187637593817 0 -0.009711700760391245 0.014698391807648601 0 -0.0074137287871981232 0.01597756670559957 0 -0.0058977333333529438 0.014846810739476524 0 -0.0053144925115808277 0.016647907631865008 0 -0.0074137287871981232 0.01597756670559957 0 -0.0058977333333529438 0.014846810739476524 0 -0.0078736729687726038 0.013292187637593817 0 -0.0074137287871981232 0.01597756670559957 0 -0.010746280797848838 0.026635028740542105 0 -0.012209491811232352 0.024031841624682904 0 -0.010543578051126936 0.02319587038326763 0 -0.0074415935210052622 0.024690128169141231 0 -0.010746280797848838 0.026635028740542105 0 -0.010543578051126936 0.02319587038326763 0 -0.0031556954529826245 0.0094085253202748666 0 -0.0076773110640497187 0.010807359002312012 0 -0.0081261807255825404 0.0066523118290641742 0 -0.0076773110640497187 0.010807359002312012 0 -0.0081261807255825404 0.0066523118290641742 0 -0.011270163379735231 0.0066861379598980013 0 -0.0076773110640497187 0.010807359002312012 0 -0.011270163379735231 0.0066861379598980013 0 -0.01354851058892669 0.0088402137169040478 0 -0.011270163379735231 0.0066861379598980013 0 -0.012850446405002162 0.0039986687684325593 0 -0.01354851058892669 0.0088402137169040478 0 -0.0081261807255825404 0.0066523118290641742 0 -0.011270163379735231 0.0066861379598980013 0 -0.012850446405002162 0.0039986687684325593 0 -0.0081075650520512996 0.015518927576759945 0 -0.0086551232895682988 0.011655817999433635 0 -0.010746280797848838 0.026635028740542105 0 -0.013908072626134639 0.024788989080333324 0 -0.012209491811232352 0.024031841624682904 0 -0.007733185466426238 0.0028998058398910314 0 -0.0079421621449856164 0.0028949998315696127 0 -0.0077683306765054111 0.0033075978725518548 0 -0.007733185466426238 0.0028998058398910314 0 -0.0078133889879334808 0.0028634260040017985 0 -0.0079421621449856164 0.0028949998315696127 0 -0.0086551232895682988 0.011655817999433635 0 -0.0087448459011911835 0.011503154068951476 0 -0.0086551232895682988 0.011655817999433635 0 -0.0085891719264185422 0.008729254605610498 0 -0.011165454498336218 0.014712720086539116 0 -0.013786150182308075 0.016083115078573552 0 -0.0099535340096127776 0.017452414600791055 0 -0.0085891719264185422 0.008729254605610498 0 -0.0076595351998216205 0.0063491334736226765 0 -0.0079421621449856164 0.0028949998315696127 0 -0.0077683306765054111 0.0033075978725518548 0 -0.0081506622537261004 0.0031787282514579855 0 -0.011165454498336218 0.014712720086539116 0 -0.0099535340096127776 0.017452414600791055 0 -0.0072918248251650523 0.015769214924592451 0 -0.0079421621449856164 0.0028949998315696127 0 -0.0081506622537261004 0.0031787282514579855 0 -0.0082448980425732891 0.0029074227526215152 0 -0.0079421621449856164 0.0028949998315696127 0 -0.0082448980425732891 0.0029074227526215152 0 -0.0081074867072711033 0.0027327875429432802 0 -0.0082448980425732891 0.0029074227526215152 0 -0.0081074867072711033 0.0027327875429432802 0 -0.0083860441069961086 0.0026583629523559351 0 -0.0079421621449856164 0.0028949998315696127 0 -0.0081074867072711033 0.0027327875429432802 0 -0.0079426007125472636 0.0026578767558711009 0 -0.0081074867072711033 0.0027327875429432802 0 -0.008060689139447701 0.0025411280908751994 0 -0.0079426007125472636 0.0026578767558711009 0 -0.0081074867072711033 0.0027327875429432802 0 -0.008060689139447701 0.0025411280908751994 0 -0.0083860441069961086 0.0026583629523559351 0 -0.0064894824532965066 0.00060373890406382872 0 -0.0069002114110413935 0.00099397735251922437 0 -0.008060689139447701 0.0025411280908751994 0 -0.0080852073490709706 0.0024952865923160831 0 -0.0079778759652147004 0.0018951770596093106 0 -0.008060689139447701 0.0025411280908751994 0 -0.0083860441069961086 0.0026583629523559351 0 -0.0079778759652147004 0.0018951770596093106 0 -0.008060689139447701 0.0025411280908751994 0 -0.0078997707323274768 0.0027673346899586455 0 -0.0080852073490709706 0.0024952865923160831 0 -0.0080852073490709706 0.0024952865923160831 0 -0.0078319184268503036 0.0031173576735930774 0 -0.0084517321068542945 0.0023047952650855135 0 -0.0076903136790065071 0.0042975841179020346 0 -0.0074254894275971916 0.0050515178404864263 0 -0.0078319184268503036 0.0031173576735930774 0 -0.0084634142065617302 0.0051298508586917453 0 -0.0062376156062917696 0.0065493351899282674 0 -0.0078997707323274768 0.0027673346899586455 0 -0.0080852073490709706 0.0024952865923160831 0 -0.0078319184268503036 0.0031173576735930774 0 -0.0078997707323274768 0.0027673346899586455 0 -0.0079971377088615785 0.002354657899150416 0 -0.0078319184268503036 0.0031173576735930774 0 -0.0078997707323274768 0.0027673346899586455 0 -0.0079426007125472636 0.0026578767558711009 0 -0.0079971377088615785 0.002354657899150416 0 -0.008060689139447701 0.0025411280908751994 0 -0.0078997707323274768 0.0027673346899586455 0 -0.0079426007125472636 0.0026578767558711009 0 -0.0078133889879334808 0.0028634260040017985 0 -0.0079421621449856164 0.0028949998315696127 0 -0.0077220476257550746 0.0027382548980342935 0 -0.0077598785273457413 0.0028989277333942311 0 -0.0078133889879334808 0.0028634260040017985 0 -0.0077220476257550746 0.0027382548980342935 0 -0.0076285033386856473 0.0075781228219850092 0 -0.009242307798594758 0.010192829082699703 0 -0.0079421621449856164 0.0028949998315696127 0 -0.0079426007125472636 0.0026578767558711009 0 -0.0079971377088615785 0.002354657899150416 0 -0.012209491811232352 0.024031841624682904 0 -0.013623963600009014 0.022801508915176818 0 -0.010543578051126936 0.02319587038326763 0 -0.0086551232895682988 0.011655817999433635 0 -0.009242307798594758 0.010192829082699703 0 -0.013908072626134639 0.024788989080333324 0 -0.012209491811232352 0.024031841624682904 0 -0.013623963600009014 0.022801508915176818 0 -0.009242307798594758 0.010192829082699703 0 -0.012767605515773793 0.016186953210931925 0 -0.008108318747182269 0.0027336527631753372 0 -0.0084634142065617302 0.0051298508586917453 0 -0.00979242916954573 0.0052112895897490031 0 -0.008108318747182269 0.0027336527631753372 0 -0.010393592009874757 0.0050434756558150979 0 -0.00979242916954573 0.0052112895897490031 0 -0.009242307798594758 0.010192829082699703 0 -0.0088219739424866273 0.0073326896028219147 0 -0.0079971377088615785 0.002354657899150416 0 -0.0078319184268503036 0.0031173576735930774 0 -0.0084634142065617302 0.0051298508586917453 0 -0.0085785660995077728 0.020793039208339418 0 -0.010922859753476373 0.020102980868568598 0 -0.010543578051126936 0.02319587038326763 0 -0.012850370007177887 0.02326100864783982 0 -0.012767605515773793 0.016186953210931925 0 -0.012767605515773793 0.016186953210931925 0 -0.012747457049886675 0.016063837907939364 0 -0.013623963600009014 0.022801508915176818 0 -0.010922859753476373 0.020102980868568598 0 -0.010543578051126936 0.02319587038326763 0 -0.00053563003389716518 -0.0061066534182646643 0 -0.00074919615236996098 -0.0058991146250075574 0 -0.00048659141474035624 -0.0057997308318444843 0 -0.00053563003389716518 -0.0061066534182646643 0 -0.00048659141474035624 -0.0057997308318444843 0 -0.0001279244820164024 -0.0056806145851825262 0 -0.00053563003389716518 -0.0061066534182646643 0 -0.0023707459894025838 -0.005555282679867735 0 -0.00061681028224145305 -0.0051768933976592347 0 -0.00053563003389716518 -0.0061066534182646643 0 -0.00074919615236996098 -0.0058991146250075574 0 -0.00063208617882331154 -0.0057316739921219675 0 -0.00074919615236996098 -0.0058991146250075574 0 -0.00091765203508192513 -0.0059084456769795141 0 -0.00063208617882331154 -0.0057316739921219675 0 -0.0011109350358747042 -0.0058861123232619378 0 -0.00074919615236996098 -0.0058991146250075574 0 -0.00091765203508192513 -0.0059084456769795141 0 -0.0011109350358747042 -0.0058861123232619378 0 -0.00074919615236996098 -0.0058991146250075574 0 -0.00073496690364342288 -0.005724038384655683 0 -0.00074919615236996098 -0.0058991146250075574 0 -0.00073496690364342288 -0.005724038384655683 0 -0.00048659141474035624 -0.0057997308318444843 0 -0.00029608097906495492 -0.0053646725244525465 0 -0.00088769101597344004 -0.0054251390483765188 0 -0.00073496690364342288 -0.005724038384655683 0 -0.0011109350358747042 -0.0058861123232619378 0 -0.00073496690364342288 -0.005724038384655683 0 -0.0010708856107809427 -0.0057070465467732989 0 -0.00088769101597344004 -0.0054251390483765188 0 -0.00073496690364342288 -0.005724038384655683 0 -0.0010708856107809427 -0.0057070465467732989 0 -0.00029608097906495492 -0.0053646725244525465 0 -0.00073496690364342288 -0.005724038384655683 0 -0.00048659141474035624 -0.0057997308318444843 0 0.00028470480560957871 -0.0052133294798626826 0 -0.00029608097906495492 -0.0053646725244525465 0 -0.0001279244820164024 -0.0056806145851825262 0 -0.00029608097906495492 -0.0053646725244525465 0 -0.00048659141474035624 -0.0057997308318444843 0 -0.0001279244820164024 -0.0056806145851825262 0 -0.0039235153909948266 0.0033045126573447953 0 -0.0060875997147322785 0.0023128394734414455 0 0.00028470480560957871 -0.0052133294798626826 0 -0.0001279244820164024 -0.0056806145851825262 0 0.00046285095352033984 -0.0059015324884779397 0 -0.0076595351998216205 0.0063491334736226765 0 -0.0060875997147322785 0.0023128394734414455 0 -0.0041856702391833414 0.014622268292058534 0 -0.0072918248251650523 0.015769214924592451 0 -0.0059397719192092208 0.018827847563296633 0 -0.0099535340096127776 0.017452414600791055 0 -0.0072918248251650523 0.015769214924592451 0 -0.0059397719192092208 0.018827847563296633 0 -0.0081506622537261004 0.0031787282514579855 0 -0.0082448980425732891 0.0029074227526215152 0 -0.0085065544540145407 0.0030556072475336027 0 -0.0060875997147322785 0.0023128394734414455 0 -0.0064894824532965066 0.00060373890406382872 0 -0.0082448980425732891 0.0029074227526215152 0 -0.0085065544540145407 0.0030556072475336027 0 -0.0083860441069961086 0.0026583629523559351 0 -0.0040770106117684135 0.00038680533644822312 0 -0.0060875997147322785 0.0023128394734414455 0 -0.0048831021961080415 -0.0079628030280127198 0 -0.0023707459894025838 -0.005555282679867735 0 -0.0037739114729028107 -0.0046812267851718426 0 -0.00053563003389716518 -0.0061066534182646643 0 -0.0048831021961080415 -0.0079628030280127198 0 -0.0023707459894025838 -0.005555282679867735 0 -0.00053563003389716518 -0.0061066534182646643 0 -0.0001279244820164024 -0.0056806145851825262 0 0.00046285095352033984 -0.0059015324884779397 0 -0.0023707459894025838 -0.005555282679867735 0 -0.0037739114729028107 -0.0046812267851718426 0 -0.0023573637845871499 -0.004056600209841262 0 -0.0037739114729028107 -0.0046812267851718426 0 -0.0067669843830755498 -0.0034125189758848814 0 -0.0029822588420974358 -0.0019155675991399674 0 -0.0037739114729028107 -0.0046812267851718426 0 -0.0023573637845871499 -0.004056600209841262 0 -0.0029822588420974358 -0.0019155675991399674 0 -0.0048831021961080415 -0.0079628030280127198 0 -0.0037739114729028107 -0.0046812267851718426 0 -0.0067669843830755498 -0.0034125189758848814 0 -0.0067669843830755498 -0.0034125189758848814 0 -0.0053070208641667078 -0.00044706108700956357 0 -0.0029822588420974358 -0.0019155675991399674 0 -0.0067669843830755498 -0.0034125189758848814 0 -0.0053070208641667078 -0.00044706108700956357 0 -0.0079778759652147004 0.0018951770596093106 0 -0.0023573637845871499 -0.004056600209841262 0 -0.0029822588420974358 -0.0019155675991399674 0 -0.00027382610738497376 -0.00099955904737540667 0 -0.0053070208641667078 -0.00044706108700956357 0 -0.0029822588420974358 -0.0019155675991399674 0 -0.0031016884474518221 0.00072057684534449331 0 -0.0029822588420974358 -0.0019155675991399674 0 -0.00077038901957803582 -0.00088489713054635589 0 -0.0031016884474518221 0.00072057684534449331 0 -0.0016053048014985521 -0.0036227733707639865 0 -0.0015676365307812246 -0.0037929493608547856 0 -0.0023573637845871499 -0.004056600209841262 0 -0.00027382610738497376 -0.00099955904737540667 0 -0.00061681028224145305 -0.0051768933976592347 0 -0.0015676365307812246 -0.0037929493608547856 0 -0.0014484973900882041 -0.0041143204887690438 0 -0.00045023328830280629 -0.0062314393158297773 0 -0.00061681028224145305 -0.0051768933976592347 0 -0.00081054769050660773 -0.0059217964386804765 0 -0.00053563003389716518 -0.0061066534182646643 0 -0.00061681028224145305 -0.0051768933976592347 0 -0.00063208617882331154 -0.0057316739921219675 0 -0.00061681028224145305 -0.0051768933976592347 0 -0.00063208617882331154 -0.0057316739921219675 0 -0.00081054769050660773 -0.0059217964386804765 0 -0.0023707459894025838 -0.005555282679867735 0 -0.0023573637845871499 -0.004056600209841262 0 -0.00061681028224145305 -0.0051768933976592347 0 -0.0012612697944301705 -0.0061978005961865965 0 -0.00091765203508192513 -0.0059084456769795141 0 -0.00081054769050660773 -0.0059217964386804765 0 -0.00091765203508192513 -0.0059084456769795141 0 -0.00063208617882331154 -0.0057316739921219675 0 -0.00081054769050660773 -0.0059217964386804765 0 -0.0012612697944301705 -0.0061978005961865965 0 -0.00081054769050660773 -0.0059217964386804765 0 -0.0012523071350658856 -0.0066203830171716717 0 -0.00045023328830280629 -0.0062314393158297773 0 -0.00081054769050660773 -0.0059217964386804765 0 -0.0012523071350658856 -0.0066203830171716717 0 -0.0015676365307812246 -0.0037929493608547856 0 -0.0012426199690256249 -0.0055823121372963903 0 -0.0015153899502583809 -0.004709453788114327 0 -0.001359730228006988 -0.0048299268203465017 0 -0.0013537007541617407 -0.0045965086438933527 0 -0.0016810662857325008 -0.0049440752248491142 0 -0.0015153899502583809 -0.004709453788114327 0 -0.001359730228006988 -0.0048299268203465017 0 -0.0028776149748942141 -0.0020272540786679706 0 -0.0013213625967173285 -0.0057966085093010293 0 -0.0015153899502583809 -0.004709453788114327 0 -0.0016748502039515153 -0.004476651052925963 0 -0.0013537007541617407 -0.0045965086438933527 0 -0.00091899738159297712 0.0025123844513859996 0 -0.0024362614667783689 0.0049312895423434238 0 -0.00098334193914926898 0.0056046524381338676 0 -0.0015153899502583809 -0.004709453788114327 0 -0.0016772651074158679 -0.0047122576742020493 0 -0.0016748502039515153 -0.004476651052925963 0 -0.0020749084798039499 -0.0021277268349541231 0 -0.0028776149748942141 -0.0020272540786679706 0 -0.0015676365307812246 -0.0037929493608547856 0 -0.0020749084798039499 -0.0021277268349541231 0 -0.00077038901957803582 -0.00088489713054635589 0 -0.00091899738159297712 0.0025123844513859996 0 -0.0031016884474518221 0.00072057684534449331 0 -0.0016810662857325008 -0.0049440752248491142 0 -0.0015153899502583809 -0.004709453788114327 0 -0.0016772651074158679 -0.0047122576742020493 0 -0.0053070208641667078 -0.00044706108700956357 0 -0.0031016884474518221 0.00072057684534449331 0 -0.0052497454746827169 0.001825841942062745 0 -0.0031016884474518221 0.00072057684534449331 0 -0.0052497454746827169 0.001825841942062745 0 -0.0033839332015875552 0.0031844213989570516 0 -0.0052497454746827169 0.001825841942062745 0 -0.0048850777308625526 0.0038242628088717965 0 -0.0033839332015875552 0.0031844213989570516 0 -0.00091899738159297712 0.0025123844513859996 0 -0.0031016884474518221 0.00072057684534449331 0 -0.0033839332015875552 0.0031844213989570516 0 -0.0053070208641667078 -0.00044706108700956357 0 -0.0052497454746827169 0.001825841942062745 0 -0.0079778759652147004 0.0018951770596093106 0 -0.0052497454746827169 0.001825841942062745 0 -0.0065168845627879765 0.0031245841381513299 0 -0.0079778759652147004 0.0018951770596093106 0 -0.0052497454746827169 0.001825841942062745 0 -0.0065168845627879765 0.0031245841381513299 0 -0.0048850777308625526 0.0038242628088717965 0 -0.0065168845627879765 0.0031245841381513299 0 -0.0059860782525335814 0.0042361414771004309 0 -0.0069519473183104526 0.0044036865481163262 0 -0.0065168845627879765 0.0031245841381513299 0 -0.0059860782525335814 0.0042361414771004309 0 -0.0048850777308625526 0.0038242628088717965 0 -0.0059860782525335814 0.0042361414771004309 0 -0.0048850777308625526 0.0038242628088717965 0 -0.0052829587696771822 0.0054693010880626442 0 -0.0059860782525335814 0.0042361414771004309 0 -0.0061791328952754887 0.0053162833294143029 0 -0.0052829587696771822 0.0054693010880626442 0 -0.0048850777308625526 0.0038242628088717965 0 -0.0040673794192478555 0.0049012977792042139 0 -0.0052829587696771822 0.0054693010880626442 0 -0.0059860782525335814 0.0042361414771004309 0 -0.0061791328952754887 0.0053162833294143029 0 -0.0069519473183104526 0.0044036865481163262 0 -0.0061791328952754887 0.0053162833294143029 0 -0.0068512006621384621 0.0058873264872753763 0 -0.0069519473183104526 0.0044036865481163262 0 -0.00091899738159297712 0.0025123844513859996 0 -0.0033839332015875552 0.0031844213989570516 0 -0.0024362614667783689 0.0049312895423434238 0 -0.0048850777308625526 0.0038242628088717965 0 -0.0033839332015875552 0.0031844213989570516 0 -0.0040673794192478555 0.0049012977792042139 0 -0.0040673794192478555 0.0049012977792042139 0 -0.0024362614667783689 0.0049312895423434238 0 -0.0039224551254880878 0.0062137159665529938 0 -0.0033839332015875552 0.0031844213989570516 0 -0.0040673794192478555 0.0049012977792042139 0 -0.0024362614667783689 0.0049312895423434238 0 -0.0024362614667783689 0.0049312895423434238 0 -0.0039224551254880878 0.0062137159665529938 0 -0.0038113928554121177 0.0065038115687189625 0 -0.0038407456973839696 0.0011431025971980226 0 -0.0028776149748942141 -0.0020272540786679706 0 -0.0024362614667783689 0.0049312895423434238 0 -0.0038113928554121177 0.0065038115687189625 0 -0.00098334193914926898 0.0056046524381338676 0 -0.0046834262029151405 0.0058708677400752165 0 -0.0039224551254880878 0.0062137159665529938 0 -0.0054810998960580018 0.0069030726746707339 0 -0.0040673794192478555 0.0049012977792042139 0 -0.0046834262029151405 0.0058708677400752165 0 -0.0039224551254880878 0.0062137159665529938 0 -0.0039224551254880878 0.0062137159665529938 0 -0.0038186029128213584 0.0064987581151132951 0 -0.0054810998960580018 0.0069030726746707339 0 -0.0040673794192478555 0.0049012977792042139 0 -0.0046834262029151405 0.0058708677400752165 0 -0.0052829587696771822 0.0054693010880626442 0 -0.0038332507914460726 0.0011716080684975488 0 -0.0038407456973839696 0.0011431025971980226 0 -0.0046922848055072838 0.0067160472846461957 0 -0.0054810998960580018 0.0069030726746707339 0 -0.0053539489426586975 0.0080546882181274301 0 -0.0038407456973839696 0.0011431025971980226 0 -0.0042179219156915464 0.0015012898428906709 0 -0.0061791328952754887 0.0053162833294143029 0 -0.0068512006621384621 0.0058873264872753763 0 -0.0054810998960580018 0.0069030726746707339 0 -0.0061791328952754887 0.0053162833294143029 0 -0.0052829587696771822 0.0054693010880626442 0 -0.0054810998960580018 0.0069030726746707339 0 -0.0046834262029151405 0.0058708677400752165 0 -0.0052829587696771822 0.0054693010880626442 0 -0.0054810998960580018 0.0069030726746707339 0 -0.0068512006621384621 0.0058873264872753763 0 -0.0054810998960580018 0.0069030726746707339 0 -0.0068831504100846227 0.0078209327200188996 0 -0.0063711698548411825 0.0080228688972424477 0 -0.0060945825396436972 0.0086645147493213635 0 -0.0053539489426586975 0.0080546882181274301 0 -0.0068831504100846227 0.0078209327200188996 0 -0.0056935131782371515 0.0095894614926649319 0 -0.0054810998960580018 0.0069030726746707339 0 -0.0053539489426586975 0.0080546882181274301 0 -0.0068831504100846227 0.0078209327200188996 0 -0.0038407456973839696 0.0011431025971980226 0 -0.0037926054307048972 0.0041844420643976235 0 -0.0046763693643965829 0.00031266285201924081 0 -0.003728339787514912 0.0015029091462535509 0 -0.0041886916750251387 0.0016674278312123635 0 -0.0046922848055072838 0.0067160472846461957 0 -0.0053539489426586975 0.0080546882181274301 0 -0.004320456610442289 0.0090352924358218303 0 -0.0068283633033926162 -0.0069115644337168162 0 -0.0036417328287869804 -0.0099001718928057852 0 -0.0023219466093616766 -0.0071403717058187268 0 -0.0036417328287869804 -0.0099001718928057852 0 -0.0065204081685020891 -0.011314729597526678 0 -0.0022382464078013154 -0.012498346441856968 0 -0.0068283633033926162 -0.0069115644337168162 0 -0.0036417328287869804 -0.0099001718928057852 0 -0.0065204081685020891 -0.011314729597526678 0 -0.0041000009505540724 -0.001399070168976699 0 -0.0028776149748942141 -0.0020272540786679706 0 -0.0046763693643965829 0.00031266285201924081 0 -0.003728339787514912 0.0015029091462535509 0 -0.0037587647418114174 -1.4341557193075232e-05 0 -0.012257444789454452 0.0073834886584693742 0 -0.010903140601999995 0.0091389766009300696 0 -0.010275376706412508 0.0067733893973119979 0 -0.010903140601999995 0.0091389766009300696 0 -0.010275376706412508 0.0067733893973119979 0 -0.0090304190314186034 0.0074706229766962791 0 -0.012257444789454452 0.0073834886584693742 0 -0.010468039145963831 0.0050750448617508433 0 -0.010275376706412508 0.0067733893973119979 0 -0.013016408855432881 0.013548532618306717 0 -0.012767605515773793 0.016186953210931925 0 -0.00979242916954573 0.0052112895897490031 0 -0.010275376706412508 0.0067733893973119979 0 -0.0090645259705098759 0.0062288987876516653 0 -0.010468039145963831 0.0050750448617508433 0 -0.00979242916954573 0.0052112895897490031 0 -0.010275376706412508 0.0067733893973119979 0 -0.010275376706412508 0.0067733893973119979 0 -0.0090304190314186034 0.0074706229766962791 0 -0.0090645259705098759 0.0062288987876516653 0 -0.0084634142065617302 0.0051298508586917453 0 -0.00979242916954573 0.0052112895897490031 0 -0.0090645259705098759 0.0062288987876516653 0 -0.0084634142065617302 0.0051298508586917453 0 -0.0090645259705098759 0.0062288987876516653 0 -0.0077618950090412595 0.0066814373688054984 0 -0.0090304190314186034 0.0074706229766962791 0 -0.0090645259705098759 0.0062288987876516653 0 -0.0077618950090412595 0.0066814373688054984 0 -0.0090304190314186034 0.0074706229766962791 0 -0.0077618950090412595 0.0066814373688054984 0 -0.0067827238943396276 0.0085315971844380882 0 -0.0083257389077621251 0.01438140566757583 0 -0.0074523320695157004 0.012662484802589807 0 -0.0072079701720250125 0.0089406665846712904 0 -0.0067827238943396276 0.0085315971844380882 0 -0.0069027196455302992 0.0091804436979406913 0 -0.010903140601999995 0.0091389766009300696 0 -0.0090304190314186034 0.0074706229766962791 0 -0.0067827238943396276 0.0085315971844380882 0 -0.0067827238943396276 0.0085315971844380882 0 -0.0062376156062917696 0.0065493351899282674 0 -0.0058855288413843902 0.0087821220989417106 0 -0.0074254894275971916 0.0050515178404864263 0 -0.0069063672934124238 0.0066045631508785318 0 -0.0077618950090412595 0.0066814373688054984 0 -0.0067827238943396276 0.0085315971844380882 0 -0.0062376156062917696 0.0065493351899282674 0 -0.0084634142065617302 0.0051298508586917453 0 -0.0077618950090412595 0.0066814373688054984 0 -0.0062376156062917696 0.0065493351899282674 0 -0.0080852073490709706 0.0024952865923160831 0 -0.0084517321068542945 0.0023047952650855135 0 -0.0079778759652147004 0.0018951770596093106 0 -0.0084517321068542945 0.0023047952650855135 0 -0.0079778759652147004 0.0018951770596093106 0 -0.0077745389318335011 0.0031750920665743906 0 -0.0065168845627879765 0.0031245841381513299 0 -0.0079778759652147004 0.0018951770596093106 0 -0.0077745389318335011 0.0031750920665743906 0 -0.0084517321068542945 0.0023047952650855135 0 -0.0077745389318335011 0.0031750920665743906 0 -0.0083222326350565288 0.0048139447970009944 0 -0.0077745389318335011 0.0031750920665743906 0 -0.0083222326350565288 0.0048139447970009944 0 -0.0069519473183104526 0.0044036865481163262 0 -0.0065168845627879765 0.0031245841381513299 0 -0.0077745389318335011 0.0031750920665743906 0 -0.0069519473183104526 0.0044036865481163262 0 -0.0068512006621384621 0.0058873264872753763 0 -0.0083222326350565288 0.0048139447970009944 0 -0.0069519473183104526 0.0044036865481163262 0 -0.0068512006621384621 0.0058873264872753763 0 -0.0083222326350565288 0.0048139447970009944 0 -0.0068831504100846227 0.0078209327200188996 0 -0.0058855288413843902 0.0087821220989417106 0 -0.0058852581655927504 0.0093420494072048114 0 -0.0063856529430756899 0.0092134974533779196 0 -0.0069063672934124238 0.0066045631508785318 0 -0.0063711698548411825 0.0080228688972424477 0 -0.0058852581655927504 0.0093420494072048114 0 -0.0062282805563179753 0.0094871560954418073 0 -0.0063856529430756899 0.0092134974533779196 0 -0.0058852581655927504 0.0093420494072048114 0 -0.0062282805563179753 0.0094871560954418073 0 -0.0059803160602326256 0.0095678041473944812 0 -0.0062282805563179753 0.0094871560954418073 0 -0.0063856529430756899 0.0092134974533779196 0 -0.0067930995188449942 0.0096239912183151335 0 -0.0067827238943396276 0.0085315971844380882 0 -0.0058855288413843902 0.0087821220989417106 0 -0.0063856529430756899 0.0092134974533779196 0 -0.0067827238943396276 0.0085315971844380882 0 -0.0063856529430756899 0.0092134974533779196 0 -0.0069027196455302992 0.0091804436979406913 0 -0.0063856529430756899 0.0092134974533779196 0 -0.0069027196455302992 0.0091804436979406913 0 -0.0067930995188449942 0.0096239912183151335 0 -0.0069027196455302992 0.0091804436979406913 0 -0.0067930995188449942 0.0096239912183151335 0 -0.0072038462699099814 0.0095424404221431253 0 -0.0063918068820000709 0.0099672496195079927 0 -0.0072038462699099814 0.0095424404221431253 0 -0.0070024437848598383 0.010478392881668835 0 -0.0065130654192666858 0.0098045626209509497 0 -0.0067814730761112637 0.0096701476400868139 0 -0.0072079701720250125 0.0089406665846712904 0 -0.0069027196455302992 0.0091804436979406913 0 -0.0072038462699099814 0.0095424404221431253 0 -0.0074994502559040613 0.0094323421678795209 0 -0.0072079701720250125 0.0089406665846712904 0 -0.0072038462699099814 0.0095424404221431253 0 -0.0074231325913205731 0.010990198513302865 0 -0.0070024437848598383 0.010478392881668835 0 -0.0062644913985113191 0.010890684079687983 0 -0.0073644030645632205 0.01025780142597744 0 -0.0072038462699099814 0.0095424404221431253 0 -0.0070024437848598383 0.010478392881668835 0 -0.0063918068820000709 0.0099672496195079927 0 -0.0070024437848598383 0.010478392881668835 0 -0.0062644913985113191 0.010890684079687983 0 -0.0062644913985113191 0.010890684079687983 0 -0.0056909763699559499 0.010332791837041914 0 -0.0055745557561163624 0.010809991215040012 0 -0.0065130654192666858 0.0098045626209509497 0 -0.0060245620073649583 0.010046686428257777 0 -0.0062282805563179753 0.0094871560954418073 0 -0.0067930995188449942 0.0096239912183151335 0 -0.0062785269351934708 0.0097880289256545832 0 -0.0063918068820000709 0.0099672496195079927 0 -0.0062644913985113191 0.010890684079687983 0 -0.0056909763699559499 0.010332791837041914 0 -0.0062785269351934708 0.0097880289256545832 0 -0.0059803160602326256 0.0095678041473944812 0 -0.005830557712355057 0.010016938082300862 0 -0.0062282805563179753 0.0094871560954418073 0 -0.0062785269351934708 0.0097880289256545832 0 -0.0059803160602326256 0.0095678041473944812 0 -0.0055745557561163624 0.010809991215040012 0 -0.0051952100154822349 0.010598710872492454 0 -0.0051576534610213078 0.010951706939149217 0 -0.0056909763699559499 0.010332791837041914 0 -0.0055745557561163624 0.010809991215040012 0 -0.0051952100154822349 0.010598710872492454 0 -0.0060245620073649583 0.010046686428257777 0 -0.0055541046315529807 0.010277981519114611 0 -0.0055745557561163624 0.010809991215040012 0 -0.0055949112606685182 0.011388378404523104 0 -0.0051576534610213078 0.010951706939149217 0 -0.0053124653872583007 0.011498033779617986 0 -0.005410856148490302 0.012169371803001809 0 -0.005162758904020983 0.011460409847600994 0 -0.0053124653872583007 0.011498033779617986 0 -0.0055949112606685182 0.011388378404523104 0 -0.005410856148490302 0.012169371803001809 0 -0.0053124653872583007 0.011498033779617986 0 -0.0055949112606685182 0.011388378404523104 0 -0.0051576534610213078 0.010951706939149217 0 -0.0055949112606685182 0.011388378404523104 0 -0.006548815835170192 0.011830493045977157 0 -0.0059762457415421877 0.012589497050033534 0 -0.0055949112606685182 0.011388378404523104 0 -0.0059762457415421877 0.012589497050033534 0 -0.005410856148490302 0.012169371803001809 0 -0.0062644913985113191 0.010890684079687983 0 -0.0055745557561163624 0.010809991215040012 0 -0.0055949112606685182 0.011388378404523104 0 -0.0062644913985113191 0.010890684079687983 0 -0.0055949112606685182 0.011388378404523104 0 -0.006548815835170192 0.011830493045977157 0 -0.0077483578882736317 0.012447029499680502 0 -0.006548815835170192 0.011830493045977157 0 -0.0070108748385165473 0.013144261206092901 0 -0.0077483578882736317 0.012447029499680502 0 -0.0076892903655238825 0.011095901186795048 0 -0.006548815835170192 0.011830493045977157 0 -0.0074231325913205731 0.010990198513302865 0 -0.0062644913985113191 0.010890684079687983 0 -0.006548815835170192 0.011830493045977157 0 -0.011226149991601328 0.019648996357874291 0 -0.010752666371899176 0.01687216836083566 0 -0.0045161512805464848 0.010253595543554376 0 -0.004320456610442289 0.0090352924358218303 0 -0.004677911709953477 0.010066552839684084 0 -0.004677911709953477 0.010066552839684084 0 -0.0048702490745255013 0.010461952339449231 0 -0.0046124906687931106 0.010350369486803236 0 -0.0045161512805464848 0.010253595543554376 0 -0.004677911709953477 0.010066552839684084 0 -0.0046124906687931106 0.010350369486803236 0 -0.0042491475829479547 0.0041337959570442676 0 -0.0042485324136759496 0.0043483042528756673 0 -0.0038827625561611324 -0.0038137737813595095 0 -0.0037199424672212755 0.0027315187850410487 0 -0.00094150624593726561 -0.0017458875949739876 0 -0.0079771600480119855 -0.00024898374883041579 0 -0.0038827625561611324 -0.0038137737813595095 0 -0.0037199424672212755 0.0027315187850410487 0 -0.0068283633033926162 -0.0069115644337168162 0 -0.0038827625561611324 -0.0038137737813595095 0 -0.0023219466093616766 -0.0071403717058187268 0 -0.0042491475829479547 0.0041337959570442676 0 -0.0037926054307048972 0.0041844420643976235 0 -0.003728339787514912 0.0015029091462535509 0 -0.0037074148515577831 0.0030360128029518841 0 -0.0041886916750251387 0.0016674278312123635 0 -0.0041000009505540724 -0.001399070168976699 0 -0.0042491475829479547 0.0041337959570442676 0 -0.0068283633033926162 -0.0069115644337168162 0 -0.0079771600480119855 -0.00024898374883041579 0 -0.0038827625561611324 -0.0038137737813595095 0 -0.0053539489426586975 0.0080546882181274301 0 -0.004320456610442289 0.0090352924358218303 0 -0.0056935131782371515 0.0095894614926649319 0 -0.004320456610442289 0.0090352924358218303 0 -0.0056935131782371515 0.0095894614926649319 0 -0.0051335432217015373 0.0098984687761121074 0 -0.004320456610442289 0.0090352924358218303 0 -0.0051335432217015373 0.0098984687761121074 0 -0.004677911709953477 0.010066552839684084 0 -0.0059803160602326256 0.0095678041473944812 0 -0.0056935131782371515 0.0095894614926649319 0 -0.005830557712355057 0.010016938082300862 0 -0.0058852581655927504 0.0093420494072048114 0 -0.0059803160602326256 0.0095678041473944812 0 -0.0056935131782371515 0.0095894614926649319 0 -0.0055541046315529807 0.010277981519114611 0 -0.0052893355857867299 0.010403494540171782 0 -0.005830557712355057 0.010016938082300862 0 -0.0051335432217015373 0.0098984687761121074 0 -0.0048702490745255013 0.010461952339449231 0 -0.0056935131782371515 0.0095894614926649319 0 -0.005830557712355057 0.010016938082300862 0 -0.0051335432217015373 0.0098984687761121074 0 -0.0051335432217015373 0.0098984687761121074 0 -0.004677911709953477 0.010066552839684084 0 -0.0048702490745255013 0.010461952339449231 0 -0.0048702490745255013 0.010461952339449231 0 -0.0049693385918614958 0.010823176068719718 0 -0.0047086108411085268 0.010226135776672142 0 -0.0048702490745255013 0.010461952339449231 0 -0.0051576534610213078 0.010951706939149217 0 -0.0049693385918614958 0.010823176068719718 0 -0.0051952100154822349 0.010598710872492454 0 -0.0048702490745255013 0.010461952339449231 0 -0.0051576534610213078 0.010951706939149217 0 -0.0051576534610213078 0.010951706939149217 0 -0.0049693385918614958 0.010823176068719718 0 -0.005162758904020983 0.011460409847600994 0 -0.0053124653872583007 0.011498033779617986 0 -0.0051576534610213078 0.010951706939149217 0 -0.005162758904020983 0.011460409847600994 0 -0.0049693385918614958 0.010823176068719718 0 -0.005162758904020983 0.011460409847600994 0 -0.0050386596216789896 0.011469911414060299 0 -0.0049693385918614958 0.010823176068719718 0 -0.004894856271780555 0.010743087655264369 0 -0.0050386596216789896 0.011469911414060299 0 -0.0049693385918614958 0.010823176068719718 0 -0.004894856271780555 0.010743087655264369 0 -0.0047086108411085268 0.010226135776672142 0 -0.004894856271780555 0.010743087655264369 0 -0.004736633358655218 0.0089941106342247504 0 -0.0047462320389339433 0.011181499768934053 0 -0.004894856271780555 0.010743087655264369 0 -0.0047086108411085268 0.010226135776672142 0 -0.004736633358655218 0.0089941106342247504 0 -0.0046862978174324445 0.010664887225455822 0 -0.0046124906687931106 0.010350369486803236 0 -0.004736633358655218 0.0089941106342247504 0 -0.0048702490745255013 0.010461952339449231 0 -0.0047086108411085268 0.010226135776672142 0 -0.0046124906687931106 0.010350369486803236 0 -0.0042491475829479547 0.0041337959570442676 0 -0.0040321631755030765 0.0062344460425090148 0 -0.0047086108411085268 0.010226135776672142 0 -0.0046124906687931106 0.010350369486803236 0 -0.004736633358655218 0.0089941106342247504 0 -0.0079771600480119855 -0.00024898374883041579 0 -0.0037199424672212755 0.0027315187850410487 0 -0.004736633358655218 0.0089941106342247504 0 -0.0037199424672212755 0.0027315187850410487 0 -0.004736633358655218 0.0089941106342247504 0 -3.240302263010344e-05 0.0071048320464050111 0 -0.004736633358655218 0.0089941106342247504 0 -3.240302263010344e-05 0.0071048320464050111 0 -0.0026362409517943631 0.0104193862193806 0 -0.00045130615913200359 -0.00069624630544293362 0 0.00040684675014219341 9.0203222106053876e-05 0 -0.00040587007293072224 0.00076672250200948645 0 -0.00040589940694938439 0.0033372783758104643 0 -0.00036320092936045924 0.0063449469436230007 0 -3.240302263010344e-05 0.0071048320464050111 0 -0.00092228624120120996 0.012191779542915769 0 -0.0026362409517943631 0.0104193862193806 0 -0.00045130615913200359 -0.00069624630544293362 0 0.00040684675014219341 9.0203222106053876e-05 0 0.0004116596305630172 -0.0006623041200418551 0 0.0012640640353839593 -0.00048973603848471005 0 0.0004116596305630172 -0.0006623041200418551 0 0.00045938999836279596 -0.0013992258787280539 0 0.00040684675014219341 9.0203222106053876e-05 0 0.0012640640353839593 -0.00048973603848471005 0 0.0013093063526393662 0.00052757904285085017 0 0.00040684675014219341 9.0203222106053876e-05 0 0.0012640640353839593 -0.00048973603848471005 0 0.0004116596305630172 -0.0006623041200418551 0 0.00045938999836279596 -0.0013992258787280539 0 0.00188147663066064 -0.0014492557445366689 0 0.0015387506883664563 -0.0033824910233392134 0 0.0012640640353839593 -0.00048973603848471005 0 0.00045938999836279596 -0.0013992258787280539 0 0.00188147663066064 -0.0014492557445366689 0 -0.0037199424672212755 0.0027315187850410487 0 -3.240302263010344e-05 0.0071048320464050111 0 -0.00094150624593726561 -0.0017458875949739876 0 -0.00040589940694938439 0.0033372783758104643 0 -0.0004497502527897059 0.0014974415993461139 0 -0.00045130615913200359 -0.00069624630544293362 0 0.0004116596305630172 -0.0006623041200418551 0 0.00045938999836279596 -0.0013992258787280539 0 -0.00045130615913200359 -0.00069624630544293362 0 0.00045938999836279596 -0.0013992258787280539 0 -0.00094150624593726561 -0.0017458875949739876 0 0.0031711170189669966 -0.00034079435186283412 0 0.0030920939865305115 -0.0012569065621331635 0 0.0036698879308549545 -0.00078376424729027783 0 0.0031711170189669966 -0.00034079435186283412 0 0.0023025439596148123 -0.00073688546994029767 0 0.0021667503208445756 9.2712175674649418e-05 0 0.0031711170189669966 -0.00034079435186283412 0 0.0023025439596148123 -0.00073688546994029767 0 0.0030920939865305115 -0.0012569065621331635 0 0.0012640640353839593 -0.00048973603848471005 0 0.0021667503208445756 9.2712175674649418e-05 0 0.0013093063526393662 0.00052757904285085017 0 0.0012640640353839593 -0.00048973603848471005 0 0.0023025439596148123 -0.00073688546994029767 0 0.0021667503208445756 9.2712175674649418e-05 0 0.0012640640353839593 -0.00048973603848471005 0 0.0023025439596148123 -0.00073688546994029767 0 0.00188147663066064 -0.0014492557445366689 0 0.0024715598900468538 -0.0021615211999149639 0 0.00188147663066064 -0.0014492557445366689 0 0.0030920939865305115 -0.0012569065621331635 0 0.0023025439596148123 -0.00073688546994029767 0 0.00188147663066064 -0.0014492557445366689 0 0.0030920939865305115 -0.0012569065621331635 0 0.0024715598900468538 -0.0021615211999149639 0 0.00188147663066064 -0.0014492557445366689 0 0.0015387506883664563 -0.0033824910233392134 0 0.0030920939865305115 -0.0012569065621331635 0 0.003265348800823359 -0.0026836233894084196 0 0.005116972118505982 -0.0023003617063719526 0 0.0024715598900468538 -0.0021615211999149639 0 0.0030920939865305115 -0.0012569065621331635 0 0.003265348800823359 -0.0026836233894084196 0 0.0030920939865305115 -0.0012569065621331635 0 0.0038098639504032554 -0.0012717451028235395 0 0.0036698879308549545 -0.00078376424729027783 0 0.0065193654858343615 -0.0046069878647303896 0 0.00520584225071792 -0.0028246481340638107 0 0.0041226627714178073 -0.0047891978279302099 0 0.00520584225071792 -0.0028246481340638107 0 0.0015387506883664563 -0.0033824910233392134 0 0.0041226627714178073 -0.0047891978279302099 0 0.0042290829327079338 -0.0033437573174576402 0 0.0031955665587321842 -0.0034545260913184882 0 0.0024715598900468538 -0.0021615211999149639 0 0.003265348800823359 -0.0026836233894084196 0 0.0015387506883664563 -0.0033824910233392134 0 0.0015387506883664563 -0.0033824910233392134 0 0.0033422516686375924 -0.007399834375820786 0 0.0041226627714178073 -0.0047891978279302099 0 0.0015387506883664563 -0.0033824910233392134 0 0.0033422516686375924 -0.007399834375820786 0 0.0010427345971647419 -0.0073443489846125171 0 0.0065193654858343615 -0.0046069878647303896 0 0.0033422516686375924 -0.007399834375820786 0 0.0041226627714178073 -0.0047891978279302099 0 0.0045832982016392231 -0.0049752294197397016 0 0.0039739216105712993 -0.0057706056274568216 0 0.0042366241282846455 -0.0074582941626300638 0 0.0033422516686375924 -0.007399834375820786 0 0.0044250172169142763 -0.0085432879566344766 0 0.00045938999836279596 -0.0013992258787280539 0 -0.00094150624593726561 -0.0017458875949739876 0 -3.5556887775977481e-06 -0.0044561414655282161 0 -0.0038827625561611324 -0.0038137737813595095 0 -0.00094150624593726561 -0.0017458875949739876 0 -3.5556887775977481e-06 -0.0044561414655282161 0 0.00045938999836279596 -0.0013992258787280539 0 0.0015387506883664563 -0.0033824910233392134 0 -3.5556887775977481e-06 -0.0044561414655282161 0 0.0015387506883664563 -0.0033824910233392134 0 -3.5556887775977481e-06 -0.0044561414655282161 0 0.0010427345971647419 -0.0073443489846125171 0 -0.0038827625561611324 -0.0038137737813595095 0 -3.5556887775977481e-06 -0.0044561414655282161 0 -0.0023219466093616766 -0.0071403717058187268 0 -3.5556887775977481e-06 -0.0044561414655282161 0 -0.0023219466093616766 -0.0071403717058187268 0 0.0010427345971647419 -0.0073443489846125171 0 -0.0036417328287869804 -0.0099001718928057852 0 -0.0023219466093616766 -0.0071403717058187268 0 -0.00072107342811186673 -0.0098159890822541902 0 -0.0023219466093616766 -0.0071403717058187268 0 -0.00072107342811186673 -0.0098159890822541902 0 0.0010427345971647419 -0.0073443489846125171 0 -0.0036417328287869804 -0.0099001718928057852 0 -0.00072107342811186673 -0.0098159890822541902 0 -0.0022382464078013154 -0.012498346441856968 0 -0.00072107342811186673 -0.0098159890822541902 0 0.0013832293963025324 -0.010018975852767082 0 0.0010267161127250548 -0.011657509507306575 0 -0.00072107342811186673 -0.0098159890822541902 0 0.0013832293963025324 -0.010018975852767082 0 0.0010427345971647419 -0.0073443489846125171 0 0.0013832293963025324 -0.010018975852767082 0 0.0010427345971647419 -0.0073443489846125171 0 0.0032681895822458187 -0.0094313557942952882 0 0.0033422516686375924 -0.007399834375820786 0 0.0010427345971647419 -0.0073443489846125171 0 0.0032681895822458187 -0.0094313557942952882 0 0.0033422516686375924 -0.007399834375820786 0 0.0032681895822458187 -0.0094313557942952882 0 0.0044250172169142763 -0.0085432879566344766 0 0.0032681895822458187 -0.0094313557942952882 0 0.0047014398096624195 -0.01028696034596875 0 0.0044250172169142763 -0.0085432879566344766 0 0.0032681895822458187 -0.0094313557942952882 0 0.0039136914516692987 -0.011291483406552151 0 0.0047014398096624195 -0.01028696034596875 0 0.0032681895822458187 -0.0094313557942952882 0 0.0025222957504486337 -0.011315056705714617 0 0.0039136914516692987 -0.011291483406552151 0 0.0013832293963025324 -0.010018975852767082 0 0.0032681895822458187 -0.0094313557942952882 0 0.0025222957504486337 -0.011315056705714617 0 0.0013832293963025324 -0.010018975852767082 0 0.0025222957504486337 -0.011315056705714617 0 0.0010267161127250548 -0.011657509507306575 0 0.0025222957504486337 -0.011315056705714617 0 0.0033914990140848328 -0.012402122291575486 0 0.0018640375831183891 -0.013003537025517516 0 0.0025222957504486337 -0.011315056705714617 0 0.0018640375831183891 -0.013003537025517516 0 0.0010267161127250548 -0.011657509507306575 0 0.0014560371174737203 -0.013233763361803924 0 0.0018640375831183891 -0.013003537025517516 0 0.0010267161127250548 -0.011657509507306575 0 0.0025222957504486337 -0.011315056705714617 0 0.0039136914516692987 -0.011291483406552151 0 0.0033914990140848328 -0.012402122291575486 0 0.0039136914516692987 -0.011291483406552151 0 0.0033914990140848328 -0.012402122291575486 0 0.0044640245340611734 -0.01274425534907247 0 0.0033914990140848328 -0.012402122291575486 0 0.0040144854242730376 -0.013445797568019266 0 0.0044640245340611734 -0.01274425534907247 0 0.00061783372652858526 -0.0084686515304846898 0 -0.00051301292858749984 -0.0071324087210084246 0 0.0040144854242730376 -0.013445797568019266 0 0.0015232124798662894 -0.013172231545493771 0 0.0018640375831183891 -0.013003537025517516 0 -0.0019187062839368576 -0.0064992445622506475 0 -0.0021500954294539189 -0.0066138414179381707 0 -0.0017995143874955149 -0.0068041736906259732 0 0.0033914990140848328 -0.012402122291575486 0 0.0040144854242730376 -0.013445797568019266 0 0.0018640375831183891 -0.013003537025517516 0 -0.00051301292858749984 -0.0071324087210084246 0 -0.00050221831229465218 -0.0071633920916314379 0 -0.0015962955629456404 -0.0064721424833385595 0 -0.0017995143874955149 -0.0068041736906259732 0 -0.0012523071350658856 -0.0066203830171716717 0 -0.00051301292858749984 -0.0071324087210084246 0 -0.0012426199690256249 -0.0055823121372963903 0 -0.0015962955629456404 -0.0064721424833385595 0 -0.0019187062839368576 -0.0064992445622506475 0 -0.0017995143874955149 -0.0068041736906259732 0 -0.0010330735102773122 -0.0047168968400587638 0 -0.001359730228006988 -0.0048299268203465017 0 -0.0013537007541617407 -0.0045965086438933527 0 -0.00072107342811186673 -0.0098159890822541902 0 -0.0022382464078013154 -0.012498346441856968 0 0.0010267161127250548 -0.011657509507306575 0 0.0014560371174737203 -0.013233763361803924 0 -0.0022382464078013154 -0.012498346441856968 0 0.0010267161127250548 -0.011657509507306575 0 -0.00051301292858749984 -0.0071324087210084246 0 -0.0013213625967173285 -0.0057966085093010293 0 0.0061678738516568769 -0.012864881160345648 0 0.0083014896885986733 -0.011724999715321311 0 0.0071053286304849049 -0.011211899891625323 0 0.0063796003122447778 -0.0134099113141879 0 0.0070030181691099723 -0.013375432023090366 0 0.0061678738516568769 -0.012864881160345648 0 0.0059718179887736315 -0.013699529529665215 0 0.0055296003739741953 -0.013205296878532592 0 0.006060738487488131 -0.014851183485843772 0 0.0060088590847469387 -0.014474178346472738 0 0.0060977386314418017 -0.015415979975649774 0 0.0061678738516568769 -0.012864881160345648 0 0.006060738487488131 -0.014851183485843772 0 0.0060088590847469387 -0.014474178346472738 0 0.0058028451503708053 -0.014364280948159532 0 0.0060315378451217322 -0.014070152845682768 0 0.0060088590847469387 -0.014474178346472738 0 0.0060080917669230356 -0.016124024561556285 0 0.0060088590847469387 -0.014474178346472738 0 0.0060977386314418017 -0.015415979975649774 0 0.0040901808473928726 -0.014910950711553428 0 0.00469148026197119 -0.01518029009378064 0 0.0060315378451217322 -0.014070152845682768 0 0.0060088590847469387 -0.014474178346472738 0 0.0059718179887736315 -0.013699529529665215 0 0.0061678738516568769 -0.012864881160345648 0 0.0060088590847469387 -0.014474178346472738 0 0.0059718179887736315 -0.013699529529665215 0 0.0060315378451217322 -0.014070152845682768 0 0.0059718179887736315 -0.013699529529665215 0 0.0055296003739741953 -0.013205296878532592 0 0.0048037437727195924 -0.012953080945967756 0 0.0060315378451217322 -0.014070152845682768 0 0.0053065117992024194 -0.013271949887094705 0 0.0060315378451217322 -0.014070152845682768 0 0.0053065117992024194 -0.013271949887094705 0 0.0055296003739741953 -0.013205296878532592 0 0.0048037437727195924 -0.012953080945967756 0 0.0053065117992024194 -0.013271949887094705 0 0.0049243634132305203 -0.012916837934805941 0 0.0053065117992024194 -0.013271949887094705 0 0.0055296003739741953 -0.013205296878532592 0 0.0049243634132305203 -0.012916837934805941 0 0.0055296003739741953 -0.013205296878532592 0 0.0049243634132305203 -0.012916837934805941 0 0.0049477830876280774 -0.012255640677117811 0 0.0048037437727195924 -0.012953080945967756 0 0.0040144854242730376 -0.013445797568019266 0 0.0044640245340611734 -0.01274425534907247 0 0.00055191868489510361 -0.0085931309153926775 0 0.00061783372652858526 -0.0084686515304846898 0 0.0048037437727195924 -0.012953080945967756 0 0.0049243634132305203 -0.012916837934805941 0 0.0044640245340611734 -0.01274425534907247 0 0.0039136914516692987 -0.011291483406552151 0 0.0044640245340611734 -0.01274425534907247 0 0.0049477830876280774 -0.012255640677117811 0 0.0049243634132305203 -0.012916837934805941 0 0.0044640245340611734 -0.01274425534907247 0 0.0049477830876280774 -0.012255640677117811 0 0.0061678738516568769 -0.012864881160345648 0 0.0049477830876280774 -0.012255640677117811 0 0.0058254396121477248 -0.010997538897679775 0 0.0061678738516568769 -0.012864881160345648 0 0.0055296003739741953 -0.013205296878532592 0 0.0049477830876280774 -0.012255640677117811 0 0.0049477830876280774 -0.012255640677117811 0 0.0058254396121477248 -0.010997538897679775 0 0.0047014398096624195 -0.01028696034596875 0 0.0058254396121477248 -0.010997538897679775 0 0.0047014398096624195 -0.01028696034596875 0 0.005538548171092888 -0.0094116552125413661 0 0.0039136914516692987 -0.011291483406552151 0 0.0049477830876280774 -0.012255640677117811 0 0.0047014398096624195 -0.01028696034596875 0 0.0047014398096624195 -0.01028696034596875 0 0.0044250172169142763 -0.0085432879566344766 0 0.005538548171092888 -0.0094116552125413661 0 0.0044250172169142763 -0.0085432879566344766 0 0.005538548171092888 -0.0094116552125413661 0 0.0054037088312431465 -0.0080739021575034729 0 0.0058254396121477248 -0.010997538897679775 0 0.005538548171092888 -0.0094116552125413661 0 0.0069727342247465716 -0.0099696141909629086 0 0.005538548171092888 -0.0094116552125413661 0 0.0069727342247465716 -0.0099696141909629086 0 0.0064444875619750642 -0.008755285207807155 0 0.0069727342247465716 -0.0099696141909629086 0 0.007477956334699898 -0.0088886966370095282 0 0.0064444875619750642 -0.008755285207807155 0 0.0061678738516568769 -0.012864881160345648 0 0.0058254396121477248 -0.010997538897679775 0 0.0071053286304849049 -0.011211899891625323 0 0.0058254396121477248 -0.010997538897679775 0 0.0069727342247465716 -0.0099696141909629086 0 0.0071053286304849049 -0.011211899891625323 0 0.0069727342247465716 -0.0099696141909629086 0 0.0071053286304849049 -0.011211899891625323 0 0.0080357864045273539 -0.010652725905627243 0 0.0083014896885986733 -0.011724999715321311 0 0.0080357864045273539 -0.010652725905627243 0 0.0089405754400673949 -0.010488606372183669 0 0.0083014896885986733 -0.011724999715321311 0 0.0071053286304849049 -0.011211899891625323 0 0.0080357864045273539 -0.010652725905627243 0 0.0080357864045273539 -0.010652725905627243 0 0.0080969808604964364 -0.0097084494268833681 0 0.0089405754400673949 -0.010488606372183669 0 0.0069727342247465716 -0.0099696141909629086 0 0.0080357864045273539 -0.010652725905627243 0 0.0080969808604964364 -0.0097084494268833681 0 0.0069727342247465716 -0.0099696141909629086 0 0.0080969808604964364 -0.0097084494268833681 0 0.007477956334699898 -0.0088886966370095282 0 0.0080969808604964364 -0.0097084494268833681 0 0.007477956334699898 -0.0088886966370095282 0 0.008677849982470667 -0.0085568353814373561 0 0.006407993257934925 -0.0050283877420279873 0 0.0070817514247904631 -0.0048779992890403204 0 0.0072289414533802969 -0.005469997349532069 0 0.007477956334699898 -0.0088886966370095282 0 0.0068702809079129647 -0.0074894807545092552 0 0.008677849982470667 -0.0085568353814373561 0 0.0067728684434919997 -0.0056924730078394738 0 0.0080138052190986339 -0.0071343893034881544 0 0.0073722884516500935 -0.0053007067286987052 0 0.0080138052190986339 -0.0071343893034881544 0 0.007477956334699898 -0.0088886966370095282 0 0.0064444875619750642 -0.008755285207807155 0 0.0068702809079129647 -0.0074894807545092552 0 0.006407993257934925 -0.0050283877420279873 0 0.00667608408921025 -0.0046549896339058965 0 0.0062800306365046578 -0.0044248361895189055 0 0.0065537383584198085 -0.0059759321501414858 0 0.0060600964611179364 -0.0039407777641044675 0 0.0079922132050796093 -0.0052714067310491233 0 0.0070817514247904631 -0.0048779992890403204 0 0.00667608408921025 -0.0046549896339058965 0 0.0069350522755759515 -0.004288921801405725 0 0.006407993257934925 -0.0050283877420279873 0 0.0070817514247904631 -0.0048779992890403204 0 0.00667608408921025 -0.0046549896339058965 0 0.0073722884516500935 -0.0053007067286987052 0 0.0068699308328023616 -0.0034331143201164517 0 0.0042366241282846455 -0.0074582941626300638 0 0.0044250172169142763 -0.0085432879566344766 0 0.0054037088312431465 -0.0080739021575034729 0 0.005538548171092888 -0.0094116552125413661 0 0.0064444875619750642 -0.008755285207807155 0 0.0054037088312431465 -0.0080739021575034729 0 0.0064444875619750642 -0.008755285207807155 0 0.0068702809079129647 -0.0074894807545092552 0 0.0054037088312431465 -0.0080739021575034729 0 0.0067728684434919997 -0.0056924730078394738 0 0.0050885645053445243 -0.0035444455783159674 0 0.006407993257934925 -0.0050283877420279873 0 0.0055570464309672024 -0.0045721221518783559 0 0.0056246594560821223 -0.0045584170803187529 0 0.0068702809079129647 -0.0074894807545092552 0 0.0054037088312431465 -0.0080739021575034729 0 0.0051883520693876365 -0.0065576978312446516 0 0.006407993257934925 -0.0050283877420279873 0 0.0056246594560821223 -0.0045584170803187529 0 0.0062800306365046578 -0.0044248361895189055 0 0.0042290829327079338 -0.0033437573174576402 0 0.0050885645053445243 -0.0035444455783159674 0 0.0065193654858343615 -0.0046069878647303896 0 0.00520584225071792 -0.0028246481340638107 0 0.0092076306710596571 -0.0019862311205063278 0 0.0042366241282846455 -0.0074582941626300638 0 0.0054037088312431465 -0.0080739021575034729 0 0.0051883520693876365 -0.0065576978312446516 0 0.0045832982016392231 -0.0049752294197397016 0 0.0050885645053445243 -0.0035444455783159674 0 0.0030920939865305115 -0.0012569065621331635 0 0.0042894447925836314 -0.0018765542654196514 0 0.0038098639504032554 -0.0012717451028235395 0 0.0039009701347430081 -0.0026036235966300655 0 0.0050885645053445243 -0.0035444455783159674 0 0.0042894447925836314 -0.0018765542654196514 0 0.0038098639504032554 -0.0012717451028235395 0 0.0043098597889473771 -0.0015855459599148092 0 0.0038098639504032554 -0.0012717451028235395 0 0.0041680827137981977 -0.0012251184574871969 0 0.0041183657935434667 -0.00088395790470827975 0 0.0038098639504032554 -0.0012717451028235395 0 0.0043098597889473771 -0.0015855459599148092 0 0.0041680827137981977 -0.0012251184574871969 0 0.0044526484268153973 -0.0018272035709229304 0 0.0050238828171299873 -0.0013156298585046205 0 0.0052714132894433694 -0.0016512092604453047 0 0.0051738036103861733 -0.0034367152736578649 0 0.0059423618291743604 -0.0033908362236406112 0 0.0043098597889473771 -0.0015855459599148092 0 0.0041680827137981977 -0.0012251184574871969 0 0.0045843780972557079 -0.0010820960546063551 0 0.0043098597889473771 -0.0015855459599148092 0 0.0050030252181674862 -0.0013051487430489005 0 0.0045843780972557079 -0.0010820960546063551 0 0.0043098597889473771 -0.0015855459599148092 0 0.0043810826100031466 -0.0018549799663699954 0 0.0050030252181674862 -0.0013051487430489005 0 0.0042894447925836314 -0.0018765542654196514 0 0.0043098597889473771 -0.0015855459599148092 0 0.0043810826100031466 -0.0018549799663699954 0 0.0050885645053445243 -0.0035444455783159674 0 0.0051738036103861733 -0.0034367152736578649 0 0.0051738036103861733 -0.0034367152736578649 0 0.0055140566792483145 -0.0025201644134263206 0 0.0050030252181674862 -0.0013051487430489005 0 0.0045843780972557079 -0.0010820960546063551 0 0.0051035672870561495 -0.0008239620492214594 0 0.0048341730172644128 -0.00052679442240290521 0 0.0045843780972557079 -0.0010820960546063551 0 0.0051035672870561495 -0.0008239620492214594 0 0.0048341730172644128 -0.00052679442240290521 0 0.0044234432164376889 -0.00069380837621068562 0 0.0045843780972557079 -0.0010820960546063551 0 0.0048341730172644128 -0.00052679442240290521 0 0.0044234432164376889 -0.00069380837621068562 0 0.0040832364815307125 -0.00025392028102979431 0 0.0044234432164376889 -0.00069380837621068562 0 0.0045843780972557079 -0.0010820960546063551 0 0.0041183657935434667 -0.00088395790470827975 0 0.0031711170189669966 -0.00034079435186283412 0 0.0036698879308549545 -0.00078376424729027783 0 0.0040832364815307125 -0.00025392028102979431 0 0.0041680827137981977 -0.0012251184574871969 0 0.0045843780972557079 -0.0010820960546063551 0 0.0041183657935434667 -0.00088395790470827975 0 0.0041183657935434667 -0.00088395790470827975 0 0.0036698879308549545 -0.00078376424729027783 0 0.0040832364815307125 -0.00025392028102979431 0 0.0044234432164376889 -0.00069380837621068562 0 0.0041183657935434667 -0.00088395790470827975 0 0.0040832364815307125 -0.00025392028102979431 0 0.0038098639504032554 -0.0012717451028235395 0 0.0041183657935434667 -0.00088395790470827975 0 0.0036698879308549545 -0.00078376424729027783 0 0.00667608408921025 -0.0046549896339058965 0 0.0069350522755759515 -0.004288921801405725 0 0.0062800306365046578 -0.0044248361895189055 0 0.0060934065665274179 -0.001477015902082498 0 0.0052714132894433694 -0.0016512092604453047 0 0.005472310409425956 -0.0012414191042454173 0 0.0068699308328023616 -0.0034331143201164517 0 0.0059423618291743604 -0.0033908362236406112 0 0.0050238828171299873 -0.0013156298585046205 0 0.0052714132894433694 -0.0016512092604453047 0 0.005472310409425956 -0.0012414191042454173 0 0.0060934065665274179 -0.001477015902082498 0 0.005472310409425956 -0.0012414191042454173 0 0.0055976520251645925 -0.00080062597424506755 0 0.0050030252181674862 -0.0013051487430489005 0 0.0051035672870561495 -0.0008239620492214594 0 0.0055976520251645925 -0.00080062597424506755 0 0.0050238828171299873 -0.0013156298585046205 0 0.005472310409425956 -0.0012414191042454173 0 0.0055976520251645925 -0.00080062597424506755 0 0.0055140566792483145 -0.0025201644134263206 0 0.0056859266752972105 -0.0021794916642622923 0 0.0048341730172644128 -0.00052679442240290521 0 0.0051035672870561495 -0.0008239620492214594 0 0.0053908683446883534 -0.00031784632970462725 0 0.0051035672870561495 -0.0008239620492214594 0 0.0055976520251645925 -0.00080062597424506755 0 0.0053908683446883534 -0.00031784632970462725 0 0.0055976520251645925 -0.00080062597424506755 0 0.0058529787245607326 -0.00054605321267866809 0 0.0053908683446883534 -0.00031784632970462725 0 0.0065028166999933001 -0.0038053377800678612 0 0.0060590311514045489 -0.0017933630635028656 0 0.007558337895059151 -0.0020139415324913284 0 0.0060934065665274179 -0.001477015902082498 0 0.0055976520251645925 -0.00080062597424506755 0 0.0058529787245607326 -0.00054605321267866809 0 0.0068699308328023616 -0.0034331143201164517 0 0.0063153717236793267 -0.0016549424747438811 0 0.0060590311514045489 -0.0017933630635028656 0 0.0069166476368263275 -0.00071960431646766858 0 0.007558337895059151 -0.0020139415324913284 0 0.0060590311514045489 -0.0017933630635028656 0 0.0069166476368263275 -0.00071960431646766858 0 0.0057556956882179227 0.00025698172650275063 0 0.0063153717236793267 -0.0016549424747438811 0 0.0061100921759617548 -0.00092146597540912196 0 0.0053908683446883534 -0.00031784632970462725 0 0.0057556956882179227 0.00025698172650275063 0 0.0047276905710401202 7.2571442383009491e-05 0 0.0058529787245607326 -0.00054605321267866809 0 0.0053908683446883534 -0.00031784632970462725 0 0.0057556956882179227 0.00025698172650275063 0 0.0057556956882179227 0.00025698172650275063 0 0.0049135042852347524 0.0015634421895039325 0 0.0046760126429240996 0.00073627945824484751 0 0.0069166476368263275 -0.00071960431646766858 0 0.0057556956882179227 0.00025698172650275063 0 0.0071566163918578458 0.00043130842487156592 0 0.0057556956882179227 0.00025698172650275063 0 0.0071566163918578458 0.00043130842487156592 0 0.0066818486608750611 0.001316443767294759 0 0.0066818486608750611 0.001316443767294759 0 0.0057610947184853342 0.0020216872310136022 0 0.0070076469296952975 0.0024152597787903025 0 0.0066818486608750611 0.001316443767294759 0 0.0070076469296952975 0.0024152597787903025 0 0.0077687305754727317 0.0014053027022267665 0 0.0071566163918578458 0.00043130842487156592 0 0.0066818486608750611 0.001316443767294759 0 0.0077687305754727317 0.0014053027022267665 0 0.0057556956882179227 0.00025698172650275063 0 0.0066818486608750611 0.001316443767294759 0 0.0057610947184853342 0.0020216872310136022 0 0.0057556956882179227 0.00025698172650275063 0 0.0057610947184853342 0.0020216872310136022 0 0.0049135042852347524 0.0015634421895039325 0 0.0057610947184853342 0.0020216872310136022 0 0.0049135042852347524 0.0015634421895039325 0 0.0046646562306116579 0.0034752778548338774 0 0.0057610947184853342 0.0020216872310136022 0 0.0061544670045743984 0.0032505972003811934 0 0.0046646562306116579 0.0034752778548338774 0 0.0057610947184853342 0.0020216872310136022 0 0.0070076469296952975 0.0024152597787903025 0 0.0061544670045743984 0.0032505972003811934 0 0.0038163222408057469 0.0030111669888721075 0 0.0038412332508372831 0.0028848077082681118 0 0.0031462577525326048 0.0032402583184716074 0 0.0038163222408057469 0.0030111669888721075 0 0.0041487987091610558 0.0026650479876402177 0 0.0040377552433454988 0.0034101802684215702 0 0.0038163222408057469 0.0030111669888721075 0 0.0038412332508372831 0.0028848077082681118 0 0.0041487987091610558 0.0026650479876402177 0 0.0028546007768716812 0.0045583059773485904 0 0.002647465606257966 0.0051163302206758627 0 0.0038163222408057469 0.0030111669888721075 0 0.0035107122041125693 0.0033587157570421321 0 0.0036692003099995647 0.0035243271549893094 0 0.0038163222408057469 0.0030111669888721075 0 0.0040377552433454988 0.0034101802684215702 0 0.0036003125217656975 0.0035385726107391218 0 0.0041155208768576534 0.0021149526884336064 0 0.0043735512999387291 0.0027299849563008067 0 0.0041487987091610558 0.0026650479876402177 0 0.0046646562306116579 0.0034752778548338774 0 0.0040377552433454988 0.0034101802684215702 0 0.0049135042852347524 0.0015634421895039325 0 0.0040540439981896492 0.0018166118728861582 0 0.0046646562306116579 0.0034752778548338774 0 0.0049135042852347524 0.0015634421895039325 0 0.0040540439981896492 0.0018166118728861582 0 0.0046760126429240996 0.00073627945824484751 0 0.0041155208768576534 0.0021149526884336064 0 0.0036847557059924642 0.0010538354150539217 0 0.0041487987091610558 0.0026650479876402177 0 0.0034666270518479356 0.002284974132956493 0 0.0036913019625809552 0.0013508829234305914 0 0.0038412332508372831 0.0028848077082681118 0 0.0034666270518479356 0.002284974132956493 0 0.0030101155315390483 0.0028045759248253991 0 0.0038412332508372831 0.0028848077082681118 0 0.0041487987091610558 0.0026650479876402177 0 0.0034666270518479356 0.002284974132956493 0 0.0040540439981896492 0.0018166118728861582 0 0.0036695053444281882 0.00052273452622962299 0 0.0046760126429240996 0.00073627945824484751 0 0.0057556956882179227 0.00025698172650275063 0 0.0046760126429240996 0.00073627945824484751 0 0.0047276905710401202 7.2571442383009491e-05 0 0.0036695053444281882 0.00052273452622962299 0 0.0046760126429240996 0.00073627945824484751 0 0.0047276905710401202 7.2571442383009491e-05 0 0.0048341730172644128 -0.00052679442240290521 0 0.0047276905710401202 7.2571442383009491e-05 0 0.0040832364815307125 -0.00025392028102979431 0 0.0048341730172644128 -0.00052679442240290521 0 0.0053908683446883534 -0.00031784632970462725 0 0.0047276905710401202 7.2571442383009491e-05 0 0.0036695053444281882 0.00052273452622962299 0 0.0047276905710401202 7.2571442383009491e-05 0 0.0040832364815307125 -0.00025392028102979431 0 0.0031711170189669966 -0.00034079435186283412 0 0.0036695053444281882 0.00052273452622962299 0 0.0040832364815307125 -0.00025392028102979431 0 0.0031711170189669966 -0.00034079435186283412 0 0.0036913019625809552 0.0013508829234305914 0 0.0027894866788442853 0.00072736386669796716 0 0.0034253187982995455 0.00042219964988177562 0 0.0036847557059924642 0.0010538354150539217 0 0.0031711170189669966 -0.00034079435186283412 0 0.0027894866788442853 0.00072736386669796716 0 0.0021667503208445756 9.2712175674649418e-05 0 0.0021667503208445756 9.2712175674649418e-05 0 0.0020907892426370728 0.00097152808723058803 0 0.0013093063526393662 0.00052757904285085017 0 0.0020907892426370728 0.00097152808723058803 0 0.0013093063526393662 0.00052757904285085017 0 0.0013909115632089147 0.0013094823825834337 0 0.0027894866788442853 0.00072736386669796716 0 0.0021667503208445756 9.2712175674649418e-05 0 0.0020907892426370728 0.00097152808723058803 0 0.0020907892426370728 0.00097152808723058803 0 0.0019816228346186716 0.0017161129757108015 0 0.0027843581693543615 0.0015734358001227081 0 0.0020907892426370728 0.00097152808723058803 0 0.0019816228346186716 0.0017161129757108015 0 0.0013909115632089147 0.0013094823825834337 0 0.0019816228346186716 0.0017161129757108015 0 0.0013909115632089147 0.0013094823825834337 0 0.0011199083242843242 0.0020832303965274968 0 0.0019816228346186716 0.0017161129757108015 0 0.0027843581693543615 0.0015734358001227081 0 0.0026165268853553165 0.0022936692942313445 0 0.0034666270518479356 0.002284974132956493 0 0.0036913019625809552 0.0013508829234305914 0 0.0027843581693543615 0.0015734358001227081 0 0.0036913019625809552 0.0013508829234305914 0 0.0027894866788442853 0.00072736386669796716 0 0.0027843581693543615 0.0015734358001227081 0 0.0027894866788442853 0.00072736386669796716 0 0.0020907892426370728 0.00097152808723058803 0 0.0027843581693543615 0.0015734358001227081 0 0.00040684675014219341 9.0203222106053876e-05 0 -0.00040587007293072224 0.00076672250200948645 0 0.00054776134114035697 0.0010992611885742858 0 0.00040684675014219341 9.0203222106053876e-05 0 0.00054776134114035697 0.0010992611885742858 0 0.0013093063526393662 0.00052757904285085017 0 0.00054776134114035697 0.0010992611885742858 0 0.0013093063526393662 0.00052757904285085017 0 0.0013909115632089147 0.0013094823825834337 0 0.00054776134114035697 0.0010992611885742858 0 0.00028630599043925805 0.0019868126085117056 0 0.0011243638191628818 0.0023958213418297123 0 0.00054776134114035697 0.0010992611885742858 0 0.0013909115632089147 0.0013094823825834337 0 0.0011199083242843242 0.0020832303965274968 0 0.0004808724958355095 0.0028925643164816692 0 0.00070477897469073999 0.0036972162411217598 0 -0.00092228624120120996 0.012191779542915769 0 -0.0010098079618268902 0.015958648751826301 0 -0.0026599269247861578 0.013184135058560139 0 -0.00040587007293072224 0.00076672250200948645 0 0.00028630599043925805 0.0019868126085117056 0 -0.00046140555493041517 0.0025104253232888828 0 -0.00036320092936045924 0.0063449469436230007 0 -0.00020642089988775157 0.0095262486108840042 0 -0.00040587007293072224 0.00076672250200948645 0 0.00054776134114035697 0.0010992611885742858 0 0.00028630599043925805 0.0019868126085117056 0 -0.00020642089988775157 0.0095262486108840042 0 0.00059622490013049858 0.012030298959321489 0 0.00048627105734985889 0.0090161774403181537 0 0.00070786879727379934 0.0091350927213398256 0 0.00048035971953417142 0.0094003028524598763 0 0.00028630599043925805 0.0019868126085117056 0 -0.00046140555493041517 0.0025104253232888828 0 0.00060211335927168005 0.0031070373860994285 0 -0.00020642089988775157 0.0095262486108840042 0 0.00042391199791985278 0.0075675482765075706 0 0.00060211335927168005 0.0031070373860994285 0 0.0011243638191628818 0.0023958213418297123 0 0.0016887922988245382 0.0037056621750072363 0 0.00070477897469073999 0.0036972162411217598 0 0.0013193931230537483 0.0060921416825716551 0 0.00028630599043925805 0.0019868126085117056 0 0.00060211335927168005 0.0031070373860994285 0 0.0011243638191628818 0.0023958213418297123 0 0.00042391199791985278 0.0075675482765075706 0 0.0013193931230537483 0.0060921416825716551 0 0.00074313428976786596 0.0093789252059764197 0 0.00092982152457690259 0.009253283940856628 0 0.0010328779833481258 0.009488071467636968 0 0.00070786879727379934 0.0091350927213398256 0 0.00074313428976786596 0.0093789252059764197 0 0.00092982152457690259 0.009253283940856628 0 0.0035307546654830776 0.013707203081372533 0 0.0035028290198512572 0.016100049940962105 0 0.0026870742663687342 0.015446889576837665 0 0.00070786879727379934 0.0091350927213398256 0 0.00074313428976786596 0.0093789252059764197 0 0.00048035971953417142 0.0094003028524598763 0 0.0030101155315390483 0.0028045759248253991 0 0.0026165268853553165 0.0022936692942313445 0 0.0023616881050477637 0.0028221641499435891 0 0.0034666270518479356 0.002284974132956493 0 0.0030101155315390483 0.0028045759248253991 0 0.0026165268853553165 0.0022936692942313445 0 0.0034666270518479356 0.002284974132956493 0 0.0027843581693543615 0.0015734358001227081 0 0.0026165268853553165 0.0022936692942313445 0 0.0019816228346186716 0.0017161129757108015 0 0.0026165268853553165 0.0022936692942313445 0 0.0018864789540128089 0.0023491237068695254 0 0.0011199083242843242 0.0020832303965274968 0 0.0018864789540128089 0.0023491237068695254 0 0.0016132125389675522 0.0030677738598057138 0 0.0019816228346186716 0.0017161129757108015 0 0.0011199083242843242 0.0020832303965274968 0 0.0018864789540128089 0.0023491237068695254 0 0.0018864789540128089 0.0023491237068695254 0 0.0023616881050477637 0.0028221641499435891 0 0.0016132125389675522 0.0030677738598057138 0 0.0026165268853553165 0.0022936692942313445 0 0.0018864789540128089 0.0023491237068695254 0 0.0023616881050477637 0.0028221641499435891 0 0.0023616881050477637 0.0028221641499435891 0 0.0016132125389675522 0.0030677738598057138 0 0.0026844506931092559 0.0036086803727183752 0 0.0013193931230537483 0.0060921416825716551 0 0.0023230250876295029 0.0058607274760003065 0 0.0022306547081981025 0.0063811065213245808 0 0.0013979021460134417 0.005929425992522613 0 0.0019186509558182514 0.0056605789684427031 0 0.0013193931230537483 0.0060921416825716551 0 0.0017277394607596557 0.0071309475865559647 0 0.0023230250876295029 0.0058607274760003065 0 0.0017277394607596557 0.0071309475865559647 0 0.0038163222408057469 0.0030111669888721075 0 0.0031462577525326048 0.0032402583184716074 0 0.0035107122041125693 0.0033587157570421321 0 0.0038412332508372831 0.0028848077082681118 0 0.0030101155315390483 0.0028045759248253991 0 0.0026844506931092559 0.0036086803727183752 0 0.0023230250876295029 0.0058607274760003065 0 0.0024404841211999461 0.0055769241714483204 0 0.0032140687761886434 0.0050351585144040459 0 0.0023230250876295029 0.0058607274760003065 0 0.0030101155315390483 0.0028045759248253991 0 0.0023616881050477637 0.0028221641499435891 0 0.0026844506931092559 0.0036086803727183752 0 0.0031462577525326048 0.0032402583184716074 0 0.0035107122041125693 0.0033587157570421321 0 0.003435274700194231 0.0033976668002455471 0 0.0024542039174966935 0.0055661838698290505 0 0.0024404841211999461 0.0055769241714483204 0 0.0024404841211999461 0.0055769241714483204 0 0.0015623152271918631 0.0065308415641348863 0 0.0019706038405616143 0.0057161621317825288 0 0.0023396387675844697 0.0055272544573188543 0 0.0018693780081567228 0.0054676541875296738 0 0.0035107122041125693 0.0033587157570421321 0 0.0034337411513640738 0.0033985005717420643 0 0.0036692003099995647 0.0035243271549893094 0 0.0018941913046588868 0.0061991386254598982 0 0.002047184738346558 0.0062809135063052902 0 0.0017436340387563623 0.0064376397973729734 0 0.0024404841211999461 0.0055769241714483204 0 0.002647465606257966 0.0051163302206758627 0 0.0019706038405616143 0.0057161621317825288 0 0.0018207928870499256 0.00563575642627453 0 0.0018693780081567228 0.0054676541875296738 0 0.0015623152271918631 0.0065308415641348863 0 0.0010969156024098127 0.0084206028969923512 0 0.0018941913046588868 0.0061991386254598982 0 0.0016870176680480263 0.0063069430805024326 0 0.0017436340387563623 0.0064376397973729734 0 0.0024106587033404887 0.008240085983032561 0 0.0026491079968438591 0.0087898413480324046 0 0.00099763267482799148 0.0089754814035078751 0 0.0017277394607596557 0.0071309475865559647 0 0.0015623152271918631 0.0065308415641348863 0 0.00059127642912049452 0.0018308640267175682 0 0.00011246154149966177 0.0029099454860085625 0 -0.0007344090418870355 0.002497879957929665 0 0.00059127642912049452 0.0018308640267175682 0 0.00011246154149966177 0.0029099454860085625 0 0.001311760740185183 0.0034868773343580618 0 0.0023396387675844697 0.0055272544573188543 0 0.0020942350424471017 0.0049575682507396321 0 0.0018693780081567228 0.0054676541875296738 0 0.002012651261899256 0.0049713294838966658 0 0.0020942350424471017 0.0049575682507396321 0 0.0018693780081567228 0.0054676541875296738 0 0.0023363925398263135 0.0039278723122251934 0 0.0025716969907485544 0.0048391001913027903 0 0.0015623152271918631 0.0065308415641348863 0 0.0019656446739039304 0.004001755717984978 0 0.00048035971953417142 0.0094003028524598763 0 0.00075476385990355796 0.0096378185912451651 0 0.00047355893186474185 0.0097891062720216453 0 0.00059622490013049858 0.012030298959321489 0 0.00069771918084117566 0.012580649559454994 0 0.0035028290198512572 0.016100049940962105 0 0.0031115799235164041 0.017253603279024348 0 0.003464151925854119 0.01843250965691386 0 0.00074313428976786596 0.0093789252059764197 0 0.00048035971953417142 0.0094003028524598763 0 0.00075476385990355796 0.0096378185912451651 0 0.0011510974513670505 0.0097831656047862592 0 0.00069771918084117566 0.012580649559454994 0 0.0010921770362086693 0.014569912119293104 0 0.00092154384776264712 0.013404215532295205 0 0.00074313428976786596 0.0093789252059764197 0 0.0010328779833481258 0.009488071467636968 0 0.00075476385990355796 0.0096378185912451651 0 0.0026491079968438591 0.0087898413480324046 0 0.00099763267482799148 0.0089754814035078751 0 0.0011126807277932053 0.0095841343683847093 0 0.0017277394607596557 0.0071309475865559647 0 0.0011510974513670505 0.0097831656047862592 0 0.00099763267482799148 0.0089754814035078751 0 0.0011126807277932053 0.0095841343683847093 0 -0.00041828394853879182 0.0097114036314173389 0 0.00011246154149966177 0.0029099454860085625 0 -0.0007344090418870355 0.002497879957929665 0 -0.00072040113948320641 0.0038242670376278562 0 -0.0007344090418870355 0.002497879957929665 0 -0.0014564734838339831 0.0036505385962068496 0 -0.00072040113948320641 0.0038242670376278562 0 0.0010969156024098127 0.0084206028969923512 0 0.00061358295630045299 0.011464142025261468 0 0.0011126807277932053 0.0095841343683847093 0 -0.00042694660770597548 0.010378950452321808 0 -0.00041828394853879182 0.0097114036314173389 0 -0.0007344090418870355 0.002497879957929665 0 -0.0020939285457342309 0.003176014580039957 0 -0.0014564734838339831 0.0036505385962068496 0 0.00084858922970956643 0.012416611819459314 0 0.00087147076691694179 0.012405232689854063 0 0.00084942326246370754 0.012366988017659954 0 0.00061358295630045299 0.011464142025261468 0 0.00069771918084117566 0.012580649559454994 0 0.00067565323383700468 0.012604372768583321 0 0.00092154384776264712 0.013404215532295205 0 0.00067565323383700468 0.012604372768583321 0 0.00061358295630045299 0.011464142025261468 0 0.0031115799235164041 0.017253603279024348 0 0.0031050413734411372 0.018615473558369285 0 0.003464151925854119 0.01843250965691386 0 0.00087147076691694179 0.012405232689854063 0 0.00084942326246370754 0.012366988017659954 0 0.00087291905291585323 0.0123552420612273 0 0.00092154384776264712 0.013404215532295205 0 0.00069771918084117566 0.012580649559454994 0 -0.0023320896127045037 0.003337544261231003 0 -0.00212564949899145 0.0041249264915142348 0 -0.002419537395358435 0.0051315605656482985 0 0.00067565323383700468 0.012604372768583321 0 -0.00020532960512553394 0.013699304476030445 0 0.00061358295630045299 0.011464142025261468 0 0.00044092571762172533 0.009603542056878852 0 -0.0020939285457342309 0.003176014580039957 0 -0.00212564949899145 0.0041249264915142348 0 -0.0014564734838339831 0.0036505385962068496 0 -0.0023320896127045037 0.003337544261231003 0 -0.0020833116017817872 0.0032142906225772691 0 -0.00212564949899145 0.0041249264915142348 0 -0.00212564949899145 0.0041249264915142348 0 -0.0014564734838339831 0.0036505385962068496 0 -0.0014996631223951407 0.004662431597147537 0 -0.0014564734838339831 0.0036505385962068496 0 -0.00072040113948320641 0.0038242670376278562 0 -0.0014996631223951407 0.004662431597147537 0 -0.00060416833653917585 0.0054533266302963642 0 -0.0014996631223951407 0.004662431597147537 0 -0.0015392478830480315 0.0058733388525763156 0 -0.00072040113948320641 0.0038242670376278562 0 -0.00060416833653917585 0.0054533266302963642 0 0.00025952991931617688 0.0049962267126473841 0 -0.00072040113948320641 0.0038242670376278562 0 -0.00060416833653917585 0.0054533266302963642 0 -0.0014996631223951407 0.004662431597147537 0 -0.0014996631223951407 0.004662431597147537 0 -0.002419537395358435 0.0051315605656482985 0 -0.0015392478830480315 0.0058733388525763156 0 -0.00212564949899145 0.0041249264915142348 0 -0.0014996631223951407 0.004662431597147537 0 -0.002419537395358435 0.0051315605656482985 0 0.0015045561511534803 0.0037855015600993828 0 0.00070288713976913899 0.0042386557999538228 0 0.0011171618134776034 0.0050547076646155851 0 0.00087119459953449089 0.00053490381190013088 0 0.0018150624355720501 0.0027861469926187326 0 0.0019963584898340663 0.0012248199682737698 0 0.002091342857679649 0.003860617482403057 0 0.0016827604217060201 0.0045964889021871316 0 0.002091342857679649 0.003860617482403057 0 0.0021309489940220284 0.0038011297804167242 0 0.00087119459953449089 0.00053490381190013088 0 0.0010844962340418394 -0.0001773669248966024 0 0.0019963584898340663 0.0012248199682737698 0 0.002091342857679649 0.003860617482403057 0 0.0023363925398263135 0.0039278723122251934 0 0.0021082410266887973 0.0037737384200135548 0 0.0018183933599734009 0.0047644928110649187 0 0.0024885831398691188 0.0046509059004603195 0 0.002091342857679649 0.003860617482403057 0 0.0019656446739039304 0.004001755717984978 0 0.0015045561511534803 0.0037855015600993828 0 0.0013687067060454648 0.0034631041560298846 0 0.00070288713976913899 0.0042386557999538228 0 0.0023363925398263135 0.0039278723122251934 0 0.0019656446739039304 0.004001755717984978 0 -0.00072040113948320641 0.0038242670376278562 0 0.00070288713976913899 0.0042386557999538228 0 0.00025952991931617688 0.0049962267126473841 0 -0.00072040113948320641 0.0038242670376278562 0 0.0013687067060454648 0.0034631041560298846 0 0.00070288713976913899 0.0042386557999538228 0 0.00011246154149966177 0.0029099454860085625 0 -0.00072040113948320641 0.0038242670376278562 0 0.001311760740185183 0.0034868773343580618 0 0.00054025002473369181 0.0040586188070775454 0 0.0019656446739039304 0.004001755717984978 0 0.00025952991931617688 0.0049962267126473841 0 0.0011171618134776034 0.0050547076646155851 0 0.00082619242013742334 0.0062280459800411903 0 0.00070288713976913899 0.0042386557999538228 0 0.00025952991931617688 0.0049962267126473841 0 0.0011171618134776034 0.0050547076646155851 0 0.0017882831123839239 0.0026095459811358405 0 0.0012964831937058259 0.0042540603595416157 0 0.0024168674100136464 0.0040603569626005811 0 0.0012964831937058259 0.0042540603595416157 0 0.0024168674100136464 0.0040603569626005811 0 0.0019978297171026919 0.0052935447308852948 0 0.0018150624355720501 0.0027861469926187326 0 0.003665670705229932 0.0034826906059108298 0 0.0030001172276901372 0.0052826252702648843 0 0.0021309489940220284 0.0038011297804167242 0 0.0022987078188165251 0.0041350939873087324 0 0.003665670705229932 0.0034826906059108298 0 0.0030110797524202679 0.0021741126083347864 0 0.004848424233708442 0.0023699475114026883 0 0.0018150624355720501 0.0027861469926187326 0 0.0030110797524202679 0.0021741126083347864 0 0.0019963584898340663 0.0012248199682737698 0 0.0018150624355720501 0.0027861469926187326 0 0.003665670705229932 0.0034826906059108298 0 0.0030110797524202679 0.0021741126083347864 0 0.0030110797524202679 0.0021741126083347864 0 0.0019963584898340663 0.0012248199682737698 0 0.0032109767230351937 0.00083557081402750751 0 0.0010844962340418394 -0.0001773669248966024 0 0.0032109767230351937 0.00083557081402750751 0 0.0048580497199681308 -0.0008362017460289816 0 0.0030110797524202679 0.0021741126083347864 0 0.0032109767230351937 0.00083557081402750751 0 0.004848424233708442 0.0023699475114026883 0 0.0010844962340418394 -0.0001773669248966024 0 0.0019963584898340663 0.0012248199682737698 0 0.0032109767230351937 0.00083557081402750751 0 0.0032109767230351937 0.00083557081402750751 0 0.0057226395948002367 0.0008173847214489687 0 0.004848424233708442 0.0023699475114026883 0 0.0032109767230351937 0.00083557081402750751 0 0.0057226395948002367 0.0008173847214489687 0 0.0048580497199681308 -0.0008362017460289816 0 0.0057226395948002367 0.0008173847214489687 0 0.0073256943357234393 -2.474729553879972e-05 0 0.0048580497199681308 -0.0008362017460289816 0 0.0057226395948002367 0.0008173847214489687 0 0.004848424233708442 0.0023699475114026883 0 0.0062849406556487715 0.002049937396219924 0 0.004848424233708442 0.0023699475114026883 0 0.0062736805654341858 0.0032749996830872771 0 0.0062849406556487715 0.002049937396219924 0 0.003665670705229932 0.0034826906059108298 0 0.004848424233708442 0.0023699475114026883 0 0.0051684581886356331 0.0038763870344718423 0 0.004848424233708442 0.0023699475114026883 0 0.0051684581886356331 0.0038763870344718423 0 0.0062736805654341858 0.0032749996830872771 0 0.0051684581886356331 0.0038763870344718423 0 0.0062736805654341858 0.0032749996830872771 0 0.0064393181938654526 0.004280004915829588 0 0.0062736805654341858 0.0032749996830872771 0 0.0070973910296191064 0.003800537855972739 0 0.0064393181938654526 0.004280004915829588 0 0.0062736805654341858 0.0032749996830872771 0 0.0070973910296191064 0.003800537855972739 0 0.0071715855701282444 0.0028117709232226024 0 0.0070973910296191064 0.003800537855972739 0 0.0078042012328915656 0.0041631840222297462 0 0.0071715855701282444 0.0028117709232226024 0 0.0078042012328915656 0.0041631840222297462 0 0.0071715855701282444 0.0028117709232226024 0 0.0078469004584466422 0.0017373576629157229 0 0.0071715855701282444 0.0028117709232226024 0 0.0078469004584466422 0.0017373576629157229 0 0.0072097554120278606 0.0013162843679647746 0 0.0071715855701282444 0.0028117709232226024 0 0.0062849406556487715 0.002049937396219924 0 0.0072097554120278606 0.0013162843679647746 0 0.0062736805654341858 0.0032749996830872771 0 0.0071715855701282444 0.0028117709232226024 0 0.0062849406556487715 0.002049937396219924 0 0.0078042012328915656 0.0041631840222297462 0 0.0078469004584466422 0.0017373576629157229 0 0.0091443768755785238 -0.00015425257027203387 0 0.0092827565110521829 -0.00036280902326748946 0 0.0092140785640868125 -0.00023309065810040019 0 0.0091443768755785238 -0.00015425257027203387 0 0.0084265514021301825 0.0012646236681137697 0 0.0086708248126403688 0.00074703699484205657 0 0.0091981271326726372 -0.00035933611367666094 0 0.0092218401963889817 -0.00032218605055907089 0 0.0092004095590592205 -0.00031164296835746452 0 0.0091981271326726372 -0.00035933611367666094 0 0.009225107427257585 -0.00036423389443298622 0 0.0091983695653399117 -0.00038988316609210735 0 0.0091981271326726372 -0.00035933611367666094 0 0.009225107427257585 -0.00036423389443298622 0 0.0092218401963889817 -0.00032218605055907089 0 0.0092827565110521829 -0.00036280902326748946 0 0.0092218401963889817 -0.00032218605055907089 0 0.0092140785640868125 -0.00023309065810040019 0 0.0092827565110521829 -0.00036280902326748946 0 0.009225107427257585 -0.00036423389443298622 0 0.0092218401963889817 -0.00032218605055907089 0 0.0092218401963889817 -0.00032218605055907089 0 0.0092140785640868125 -0.00023309065810040019 0 0.0092004095590592205 -0.00031164296835746452 0 0.0092140785640868125 -0.00023309065810040019 0 0.0092004095590592205 -0.00031164296835746452 0 0.0091961760280780229 -0.00028289719817960521 0 0.0092140785640868125 -0.00023309065810040019 0 0.0092347738749921898 -0.00011787844764686714 0 0.0091443768755785238 -0.00015425257027203387 0 0.0092140785640868125 -0.00023309065810040019 0 0.009207294518105048 -0.00022368897010450979 0 0.0091961760280780229 -0.00028289719817960521 0 0.0092140785640868125 -0.00023309065810040019 0 0.009207294518105048 -0.00022368897010450979 0 0.0092347738749921898 -0.00011787844764686714 0 0.0078469004584466422 0.0017373576629157229 0 0.0091443768755785238 -0.00015425257027203387 0 0.0080003475667295553 0.00058248450521771215 0 0.0091443768755785238 -0.00015425257027203387 0 0.0082894752856500428 -0.0002228677955742294 0 0.0080003475667295553 0.00058248450521771215 0 0.0057226395948002367 0.0008173847214489687 0 0.0062849406556487715 0.002049937396219924 0 0.0072097554120278606 0.0013162843679647746 0 0.0057226395948002367 0.0008173847214489687 0 0.0072097554120278606 0.0013162843679647746 0 0.0073256943357234393 -2.474729553879972e-05 0 0.0072097554120278606 0.0013162843679647746 0 0.0080003475667295553 0.00058248450521771215 0 0.0073256943357234393 -2.474729553879972e-05 0 0.0078469004584466422 0.0017373576629157229 0 0.0072097554120278606 0.0013162843679647746 0 0.0080003475667295553 0.00058248450521771215 0 0.0082894752856500428 -0.0002228677955742294 0 0.0080003475667295553 0.00058248450521771215 0 0.0073256943357234393 -2.474729553879972e-05 0 0.0062639229415072974 0.0046037886499576599 0 0.0046646562306116579 0.0034752778548338774 0 0.0045520806140816284 0.0048049425363211103 0 0.0071973565606663478 0.0020082150274801521 0 0.0048089577259248905 0.0027061052924265542 0 0.0073256943357234393 -2.474729553879972e-05 0 0.0085256682548492391 -0.001377419631410685 0 0.0048580497199681308 -0.0008362017460289816 0 0.0082894752856500428 -0.0002228677955742294 0 0.0073256943357234393 -2.474729553879972e-05 0 0.0085256682548492391 -0.001377419631410685 0 0.0062639229415072974 0.0046037886499576599 0 0.007096566158039312 0.003624570998523403 0 0.0081788698497433799 0.0043403304403029867 0 0.0091443768755785238 -0.00015425257027203387 0 0.0085256682548492391 -0.001377419631410685 0 0.010767568146996689 -0.0015444672058872557 0 0.0091443768755785238 -0.00015425257027203387 0 0.0082894752856500428 -0.0002228677955742294 0 0.0085256682548492391 -0.001377419631410685 0 0.0070076469296952975 0.0024152597787903025 0 0.0061544670045743984 0.0032505972003811934 0 0.007096566158039312 0.003624570998523403 0 0.0062639229415072974 0.0046037886499576599 0 0.0061544670045743984 0.0032505972003811934 0 0.007096566158039312 0.003624570998523403 0 0.0062639229415072974 0.0046037886499576599 0 0.0061544670045743984 0.0032505972003811934 0 0.0046646562306116579 0.0034752778548338774 0 0.0046646562306116579 0.0034752778548338774 0 0.0040598409237567893 0.0040520643972910102 0 0.0045520806140816284 0.0048049425363211103 0 0.0046646562306116579 0.0034752778548338774 0 0.0040377552433454988 0.0034101802684215702 0 0.0040598409237567893 0.0040520643972910102 0 0.0040377552433454988 0.0034101802684215702 0 0.0036003125217656975 0.0035385726107391218 0 0.0034648115219201997 0.0038921493825948171 0 0.002647465606257966 0.0051163302206758627 0 0.0025716969907485544 0.0048391001913027903 0 0.0034648115219201997 0.0038921493825948171 0 0.0040598409237567893 0.0040520643972910102 0 0.0037885007866559641 0.0044285434048515412 0 0.0040377552433454988 0.0034101802684215702 0 0.0034648115219201997 0.0038921493825948171 0 0.0040598409237567893 0.0040520643972910102 0 0.0031046818938843786 0.0049886843603647139 0 0.0034648115219201997 0.0038921493825948171 0 0.0037885007866559641 0.0044285434048515412 0 0.0031046818938843786 0.0049886843603647139 0 0.0037885007866559641 0.0044285434048515412 0 0.0045520806140816284 0.0048049425363211103 0 0.0040598409237567893 0.0040520643972910102 0 0.0037885007866559641 0.0044285434048515412 0 0.0045520806140816284 0.0048049425363211103 0 0.0023363925398263135 0.0039278723122251934 0 0.0048089577259248905 0.0027061052924265542 0 -0.0079468069847449876 0.015586817971307716 0 -0.0071809665154193422 0.0167516737899959 0 -0.0068382908608124919 0.015474200805653669 0 -0.0071809665154193422 0.0167516737899959 0 -0.0061348385699465206 0.016731751903120796 0 -0.0068382908608124919 0.015474200805653669 0 -0.0061348385699465206 0.016731751903120796 0 -0.0055596714801567585 0.015357830646317001 0 -0.0045138432838999851 0.01711114095263621 0 -0.0061348385699465206 0.016731751903120796 0 -0.0055596714801567585 0.015357830646317001 0 -0.0068382908608124919 0.015474200805653669 0 -0.0055596714801567585 0.015357830646317001 0 -0.0068382908608124919 0.015474200805653669 0 -0.0065059138585512478 0.014161157272256624 0 -0.0055596714801567585 0.015357830646317001 0 -0.0065059138585512478 0.014161157272256624 0 -0.0055271815849958226 0.013482674908273056 0 -0.0079468069847449876 0.015586817971307716 0 -0.0068382908608124919 0.015474200805653669 0 -0.0074773539380951284 0.014420799780657729 0 -0.0068382908608124919 0.015474200805653669 0 -0.0074773539380951284 0.014420799780657729 0 -0.0065059138585512478 0.014161157272256624 0 -0.0074773539380951284 0.014420799780657729 0 -0.0070108748385165473 0.013144261206092901 0 -0.0065059138585512478 0.014161157272256624 0 -0.0079157468998332283 0.013655230147368755 0 -0.0074773539380951284 0.014420799780657729 0 -0.0070108748385165473 0.013144261206092901 0 -0.0070108748385165473 0.013144261206092901 0 -0.0059762457415421877 0.012589497050033534 0 -0.0065059138585512478 0.014161157272256624 0 -0.006548815835170192 0.011830493045977157 0 -0.0070108748385165473 0.013144261206092901 0 -0.0059762457415421877 0.012589497050033534 0 -0.0059762457415421877 0.012589497050033534 0 -0.0065059138585512478 0.014161157272256624 0 -0.0055271815849958226 0.013482674908273056 0 -0.0055271815849958226 0.013482674908273056 0 -0.005410856148490302 0.012169371803001809 0 -0.0053473859758329046 0.012542097001081018 0 -0.0048255760138512559 0.013390980364944969 0 -0.0041960070646929679 0.013480959969846442 0 -0.0059762457415421877 0.012589497050033534 0 -0.0055271815849958226 0.013482674908273056 0 -0.005410856148490302 0.012169371803001809 0 -0.005410856148490302 0.012169371803001809 0 -0.0053473859758329046 0.012542097001081018 0 -0.0052033207135617236 0.012003534542240934 0 -0.0030950640850159368 0.01391309124947848 0 -0.0039115588906723049 0.015418889823411124 0 -0.0022195216993347606 0.015392830631383655 0 -0.0055271815849958226 0.013482674908273056 0 -0.0030950640850159368 0.01391309124947848 0 -0.0039115588906723049 0.015418889823411124 0 -0.0055596714801567585 0.015357830646317001 0 -0.0055271815849958226 0.013482674908273056 0 -0.0039115588906723049 0.015418889823411124 0 -0.0055596714801567585 0.015357830646317001 0 -0.0039115588906723049 0.015418889823411124 0 -0.0045138432838999851 0.01711114095263621 0 -0.0039115588906723049 0.015418889823411124 0 -0.0028632948947288905 0.0165904667608564 0 -0.0022195216993347606 0.015392830631383655 0 -0.0039115588906723049 0.015418889823411124 0 -0.0028632948947288905 0.0165904667608564 0 -0.0045138432838999851 0.01711114095263621 0 -0.0017453691589477075 0.016427117354843552 0 -0.00071670036102236307 0.015646277624025203 0 -0.0022195216993347606 0.015392830631383655 0 -0.0028632948947288905 0.0165904667608564 0 -0.0017453691589477075 0.016427117354843552 0 -0.0022195216993347606 0.015392830631383655 0 -0.0028632948947288905 0.0165904667608564 0 -0.0017453691589477075 0.016427117354843552 0 -0.0020990044458080704 0.017246914956438989 0 -0.0017453691589477075 0.016427117354843552 0 -0.0007887078006344996 0.017015555289952033 0 -0.00071670036102236307 0.015646277624025203 0 -0.0017453691589477075 0.016427117354843552 0 -0.0007887078006344996 0.017015555289952033 0 -0.0020990044458080704 0.017246914956438989 0 -0.00088780483979162444 0.01721473307618588 0 0.00032684531618791892 0.015901154092501917 0 -0.00023330892853857247 0.017426964553460475 0 -0.0013221287080526832 0.01682933934426234 0 -0.00072973904008698958 0.015446070831111738 0 -0.0007887078006344996 0.017015555289952033 0 -0.00071670036102236307 0.015646277624025203 0 0.00063993494688207653 0.01548257927733266 0 -0.0029158554544617423 0.013767025244026192 0 -0.00097216365549883496 0.014373818380795992 0 -0.00071670036102236307 0.015646277624025203 0 -0.0010601953116200469 0.014315328944907415 0 0.00063993494688207653 0.01548257927733266 0 -0.0010601953116200469 0.014315328944907415 0 0.00094556617216334283 0.014651711643022867 0 0.00063993494688207653 0.01548257927733266 0 -0.0030950640850159368 0.01391309124947848 0 -0.0010601953116200469 0.014315328944907415 0 -0.0022195216993347606 0.015392830631383655 0 -0.00071670036102236307 0.015646277624025203 0 -0.0010601953116200469 0.014315328944907415 0 -0.0022195216993347606 0.015392830631383655 0 -0.0041960070646929679 0.013480959969846442 0 -0.0029158554544617423 0.013767025244026192 0 -0.0053473859758329046 0.012542097001081018 0 -0.0050966952233875073 0.012191872418012057 0 -0.0052033207135617236 0.012003534542240934 0 -0.0052033207135617236 0.012003534542240934 0 -0.005162758904020983 0.011460409847600994 0 -0.0050386596216789896 0.011469911414060299 0 -0.005410856148490302 0.012169371803001809 0 -0.0052033207135617236 0.012003534542240934 0 -0.005162758904020983 0.011460409847600994 0 -0.0052033207135617236 0.012003534542240934 0 -0.0050386596216789896 0.011469911414060299 0 -0.004965123273265668 0.011859103349843438 0 -0.004894856271780555 0.010743087655264369 0 -0.0050386596216789896 0.011469911414060299 0 -0.0048807634928522822 0.01150437454583909 0 -0.0050386596216789896 0.011469911414060299 0 -0.0048807634928522822 0.01150437454583909 0 -0.004965123273265668 0.011859103349843438 0 -0.0050966952233875073 0.012191872418012057 0 -0.0047427020290114934 0.012011422977934545 0 -0.0046481002431702284 0.012214022879680543 0 -0.0050966952233875073 0.012191872418012057 0 -0.0052033207135617236 0.012003534542240934 0 -0.004965123273265668 0.011859103349843438 0 -0.0048807634928522822 0.01150437454583909 0 -0.004965123273265668 0.011859103349843438 0 -0.0046995759373385688 0.01178436826299061 0 -0.0050966952233875073 0.012191872418012057 0 -0.004965123273265668 0.011859103349843438 0 -0.0047427020290114934 0.012011422977934545 0 -0.0047427020290114934 0.012011422977934545 0 -0.0045183972160286337 0.011893674825632241 0 -0.0046481002431702284 0.012214022879680543 0 0.0012753981828710363 0.012486923066416232 0 0.0014219924168798049 0.01400048700815136 0 0.00075573078466393097 0.013893775575386968 0 -0.00061234540045653873 0.011978618922857951 0 -0.00097216365549883496 0.014373818380795992 0 -0.004395091392672113 0.011967360416876374 0 -0.0046995759373385688 0.01178436826299061 0 -0.0041584904545966077 0.011581881258194567 0 -0.00061234540045653873 0.011978618922857951 0 -0.00095300849922330493 0.011847813342237591 0 -0.0047427020290114934 0.012011422977934545 0 -0.0045183972160286337 0.011893674825632241 0 -0.0046995759373385688 0.01178436826299061 0 -0.004965123273265668 0.011859103349843438 0 -0.0047427020290114934 0.012011422977934545 0 -0.0046995759373385688 0.01178436826299061 0 -0.004736633358655218 0.0089941106342247504 0 -0.0047462320389339433 0.011181499768934053 0 -0.0041584904545966077 0.011581881258194567 0 -0.0048807634928522822 0.01150437454583909 0 -0.0046995759373385688 0.01178436826299061 0 -0.0047462320389339433 0.011181499768934053 0 -0.00061234540045653873 0.011978618922857951 0 -0.00092665898305010293 0.012174247685253891 0 -0.0046995759373385688 0.01178436826299061 0 -0.0047462320389339433 0.011181499768934053 0 -0.0041584904545966077 0.011581881258194567 0 -0.004894856271780555 0.010743087655264369 0 -0.0048807634928522822 0.01150437454583909 0 -0.0047462320389339433 0.011181499768934053 0 -0.00092228624120120996 0.012191779542915769 0 -0.0026362409517943631 0.0104193862193806 0 -0.0026599269247861578 0.013184135058560139 0 -0.0026362409517943631 0.0104193862193806 0 -0.0041584904545966077 0.011581881258194567 0 -0.0026599269247861578 0.013184135058560139 0 -0.004736633358655218 0.0089941106342247504 0 -0.0026362409517943631 0.0104193862193806 0 -0.0041584904545966077 0.011581881258194567 0 -0.0010098079618268902 0.015958648751826301 0 -0.0049395264753520516 0.013885821060219032 0 -0.0026599269247861578 0.013184135058560139 0 0.0035307546654830776 0.013707203081372533 0 0.0012753981828710363 0.012486923066416232 0 0.0021620336299679552 0.013853934492958507 0 -0.00020642089988775157 0.0095262486108840042 0 -0.00061234540045653873 0.011978618922857951 0 -0.0049395264753520516 0.013885821060219032 0 -0.0041584904545966077 0.011581881258194567 0 -0.0026599269247861578 0.013184135058560139 0 0.0012753981828710363 0.012486923066416232 0 0.0021620336299679552 0.013853934492958507 0 0.0014219924168798049 0.01400048700815136 0 0.0035307546654830776 0.013707203081372533 0 0.002169888162599963 0.014812846148241347 0 0.0021620336299679552 0.013853934492958507 0 0.0035307546654830776 0.013707203081372533 0 0.002169888162599963 0.014812846148241347 0 0.0026870742663687342 0.015446889576837665 0 0.002169888162599963 0.014812846148241347 0 0.001734665361969441 0.014455693621895799 0 0.0021620336299679552 0.013853934492958507 0 0.0016367901338806845 0.014974744027455725 0 0.002169888162599963 0.014812846148241347 0 0.001734665361969441 0.014455693621895799 0 0.001734665361969441 0.014455693621895799 0 0.0021620336299679552 0.013853934492958507 0 0.0014219924168798049 0.01400048700815136 0 -0.00082158087869264884 0.014383870119057307 0 -0.00097216365549883496 0.014373818380795992 0 0.0014219924168798049 0.01400048700815136 0 0.00076042275821615129 0.013895964460335272 0 0.0010283950298381713 0.014269996621425833 0 0.00076042275821615129 0.013895964460335272 0 0.00066528481992397326 0.014552661555695082 0 0.0010283950298381713 0.014269996621425833 0 0.00076042275821615129 0.013895964460335272 0 0.00066528481992397326 0.014552661555695082 0 0.00042098012421754272 0.014816732887628607 0 -0.00097216365549883496 0.014373818380795992 0 -0.00072973904008698958 0.015446070831111738 0 0.00066528481992397326 0.014552661555695082 0 0.00042195897130420802 0.014815907282775169 0 0.00085483547823788351 0.014936153001971609 0 -0.00070648818785532886 0.015424319496614713 0 -0.00072973904008698958 0.015446070831111738 0 0.001734665361969441 0.014455693621895799 0 0.0014219924168798049 0.01400048700815136 0 0.0012833436792356015 0.014635369685159263 0 0.0014219924168798049 0.01400048700815136 0 0.0010283950298381713 0.014269996621425833 0 0.0012833436792356015 0.014635369685159263 0 0.00066528481992397326 0.014552661555695082 0 0.0010283950298381713 0.014269996621425833 0 0.0012833436792356015 0.014635369685159263 0 0.00085483547823788351 0.014936153001971609 0 0.0012833436792356015 0.014635369685159263 0 0.0011785326156242241 0.015267318516863167 0 0.00066528481992397326 0.014552661555695082 0 0.00085483547823788351 0.014936153001971609 0 0.0012833436792356015 0.014635369685159263 0 0.0016367901338806845 0.014974744027455725 0 0.001734665361969441 0.014455693621895799 0 0.0012833436792356015 0.014635369685159263 0 0.0016367901338806845 0.014974744027455725 0 0.0012833436792356015 0.014635369685159263 0 0.0011785326156242241 0.015267318516863167 0 0.0011785326156242241 0.015267318516863167 0 0.00096631268492672567 0.015854245306969186 0 0.0017507349286057822 0.015756274999125606 0 0.00042195897130420802 0.014815907282775169 0 0.00038524420151582857 0.015920538417142582 0 -0.00030324714670936767 0.016783934044310039 0 -0.00072973904008698958 0.015446070831111738 0 -0.00079343295313134615 0.017056381310674749 0 0.0016367901338806845 0.014974744027455725 0 0.0011785326156242241 0.015267318516863167 0 0.0017507349286057822 0.015756274999125606 0 0.00085483547823788351 0.014936153001971609 0 0.0011785326156242241 0.015267318516863167 0 0.00075295915019888511 0.015362506881862296 0 0.0011785326156242241 0.015267318516863167 0 0.00075295915019888511 0.015362506881862296 0 0.00096631268492672567 0.015854245306969186 0 0.00042195897130420802 0.014815907282775169 0 0.00075295915019888511 0.015362506881862296 0 0.00038524420151582857 0.015920538417142582 0 0.00042195897130420802 0.014815907282775169 0 0.00085483547823788351 0.014936153001971609 0 0.00075295915019888511 0.015362506881862296 0 0.00075295915019888511 0.015362506881862296 0 0.00038524420151582857 0.015920538417142582 0 0.00096631268492672567 0.015854245306969186 0 0.00038524420151582857 0.015920538417142582 0 0.00028671618061733842 0.016501526668899751 0 -0.00030324714670936767 0.016783934044310039 0 0.00038524420151582857 0.015920538417142582 0 0.00064515277582531531 0.016362327545458775 0 0.00096631268492672567 0.015854245306969186 0 0.00038524420151582857 0.015920538417142582 0 0.00064515277582531531 0.016362327545458775 0 0.00028671618061733842 0.016501526668899751 0 0.0011596923207059051 0.016532919182168523 0 0.0017697605511582785 0.016529782217833994 0 0.0017507349286057822 0.015756274999125606 0 0.00096631268492672567 0.015854245306969186 0 0.0011596923207059051 0.016532919182168523 0 0.0017507349286057822 0.015756274999125606 0 0.00064515277582531531 0.016362327545458775 0 0.00096631268492672567 0.015854245306969186 0 0.0011596923207059051 0.016532919182168523 0 0.0026870742663687342 0.015446889576837665 0 0.0017507349286057822 0.015756274999125606 0 0.002443661435197985 0.016559106146738754 0 0.0017697605511582785 0.016529782217833994 0 0.0017507349286057822 0.015756274999125606 0 0.002443661435197985 0.016559106146738754 0 0.0035028290198512572 0.016100049940962105 0 0.0026870742663687342 0.015446889576837665 0 0.002443661435197985 0.016559106146738754 0 0.0016367901338806845 0.014974744027455725 0 0.002169888162599963 0.014812846148241347 0 0.0017507349286057822 0.015756274999125606 0 0.002169888162599963 0.014812846148241347 0 0.0026870742663687342 0.015446889576837665 0 0.0017507349286057822 0.015756274999125606 0 0.0022372043534360174 0.017525694253740766 0 0.0017120802432081207 0.017126584025583012 0 0.0015873780243225843 0.017767371539487001 0 0.0022372043534360174 0.017525694253740766 0 0.0015873780243225843 0.017767371539487001 0 0.0019490797588417696 0.018295683548018016 0 0.0022372043534360174 0.017525694253740766 0 0.0026366056339848769 0.01805075540029747 0 0.0019490797588417696 0.018295683548018016 0 0.0031115799235164041 0.017253603279024348 0 0.0031224638363614031 0.018674554460866084 0 0.0026366056339848769 0.01805075540029747 0 0.0031115799235164041 0.017253603279024348 0 0.0022372043534360174 0.017525694253740766 0 0.0026366056339848769 0.01805075540029747 0 0.0031115799235164041 0.017253603279024348 0 0.0022372043534360174 0.017525694253740766 0 0.002443661435197985 0.016559106146738754 0 0.0035028290198512572 0.016100049940962105 0 0.0031115799235164041 0.017253603279024348 0 0.002443661435197985 0.016559106146738754 0 0.0022372043534360174 0.017525694253740766 0 0.002443661435197985 0.016559106146738754 0 0.0017120802432081207 0.017126584025583012 0 0.0017697605511582785 0.016529782217833994 0 0.002443661435197985 0.016559106146738754 0 0.0017120802432081207 0.017126584025583012 0 0.0011596923207059051 0.016532919182168523 0 0.0017697605511582785 0.016529782217833994 0 0.0017120802432081207 0.017126584025583012 0 0.0011596923207059051 0.016532919182168523 0 0.0017120802432081207 0.017126584025583012 0 0.0011575051946380816 0.017368260659542365 0 0.0011596923207059051 0.016532919182168523 0 0.00042727702410555349 0.017005095784717449 0 0.0011575051946380816 0.017368260659542365 0 0.00028671618061733842 0.016501526668899751 0 0.00042727702410555349 0.017005095784717449 0 -0.00030324714670936767 0.016783934044310039 0 0.00064515277582531531 0.016362327545458775 0 0.0011596923207059051 0.016532919182168523 0 0.00042727702410555349 0.017005095784717449 0 0.00064515277582531531 0.016362327545458775 0 0.00028671618061733842 0.016501526668899751 0 0.00042727702410555349 0.017005095784717449 0 0.0011575051946380816 0.017368260659542365 0 0.0015873780243225843 0.017767371539487001 0 0.00091733526938736032 0.018300334367783593 0 0.00042727702410555349 0.017005095784717449 0 0.0011575051946380816 0.017368260659542365 0 0.00091733526938736032 0.018300334367783593 0 0.0017120802432081207 0.017126584025583012 0 0.0011575051946380816 0.017368260659542365 0 0.0015873780243225843 0.017767371539487001 0 0.00091733526938736032 0.018300334367783593 0 8.8434001563350727e-05 0.019072902005211528 0 0.0016911832030523421 0.019427291743017317 0 0.0015873780243225843 0.017767371539487001 0 0.00091733526938736032 0.018300334367783593 0 0.0019490797588417696 0.018295683548018016 0 0.00042727702410555349 0.017005095784717449 0 0.00091733526938736032 0.018300334367783593 0 8.8434001563350727e-05 0.019072902005211528 0 0.00091733526938736032 0.018300334367783593 0 0.0016911832030523421 0.019427291743017317 0 0.0019490797588417696 0.018295683548018016 0 8.8434001563350727e-05 0.019072902005211528 0 0.0016911832030523421 0.019427291743017317 0 0.00027528194654953021 0.020182464750914546 0 0.0016911832030523421 0.019427291743017317 0 0.0023495891659490267 0.018612383628882994 0 0.0019490797588417696 0.018295683548018016 0 0.0026366056339848769 0.01805075540029747 0 0.0023495891659490267 0.018612383628882994 0 0.0019490797588417696 0.018295683548018016 0 0.0031224638363614031 0.018674554460866084 0 0.0026366056339848769 0.01805075540029747 0 0.0023495891659490267 0.018612383628882994 0 0.00092154384776264712 0.013404215532295205 0 0.00037971306299299835 0.015266254390821511 0 0.0031886601918235113 0.019449787485816855 0 0.0031887799064221132 0.018610120713913769 0 0.0017186512679080732 0.019390532440130549 0 0.0031224638363614031 0.018674554460866084 0 0.0016911832030523421 0.019427291743017317 0 0.0023495891659490267 0.018612383628882994 0 0.00067565323383700468 0.012604372768583321 0 -0.0009018425743278055 0.016961417311309724 0 0.0006215622386800128 0.020932013415124504 0 0.00028734388789894444 0.021489400661159293 0 -0.00027402673925303376 0.021414290261076708 0 0.0031886601918235113 0.019449787485816855 0 0.0017186512679080732 0.019390532440130549 0 0.00096057346935688836 0.020625405666858963 0 0.0006215622386800128 0.020932013415124504 0 0.00059933607831176734 0.022033732277464281 0 0.00028734388789894444 0.021489400661159293 0 0.00028734388789894444 0.021489400661159293 0 -5.4230109469933106e-05 0.021851265563315521 0 -0.00027402673925303376 0.021414290261076708 0 0.00059933607831176734 0.022033732277464281 0 0.00028734388789894444 0.021489400661159293 0 -5.4230109469933106e-05 0.021851265563315521 0 0.00059933607831176734 0.022033732277464281 0 -5.4230109469933106e-05 0.021851265563315521 0 -0.00035766669634331436 0.022409881367706171 0 -0.00054256230052129005 0.021952916423684039 0 -0.00081114131086577391 0.02238264148937065 0 -0.00035766669634331436 0.022409881367706171 0 -0.00054256230052129005 0.021952916423684039 0 -5.4230109469933106e-05 0.021851265563315521 0 -0.00035766669634331436 0.022409881367706171 0 -0.00054256230052129005 0.021952916423684039 0 -5.4230109469933106e-05 0.021851265563315521 0 -0.00027402673925303376 0.021414290261076708 0 0.00096057346935688836 0.020625405666858963 0 0.00027528194654953021 0.020182464750914546 0 -0.00046472250659992286 0.020668993835592921 0 0.00037971306299299835 0.015266254390821511 0 4.1015067891629885e-05 0.015933126542251468 0 0.0017186512679080732 0.019390532440130549 0 0.00096057346935688836 0.020625405666858963 0 0.00027528194654953021 0.020182464750914546 0 8.8434001563350727e-05 0.019072902005211528 0 0.00027528194654953021 0.020182464750914546 0 -0.00057057607843868962 0.01990418100363758 0 -0.00057057607843868962 0.01990418100363758 0 -0.0016947316007388329 0.021054050704716096 0 -0.00099714922210876336 0.018777711317289624 0 0.00027528194654953021 0.020182464750914546 0 -0.00057057607843868962 0.01990418100363758 0 -0.00046472250659992286 0.020668993835592921 0 0.00096057346935688836 0.020625405666858963 0 -0.00046472250659992286 0.020668993835592921 0 -0.0011933081574907651 0.021721168230123749 0 -0.0014078051093027266 0.019712669456017944 0 -0.0011319058224052991 0.018838077748960198 0 -0.00057057607843868962 0.01990418100363758 0 -0.00046472250659992286 0.020668993835592921 0 -0.0016947316007388329 0.021054050704716096 0 -0.00046472250659992286 0.020668993835592921 0 -0.0011933081574907651 0.021721168230123749 0 -0.0016947316007388329 0.021054050704716096 0 -0.0009018425743278055 0.016961417311309724 0 -0.001514648204050385 0.018270353477583587 0 -0.00054256230052129005 0.021952916423684039 0 -0.00027402673925303376 0.021414290261076708 0 -0.0011933081574907651 0.021721168230123749 0 -0.00054256230052129005 0.021952916423684039 0 -0.0011933081574907651 0.021721168230123749 0 -0.00081114131086577391 0.02238264148937065 0 -0.0019993050629382144 0.021932025816332908 0 -0.002151915519562249 0.02077429814023982 0 -0.0032196228208317655 0.022062864772432626 0 -0.0011933081574907651 0.021721168230123749 0 -0.0019993050629382144 0.021932025816332908 0 -0.0012815765431498617 0.022811769751663848 0 -0.0019993050629382144 0.021932025816332908 0 -0.002151915519562249 0.02077429814023982 0 -0.0016947316007388329 0.021054050704716096 0 -0.0011933081574907651 0.021721168230123749 0 -0.0019993050629382144 0.021932025816332908 0 -0.0016947316007388329 0.021054050704716096 0 -0.0021794600768047134 0.020408468124822221 0 -0.0011319058224052991 0.018838077748960198 0 -0.002151915519562249 0.02077429814023982 0 -0.0016947316007388329 0.021054050704716096 0 -0.0011338366472240708 0.019550126186667984 0 -0.0019841403022955542 0.020418310518636823 0 -0.0021161697595089568 0.018535866267723317 0 -0.00079406697278084943 0.01896461438406433 0 0.00042727702410555349 0.017005095784717449 0 8.8434001563350727e-05 0.019072902005211528 0 -0.00099714922210876336 0.018777711317289624 0 8.8434001563350727e-05 0.019072902005211528 0 -0.00057057607843868962 0.01990418100363758 0 -0.00099714922210876336 0.018777711317289624 0 -0.00054925181375635674 0.018147813446084203 0 -0.0011319058224052991 0.018838077748960198 0 0.00042727702410555349 0.017005095784717449 0 -0.0010372567332345127 0.018769039150802795 0 -0.00030324714670936767 0.016783934044310039 0 -0.00088780483979162444 0.01721473307618588 0 -0.00079406697278084943 0.01896461438406433 0 -0.00023330892853857247 0.017426964553460475 0 -0.0011319058224052991 0.018838077748960198 0 -0.00079343295313134615 0.017056381310674749 0 -0.0007887078006344996 0.017015555289952033 0 -0.0022169328144766641 0.018483216380028832 0 -0.0020990044458080704 0.017246914956438989 0 -0.0013221287080526832 0.01682933934426234 0 -0.0023277879440039531 0.018274412377800982 0 -0.00088780483979162444 0.01721473307618588 0 -0.0021161697595089568 0.018535866267723317 0 -0.00079406697278084943 0.01896461438406433 0 -0.0022169328144766641 0.018483216380028832 0 -0.0020990044458080704 0.017246914956438989 0 -0.0028710324103988815 0.017696963511066467 0 -0.0028632948947288905 0.0165904667608564 0 -0.0028710324103988815 0.017696963511066467 0 -0.0045138432838999851 0.01711114095263621 0 -0.0022169328144766641 0.018483216380028832 0 -0.0028710324103988815 0.017696963511066467 0 -0.0037786546999209157 0.018161793698483395 0 -0.0028710324103988815 0.017696963511066467 0 -0.0045138432838999851 0.01711114095263621 0 -0.0037786546999209157 0.018161793698483395 0 -0.0028632948947288905 0.0165904667608564 0 -0.0020990044458080704 0.017246914956438989 0 -0.0028710324103988815 0.017696963511066467 0 -0.0045138432838999851 0.01711114095263621 0 -0.0037786546999209157 0.018161793698483395 0 -0.0049965313831440454 0.01868032930256517 0 -0.0049965313831440454 0.01868032930256517 0 -0.0035147757030310183 0.019858259038236511 0 -0.0053552988587557684 0.020024683241798902 0 -0.0037786546999209157 0.018161793698483395 0 -0.0049965313831440454 0.01868032930256517 0 -0.0035147757030310183 0.019858259038236511 0 -0.0019841403022955542 0.020418310518636823 0 -0.0021161697595089568 0.018535866267723317 0 -0.0033686483616870645 0.019872805251857219 0 -0.0022169328144766641 0.018483216380028832 0 -0.0037786546999209157 0.018161793698483395 0 -0.0035147757030310183 0.019858259038236511 0 -0.0023277879440039531 0.018274412377800982 0 -0.0033551659837568948 0.019545705138080936 0 -0.0019841403022955542 0.020418310518636823 0 -0.0032980738163443544 0.020862362695734903 0 -0.0033686483616870645 0.019872805251857219 0 -0.0021794600768047134 0.020408468124822221 0 -0.0031503039725326123 0.021720596369469908 0 -0.0019841403022955542 0.020418310518636823 0 -0.0032980738163443544 0.020862362695734903 0 -0.00319562248968397 0.021924124879942726 0 -0.00319562248968397 0.021924124879942726 0 -0.0046680528751902057 0.021238807261680412 0 -0.005071153645475111 0.022377821190950692 0 -0.0032980738163443544 0.020862362695734903 0 -0.00319562248968397 0.021924124879942726 0 -0.0046680528751902057 0.021238807261680412 0 -0.0035147757030310183 0.019858259038236511 0 -0.0046680528751902057 0.021238807261680412 0 -0.0053552988587557684 0.020024683241798902 0 -0.0033551659837568948 0.019545705138080936 0 -0.0039181636061372069 0.020202691984807671 0 -0.0032980738163443544 0.020862362695734903 0 -0.0033686483616870645 0.019872805251857219 0 -0.0046680528751902057 0.021238807261680412 0 -0.0053552988587557684 0.020024683241798902 0 -0.0059728668870698848 0.021527296574910589 0 -0.0069347943020635809 0.020331812537010458 0 -0.0046680528751902057 0.021238807261680412 0 -0.0059728668870698848 0.021527296574910589 0 -0.005071153645475111 0.022377821190950692 0 -0.0046680528751902057 0.021238807261680412 0 -0.0053552988587557684 0.020024683241798902 0 -0.0059728668870698848 0.021527296574910589 0 -0.0076172777330733316 0.022106878572933832 0 -0.0059728668870698848 0.021527296574910589 0 -0.0069347943020635809 0.020331812537010458 0 -0.0053552988587557684 0.020024683241798902 0 -0.0069347943020635809 0.020331812537010458 0 -0.006335480370457662 0.018958800657950706 0 -0.0076411358817815717 0.019005548756390437 0 -0.006335480370457662 0.018958800657950706 0 -0.0070069282903039466 0.017892541668391854 0 -0.0076411358817815717 0.019005548756390437 0 -0.0069347943020635809 0.020331812537010458 0 -0.006335480370457662 0.018958800657950706 0 -0.0049965313831440454 0.01868032930256517 0 -0.006335480370457662 0.018958800657950706 0 -0.0058579059771750762 0.017877281750323909 0 -0.0049965313831440454 0.01868032930256517 0 -0.0053552988587557684 0.020024683241798902 0 -0.006335480370457662 0.018958800657950706 0 -0.0061348385699465206 0.016731751903120796 0 -0.0045138432838999851 0.01711114095263621 0 -0.0058579059771750762 0.017877281750323909 0 -0.0045138432838999851 0.01711114095263621 0 -0.0049965313831440454 0.01868032930256517 0 -0.0058579059771750762 0.017877281750323909 0 -0.0071809665154193422 0.0167516737899959 0 -0.0061348385699465206 0.016731751903120796 0 -0.0070069282903039466 0.017892541668391854 0 -0.0061348385699465206 0.016731751903120796 0 -0.0058579059771750762 0.017877281750323909 0 -0.0070069282903039466 0.017892541668391854 0 -0.0079905130275705304 0.017744484487896436 0 -0.0071809665154193422 0.0167516737899959 0 -0.0070069282903039466 0.017892541668391854 0 -0.006335480370457662 0.018958800657950706 0 -0.0058579059771750762 0.017877281750323909 0 -0.0070069282903039466 0.017892541668391854 0 -0.006253982416808742 0.029294671176070399 0 -0.0041494642371979916 0.027769262594247435 0 -0.0063097419983495131 0.02685596119831328 0 -0.006253982416808742 0.029294671176070399 0 -0.0041494642371979916 0.027769262594247435 0 -0.0038116553542529908 0.029695057541783886 0 -0.0041494642371979916 0.027769262594247435 0 -0.0017289415349206322 0.026849098367485273 0 -0.0027095041546155345 0.028596254662724349 0 -0.0041494642371979916 0.027769262594247435 0 -0.0027095041546155345 0.028596254662724349 0 -0.0038116553542529908 0.029695057541783886 0 -0.0027095041546155345 0.028596254662724349 0 -0.0024786406545066592 0.029757849631914551 0 -0.0038116553542529908 0.029695057541783886 0 -0.00477126674105827 0.025001523662288087 0 -0.0028864609877208773 0.025502579002085954 0 -0.0041494642371979916 0.027769262594247435 0 -0.0042737079289034358 0.025615129542697224 0 -0.0017289415349206322 0.026849098367485273 0 -0.0074499434649270575 0.024313384692767143 0 -0.0063097419983495131 0.02685596119831328 0 -0.0042737079289034358 0.025615129542697224 0 -0.0041494642371979916 0.027769262594247435 0 -0.0063097419983495131 0.02685596119831328 0 -0.0042737079289034358 0.025615129542697224 0 -0.0074499434649270575 0.024313384692767143 0 -0.0061382231580655788 0.023120581120861131 0 -0.0057395945964144835 0.024670291449493734 0 -0.0058396941086092677 0.024669755252054341 0 -0.00477126674105827 0.025001523662288087 0 -0.0076172777330733316 0.022106878572933832 0 -0.0059728668870698848 0.021527296574910589 0 -0.0061382231580655788 0.023120581120861131 0 -0.0076172777330733316 0.022106878572933832 0 -0.0074499434649270575 0.024313384692767143 0 -0.0061382231580655788 0.023120581120861131 0 -0.0059728668870698848 0.021527296574910589 0 -0.0061382231580655788 0.023120581120861131 0 -0.005071153645475111 0.022377821190950692 0 -0.0061382231580655788 0.023120581120861131 0 -0.005071153645475111 0.022377821190950692 0 -0.0044059634605180453 0.023443487733742597 0 -0.0061382231580655788 0.023120581120861131 0 -0.0057395945964144835 0.024670291449493734 0 -0.0044059634605180453 0.023443487733742597 0 -0.0044059634605180453 0.023443487733742597 0 -0.0030393500433534659 0.024372334939123243 0 -0.0040491981630420733 0.025195556024393172 0 -0.0057395945964144835 0.024670291449493734 0 -0.0044059634605180453 0.023443487733742597 0 -0.0040491981630420733 0.025195556024393172 0 -0.0031503039725326123 0.021720596369469908 0 -0.0036920843573318395 0.022414372110486906 0 -0.00319562248968397 0.021924124879942726 0 -0.005071153645475111 0.022377821190950692 0 -0.0044059634605180453 0.023443487733742597 0 -0.0019993050629382144 0.021932025816332908 0 -0.0032196228208317655 0.022062864772432626 0 -0.0025524282933977517 0.023118785607274636 0 -0.0032196228208317655 0.022062864772432626 0 -0.0044059634605180453 0.023443487733742597 0 -0.0025524282933977517 0.023118785607274636 0 -0.0025524282933977517 0.023118785607274636 0 -0.0030393500433534659 0.024372334939123243 0 -0.0018098573059352053 0.024329668595360981 0 -0.0044059634605180453 0.023443487733742597 0 -0.0025524282933977517 0.023118785607274636 0 -0.0030393500433534659 0.024372334939123243 0 -0.0028864609877208773 0.025502579002085954 0 -0.0011001385433714844 0.025722403142472563 0 -0.0030393500433534659 0.024372334939123243 0 -0.0040491981630420733 0.025195556024393172 0 -0.0023710526266062602 0.025773587652965172 0 -0.0017289415349206322 0.026849098367485273 0 -0.0027095041546155345 0.028596254662724349 0 -0.0014574338592963283 0.028867606840482334 0 -0.0027095041546155345 0.028596254662724349 0 -0.0014574338592963283 0.028867606840482334 0 -0.0024786406545066592 0.029757849631914551 0 -0.0011001385433714844 0.025722403142472563 0 -0.0012310675895392286 0.027628163794670601 0 -0.0017289415349206322 0.026849098367485273 0 -0.0014574338592963283 0.028867606840482334 0 0.00057528100665913372 0.027829068880920634 0 -0.0014574338592963283 0.028867606840482334 0 0.00057528100665913372 0.027829068880920634 0 -0.00062227813046303597 0.030317695140792907 0 0.00053150755051258579 0.0240122426355566 0 0.00094883863601758465 0.024947815024457299 0 -0.00066220854771588183 0.025790283384465811 0 -0.0011001385433714844 0.025722403142472563 0 -0.00069732727948528222 0.025310376814080295 0 0.00053150755051258579 0.0240122426355566 0 0.00078254769848253112 0.024683609684583576 0 0.00094883863601758465 0.024947815024457299 0 0.00078254769848253112 0.024683609684583576 0 -9.8469261988410372e-05 0.02434959068065912 0 0.00042823872954006638 0.024228763170447563 0 -0.00069732727948528222 0.025310376814080295 0 -0.00055331249578706974 0.025194692712562541 0 -0.00091533386992975112 0.024255617796020795 0 -0.00086911897564719194 0.023712031633505916 0 -0.00029183568755175376 0.023975072676118068 0 -0.0015991970941531381 0.024043239911567822 0 -0.00091533386992975112 0.024255617796020795 0 -0.00086911897564719194 0.023712031633505916 0 -0.0030393500433534659 0.024372334939123243 0 -0.0023710526266062602 0.025773587652965172 0 -0.0018098573059352053 0.024329668595360981 0 -0.0011001385433714844 0.025722403142472563 0 -0.0010327563841905942 0.02449536155297025 0 -0.0015991970941531381 0.024043239911567822 0 -0.00086911897564719194 0.023712031633505916 0 -0.0013827044939498537 0.023412136933100691 0 -0.0025524282933977517 0.023118785607274636 0 -0.0018098573059352053 0.024329668595360981 0 -0.0012815765431498617 0.022811769751663848 0 -0.0010327563841905942 0.02449536155297025 0 -0.00095588607197372155 0.023971142045560362 0 -0.0019993050629382144 0.021932025816332908 0 -0.0025524282933977517 0.023118785607274636 0 -0.0012815765431498617 0.022811769751663848 0 -0.0011933081574907651 0.021721168230123749 0 -0.0012815765431498617 0.022811769751663848 0 -0.00081114131086577391 0.02238264148937065 0 -0.0012815765431498617 0.022811769751663848 0 -0.00081114131086577391 0.02238264148937065 0 -0.00071552676665383251 0.023053224211794825 0 -0.0013827044939498537 0.023412136933100691 0 -0.0012815765431498617 0.022811769751663848 0 -0.00071552676665383251 0.023053224211794825 0 -0.00086911897564719194 0.023712031633505916 0 -0.00071552676665383251 0.023053224211794825 0 -0.00021671820795823865 0.023541727828241325 0 -0.00086911897564719194 0.023712031633505916 0 -0.0013827044939498537 0.023412136933100691 0 -0.00071552676665383251 0.023053224211794825 0 -0.00071552676665383251 0.023053224211794825 0 -7.5774141555596411e-05 0.023001529574405263 0 -0.00021671820795823865 0.023541727828241325 0 -0.00071552676665383251 0.023053224211794825 0 -7.5774141555596411e-05 0.023001529574405263 0 -0.00035766669634331436 0.022409881367706171 0 -0.00081114131086577391 0.02238264148937065 0 -0.00071552676665383251 0.023053224211794825 0 -0.00035766669634331436 0.022409881367706171 0 0.00059933607831176734 0.022033732277464281 0 -7.5774141555596411e-05 0.023001529574405263 0 -0.00035766669634331436 0.022409881367706171 0 0.00059933607831176734 0.022033732277464281 0 -7.5774141555596411e-05 0.023001529574405263 0 0.00046352715442312255 0.023141648001525832 0 -7.5774141555596411e-05 0.023001529574405263 0 -0.00021671820795823865 0.023541727828241325 0 0.00046352715442312255 0.023141648001525832 0 -0.00021671820795823865 0.023541727828241325 0 0.00046352715442312255 0.023141648001525832 0 0.00012709934821693568 0.024048436054408717 0 -0.00021671820795823865 0.023541727828241325 0 -0.00029183568755175376 0.023975072676118068 0 0.00012709934821693568 0.024048436054408717 0 -0.00086911897564719194 0.023712031633505916 0 -0.00021671820795823865 0.023541727828241325 0 -0.00029183568755175376 0.023975072676118068 0 -0.00029183568755175376 0.023975072676118068 0 -9.8469261988410372e-05 0.02434959068065912 0 0.00012709934821693568 0.024048436054408717 0 -0.00091533386992975112 0.024255617796020795 0 -0.00029183568755175376 0.023975072676118068 0 -9.8469261988410372e-05 0.02434959068065912 0 -9.8469261988410372e-05 0.02434959068065912 0 0.00012709934821693568 0.024048436054408717 0 -0.00041118972247354449 0.02407122548057573 0 -9.8469261988410372e-05 0.02434959068065912 0 -1.3013256401113793e-05 0.023818035568262487 0 -0.00041118972247354449 0.02407122548057573 0 -9.8469261988410372e-05 0.02434959068065912 0 -1.3013256401113793e-05 0.023818035568262487 0 0.00042823872954006638 0.024228763170447563 0 -1.3013256401113793e-05 0.023818035568262487 0 0.00041602360037658093 0.023573984527175462 0 0.00042823872954006638 0.024228763170447563 0 -1.3013256401113793e-05 0.023818035568262487 0 0.00044277414451571092 0.022640636233617409 0 0.00041602360037658093 0.023573984527175462 0 -1.3013256401113793e-05 0.023818035568262487 0 -0.00041118972247354449 0.02407122548057573 0 -0.00085107745960901946 0.022945591924841025 0 0.0001131081778033971 0.0213123503043109 0 0.00044277414451571092 0.022640636233617409 0 -0.00085107745960901946 0.022945591924841025 0 -1.3013256401113793e-05 0.023818035568262487 0 0.00044277414451571092 0.022640636233617409 0 -0.00085107745960901946 0.022945591924841025 0 0.0001131081778033971 0.0213123503043109 0 1.2976259713633548e-06 0.021488889000152188 0 -3.0102897757182163e-06 0.018751897958282571 0 0.0001131081778033971 0.0213123503043109 0 -0.00085107745960901946 0.022945591924841025 0 -3.0102897757182163e-06 0.018751897958282571 0 1.2976259713633548e-06 0.021488889000152188 0 0.00044277414451571092 0.022640636233617409 0 8.7766441141477695e-07 0.024220306841509207 0 0.0001131081778033971 0.0213123503043109 0 1.2976259713633548e-06 0.021488889000152188 0 0.00044277414451571092 0.022640636233617409 0 0.00044277414451571092 0.022640636233617409 0 0.00033737367338956343 0.023271614806565307 0 0.00041602360037658093 0.023573984527175462 0 0.00033737367338956343 0.023271614806565307 0 8.7766441141477695e-07 0.024220306841509207 0 0.00038215187621884185 0.023401152734050815 0 -8.0179741921372226e-09 0.024232139346067379 0 0.00021258748512723675 0.026570160342005489 0 0.00044277414451571092 0.022640636233617409 0 0.00033737367338956343 0.023271614806565307 0 8.7766441141477695e-07 0.024220306841509207 0 -1.5937957859533099e-06 0.024229511663062617 0 1.5956722314739039e-06 0.027929788052822146 0 9.2487091070203676e-05 0.028216604817644708 0 1.5956722314739039e-06 0.027929788052822146 0 9.2487091070203676e-05 0.028216604817644708 0 0.0001150390651409175 0.028954919130499746 0 0.00033737367338956343 0.023271614806565307 0 0.00038215187621884185 0.023401152734050815 0 0.00069900788903808791 0.023504294197040337 0 0.00033737367338956343 0.023271614806565307 0 0.00069900788903808791 0.023504294197040337 0 0.00063463844719527265 0.023865142353377073 0 0.00069900788903808791 0.023504294197040337 0 0.00063463844719527265 0.023865142353377073 0 0.0010597307119627631 0.023899098228556136 0 0.00033737367338956343 0.023271614806565307 0 0.00063463844719527265 0.023865142353377073 0 0.00041602360037658093 0.023573984527175462 0 0.00063463844719527265 0.023865142353377073 0 0.00041602360037658093 0.023573984527175462 0 0.00042823872954006638 0.024228763170447563 0 0.00078254769848253112 0.024683609684583576 0 0.00042823872954006638 0.024228763170447563 0 0.00094883863601758465 0.024947815024457299 0 0.00063463844719527265 0.023865142353377073 0 0.00042823872954006638 0.024228763170447563 0 0.00094883863601758465 0.024947815024457299 0 0.00063463844719527265 0.023865142353377073 0 0.00094883863601758465 0.024947815024457299 0 0.0010597307119627631 0.023899098228556136 0 0.00071815037277237316 0.026927416530106357 0 0.00051325198185988511 0.02751328510211876 0 0.00094883863601758465 0.024947815024457299 0 -0.00066220854771588183 0.025790283384465811 0 0.00065720558387382408 0.029109712741239625 0 -0.0014574338592963283 0.028867606840482334 0 -0.00062227813046303597 0.030317695140792907 0 -0.0016280809250939574 0.030128881101376435 0 -0.0014574338592963283 0.028867606840482334 0 -0.0016280809250939574 0.030128881101376435 0 -0.0024786406545066592 0.029757849631914551 0 -0.0016280809250939574 0.030128881101376435 0 -0.0024786406545066592 0.029757849631914551 0 -0.0021705328953630153 0.03075103114052324 0 -0.0021705328953630153 0.03075103114052324 0 -0.0025451527005108427 0.031479789715284742 0 -0.0029682097119128805 0.030875797413889385 0 -0.0024786406545066592 0.029757849631914551 0 -0.0021705328953630153 0.03075103114052324 0 -0.0029682097119128805 0.030875797413889385 0 -0.00062227813046303597 0.030317695140792907 0 -0.0016280809250939574 0.030128881101376435 0 -0.001646480683422955 0.030848798793768735 0 -0.0016280809250939574 0.030128881101376435 0 -0.0021705328953630153 0.03075103114052324 0 -0.001646480683422955 0.030848798793768735 0 -0.001646480683422955 0.030848798793768735 0 -0.0021027595721233869 0.031266879822379461 0 -0.0018234529369068936 0.031486760197425606 0 -0.0021705328953630153 0.03075103114052324 0 -0.001646480683422955 0.030848798793768735 0 -0.0021027595721233869 0.031266879822379461 0 -0.0021705328953630153 0.03075103114052324 0 -0.0021027595721233869 0.031266879822379461 0 -0.0025451527005108427 0.031479789715284742 0 -0.0021027595721233869 0.031266879822379461 0 -0.0025451527005108427 0.031479789715284742 0 -0.0024768099536058826 0.031577152444149589 0 -0.0021027595721233869 0.031266879822379461 0 -0.0024768099536058826 0.031577152444149589 0 -0.0018234529369068936 0.031486760197425606 0 -0.00066220854771588183 0.025790283384465811 0 -0.0018234529369068936 0.031486760197425606 0 0.00065720558387382408 0.029109712741239625 0 -0.00062227813046303597 0.030317695140792907 0 -0.001646480683422955 0.030848798793768735 0 -0.0018234529369068936 0.031486760197425606 0 0.00051325198185988511 0.02751328510211876 0 -6.5875396256368784e-05 0.029038034114832686 0 -0.0012310675895392286 0.027628163794670601 0 -0.0015412404918351752 0.028869041767915746 0 -0.0018234529369068936 0.031486760197425606 0 0.00065720558387382408 0.029109712741239625 0 -0.0010772968968915607 0.03277433706181912 0 0.00069900788903808791 0.023504294197040337 0 0.0010597307119627631 0.023899098228556136 0 0.0010510336965239514 0.023434869016669722 0 0.00038215187621884185 0.023401152734050815 0 0.00069900788903808791 0.023504294197040337 0 0.0010510336965239514 0.023434869016669722 0 0.00021258748512723675 0.026570160342005489 0 -6.5875396256368784e-05 0.029038034114832686 0 -0.00011082968451577622 0.028342766082372198 0 0.0001150390651409175 0.028954919130499746 0 -1.5916988747489718e-06 0.031623583609958858 0 9.2487091070203676e-05 0.028216604817644708 0 -0.00011082968451577622 0.028342766082372198 0 0.0001150390651409175 0.028954919130499746 0 1.5956722314739039e-06 0.027929788052822146 0 0.0001150390651409175 0.028954919130499746 0 -1.5916988747489718e-06 0.031623583609958858 0 -5.5692229174267267e-06 0.031638042840131234 0 -0.00091160443793519667 0.035388407524818997 0 -0.0012703935246780873 0.037002347591359674 0 -6.5875396256368784e-05 0.029038034114832686 0 -1.4579788929710497e-06 0.03162683127993509 0 -0.0025817158870561157 0.035927744640665296 0 -5.5692229174267267e-06 0.031638042840131234 0 -0.00091160443793519667 0.035388407524818997 0 -0.00041357145559105338 0.035597815169937742 0 -0.0025817158870561157 0.035927744640665296 0 -0.00091160443793519667 0.035388407524818997 0 -0.00075584709193955214 0.030089602409510748 0 -6.5875396256368784e-05 0.029038034114832686 0 -0.0024768099536058826 0.031577152444149589 0 -0.0018234529369068936 0.031486760197425606 0 -0.0010772968968915607 0.03277433706181912 0 -0.00041357145559105338 0.035597815169937742 0 -0.00091160443793519667 0.035388407524818997 0 -0.0012703935246780873 0.037002347591359674 0 -0.00041357145559105338 0.035597815169937742 0 -0.0012703935246780873 0.037002347591359674 0 -0.0022039000191358014 0.034400220588424908 0 -0.0012703935246780873 0.037002347591359674 0 -0.00039464440655813827 0.039283531574890555 0 -0.0012618144265287615 0.041845331011641049 0 -5.5692229174267267e-06 0.031638042840131234 0 -0.0012703935246780873 0.037002347591359674 0 -0.00033196729582641254 0.037271658768196998 0 -5.5692229174267267e-06 0.031638042840131234 0 7.813905693832384e-07 0.036022762242098529 0 -0.00033196729582641254 0.037271658768196998 0 0.00027154984562245037 0.039911570329040538 0 7.813905693832384e-07 0.036022762242098529 0 -0.00033196729582641254 0.037271658768196998 0 0.00027154984562245037 0.039911570329040538 0 -0.00039464440655813827 0.039283531574890555 0 -4.0317649927790799e-05 0.041261258209510897 0 0.00027154984562245037 0.039911570329040538 0 -0.00033196729582641254 0.037271658768196998 0 -0.00039464440655813827 0.039283531574890555 0 -0.0012703935246780873 0.037002347591359674 0 -0.00033196729582641254 0.037271658768196998 0 -0.00039464440655813827 0.039283531574890555 0 -0.00039464440655813827 0.039283531574890555 0 -4.0317649927790799e-05 0.041261258209510897 0 -0.0012618144265287615 0.041845331011641049 0 -4.0317649927790799e-05 0.041261258209510897 0 -0.0012618144265287615 0.041845331011641049 0 -0.00032340600439105137 0.042513333936423946 0 -0.0012703935246780873 0.037002347591359674 0 -0.0048240110696817062 0.032081700748079096 0 -0.0022039000191358014 0.034400220588424908 0 -0.0029651483297012159 0.03762784153216793 0 -0.0034195225200887892 0.037415613382323694 0 -0.00075584709193955214 0.030089602409510748 0 -0.0012673244564534814 0.030204884903083942 0 -0.0025451527005108427 0.031479789715284742 0 -0.0024768099536058826 0.031577152444149589 0 -0.0031468229651898812 0.032290124044368589 0 -0.00041357145559105338 0.035597815169937742 0 -0.0022039000191358014 0.034400220588424908 0 -0.0031468229651898812 0.032290124044368589 0 -0.0025451527005108427 0.031479789715284742 0 -0.0031468229651898812 0.032290124044368589 0 -0.0029682097119128805 0.030875797413889385 0 -0.0048240110696817062 0.032081700748079096 0 -0.0022039000191358014 0.034400220588424908 0 -0.0031468229651898812 0.032290124044368589 0 -0.0048240110696817062 0.032081700748079096 0 -0.0031468229651898812 0.032290124044368589 0 -0.0042550566850834701 0.030773922390436019 0 -0.0031468229651898812 0.032290124044368589 0 -0.0042550566850834701 0.030773922390436019 0 -0.0029682097119128805 0.030875797413889385 0 -0.0042550566850834701 0.030773922390436019 0 -0.0029682097119128805 0.030875797413889385 0 -0.0038116553542529908 0.029695057541783886 0 -0.0024786406545066592 0.029757849631914551 0 -0.0029682097119128805 0.030875797413889385 0 -0.0038116553542529908 0.029695057541783886 0 -0.006253982416808742 0.029294671176070399 0 -0.0042550566850834701 0.030773922390436019 0 -0.0038116553542529908 0.029695057541783886 0 -0.00028273670597872531 0.043795239099851176 0 -0.0012618144265287615 0.041845331011641049 0 -0.00032340600439105137 0.042513333936423946 0 -0.006253982416808742 0.029294671176070399 0 -0.0048240110696817062 0.032081700748079096 0 -0.0042550566850834701 0.030773922390436019 0 -0.0042515153177587004 0.037305147126806729 0 -0.0034195225200887892 0.037415613382323694 0 0.0071010123250698021 0.0026558224196797757 0 0.0069208602685486408 0.0017440825763107687 0 0.0070012704013381879 0.0038196756510569924 0 0.0071010123250698021 0.0026558224196797757 0 0.0073425825965341271 0.0018144463603885115 0 0.0071079597540615012 0.0037223400124963891 0 0.0054041474210443389 0.0058367559493722743 0 0.006107939242311641 0.0053516717031399513 0 0.0047590498092563204 0.0084137442167835919 0 0.0046152335078726093 0.0097999707111053221 0 0.0060965854343748051 0.0075394770814450019 0 0.0041203677244196239 0.0091166740277013707 0 0.0047590498092563204 0.0084137442167835919 0 0.0046152335078726093 0.0097999707111053221 0 0.0071010123250698021 0.0026558224196797757 0 0.0073425825965341271 0.0018144463603885115 0 0.0071583499986673125 0.0019055982526772655 0 0.0047590498092563204 0.0084137442167835919 0 0.0042355084589755718 0.0077644674008627195 0 0.005043882562277547 0.0075471290368109289 0 0.0041203677244196239 0.0091166740277013707 0 0.0047590498092563204 0.0084137442167835919 0 0.0039916852708684865 0.0084799515154920669 0 0.0047590498092563204 0.0084137442167835919 0 0.0039916852708684865 0.0084799515154920669 0 0.0042355084589755718 0.0077644674008627195 0 0.0039916852708684865 0.0084799515154920669 0 0.0042355084589755718 0.0077644674008627195 0 0.0032847131997283544 0.0078925796388962764 0 0.0039916852708684865 0.0084799515154920669 0 0.003349271622849633 0.0091919340243090102 0 0.0032847131997283544 0.0078925796388962764 0 0.003349271622849633 0.0091919340243090102 0 0.0032847131997283544 0.0078925796388962764 0 0.0024026675234984753 0.0086105462067778225 0 0.003349271622849633 0.0091919340243090102 0 0.0024026675234984753 0.0086105462067778225 0 0.0021505065512533519 0.010012475520935735 0 0.0041203677244196239 0.0091166740277013707 0 0.0039916852708684865 0.0084799515154920669 0 0.003349271622849633 0.0091919340243090102 0 0.0041203677244196239 0.0091166740277013707 0 0.003349271622849633 0.0091919340243090102 0 0.0038634754747333133 0.0096265062079331672 0 0.0038634754747333133 0.0096265062079331672 0 0.003380626960918317 0.010386614992320117 0 0.0046152335078726093 0.0097999707111053221 0 0.003349271622849633 0.0091919340243090102 0 0.0038634754747333133 0.0096265062079331672 0 0.003380626960918317 0.010386614992320117 0 0.003380626960918317 0.010386614992320117 0 0.0046152335078726093 0.0097999707111053221 0 0.0033316030530202313 0.011736493140380925 0 0.003349271622849633 0.0091919340243090102 0 0.003380626960918317 0.010386614992320117 0 0.0021505065512533519 0.010012475520935735 0 0.003380626960918317 0.010386614992320117 0 0.0021505065512533519 0.010012475520935735 0 0.0023132591883763582 0.011094610007258735 0 0.0072409790538770597 0.0017073662975129393 0 0.0072073559956384913 0.0016262082436339792 0 0.0071831479007158144 0.0016107683915533601 0 0.0073425825965341271 0.0018144463603885115 0 0.0072409790538770597 0.0017073662975129393 0 0.0071831479007158144 0.0016107683915533601 0 0.0054041474210443389 0.0058367559493722743 0 0.0042662451311395524 0.0065806617462655249 0 0.0041203677244196239 0.0091166740277013707 0 0.0038634754747333133 0.0096265062079331672 0 0.0046152335078726093 0.0097999707111053221 0 0.0071010123250698021 0.0026558224196797757 0 0.0071583499986673125 0.0019055982526772655 0 0.0069208602685486408 0.0017440825763107687 0 0.0073425825965341271 0.0018144463603885115 0 0.0071583499986673125 0.0019055982526772655 0 0.0072409790538770597 0.0017073662975129393 0 0.0079765739644992381 0.0010453917496839546 0 0.007997582501020414 0.0010353271258783851 0 0.0071583499986673125 0.0019055982526772655 0 0.0072409790538770597 0.0017073662975129393 0 0.0069208602685486408 0.0017440825763107687 0 0.0072409790538770597 0.0017073662975129393 0 0.0071829003432018696 0.0016104570988901272 0 0.0071969369932862893 0.0016107631911155976 0 0.0072409790538770597 0.0017073662975129393 0 0.0071969369932862893 0.0016107631911155976 0 0.0072073559956384913 0.0016262082436339792 0 0.0071969369932862893 0.0016107631911155976 0 0.0072073559956384913 0.0016262082436339792 0 0.0072191959014295311 0.0015791493106697173 0 0.0071829003432018696 0.0016104570988901272 0 0.0072461541024296215 0.0014937193404065859 0 0.0073681136361271908 0.0010711390578674622 0 0.007997582501020414 0.0010353271258783851 0 0.008455000978585283 0.00052166797748607685 0 0.0072073559956384913 0.0016262082436339792 0 0.0072191959014295311 0.0015791493106697173 0 0.0072382056449190896 0.0015892549468870193 0 0.0071969369932862893 0.0016107631911155976 0 0.0072191959014295311 0.0015791493106697173 0 0.0072461541024296215 0.0014937193404065859 0 0.0072478521755466188 0.0015365512500334106 0 0.0072382056449190896 0.0015892549468870193 0 0.0072940964575131106 0.0014831975164060218 0 0.0072191959014295311 0.0015791493106697173 0 0.0072478521755466188 0.0015365512500334106 0 0.0072461541024296215 0.0014937193404065859 0 0.0072191959014295311 0.0015791493106697173 0 0.0072478521755466188 0.0015365512500334106 0 0.0072382056449190896 0.0015892549468870193 0 0.0072940964575131106 0.0014831975164060218 0 0.0073576514547444962 0.001501703023951331 0 0.0073160320378711646 0.0015844657486981718 0 0.0072382056449190896 0.0015892549468870193 0 0.0072940964575131106 0.0014831975164060218 0 0.0073160320378711646 0.0015844657486981718 0 0.0072478521755466188 0.0015365512500334106 0 0.0072940964575131106 0.0014831975164060218 0 0.0072461541024296215 0.0014937193404065859 0 0.0072940964575131106 0.0014831975164060218 0 0.0072461541024296215 0.0014937193404065859 0 0.0073681136361271908 0.0010711390578674622 0 0.0071829003432018696 0.0016104570988901272 0 0.0071969369932862893 0.0016107631911155976 0 0.0072461541024296215 0.0014937193404065859 0 0.0074501356565030014 0.0015398567794741131 0 0.0074102888543109285 0.001372321195177225 0 0.0077087931876607483 0.0012152512646144047 0 0.0072940964575131106 0.0014831975164060218 0 0.0073576514547444962 0.001501703023951331 0 0.0074102888543109285 0.001372321195177225 0 0.0074501356565030014 0.0015398567794741131 0 0.0073576514547444962 0.001501703023951331 0 0.0073160320378711646 0.0015844657486981718 0 0.0074501356565030014 0.0015398567794741131 0 0.0073576514547444962 0.001501703023951331 0 0.0074102888543109285 0.001372321195177225 0 0.0072940964575131106 0.0014831975164060218 0 0.0074102888543109285 0.001372321195177225 0 0.0073681136361271908 0.0010711390578674622 0 0.0074102888543109285 0.001372321195177225 0 0.0073681136361271908 0.0010711390578674622 0 0.0077087931876607483 0.0012152512646144047 0 0.0092133477170747123 -0.00045589821912801493 0 0.0092270305015035737 -0.00044341077871778523 0 0.0092223926854850275 -0.00042838282834254451 0 0.0092133477170747123 -0.00045589821912801493 0 0.0091883376214415488 -0.00042773574829107829 0 0.0092223926854850275 -0.00042838282834254451 0 0.0092392676158374286 -0.000458048238130947 0 0.0092133477170747123 -0.00045589821912801493 0 0.0092270305015035737 -0.00044341077871778523 0 0.0092392676158374286 -0.000458048238130947 0 0.0092270305015035737 -0.00044341077871778523 0 0.0092375374824734506 -0.0004325585000105914 0 0.007997582501020414 0.0010353271258783851 0 0.0081900494037593537 0.0012950795163807224 0 0.0071010123250698021 0.0026558224196797757 0 0.0070012704013381879 0.0038196756510569924 0 0.0071079597540615012 0.0037223400124963891 0 0.0070012704013381879 0.0038196756510569924 0 0.0071079597540615012 0.0037223400124963891 0 0.007591517957667937 0.0041553072155639595 0 0.006107939242311641 0.0053516717031399513 0 0.0064839876293945062 0.004912349339156458 0 0.0092270305015035737 -0.00044341077871778523 0 0.0092375374824734506 -0.0004325585000105914 0 0.0092223926854850275 -0.00042838282834254451 0 0.0092375374824734506 -0.0004325585000105914 0 0.0092223926854850275 -0.00042838282834254451 0 0.0092415358804775489 -0.0004031854837424811 0 0.0091883376214415488 -0.00042773574829107829 0 0.0092223926854850275 -0.00042838282834254451 0 0.0091935506332305565 -0.00041941403646529048 0 0.0092223926854850275 -0.00042838282834254451 0 0.0091935506332305565 -0.00041941403646529048 0 0.0092166160963977669 -0.00041151615143112757 0 0.0092223926854850275 -0.00042838282834254451 0 0.0092166160963977669 -0.00041151615143112757 0 0.0092415358804775489 -0.0004031854837424811 0 0.0091935506332305565 -0.00041941403646529048 0 0.0092001804679962967 -0.00040707607346451239 0 0.0092166160963977669 -0.00041151615143112757 0 0.0092001804679962967 -0.00040707607346451239 0 0.0092266308648805574 -0.00039781348867163832 0 0.0092166160963977669 -0.00041151615143112757 0 0.0092266308648805574 -0.00039781348867163832 0 0.0092415358804775489 -0.0004031854837424811 0 0.0092432040111437141 -0.0003820547076612273 0 0.0092266308648805574 -0.00039781348867163832 0 0.0092166160963977669 -0.00041151615143112757 0 0.0092415358804775489 -0.0004031854837424811 0 0.0092827565110521829 -0.00036280902326748946 0 0.009225107427257585 -0.00036423389443298622 0 0.0092432040111437141 -0.0003820547076612273 0 0.0092827565110521829 -0.00036280902326748946 0 0.0092415358804775489 -0.0004031854837424811 0 0.0092432040111437141 -0.0003820547076612273 0 0.009225107427257585 -0.00036423389443298622 0 0.0092432040111437141 -0.0003820547076612273 0 0.0092176019251779297 -0.00038818541487556845 0 0.0092266308648805574 -0.00039781348867163832 0 0.0092432040111437141 -0.0003820547076612273 0 0.0092176019251779297 -0.00038818541487556845 0 0.0092001804679962967 -0.00040707607346451239 0 0.0092266308648805574 -0.00039781348867163832 0 0.0092176019251779297 -0.00038818541487556845 0 0.009225107427257585 -0.00036423389443298622 0 0.0092176019251779297 -0.00038818541487556845 0 0.0091983695653399117 -0.00038988316609210735 0 0.0092001804679962967 -0.00040707607346451239 0 0.0092176019251779297 -0.00038818541487556845 0 0.0091983695653399117 -0.00038988316609210735 0 0.0092827565110521829 -0.00036280902326748946 0 0.0092375374824734506 -0.0004325585000105914 0 0.0092415358804775489 -0.0004031854837424811 0 0.0060965854343748051 0.0075394770814450019 0 0.0062598403626011418 0.0054495631796043012 0 0.007591517957667937 0.0041553072155639595 0 0.0078042012328915656 0.0041631840222297462 0 0.0070012704013381879 0.0038196756510569924 0 0.007591517957667937 0.0041553072155639595 0 0.0084265514021301825 0.0012646236681137697 0 0.0081900494037593537 0.0012950795163807224 0 0.0070973910296191064 0.003800537855972739 0 0.0078042012328915656 0.0041631840222297462 0 0.007591517957667937 0.0041553072155639595 0 0.0070973910296191064 0.003800537855972739 0 0.007591517957667937 0.0041553072155639595 0 0.0064393181938654526 0.004280004915829588 0 0.0062598403626011418 0.0054495631796043012 0 0.007591517957667937 0.0041553072155639595 0 0.0064393181938654526 0.004280004915829588 0 0.0051684581886356331 0.0038763870344718423 0 0.0064393181938654526 0.004280004915829588 0 0.0054399182924965159 0.0050830874433814566 0 0.0051684581886356331 0.0038763870344718423 0 0.004322226332273073 0.0047242664076568713 0 0.0054399182924965159 0.0050830874433814566 0 0.003665670705229932 0.0034826906059108298 0 0.0051684581886356331 0.0038763870344718423 0 0.004322226332273073 0.0047242664076568713 0 0.004322226332273073 0.0047242664076568713 0 0.0043186208087815526 0.0058783621467922917 0 0.0054399182924965159 0.0050830874433814566 0 0.0043186208087815526 0.0058783621467922917 0 0.0054399182924965159 0.0050830874433814566 0 0.0056377754664135539 0.0063661277582615127 0 0.0062598403626011418 0.0054495631796043012 0 0.0054399182924965159 0.0050830874433814566 0 0.0056377754664135539 0.0063661277582615127 0 0.0062598403626011418 0.0054495631796043012 0 0.0064393181938654526 0.004280004915829588 0 0.0054399182924965159 0.0050830874433814566 0 0.0060965854343748051 0.0075394770814450019 0 0.0062598403626011418 0.0054495631796043012 0 0.0056377754664135539 0.0063661277582615127 0 0.0056377754664135539 0.0063661277582615127 0 0.0046627674945781562 0.0068918454446395714 0 0.0054362684223247153 0.0070947605319361916 0 0.0043186208087815526 0.0058783621467922917 0 0.0056377754664135539 0.0063661277582615127 0 0.0046627674945781562 0.0068918454446395714 0 0.0046627674945781562 0.0068918454446395714 0 0.0042355084589755718 0.0077644674008627195 0 0.005043882562277547 0.0075471290368109289 0 0.0046627674945781562 0.0068918454446395714 0 0.005043882562277547 0.0075471290368109289 0 0.0054362684223247153 0.0070947605319361916 0 0.0060965854343748051 0.0075394770814450019 0 0.0056377754664135539 0.0063661277582615127 0 0.0054362684223247153 0.0070947605319361916 0 0.0047590498092563204 0.0084137442167835919 0 0.0060965854343748051 0.0075394770814450019 0 0.005043882562277547 0.0075471290368109289 0 0.0060965854343748051 0.0075394770814450019 0 0.005043882562277547 0.0075471290368109289 0 0.0054362684223247153 0.0070947605319361916 0 0.0032847131997283544 0.0078925796388962764 0 0.0023182203536678764 0.0068221110094241104 0 0.0024026675234984753 0.0086105462067778225 0 0.0032847131997283544 0.0078925796388962764 0 0.0034420212996178301 0.0066204475413434213 0 0.0023182203536678764 0.0068221110094241104 0 0.0042355084589755718 0.0077644674008627195 0 0.0032847131997283544 0.0078925796388962764 0 0.0034420212996178301 0.0066204475413434213 0 0.0046627674945781562 0.0068918454446395714 0 0.0042355084589755718 0.0077644674008627195 0 0.0034420212996178301 0.0066204475413434213 0 0.0043186208087815526 0.0058783621467922917 0 0.0046627674945781562 0.0068918454446395714 0 0.0034420212996178301 0.0066204475413434213 0 0.0034420212996178301 0.0066204475413434213 0 0.0030001172276901372 0.0052826252702648843 0 0.0023182203536678764 0.0068221110094241104 0 0.0024168674100136464 0.0040603569626005811 0 0.0030001172276901372 0.0052826252702648843 0 0.0019978297171026919 0.0052935447308852948 0 0.0043186208087815526 0.0058783621467922917 0 0.0034420212996178301 0.0066204475413434213 0 0.0030001172276901372 0.0052826252702648843 0 0.004322226332273073 0.0047242664076568713 0 0.0043186208087815526 0.0058783621467922917 0 0.0030001172276901372 0.0052826252702648843 0 0.003665670705229932 0.0034826906059108298 0 0.004322226332273073 0.0047242664076568713 0 0.0030001172276901372 0.0052826252702648843 0 0.0012964831937058259 0.0042540603595416157 0 0.0019978297171026919 0.0052935447308852948 0 0.00082619242013742334 0.0062280459800411903 0 0.0019978297171026919 0.0052935447308852948 0 0.00082619242013742334 0.0062280459800411903 0 0.0023182203536678764 0.0068221110094241104 0 0.0030001172276901372 0.0052826252702648843 0 0.0019978297171026919 0.0052935447308852948 0 0.0023182203536678764 0.0068221110094241104 0 -0.00060416833653917585 0.0054533266302963642 0 0.00025952991931617688 0.0049962267126473841 0 0.00082619242013742334 0.0062280459800411903 0 0.0016827604217060201 0.0045964889021871316 0 0.0014829913212556813 0.0050918021439601722 0 0.00042907118607738538 0.0074790102003933585 0 -0.00063253601714805224 0.0070600350193876617 0 0.00015253709744573424 0.0087351911758547143 0 0.00082619242013742334 0.0062280459800411903 0 0.00042907118607738538 0.0074790102003933585 0 0.0014527580961641942 0.0081273105090733429 0 0.00082619242013742334 0.0062280459800411903 0 0.00042907118607738538 0.0074790102003933585 0 -0.00063253601714805224 0.0070600350193876617 0 0.00082619242013742334 0.0062280459800411903 0 0.0023182203536678764 0.0068221110094241104 0 0.0014527580961641942 0.0081273105090733429 0 0.0023182203536678764 0.0068221110094241104 0 0.0024026675234984753 0.0086105462067778225 0 0.0014527580961641942 0.0081273105090733429 0 -0.002419537395358435 0.0051315605656482985 0 -0.0015392478830480315 0.0058733388525763156 0 -0.0025454933759476487 0.0071648049650409103 0 -0.00020532960512553394 0.013699304476030445 0 -0.00065221128832600183 0.015104924458232126 0 -0.0015392478830480315 0.0058733388525763156 0 -0.00063253601714805224 0.0070600350193876617 0 -0.0025454933759476487 0.0071648049650409103 0 -0.00060416833653917585 0.0054533266302963642 0 0.00082619242013742334 0.0062280459800411903 0 -0.00063253601714805224 0.0070600350193876617 0 -0.00060416833653917585 0.0054533266302963642 0 -0.0015392478830480315 0.0058733388525763156 0 -0.00063253601714805224 0.0070600350193876617 0 -0.00063253601714805224 0.0070600350193876617 0 -0.0025454933759476487 0.0071648049650409103 0 -0.0012740914584741837 0.0085774898061176282 0 -0.0025361153464046257 0.0094857274657468901 0 -0.0012740914584741837 0.0085774898061176282 0 -0.00081754756163932203 0.010507547299366907 0 -0.00065221128832600183 0.015104924458232126 0 -0.00086053574090818772 0.01646499185795125 0 -0.0025454933759476487 0.0071648049650409103 0 -0.0025361153464046257 0.0094857274657468901 0 -0.0012740914584741837 0.0085774898061176282 0 -0.00063253601714805224 0.0070600350193876617 0 -0.0012740914584741837 0.0085774898061176282 0 0.00015253709744573424 0.0087351911758547143 0 -0.0012740914584741837 0.0085774898061176282 0 -0.00081754756163932203 0.010507547299366907 0 0.00015253709744573424 0.0087351911758547143 0 -0.0025361153464046257 0.0094857274657468901 0 -0.00081754756163932203 0.010507547299366907 0 -0.002260580535761161 0.011770537432881889 0 -0.00086053574090818772 0.01646499185795125 0 -0.00086391375105312443 0.01752264420475529 0 0.0013301498418037681 0.0093394186439927987 0 0.0024026675234984753 0.0086105462067778225 0 0.0021505065512533519 0.010012475520935735 0 0.0013301498418037681 0.0093394186439927987 0 0.0024026675234984753 0.0086105462067778225 0 0.0014527580961641942 0.0081273105090733429 0 0.0013301498418037681 0.0093394186439927987 0 0.0014527580961641942 0.0081273105090733429 0 0.00015253709744573424 0.0087351911758547143 0 0.00042907118607738538 0.0074790102003933585 0 0.0014527580961641942 0.0081273105090733429 0 0.00015253709744573424 0.0087351911758547143 0 0.0013301498418037681 0.0093394186439927987 0 0.00015253709744573424 0.0087351911758547143 0 0.00073888220980802431 0.010305454802980951 0 -0.00081754756163932203 0.010507547299366907 0 0.00015253709744573424 0.0087351911758547143 0 0.00073888220980802431 0.010305454802980951 0 -0.00081754756163932203 0.010507547299366907 0 0.00073888220980802431 0.010305454802980951 0 0.00031775330630841905 0.011928880267710135 0 0.00073888220980802431 0.010305454802980951 0 0.0021505065512533519 0.010012475520935735 0 0.0013644512889530562 0.011101175752918921 0 0.0013301498418037681 0.0093394186439927987 0 0.00073888220980802431 0.010305454802980951 0 0.0021505065512533519 0.010012475520935735 0 0.0021505065512533519 0.010012475520935735 0 0.0023132591883763582 0.011094610007258735 0 0.0013644512889530562 0.011101175752918921 0 0.0023132591883763582 0.011094610007258735 0 0.0014862729817333858 0.012053218939106854 0 0.0013644512889530562 0.011101175752918921 0 0.00073888220980802431 0.010305454802980951 0 0.0013644512889530562 0.011101175752918921 0 0.00031775330630841905 0.011928880267710135 0 0.0014862729817333858 0.012053218939106854 0 0.0013644512889530562 0.011101175752918921 0 0.00031775330630841905 0.011928880267710135 0 0.0014862729817333858 0.012053218939106854 0 0.00031775330630841905 0.011928880267710135 0 0.00083651015823483078 0.01316346462396333 0 0.00031775330630841905 0.011928880267710135 0 0.00083651015823483078 0.01316346462396333 0 0.00029420396505618204 0.013878106602701805 0 0.00083651015823483078 0.01316346462396333 0 0.0014530547328330836 0.012954549668856482 0 0.00098351475478847261 0.013599584870701047 0 0.0014862729817333858 0.012053218939106854 0 0.0014530547328330836 0.012954549668856482 0 0.0033316030530202313 0.011736493140380925 0 0.0014530547328330836 0.012954549668856482 0 0.00098351475478847261 0.013599584870701047 0 0.0020058159895712763 0.013456055014553681 0 0.0014862729817333858 0.012053218939106854 0 0.00083651015823483078 0.01316346462396333 0 0.0014530547328330836 0.012954549668856482 0 -0.00081754756163932203 0.010507547299366907 0 -0.002260580535761161 0.011770537432881889 0 -0.00070747913019185535 0.012858057049182353 0 -0.00081754756163932203 0.010507547299366907 0 0.00031775330630841905 0.011928880267710135 0 -0.00070747913019185535 0.012858057049182353 0 0.00031775330630841905 0.011928880267710135 0 -0.00070747913019185535 0.012858057049182353 0 0.00029420396505618204 0.013878106602701805 0 -0.00086391375105312443 0.01752264420475529 0 -0.0005932932908554484 0.018202794567994434 0 -0.002260580535761161 0.011770537432881889 0 -0.00070747913019185535 0.012858057049182353 0 -0.0018523541619206753 0.014108494448057752 0 -0.00070747913019185535 0.012858057049182353 0 -0.0018523541619206753 0.014108494448057752 0 -2.9460328581287161e-05 0.01508005160411423 0 -0.00070747913019185535 0.012858057049182353 0 -2.9460328581287161e-05 0.01508005160411423 0 0.00029420396505618204 0.013878106602701805 0 -2.9460328581287161e-05 0.01508005160411423 0 0.00029420396505618204 0.013878106602701805 0 0.00043608548395521771 0.014132696430935298 0 -2.9460328581287161e-05 0.01508005160411423 0 2.4559408732105283e-06 0.015083334726573883 0 0.00043608548395521771 0.014132696430935298 0 -0.0018523541619206753 0.014108494448057752 0 -2.9460328581287161e-05 0.01508005160411423 0 -4.6770163903160261e-06 0.018740970872694628 0 -2.9460328581287161e-05 0.01508005160411423 0 2.4559408732105283e-06 0.015083334726573883 0 -4.6770163903160261e-06 0.018740970872694628 0 -0.0005932932908554484 0.018202794567994434 0 -1.2627752534933187e-06 0.018746600830877553 0 0.00098351475478847261 0.013599584870701047 0 0.00059914721685815336 0.013718233625802196 0 0.00032707335635261814 0.01355035372711314 0 0.00059914721685815336 0.013718233625802196 0 0.00039935011955755746 0.013295276732340138 0 0.00032707335635261814 0.01355035372711314 0 0.00093214003714122307 0.010080234392503282 0 0.0022003162112872372 0.0081444003866731219 0 3.4510960497503448e-06 0.00852770755218339 0 0.00016233042679947011 0.0080305821257658245 0 0.00034785391732720743 0.0079837853536575305 0 0.00098351475478847261 0.013599584870701047 0 0.00032707335635261814 0.01355035372711314 0 0.0011020627808701969 0.013608351413059475 0 0.0019649011274421278 0.008387269314629674 0 0.0022003162112872372 0.0081444003866731219 0 0.00083651015823483078 0.01316346462396333 0 0.00098351475478847261 0.013599584870701047 0 0.00059914721685815336 0.013718233625802196 0 0.00083651015823483078 0.01316346462396333 0 0.00029420396505618204 0.013878106602701805 0 0.00059914721685815336 0.013718233625802196 0 0.00029420396505618204 0.013878106602701805 0 0.00059914721685815336 0.013718233625802196 0 0.00043608548395521771 0.014132696430935298 0 2.4559408732105283e-06 0.015083334726573883 0 0.00043608548395521771 0.014132696430935298 0 -3.0919246032766787e-07 0.011424004802257184 0 0.00039935011955755746 0.013295276732340138 0 0.00043608548395521771 0.014132696430935298 0 -3.0919246032766787e-07 0.011424004802257184 0 0.00059914721685815336 0.013718233625802196 0 0.00039935011955755746 0.013295276732340138 0 0.00043608548395521771 0.014132696430935298 0 1.8484708690626235e-06 0.011416796658425385 0 0.00093214003714122307 0.010080234392503282 0 -2.5966529370025486e-06 0.011414691242593072 0 3.4510960497503448e-06 0.00852770755218339 0 2.4992357069899082e-06 0.0082612066643806756 0 0.00039935011955755746 0.013295276732340138 0 -3.0919246032766787e-07 0.011424004802257184 0 0.00032707335635261814 0.01355035372711314 0 3.4510960497503448e-06 0.00852770755218339 0 2.4992357069899082e-06 0.0082612066643806756 0 0.00016233042679947011 0.0080305821257658245 0 2.4992357069899082e-06 0.0082612066643806756 0 0.00019718089220944438 0.0075252526344599772 0 0.00016233042679947011 0.0080305821257658245 0 2.4992357069899082e-06 0.0082612066643806756 0 -2.3326302988438887e-06 0.0051114475269924235 0 0.00019718089220944438 0.0075252526344599772 0 -2.3326302988438887e-06 0.0051114475269924235 0 0.00019718089220944438 0.0075252526344599772 0 -0.00067833095774920513 0.0072279177370181431 0 0.00019718089220944438 0.0075252526344599772 0 -0.00030244576747119248 0.0085532958635367411 0 -0.00067833095774920513 0.0072279177370181431 0 0.00019718089220944438 0.0075252526344599772 0 0.00034785391732720743 0.0079837853536575305 0 -0.00030244576747119248 0.0085532958635367411 0 0.00019718089220944438 0.0075252526344599772 0 0.00016233042679947011 0.0080305821257658245 0 0.00034785391732720743 0.0079837853536575305 0 0.0071017303949704276 0.0017457351814381399 0 0.0072145045982319094 0.0016769258367775723 0 0.0071831479007158144 0.0016107683915533601 0 0.0022003162112872372 0.0081444003866731219 0 0.0033269734855420332 0.0051415499603862259 0 0.0014530547328330836 0.012954549668856482 0 0.0020058159895712763 0.013456055014553681 0 0.0033316030530202313 0.011736493140380925 0 0.0022003162112872372 0.0081444003866731219 0 0.0042662451311395524 0.0065806617462655249 0 0.0072073559956384913 0.0016262082436339792 0 0.0072145530340475663 0.0016248000176085839 0 0.0071831479007158144 0.0016107683915533601 0 0.0072145045982319094 0.0016769258367775723 0 0.0072145530340475663 0.0016248000176085839 0 0.0071831479007158144 0.0016107683915533601 0 0.0072145045982319094 0.0016769258367775723 0 0.0072145530340475663 0.0016248000176085839 0 0.0072643861092568747 0.0016185227380803556 0 0.0072073559956384913 0.0016262082436339792 0 0.0072382056449190896 0.0015892549468870193 0 0.0072145530340475663 0.0016248000176085839 0 0.0023132591883763582 0.011094610007258735 0 0.0014862729817333858 0.012053218939106854 0 0.0033316030530202313 0.011736493140380925 0 0.003380626960918317 0.010386614992320117 0 0.0023132591883763582 0.011094610007258735 0 0.0033316030530202313 0.011736493140380925 0 0.0074501356565030014 0.0015398567794741131 0 0.0073866770977913283 0.0018704659378540672 0 0.0080317200669394479 0.0015928155659678451 0 0.0074501356565030014 0.0015398567794741131 0 0.0073757586750513955 0.0016509548201727262 0 0.0073160320378711646 0.0015844657486981718 0 0.0044971137044563549 0.0020243091135460391 0 0.004342000542496843 0.0021775368808641675 0 0.0072382056449190896 0.0015892549468870193 0 0.0073160320378711646 0.0015844657486981718 0 0.0072643861092568747 0.0016185227380803556 0 0.0072145045982319094 0.0016769258367775723 0 0.0073757586750513955 0.0016509548201727262 0 0.0072643861092568747 0.0016185227380803556 0 0.0033269734855420332 0.0051415499603862259 0 0.004342000542496843 0.0021775368808641675 0 0.0073757586750513955 0.0016509548201727262 0 0.0073160320378711646 0.0015844657486981718 0 0.0072643861092568747 0.0016185227380803556 0 0.0072382056449190896 0.0015892549468870193 0 0.0072145530340475663 0.0016248000176085839 0 0.0072643861092568747 0.0016185227380803556 0 -0.00030244576747119248 0.0085532958635367411 0 -0.0018854246989309545 0.009278648233578931 0 -0.0016744430441488125 0.0078447412813716002 0 0.004342000542496843 0.0021775368808641675 0 0.0019315133052199762 0.0031115761081027529 0 0.0035856106680304243 -0.0017521903985475123 0 0.0034615275689625943 -0.0011308474709414442 0 0.0039352710853357018 -0.001407439484953005 0 0.0034615275689625943 -0.0011308474709414442 0 0.0037765450865051972 -0.00095196375865118528 0 0.0039352710853357018 -0.001407439484953005 0 0.0034615275689625943 -0.0011308474709414442 0 0.0037765450865051972 -0.00095196375865118528 0 0.0033354387985938786 -0.0004947313287018318 0 0.0019315133052199762 0.0031115761081027529 0 0.00027797022852867954 0.0030990076651908932 0 -0.0016744430441488125 0.0078447412813716002 0 -0.00067833095774920513 0.0072279177370181431 0 -0.0016193805861472658 0.0057094993729774257 0 -0.00030244576747119248 0.0085532958635367411 0 -0.0016744430441488125 0.0078447412813716002 0 -0.00067833095774920513 0.0072279177370181431 0 -2.3326302988438887e-06 0.0051114475269924235 0 -0.00067833095774920513 0.0072279177370181431 0 -0.0016193805861472658 0.0057094993729774257 0 0.00027797022852867954 0.0030990076651908932 0 4.2032152416995962e-06 0.002946592520640091 0 1.4061489067733918e-07 0.0050991576650604139 0 0.00027797022852867954 0.0030990076651908932 0 4.2578448333111713e-10 0.005103914706883368 0 1.0956321854550408e-07 0.0028574748580976533 0 4.128737781823595e-10 0.0029466008332221785 0 0.0037765450865051972 -0.00095196375865118528 0 0.0033354387985938786 -0.0004947313287018318 0 0.0039203546185258703 -0.00063328466254298815 0 0.00027797022852867954 0.0030990076651908932 0 0.0023034357294372553 -9.0645386905724442e-05 0 -5.2554960069668248e-05 0.0025297514198910362 0 -8.4366334931262736e-07 0.0029411470400529283 0 -3.2387173671833843e-06 -0.0010484377258002085 0 -8.4366334931262736e-07 0.0029411470400529283 0 -3.2387173671833843e-06 -0.0010484377258002085 0 5.7131377158556787e-07 -0.001393046446692391 0 0.0023034357294372553 -9.0645386905724442e-05 0 0.0029460859288579612 -0.0026190528650259929 0 -3.2387173671833843e-06 -0.0010484377258002085 0 5.7131377158556787e-07 -0.001393046446692391 0 1.5178452855409835e-05 -0.0035937947403845488 0 -8.7255625348237673e-07 -0.0013972413835368659 0 2.8411927570116799e-07 -0.0054177959059235874 0 -8.7108773263510765e-05 -0.0055863264439602557 0 3.2160812853401242e-07 -0.0013991950459405849 0 0.0004266314601781443 -0.0030972284298729463 0 5.7131377158556787e-07 -0.001393046446692391 0 1.5178452855409835e-05 -0.0035937947403845488 0 0.00015774608274083236 -0.0036717911485093777 0 0.0044946592218801512 -0.00077602103482692477 0 0.004223058862975553 -0.0010846277180598476 0 0.0046057942472410192 -0.0012377506411512952 0 0.0039203546185258703 -0.00063328466254298815 0 0.0044946592218801512 -0.00077602103482692477 0 0.004223058862975553 -0.0010846277180598476 0 0.0037765450865051972 -0.00095196375865118528 0 0.0039203546185258703 -0.00063328466254298815 0 0.004223058862975553 -0.0010846277180598476 0 0.0037765450865051972 -0.00095196375865118528 0 0.004223058862975553 -0.0010846277180598476 0 0.0039352710853357018 -0.001407439484953005 0 0.00020468924367943869 -0.0069601767568908679 0 2.8411927570116799e-07 -0.0054177959059235874 0 1.564674421664784e-06 -0.0094371785335439339 0 0.00020468924367943869 -0.0069601767568908679 0 0.00045918483540005367 -0.0079693436118316325 0 1.564674421664784e-06 -0.0094371785335439339 0 0.00015774608274083236 -0.0036717911485093777 0 0.00048664753983677396 -0.0076340817135477938 0 0.00045918483540005367 -0.0079693436118316325 0 1.5178452855409835e-05 -0.0035937947403845488 0 0.00015774608274083236 -0.0036717911485093777 0 0.00048664753983677396 -0.0076340817135477938 0 0.0004266314601781443 -0.0030972284298729463 0 0.00055902825594404671 -0.0038825566199738519 0 0.00020468924367943869 -0.0069601767568908679 0 -8.7108773263510765e-05 -0.0055863264439602557 0 0.00045918483540005367 -0.0079693436118316325 0 0.00020468924367943869 -0.0069601767568908679 0 2.8411927570116799e-07 -0.0054177959059235874 0 -8.7108773263510765e-05 -0.0055863264439602557 0 0.005073801354244149 -0.00092194461825740996 0 0.0049095194920365116 -0.0013544808382356343 0 0.0046057942472410192 -0.0012377506411512952 0 0.0029460859288579612 -0.0026190528650259929 0 0.0032519820211495661 -0.0051525158175211401 0 0.0044946592218801512 -0.00077602103482692477 0 0.005073801354244149 -0.00092194461825740996 0 0.0046057942472410192 -0.0012377506411512952 0 0.005073801354244149 -0.00092194461825740996 0 0.005220378840011879 -0.0015328670562423311 0 0.0056459512452584756 -0.0010671812810081184 0 0.00048664753983677396 -0.0076340817135477938 0 0.00045918483540005367 -0.0079693436118316325 0 -0.00018177553749345116 -0.0089134757709433184 0 0.0032519820211495661 -0.0051525158175211401 0 0.003712526230684987 -0.0081905943979880963 0 0.005073801354244149 -0.00092194461825740996 0 0.005220378840011879 -0.0015328670562423311 0 0.0049095194920365116 -0.0013544808382356343 0 0.005220378840011879 -0.0015328670562423311 0 0.0049095194920365116 -0.0013544808382356343 0 0.0046970377063183374 -0.0016343727471016792 0 0.0049095194920365116 -0.0013544808382356343 0 0.0046057942472410192 -0.0012377506411512952 0 0.0046970377063183374 -0.0016343727471016792 0 0.0061047657002394591 -0.0013945062494396094 0 0.0062789729177616669 -0.0015173523385435931 0 0.005220378840011879 -0.0015328670562423311 0 0.0046970377063183374 -0.0016343727471016792 0 0.004787840432261407 -0.0020175786931037544 0 0.0062789729177616669 -0.0015173523385435931 0 0.006809594946319969 -0.0017935350027296266 0 0.004687959918622823 -0.0015954678570068643 0 0.004775273626844218 -0.001961700433300339 0 0.0044994799628274859 -0.0018370589034331659 0 0.0095052929597352984 -0.0041739955741925995 0 0.010286022392180464 -0.0033272340951576137 0 0.0095308156329338527 -0.0030698406501293387 0 0.0065470565599290995 -0.0036078825479935071 0 0.006809594946319969 -0.0017935350027296266 0 0.0095052929597352984 -0.0041739955741925995 0 0.0095308156329338527 -0.0030698406501293387 0 0.0088383503114923302 -0.0033612186919203769 0 0.004223058862975553 -0.0010846277180598476 0 0.0039352710853357018 -0.001407439484953005 0 0.0043409015031181429 -0.0015224940448458613 0 0.004223058862975553 -0.0010846277180598476 0 0.0046057942472410192 -0.0012377506411512952 0 0.0043409015031181429 -0.0015224940448458613 0 0.0046057942472410192 -0.0012377506411512952 0 0.004687959918622823 -0.0015954678570068643 0 0.0043409015031181429 -0.0015224940448458613 0 0.0043409015031181429 -0.0015224940448458613 0 0.0044994799628274859 -0.0018370589034331659 0 0.0040827936204746807 -0.0019713171723412443 0 0.004687959918622823 -0.0015954678570068643 0 0.0043409015031181429 -0.0015224940448458613 0 0.0044994799628274859 -0.0018370589034331659 0 0.0039352710853357018 -0.001407439484953005 0 0.0043409015031181429 -0.0015224940448458613 0 0.0040827936204746807 -0.0019713171723412443 0 0.0035856106680304243 -0.0017521903985475123 0 0.0039352710853357018 -0.001407439484953005 0 0.0040827936204746807 -0.0019713171723412443 0 0.004342000542496843 0.0021775368808641675 0 0.0059314022627136431 0.0003431576643051368 0 0.0074501356565030014 0.0015398567794741131 0 0.0080317200669394479 0.0015928155659678451 0 0.0077087931876607483 0.0012152512646144047 0 0.0080317200669394479 0.0015928155659678451 0 0.0081691225350469607 0.0010254975114090121 0 0.0077087931876607483 0.0012152512646144047 0 0.008455000978585283 0.00052166797748607685 0 0.0087885329863883373 0.00020229174374640003 0 0.0092133477170747123 -0.00045589821912801493 0 0.0091883376214415488 -0.00042773574829107829 0 0.0091516884632936255 -0.00042294771961851589 0 0.0081691225350469607 0.0010254975114090121 0 0.0077087931876607483 0.0012152512646144047 0 0.0081032519491262642 0.00043741745355341222 0 0.0073681136361271908 0.0010711390578674622 0 0.0077087931876607483 0.0012152512646144047 0 0.0081032519491262642 0.00043741745355341222 0 0.0081032519491262642 0.00043741745355341222 0 0.0085702272111586753 0.0006253027172274737 0 0.0092008759695623166 -0.00025936559678246997 0 0.0085702272111586753 0.0006253027172274737 0 0.0090493898127100448 0.00051927460556208855 0 0.0092008759695623166 -0.00025936559678246997 0 0.0081691225350469607 0.0010254975114090121 0 0.0085702272111586753 0.0006253027172274737 0 0.0087169798216534655 0.0010750678572380074 0 0.0081691225350469607 0.0010254975114090121 0 0.0081032519491262642 0.00043741745355341222 0 0.0085702272111586753 0.0006253027172274737 0 0.0085702272111586753 0.0006253027172274737 0 0.0088362059633325229 0.00077990754601481706 0 0.0090493898127100448 0.00051927460556208855 0 0.0085702272111586753 0.0006253027172274737 0 0.0088362059633325229 0.00077990754601481706 0 0.0087169798216534655 0.0010750678572380074 0 0.0088362059633325229 0.00077990754601481706 0 0.0087169798216534655 0.0010750678572380074 0 0.0090207781323335314 0.0008966234307643692 0 0.0087169798216534655 0.0010750678572380074 0 0.0088753702434786058 0.0012528590573144291 0 0.0090207781323335314 0.0008966234307643692 0 0.0044994799628274859 -0.0018370589034331659 0 0.0040827936204746807 -0.0019713171723412443 0 0.0045743933480434139 -0.0021858751647015153 0 0.0080317200669394479 0.0015928155659678451 0 0.0081691225350469607 0.0010254975114090121 0 0.0087169798216534655 0.0010750678572380074 0 0.0059314022627136431 0.0003431576643051368 0 0.0069461019358769962 -0.0010424361495896697 0 0.0080317200669394479 0.0015928155659678451 0 0.0087169798216534655 0.0010750678572380074 0 0.0088493361803355392 0.0012219991440975515 0 0.0070153105852047461 -0.00096416205020840662 0 0.0069461019358769962 -0.0010424361495896697 0 0.004775273626844218 -0.001961700433300339 0 0.0044994799628274859 -0.0018370589034331659 0 0.0045743933480434139 -0.0021858751647015153 0 0.0071127421695893729 -0.0011138305011952974 0 0.0071649382034691868 -0.0010555195248834151 0 0.0070936103143940232 -0.0010240698630668581 0 0.010286022392180464 -0.0033272340951576137 0 0.010150454995031942 -0.0026766737128613399 0 0.0095308156329338527 -0.0030698406501293387 0 0.006809594946319969 -0.0017935350027296266 0 0.0069461019358769962 -0.0010424361495896697 0 0.006809594946319969 -0.0017935350027296266 0 0.0076684831343442469 -0.0015774728308314647 0 0.0088753702434786058 0.0012528590573144291 0 0.0094687316297254482 0.00097610028358673996 0 0.0090207781323335314 0.0008966234307643692 0 0.0069461019358769962 -0.0010424361495896697 0 0.0076684831343442469 -0.0015774728308314647 0 0.010150454995031942 -0.0026766737128613399 0 0.0095308156329338527 -0.0030698406501293387 0 0.009545360862699517 -0.0023941714538441624 0 0.0095308156329338527 -0.0030698406501293387 0 0.009545360862699517 -0.0023941714538441624 0 0.0090202795074441951 -0.0023895937765571716 0 0.010099331040457595 -0.0026380806746540953 0 0.009545360862699517 -0.0023941714538441624 0 0.009853298058113363 -0.0017094271468263689 0 0.009545360862699517 -0.0023941714538441624 0 0.0093912826914300095 -0.001924152274360614 0 0.0090202795074441951 -0.0023895937765571716 0 0.0076684831343442469 -0.0015774728308314647 0 0.0082096352396698966 -0.0018158221388084798 0 0.009545360862699517 -0.0023941714538441624 0 0.0093912826914300095 -0.001924152274360614 0 0.009853298058113363 -0.0017094271468263689 0 0.0076684831343442469 -0.0015774728308314647 0 0.0083317473178496134 -0.0012335006445162637 0 0.0094687316297254482 0.00097610028358673996 0 0.0093185736268603415 0.00026829354968692013 0 0.009567803563539732 -0.00014836075654456465 0 0.0094687316297254482 0.00097610028358673996 0 0.0090493898127100448 0.00051927460556208855 0 0.0090207781323335314 0.0008966234307643692 0 0.0094687316297254482 0.00097610028358673996 0 0.0090493898127100448 0.00051927460556208855 0 0.0093185736268603415 0.00026829354968692013 0 0.0088362059633325229 0.00077990754601481706 0 0.0090493898127100448 0.00051927460556208855 0 0.0090207781323335314 0.0008966234307643692 0 0.0090493898127100448 0.00051927460556208855 0 0.0093185736268603415 0.00026829354968692013 0 0.0092008759695623166 -0.00025936559678246997 0 0.009567803563539732 -0.00014836075654456465 0 0.009376604335807023 -0.0008085651912495633 0 0.009268858223847317 -0.00057900495033096251 0 0.0093185736268603415 0.00026829354968692013 0 0.0092008759695623166 -0.00025936559678246997 0 0.009567803563539732 -0.00014836075654456465 0 0.0092008759695623166 -0.00025936559678246997 0 0.009567803563539732 -0.00014836075654456465 0 0.009268858223847317 -0.00057900495033096251 0 0.0092008759695623166 -0.00025936559678246997 0 0.009268858223847317 -0.00057900495033096251 0 0.0091860211698889752 -0.00047777103009290797 0 0.0083317473178496134 -0.0012335006445162637 0 0.0085069290341641852 -0.0011244108023432001 0 0.009853298058113363 -0.0017094271468263689 0 0.0093291908464672082 -0.0014434848661034232 0 0.009376604335807023 -0.0008085651912495633 0 0.0093912826914300095 -0.001924152274360614 0 0.0093291908464672082 -0.0014434848661034232 0 0.0090326873886872085 -0.0016766109629722996 0 0.0093912826914300095 -0.001924152274360614 0 0.009853298058113363 -0.0017094271468263689 0 0.0093291908464672082 -0.0014434848661034232 0 0.009376604335807023 -0.0008085651912495633 0 0.0090416447152489136 -0.0011239333156061232 0 0.0091033707471382206 -0.00078401926319609757 0 0.0093291908464672082 -0.0014434848661034232 0 0.009376604335807023 -0.0008085651912495633 0 0.0090416447152489136 -0.0011239333156061232 0 0.009268858223847317 -0.00057900495033096251 0 0.0092091601889331739 -0.00055836759972440278 0 0.0091860211698889752 -0.00047777103009290797 0 0.009376604335807023 -0.0008085651912495633 0 0.009268858223847317 -0.00057900495033096251 0 0.0092655808564286006 -0.00069312964517291044 0 0.009268858223847317 -0.00057900495033096251 0 0.0092091601889331739 -0.00055836759972440278 0 0.0092655808564286006 -0.00069312964517291044 0 0.0092091601889331739 -0.00055836759972440278 0 0.0091715193127254492 -0.00047669601885911298 0 0.0091876755424499228 -0.00049552615024933016 0 0.0092091601889331739 -0.00055836759972440278 0 0.0091860211698889752 -0.00047777103009290797 0 0.0091715193127254492 -0.00047669601885911298 0 0.0091860211698889752 -0.00047777103009290797 0 0.0091715193127254492 -0.00047669601885911298 0 0.009151559847661115 -0.00040707647306568404 0 0.0091715193127254492 -0.00047669601885911298 0 0.009161804865093293 -0.00043453310722458416 0 0.009151559847661115 -0.00040707647306568404 0 0.0091715193127254492 -0.00047669601885911298 0 0.0091731583491173538 -0.00044797877965078976 0 0.009161804865093293 -0.00043453310722458416 0 0.0091715193127254492 -0.00047669601885911298 0 0.0091731583491173538 -0.00044797877965078976 0 0.0091876755424499228 -0.00049552615024933016 0 0.0091731583491173538 -0.00044797877965078976 0 0.0091773830236697961 -0.00041541041149859606 0 0.009161804865093293 -0.00043453310722458416 0 0.0091731583491173538 -0.00044797877965078976 0 0.0091773830236697961 -0.00041541041149859606 0 0.0091802405278329797 -0.00040371277927746214 0 0.0091983695653399117 -0.00038988316609210735 0 0.0091773830236697961 -0.00041541041149859606 0 0.0091802405278329797 -0.00040371277927746214 0 0.0092001804679962967 -0.00040707607346451239 0 0.0091983695653399117 -0.00038988316609210735 0 0.0091773830236697961 -0.00041541041149859606 0 0.0092001804679962967 -0.00040707607346451239 0 0.0091773830236697961 -0.00041541041149859606 0 0.0091747746426282771 -0.00042077531507833454 0 0.0091935506332305565 -0.00041941403646529048 0 0.0092001804679962967 -0.00040707607346451239 0 0.0091747746426282771 -0.00042077531507833454 0 0.0091747746426282771 -0.00042077531507833454 0 0.009161804865093293 -0.00043453310722458416 0 0.009165840360086934 -0.00041830262742295989 0 0.0091773830236697961 -0.00041541041149859606 0 0.0091747746426282771 -0.00042077531507833454 0 0.009161804865093293 -0.00043453310722458416 0 0.009161804865093293 -0.00043453310722458416 0 0.009165840360086934 -0.00041830262742295989 0 0.009151559847661115 -0.00040707647306568404 0 0.0091935506332305565 -0.00041941403646529048 0 0.0091747746426282771 -0.00042077531507833454 0 0.009165840360086934 -0.00041830262742295989 0 0.0091883376214415488 -0.00042773574829107829 0 0.0091935506332305565 -0.00041941403646529048 0 0.009165840360086934 -0.00041830262742295989 0 0.0091883376214415488 -0.00042773574829107829 0 0.0091516884632936255 -0.00042294771961851589 0 0.009165840360086934 -0.00041830262742295989 0 0.0091516884632936255 -0.00042294771961851589 0 0.009165840360086934 -0.00041830262742295989 0 0.009151559847661115 -0.00040707647306568404 0 0.0091516884632936255 -0.00042294771961851589 0 0.0092008759695623166 -0.00025936559678246997 0 0.009151559847661115 -0.00040707647306568404 0 0.0087885329863883373 0.00020229174374640003 0 0.0090218114239435966 5.1680047140919877e-05 0 0.0092008759695623166 -0.00025936559678246997 0 0.0091860211698889752 -0.00047777103009290797 0 0.009151559847661115 -0.00040707647306568404 0 0.008081499181191323 -0.0021589986581791068 0 0.0086216355390279689 -0.0026146238124414877 0 0.0077476509642343842 -0.0028457435749898335 0 0.0075586456126225431 -0.0022057989840956979 0 0.0077476509642343842 -0.0028457435749898335 0 0.007021585873334399 -0.0024333525896969325 0 0.0075586456126225431 -0.0022057989840956979 0 0.008081499181191323 -0.0021589986581791068 0 0.0077476509642343842 -0.0028457435749898335 0 0.0075586456126225431 -0.0022057989840956979 0 0.008081499181191323 -0.0021589986581791068 0 0.0076575277852859291 -0.0016111083173415406 0 0.008081499181191323 -0.0021589986581791068 0 0.0081487322665894542 -0.0016320449420828284 0 0.0076575277852859291 -0.0016111083173415406 0 0.0086894599248509129 -0.0016272362857257996 0 0.0085581668152861536 -0.0021954330960178353 0 0.008081499181191323 -0.0021589986581791068 0 0.0087909195896585818 -0.0019049417289391023 0 0.0086216355390279689 -0.0026146238124414877 0 0.008081499181191323 -0.0021589986581791068 0 0.0087909195896585818 -0.0019049417289391023 0 0.0081487322665894542 -0.0016320449420828284 0 0.0087849415724666428 -0.00092113724574898457 0 0.0090416447152489136 -0.0011239333156061232 0 0.0091033707471382206 -0.00078401926319609757 0 0.0087849415724666428 -0.00092113724574898457 0 0.0090416447152489136 -0.0011239333156061232 0 0.0084440223433291679 -0.0016432869980234042 0 0.0090416447152489136 -0.0011239333156061232 0 0.0090326873886872085 -0.0016766109629722996 0 0.0084440223433291679 -0.0016432869980234042 0 0.0093291908464672082 -0.0014434848661034232 0 0.0090416447152489136 -0.0011239333156061232 0 0.0090326873886872085 -0.0016766109629722996 0 0.0085581668152861536 -0.0021954330960178353 0 0.0084267549682508665 -0.002822457522178076 0 0.0086216355390279689 -0.0026146238124414877 0 0.008428205329365196 -0.0032654272297307106 0 0.0077476509642343842 -0.0028457435749898335 0 0.0090326873886872085 -0.0016766109629722996 0 0.0084440223433291679 -0.0016432869980234042 0 0.0090202795074441951 -0.0023895937765571716 0 0.0084440223433291679 -0.0016432869980234042 0 0.0090202795074441951 -0.0023895937765571716 0 0.0082508051340237244 -0.0027168892549375317 0 0.0093912826914300095 -0.001924152274360614 0 0.0090326873886872085 -0.0016766109629722996 0 0.0090202795074441951 -0.0023895937765571716 0 0.0090202795074441951 -0.0023895937765571716 0 0.0082508051340237244 -0.0027168892549375317 0 0.0088383503114923302 -0.0033612186919203769 0 0.0095308156329338527 -0.0030698406501293387 0 0.0090202795074441951 -0.0023895937765571716 0 0.0088383503114923302 -0.0033612186919203769 0 0.0084267549682508665 -0.002822457522178076 0 0.0083621155661950022 -0.0031696189911792449 0 0.0082508051340237244 -0.0027168892549375317 0 0.0088383503114923302 -0.0033612186919203769 0 0.0082353895788308921 -0.0038216986013280231 0 0.008428205329365196 -0.0032654272297307106 0 0.0078472932159424809 -0.0034120747796127088 0 0.0082353895788308921 -0.0038216986013280231 0 0.008428205329365196 -0.0032654272297307106 0 0.0078472932159424809 -0.0034120747796127088 0 0.0077476509642343842 -0.0028457435749898335 0 0.0089313068107540403 -0.0078068605812981239 0 0.0061776534160914174 -0.014717506735638857 0 0.0078472932159424809 -0.0034120747796127088 0 0.0077476509642343842 -0.0028457435749898335 0 0.0072574275069134803 -0.0035331259252261598 0 0.0078472932159424809 -0.0034120747796127088 0 0.0076126517714926551 -0.0039799557441592458 0 0.0072574275069134803 -0.0035331259252261598 0 0.0076126517714926551 -0.0039799557441592458 0 0.0071859361977423463 -0.0041305880099975923 0 0.0071410845571349187 -0.0035215406194690048 0 0.0047793150601882035 -0.011070170182502486 0 0.0061776534160914174 -0.014717506735638857 0 0.0078472932159424809 -0.0034120747796127088 0 0.0076126517714926551 -0.0039799557441592458 0 0.0082353895788308921 -0.0038216986013280231 0 0.0076126517714926551 -0.0039799557441592458 0 0.0082353895788308921 -0.0038216986013280231 0 0.0080089697427795144 -0.0046711885452992829 0 0.0027149201713390857 -0.015627832176112525 0 0.0034427483546666947 -0.011893716500591837 0 0.0076126517714926551 -0.0039799557441592458 0 0.0073224436188131913 -0.0045424830250163899 0 0.0080089697427795144 -0.0046711885452992829 0 0.0076126517714926551 -0.0039799557441592458 0 0.0071859361977423463 -0.0041305880099975923 0 0.0073224436188131913 -0.0045424830250163899 0 0.0095052929597352984 -0.0041739955741925995 0 0.0088383503114923302 -0.0033612186919203769 0 0.0087951077663009376 -0.0041135813602634509 0 0.0088383503114923302 -0.0033612186919203769 0 0.0082353895788308921 -0.0038216986013280231 0 0.0087951077663009376 -0.0041135813602634509 0 0.0082353895788308921 -0.0038216986013280231 0 0.0087951077663009376 -0.0041135813602634509 0 0.0080089697427795144 -0.0046711885452992829 0 0.0087951077663009376 -0.0041135813602634509 0 0.0088107069111853075 -0.004877215850565826 0 0.0080089697427795144 -0.0046711885452992829 0 0.0065470565599290995 -0.0036078825479935071 0 0.003712526230684987 -0.0081905943979880963 0 0.0095052929597352984 -0.0041739955741925995 0 0.0087951077663009376 -0.0041135813602634509 0 0.0088107069111853075 -0.004877215850565826 0 0.00045918483540005367 -0.0079693436118316325 0 -0.00018177553749345116 -0.0089134757709433184 0 -7.4432077161143128e-06 -0.010665201258731129 0 -0.0041963281957061805 -0.018180794980169949 0 -0.00077457510752666553 -0.016978518442818863 0 -0.00028457427897271516 -0.018560788880309431 0 0.003712526230684987 -0.0081905943979880963 0 0.0034427483546666947 -0.011893716500591837 0 0.003712526230684987 -0.0081905943979880963 0 0.0008138726955878821 -0.011537889530836603 0 -3.1047528723917375e-06 -0.013459511885356374 0 -0.00019893082576337645 -0.013876554572640627 0 -7.4432077161143128e-06 -0.010665201258731129 0 -0.0041963281957061805 -0.018180794980169949 0 -0.00077457510752666553 -0.016978518442818863 0 -0.00019893082576337645 -0.013876554572640627 0 -0.00018177553749345116 -0.0089134757709433184 0 -0.00019893082576337645 -0.013876554572640627 0 -7.4432077161143128e-06 -0.010665201258731129 0 -3.1047528723917375e-06 -0.013459511885356374 0 1.564674421664784e-06 -0.0094371785335439339 0 -7.4432077161143128e-06 -0.010665201258731129 0 0.00045918483540005367 -0.0079693436118316325 0 1.564674421664784e-06 -0.0094371785335439339 0 -7.4432077161143128e-06 -0.010665201258731129 0 0.00077849833128432763 -0.019498902794091069 0 0.00024831166900342761 -0.017373610206057967 0 0.00042963020386319284 -0.019164079603381703 0 0.00077849833128432763 -0.019498902794091069 0 -0.00028457427897271516 -0.018560788880309431 0 0.00024831166900342761 -0.017373610206057967 0 -0.00077457510752666553 -0.016978518442818863 0 -0.00028457427897271516 -0.018560788880309431 0 0.00024831166900342761 -0.017373610206057967 0 -3.1047528723917375e-06 -0.013459511885356374 0 -0.00019893082576337645 -0.013876554572640627 0 1.9041005522658474e-06 -0.017481412203822249 0 -0.00019893082576337645 -0.013876554572640627 0 0.00024831166900342761 -0.017373610206057967 0 1.9041005522658474e-06 -0.017481412203822249 0 -0.00077457510752666553 -0.016978518442818863 0 -0.00019893082576337645 -0.013876554572640627 0 0.00024831166900342761 -0.017373610206057967 0 0.00024831166900342761 -0.017373610206057967 0 1.9041005522658474e-06 -0.017481412203822249 0 0.00042963020386319284 -0.019164079603381703 0 1.9041005522658474e-06 -0.017481412203822249 0 0.00042963020386319284 -0.019164079603381703 0 1.687217841099546e-07 -0.021501650872982798 0 0.00042963020386319284 -0.019164079603381703 0 0.00034860375458698855 -0.020781197831815569 0 1.687217841099546e-07 -0.021501650872982798 0 0.00077849833128432763 -0.019498902794091069 0 0.00042963020386319284 -0.019164079603381703 0 0.00034860375458698855 -0.020781197831815569 0 0.00077849833128432763 -0.019498902794091069 0 0.00034860375458698855 -0.020781197831815569 0 3.2837670340566649e-05 -0.019737708214218618 0 -0.00018107071124029358 -0.023370014726337183 0 0.00031849320788115119 -0.025240650252986392 0 -0.0017016851761251037 -0.02585949583686584 0 -0.00024038300067032978 -0.022106689741696425 0 0.00031039218665722374 -0.020932808175006489 0 0.00034860375458698855 -0.020781197831815569 0 -0.00018107071124029358 -0.023370014726337183 0 3.2837670340566649e-05 -0.019737708214218618 0 0.00034860375458698855 -0.020781197831815569 0 1.687217841099546e-07 -0.021501650872982798 0 -0.00018107071124029358 -0.023370014726337183 0 -0.00018107071124029358 -0.023370014726337183 0 2.1763361125372678e-07 -0.02552169791602368 0 0.0002468783521006664 -0.026295817415849274 0 1.687217841099546e-07 -0.021501650872982798 0 -0.00018107071124029358 -0.023370014726337183 0 2.1763361125372678e-07 -0.02552169791602368 0 -0.00018107071124029358 -0.023370014726337183 0 0.0002468783521006664 -0.026295817415849274 0 0.00046796625319722452 -0.025911698747104913 0 2.1763361125372678e-07 -0.02552169791602368 0 0.0002468783521006664 -0.026295817415849274 0 9.7826193370695265e-07 -0.029543103485198157 0 0.0002468783521006664 -0.026295817415849274 0 0.00046796625319722452 -0.025911698747104913 0 0.00011565446161494829 -0.027526923088877164 0 -0.00067815784678686489 -0.033276968401383646 0 -0.00037469297703097325 -0.03427869261811279 0 0.00046796625319722452 -0.025911698747104913 0 0.0003093501179129058 -0.02559118096008146 0 0.0001288725946467975 -0.025764970737067204 0 0.00046796625319722452 -0.025911698747104913 0 0.00045642316163827201 -0.025545494270136918 0 0.00031849320788115119 -0.025240650252986392 0 0.00046796625319722452 -0.025911698747104913 0 0.00045642316163827201 -0.025545494270136918 0 0.00049070196647941296 -0.025567300901200227 0 0.00046796625319722452 -0.025911698747104913 0 0.0003093501179129058 -0.02559118096008146 0 0.00049070196647941296 -0.025567300901200227 0 -0.00018107071124029358 -0.023370014726337183 0 0.00046796625319722452 -0.025911698747104913 0 0.00031849320788115119 -0.025240650252986392 0 0.00063559720336046758 -0.027688371047814634 0 0.00083396337340784464 -0.033588936621299643 0 0.00031849320788115119 -0.025240650252986392 0 -0.00034598754882099307 -0.026091308518156137 0 -0.0017016851761251037 -0.02585949583686584 0 -0.00034598754882099307 -0.026091308518156137 0 0.00041750030820749036 -0.025652973020114368 0 0.0004776822226575983 -0.026000475176627534 0 0.00045642316163827201 -0.025545494270136918 0 0.00031849320788115119 -0.025240650252986392 0 0.00041750030820749036 -0.025652973020114368 0 0.00031849320788115119 -0.025240650252986392 0 -0.00034598754882099307 -0.026091308518156137 0 0.00041750030820749036 -0.025652973020114368 0 0.00062390741287331967 -0.025538242378870212 0 0.00049070196647941296 -0.025567300901200227 0 0.0004776822226575983 -0.026000475176627534 0 -0.00024873606478820014 -0.034677908641879002 0 -0.00018220452446273736 -0.034537501069530546 0 0.00045642316163827201 -0.025545494270136918 0 0.00049070196647941296 -0.025567300901200227 0 0.00041750030820749036 -0.025652973020114368 0 0.00049070196647941296 -0.025567300901200227 0 0.00041750030820749036 -0.025652973020114368 0 0.0004776822226575983 -0.026000475176627534 0 -0.00024873606478820014 -0.034677908641879002 0 0.00083396337340784464 -0.033588936621299643 0 -1.787649138846008e-05 -0.036627091411727458 0 -0.00045145409169088747 -0.035962611302241328 0 -0.0012567477713856499 -0.036293349735673053 0 -1.787649138846008e-05 -0.036627091411727458 0 -0.00045145409169088747 -0.035962611302241328 0 0.00069220350418595054 -0.035990590881456487 0 0.00084590385842454353 -0.036750243446824891 0 0.00069220350418595054 -0.035990590881456487 0 0.001333788299311108 -0.036185758340038003 0 0.00084590385842454353 -0.036750243446824891 0 7.2132324292703849e-05 -0.036576434638352424 0 0.00069220350418595054 -0.035990590881456487 0 0.00083396337340784464 -0.033588936621299643 0 0.00040213605001117818 -0.034259431411623083 0 0.00069220350418595054 -0.035990590881456487 0 0.001333788299311108 -0.036185758340038003 0 0.00093053366818207173 -0.035479224655815954 0 0.001333788299311108 -0.036185758340038003 0 0.0017079041787287311 -0.035708188735475044 0 0.00093053366818207173 -0.035479224655815954 0 0.001333788299311108 -0.036185758340038003 0 0.0021213082604973565 -0.036193394431997421 0 0.001658620543182513 -0.036914512407127578 0 0.001333788299311108 -0.036185758340038003 0 0.0021213082604973565 -0.036193394431997421 0 0.0017079041787287311 -0.035708188735475044 0 0.0071859361977423463 -0.0041305880099975923 0 0.006860309809236618 -0.0039565389684706924 0 0.0071410845571349187 -0.0035215406194690048 0 0.0021213082604973565 -0.036193394431997421 0 0.0025784523169731532 -0.035458152792589875 0 0.0017079041787287311 -0.035708188735475044 0 0.0032142993971729914 -0.018311279730398897 0 0.0061776534160914174 -0.014717506735638857 0 0.0071859361977423463 -0.0041305880099975923 0 0.006860309809236618 -0.0039565389684706924 0 0.0065684580813340013 -0.0044233828946177245 0 0.0027149201713390857 -0.015627832176112525 0 0.00031039218665722374 -0.020932808175006489 0 0.0071859361977423463 -0.0041305880099975923 0 0.0073224436188131913 -0.0045424830250163899 0 0.0065684580813340013 -0.0044233828946177245 0 0.0032142993971729914 -0.018311279730398897 0 0.00031039218665722374 -0.020932808175006489 0 0.00063559720336046758 -0.027688371047814634 0 0.00031039218665722374 -0.020932808175006489 0 0.00084590385842454353 -0.036750243446824891 0 0.001333788299311108 -0.036185758340038003 0 0.001658620543182513 -0.036914512407127578 0 -0.00097405513627956102 -0.039656365874302615 0 -0.00047089797661461477 -0.040142251141875987 0 -0.0007565204465830596 -0.040456054379247444 0 -0.0022563211525288016 -0.042153520577914917 0 0.00047871294588032242 -0.041876575988041516 0 -0.0007565204465830596 -0.040456054379247444 0 -0.0035217679191323565 -0.040032828692863988 0 -0.0022563211525288016 -0.042153520577914917 0 -0.0007565204465830596 -0.040456054379247444 0 -4.1933463377567884e-06 -0.036926930411198954 0 -0.0035217679191323565 -0.040032828692863988 0 -6.9807058808226825e-07 -0.036920429046309114 0 -0.00076669179772755828 -0.037401482509351457 0 -1.3046799157008757e-08 -0.033572269911066467 0 5.308327616731652e-05 -0.03412332984316456 0 -0.00051638413634238177 -0.034036605345643525 0 1.2068730939130809e-08 -0.036913102989883852 0 -1.3046799157008757e-08 -0.033572269911066467 0 5.308327616731652e-05 -0.03412332984316456 0 -0.0044547689592913655 -0.04171505648020802 0 -0.0059442347589721408 -0.042364735735546118 0 -0.0022563211525288016 -0.042153520577914917 0 -0.0035217679191323565 -0.040032828692863988 0 -0.0044547689592913655 -0.04171505648020802 0 -0.0061598202889898094 -0.042375344426357202 0 -0.0035217679191323565 -0.040032828692863988 0 -0.0044547689592913655 -0.04171505648020802 0 -0.0022563211525288016 -0.042153520577914917 0 -0.00076669179772755828 -0.037401482509351457 0 -0.00041554290977740291 -0.037424380502943951 0 -0.00051638413634238177 -0.034036605345643525 0 -0.00096718765579754994 -0.034464610720584023 0 -0.00054209735742657874 -0.034645723808506751 0 5.308327616731652e-05 -0.03412332984316456 0 -0.00051638413634238177 -0.034036605345643525 0 -0.00054209735742657874 -0.034645723808506751 0 -2.7827275308500566e-06 -0.033560709063828305 0 -0.00043107522746498159 -0.029109746237571607 0 9.7826193370695265e-07 -0.029543103485198157 0 8.9392873739579053e-07 -0.033563430724100805 0 0.00032671238235201338 -0.033099787047189196 0 -0.00043107522746498159 -0.029109746237571607 0 9.7826193370695265e-07 -0.029543103485198157 0 0.00011565446161494829 -0.027526923088877164 0 0.0002468783521006664 -0.026295817415849274 0 9.7826193370695265e-07 -0.029543103485198157 0 0.00011565446161494829 -0.027526923088877164 0 -0.00043107522746498159 -0.029109746237571607 0 0.00011565446161494829 -0.027526923088877164 0 -5.5804477194869702e-05 -0.026814982785740148 0 0.00046796625319722452 -0.025911698747104913 0 0.00011565446161494829 -0.027526923088877164 0 -5.5804477194869702e-05 -0.026814982785740148 0 0.00032671238235201338 -0.033099787047189196 0 -0.00037469297703097325 -0.03427869261811279 0 -0.00037469297703097325 -0.03427869261811279 0 -0.00041554290977740291 -0.037424380502943951 0 -0.00024873606478820014 -0.034677908641879002 0 -0.00037469297703097325 -0.03427869261811279 0 -0.0003997471564515757 -0.041748786412111813 0 -0.00020696780772986109 -0.041841623623177178 0 -9.2401631840331302e-05 -0.041736374497546531 0 -0.0003997471564515757 -0.041748786412111813 0 -0.00057918240906504705 -0.041907431478608356 0 -0.00020905504396104659 -0.042016596748735896 0 -0.0003997471564515757 -0.041748786412111813 0 -0.00020696780772986109 -0.041841623623177178 0 -0.00020905504396104659 -0.042016596748735896 0 1.9693724825209702e-05 -0.036209674698646145 0 -0.00024907120168350195 -0.036463424744620818 0 -0.00074721899156513676 -0.036256581100100382 0 -0.00024873606478820014 -0.034677908641879002 0 -0.00041554290977740291 -0.037424380502943951 0 0.00083396337340784464 -0.033588936621299643 0 -0.00012173323963526185 -0.036599027587892879 0 -0.00020905504396104659 -0.042016596748735896 0 -4.4898581372496337e-05 -0.041948254690208887 0 0.00014437996225715656 -0.04212727675561271 0 -0.00012173323963526185 -0.036599027587892879 0 -0.0007229873898733089 -0.038003104267961822 0 -0.0012567477713856499 -0.036293349735673053 0 -0.0021428294562654887 -0.036073335235036551 0 -0.0018079211550023932 -0.035417442246898724 0 3.5274710375586955e-05 -0.041895726981181734 0 -4.4898581372496337e-05 -0.041948254690208887 0 -8.0572679759408593e-05 -0.041836446109235828 0 3.5274710375586955e-05 -0.041895726981181734 0 -4.4898581372496337e-05 -0.041948254690208887 0 0.00010223650153060024 -0.041976247571255246 0 -0.00020696780772986109 -0.041841623623177178 0 -4.4898581372496337e-05 -0.041948254690208887 0 -8.0572679759408593e-05 -0.041836446109235828 0 -0.00020696780772986109 -0.041841623623177178 0 -0.00020905504396104659 -0.042016596748735896 0 -4.4898581372496337e-05 -0.041948254690208887 0 -0.00020696780772986109 -0.041841623623177178 0 -8.0572679759408593e-05 -0.041836446109235828 0 -0.00010205223807605899 -0.041762222035152827 0 -0.00062951195890487892 -0.037798213782939794 0 -0.00041554290977740291 -0.037424380502943951 0 -8.0572679759408593e-05 -0.041836446109235828 0 -0.00010205223807605899 -0.041762222035152827 0 -7.985814004063239e-05 -0.041760621439033009 0 -0.00041554290977740291 -0.037424380502943951 0 -0.00051536910681559175 -0.037784277962428316 0 -0.0044547689592913655 -0.04171505648020802 0 -0.0061598202889898094 -0.042375344426357202 0 -0.0059442347589721408 -0.042364735735546118 0 3.5274710375586955e-05 -0.041895726981181734 0 -8.0572679759408593e-05 -0.041836446109235828 0 -7.985814004063239e-05 -0.041760621439033009 0 -0.00051536910681559175 -0.037784277962428316 0 0.00053781794468578479 -0.040165577687725031 0 -0.00025413028799886828 -0.041868959754963714 0 0.00014379396842139567 -0.042037094517159188 0 0.0001216734259232452 -0.041870738324755324 0 3.5274710375586955e-05 -0.041895726981181734 0 -7.985814004063239e-05 -0.041760621439033009 0 0.00027593833282699344 -0.041959429120153768 0 3.5274710375586955e-05 -0.041895726981181734 0 0.00010223650153060024 -0.041976247571255246 0 0.00027593833282699344 -0.041959429120153768 0 -0.00051536910681559175 -0.037784277962428316 0 -0.00097405513627956102 -0.039656365874302615 0 -4.4898581372496337e-05 -0.041948254690208887 0 0.00010223650153060024 -0.041976247571255246 0 0.00014437996225715656 -0.04212727675561271 0 0.00010223650153060024 -0.041976247571255246 0 0.00014437996225715656 -0.04212727675561271 0 0.00027593833282699344 -0.041959429120153768 0 -0.0007229873898733089 -0.038003104267961822 0 -0.0011099215036682159 -0.038727767244890479 0 0.00014437996225715656 -0.04212727675561271 0 0.00027593833282699344 -0.041959429120153768 0 0.00044728930506596052 -0.042228153187837264 0 0.00014379396842139567 -0.042037094517159188 0 0.0001216734259232452 -0.041870738324755324 0 0.00047871294588032242 -0.041876575988041516 0 -0.0024426309696675766 -0.035419387588486687 0 -0.0025329631315194352 -0.035026950088109209 0 -0.0029093106741623484 -0.035318923804226153 0 -0.0024426309696675766 -0.035419387588486687 0 -0.0021597194045387142 -0.035066728814841061 0 -0.0025329631315194352 -0.035026950088109209 0 -0.0024426309696675766 -0.035419387588486687 0 -0.0028886743878075343 -0.03593503376789297 0 -0.0029093106741623484 -0.035318923804226153 0 -0.0021428294562654887 -0.036073335235036551 0 -0.0024426309696675766 -0.035419387588486687 0 -0.0028886743878075343 -0.03593503376789297 0 -0.0021428294562654887 -0.036073335235036551 0 -0.0024426309696675766 -0.035419387588486687 0 -0.0018079211550023932 -0.035417442246898724 0 -0.0024426309696675766 -0.035419387588486687 0 -0.0021597194045387142 -0.035066728814841061 0 -0.0018079211550023932 -0.035417442246898724 0 -0.0021597194045387142 -0.035066728814841061 0 -0.0018079211550023932 -0.035417442246898724 0 -0.0017020656410811419 -0.034916467143744925 0 -0.0018079211550023932 -0.035417442246898724 0 -0.00094096250910197623 -0.035108653048855909 0 -0.0017020656410811419 -0.034916467143744925 0 -0.0012567477713856499 -0.036293349735673053 0 -0.0018079211550023932 -0.035417442246898724 0 -0.00094096250910197623 -0.035108653048855909 0 -0.00045145409169088747 -0.035962611302241328 0 -0.0012567477713856499 -0.036293349735673053 0 -0.00094096250910197623 -0.035108653048855909 0 -0.00073507877760616751 -0.033596044241205873 0 -0.0010532027556012567 -0.03286623461519405 0 -0.00094096250910197623 -0.035108653048855909 0 -0.0012768184752273831 -0.033927130270507581 0 -0.00056412060175576716 -0.033960766585308895 0 -0.00094096250910197623 -0.035108653048855909 0 -0.0012768184752273831 -0.033927130270507581 0 -0.0022170896385935554 -0.034113247263715181 0 -0.0012768184752273831 -0.033927130270507581 0 -0.00098041354251201434 -0.033358560648632123 0 -0.00056412060175576716 -0.033960766585308895 0 -0.0012768184752273831 -0.033927130270507581 0 -0.00098041354251201434 -0.033358560648632123 0 -0.0018470586795649717 -0.033409614686136166 0 0.00060548194451313952 -0.023756681774779815 0 0.0027072447965533378 -0.018957876995636072 0 0.0024092069957340942 -0.020110805458154659 0 0.0029585932001154644 -0.020004816430203878 0 0.0025259752194607319 -0.019618054026111383 0 0.0024092069957340942 -0.020110805458154659 0 0.0021568523256152608 -0.019791854950800974 0 0.0025259752194607319 -0.019618054026111383 0 -0.00098041354251201434 -0.033358560648632123 0 -0.0015030631769086505 -0.032834947893219051 0 -0.00041932970163593481 -0.03265476564638059 0 -0.00098041354251201434 -0.033358560648632123 0 -0.0015030631769086505 -0.032834947893219051 0 -0.0018470586795649717 -0.033409614686136166 0 0.00060548194451313952 -0.023756681774779815 0 -0.00076665869332437559 -0.027640538543407964 0 0.0018530760112584913 -0.0202234630875457 0 0.001786876382015055 -0.019618646091801376 0 0.0021568523256152608 -0.019791854950800974 0 -0.0015030631769086505 -0.032834947893219051 0 -0.0018470586795649717 -0.033409614686136166 0 -0.0026131235284331928 -0.033027406463226668 0 0.0024092069957340942 -0.020110805458154659 0 0.0018530760112584913 -0.0202234630875457 0 0.0021568523256152608 -0.019791854950800974 0 -0.0025866657767216589 -0.033261092349201257 0 -0.0018470586795649717 -0.033409614686136166 0 -0.0026131235284331928 -0.033027406463226668 0 -0.0025866657767216589 -0.033261092349201257 0 -0.0018470586795649717 -0.033409614686136166 0 -0.0022170896385935554 -0.034113247263715181 0 -0.0012768184752273831 -0.033927130270507581 0 -0.0018470586795649717 -0.033409614686136166 0 -0.0022170896385935554 -0.034113247263715181 0 -0.0021597194045387142 -0.035066728814841061 0 -0.0022990962778650175 -0.034632777657383124 0 -0.0025329631315194352 -0.035026950088109209 0 -0.0025866657767216589 -0.033261092349201257 0 -0.0022170896385935554 -0.034113247263715181 0 -0.0034253849773339495 -0.033172555903251029 0 -0.0021597194045387142 -0.035066728814841061 0 -0.0017020656410811419 -0.034916467143744925 0 -0.0022990962778650175 -0.034632777657383124 0 -0.0010532027556012567 -0.03286623461519405 0 -0.0016061992083630603 -0.030645258545385207 0 -0.00076665869332437559 -0.027640538543407964 0 -0.0016061992083630603 -0.030645258545385207 0 -0.00076665869332437559 -0.027640538543407964 0 0.00092355405381835162 -0.02326091341460327 0 -0.0025866657767216589 -0.033261092349201257 0 -0.0026131827147523505 -0.033029427513092159 0 -0.0034253849773339495 -0.033172555903251029 0 -0.0019027026785887391 -0.030607720199404231 0 -0.0017953852818123816 -0.030779287918344628 0 -0.0018504915514525053 -0.03100831134260364 0 -0.0019027026785887391 -0.030607720199404231 0 -0.0017953852818123816 -0.030779287918344628 0 -0.0016158208755539128 -0.030553356526897172 0 -0.00076653861826701775 -0.027765998952073712 0 -0.00076665869332437559 -0.027640538543407964 0 -0.0015018633033379687 -0.030903870520189596 0 -0.0012083622561989964 -0.030977882140509685 0 -0.0013206532622559038 -0.031002779791016098 0 -0.001079340242203478 -0.030960557935603174 0 -0.0010841196129821836 -0.031180231153234251 0 -0.0017953852818123816 -0.030779287918344628 0 -0.0016158208755539128 -0.030553356526897172 0 -0.0011862920144049996 -0.030877925616323104 0 -0.0016061992083630603 -0.030645258545385207 0 -0.0012083622561989964 -0.030977882140509685 0 -0.0025329631315194352 -0.035026950088109209 0 -0.0029093106741623484 -0.035318923804226153 0 -0.0028566101924874039 -0.03482497306089874 0 -0.0016061992083630603 -0.030645258545385207 0 -0.0019348182915757605 -0.032317886578035866 0 -0.0022990962778650175 -0.034632777657383124 0 -0.0025329631315194352 -0.035026950088109209 0 -0.0028566101924874039 -0.03482497306089874 0 0.0018003590368252311 -0.034570450076899628 0 0.0011629544737985246 -0.034598960961517884 0 0.0015357527250937867 -0.035138378077190779 0 0.0011629544737985246 -0.034598960961517884 0 0.0015357527250937867 -0.035138378077190779 0 0.00091559786249441409 -0.034918844854056844 0 0.0018003590368252311 -0.034570450076899628 0 0.0011629544737985246 -0.034598960961517884 0 0.0010100551225400028 -0.033937364496619438 0 0.0077476509642343842 -0.0028457435749898335 0 0.006852615670872351 -0.0030668617120220066 0 0.0073153380574161927 -0.0036137503277746718 0 0.0018003590368252311 -0.034570450076899628 0 0.0025784523169731532 -0.035458152792589875 0 0.0015357527250937867 -0.035138378077190779 0 0.0025784523169731532 -0.035458152792589875 0 0.0017079041787287311 -0.035708188735475044 0 0.0015357527250937867 -0.035138378077190779 0 0.0058872137340167845 -0.016411433087555143 0 0.0061776534160914174 -0.014717506735638857 0 0.0015357527250937867 -0.035138378077190779 0 0.00093053366818207173 -0.035479224655815954 0 0.00091559786249441409 -0.034918844854056844 0 0.0017079041787287311 -0.035708188735475044 0 0.0015357527250937867 -0.035138378077190779 0 0.00093053366818207173 -0.035479224655815954 0 0.00093053366818207173 -0.035479224655815954 0 -2.1597679748930419e-05 -0.035414481376764451 0 0.00043524487912917082 -0.034961846364785061 0 0.00069220350418595054 -0.035990590881456487 0 0.00093053366818207173 -0.035479224655815954 0 -2.1597679748930419e-05 -0.035414481376764451 0 0.00093053366818207173 -0.035479224655815954 0 0.00091559786249441409 -0.034918844854056844 0 0.00043524487912917082 -0.034961846364785061 0 -0.00045145409169088747 -0.035962611302241328 0 0.00069220350418595054 -0.035990590881456487 0 -2.1597679748930419e-05 -0.035414481376764451 0 -0.00045145409169088747 -0.035962611302241328 0 -0.00094096250910197623 -0.035108653048855909 0 -2.1597679748930419e-05 -0.035414481376764451 0 -0.00094096250910197623 -0.035108653048855909 0 -2.1597679748930419e-05 -0.035414481376764451 0 -2.7574672546319607e-05 -0.034492664711771787 0 -0.00094096250910197623 -0.035108653048855909 0 -2.7574672546319607e-05 -0.034492664711771787 0 -0.00056412060175576716 -0.033960766585308895 0 -2.1597679748930419e-05 -0.035414481376764451 0 -2.7574672546319607e-05 -0.034492664711771787 0 0.00043524487912917082 -0.034961846364785061 0 0.0011629544737985246 -0.034598960961517884 0 0.00091559786249441409 -0.034918844854056844 0 0.00062729582146412951 -0.034472585560652795 0 0.00091559786249441409 -0.034918844854056844 0 0.00043524487912917082 -0.034961846364785061 0 0.00062729582146412951 -0.034472585560652795 0 -2.7574672546319607e-05 -0.034492664711771787 0 0.00043524487912917082 -0.034961846364785061 0 0.00062729582146412951 -0.034472585560652795 0 -2.7574672546319607e-05 -0.034492664711771787 0 0.00062729582146412951 -0.034472585560652795 0 0.00037757431820877317 -0.034000650416806485 0 0.00062729582146412951 -0.034472585560652795 0 0.00037757431820877317 -0.034000650416806485 0 0.0010100551225400028 -0.033937364496619438 0 0.0011629544737985246 -0.034598960961517884 0 0.00062729582146412951 -0.034472585560652795 0 0.0010100551225400028 -0.033937364496619438 0 0.0040235013578373297 -0.024661241650747304 0 0.0043412417144025944 -0.026334264987297847 0 0.00037757431820877317 -0.034000650416806485 0 0.00032007591888018826 -0.03335857339448265 0 -4.0149947098692595e-05 -0.033814350905303832 0 0.00037757431820877317 -0.034000650416806485 0 0.00032007591888018826 -0.03335857339448265 0 0.0010100551225400028 -0.033937364496619438 0 9.5185248311476067e-05 -0.033061069827161935 0 0.0009326844039593584 -0.0334275468659933 0 0.0010100551225400028 -0.033937364496619438 0 -0.00056412060175576716 -0.033960766585308895 0 -4.0149947098692595e-05 -0.033814350905303832 0 -0.00030486353397898061 -0.033370103494974358 0 -2.7574672546319607e-05 -0.034492664711771787 0 -0.00056412060175576716 -0.033960766585308895 0 -4.0149947098692595e-05 -0.033814350905303832 0 -2.7574672546319607e-05 -0.034492664711771787 0 0.00037757431820877317 -0.034000650416806485 0 -4.0149947098692595e-05 -0.033814350905303832 0 0.00032007591888018826 -0.03335857339448265 0 -4.0149947098692595e-05 -0.033814350905303832 0 -0.00030486353397898061 -0.033370103494974358 0 -0.00098041354251201434 -0.033358560648632123 0 -0.00056412060175576716 -0.033960766585308895 0 -0.00030486353397898061 -0.033370103494974358 0 -0.00098041354251201434 -0.033358560648632123 0 -0.00030486353397898061 -0.033370103494974358 0 -0.00041932970163593481 -0.03265476564638059 0 0.0040235013578373297 -0.024661241650747304 0 0.0027072447965533378 -0.018957876995636072 0 0.00032007591888018826 -0.03335857339448265 0 -0.00030486353397898061 -0.033370103494974358 0 -0.00041932970163593481 -0.03265476564638059 0 9.5185248311476067e-05 -0.033061069827161935 0 -0.00019874050218655844 -0.03199961543492727 0 -0.00089313961788886132 -0.032115115300897452 0 0.005021609085022128 -0.013352370919811129 0 0.0027072447965533378 -0.018957876995636072 0 0.003588422724369373 -0.013272923930853142 0 0.0036262006226559433 -0.013268315612210441 0 0.003612807006233296 -0.013299428015713894 0 0.0053109971248363891 -0.011783494245936331 0 0.0044638896834313215 -0.011303692711669274 0 0.0054670714980493895 -0.010633537995102556 0 0.0048814177692636206 -0.010741253319411751 0 0.0062140185456819865 -0.011467484893465841 0 0.005021609085022128 -0.013352370919811129 0 0.0044638896834313215 -0.011303692711669274 0 0.0063899634131523988 -0.0025418309308936128 0 0.0059390633782317789 -0.0020480326003865122 0 0.0062462500135666253 -0.0021126711083803104 0 0.0060560555691928303 -0.002022792633875756 0 0.0062462500135666253 -0.0021126711083803104 0 0.0068072477414351977 -0.0018232920474570134 0 0.0053511637644762531 -0.015780501412735508 0 0.005021609085022128 -0.013352370919811129 0 9.5185248311476067e-05 -0.033061069827161935 0 0.0009326844039593584 -0.0334275468659933 0 -0.00019874050218655844 -0.03199961543492727 0 0.0063899634131523988 -0.0025418309308936128 0 0.0062462500135666253 -0.0021126711083803104 0 0.0066271726241410563 -0.0022067620076756042 0 0.0059390633782317789 -0.0020480326003865122 0 0.0060645290032066927 -0.0020230576845793316 0 0.0062462500135666253 -0.0021126711083803104 0 0.0053109971248363891 -0.011783494245936331 0 0.0051229118721913443 -0.011463353482055523 0 0.005021609085022128 -0.013352370919811129 0 0.0053109971248363891 -0.011783494245936331 0 0.0066271726241410563 -0.0022067620076756042 0 0.007021585873334399 -0.0024333525896969325 0 0.0068072477414351977 -0.0018232920474570134 0 0.0062462500135666253 -0.0021126711083803104 0 0.0066271726241410563 -0.0022067620076756042 0 0.0068072477414351977 -0.0018232920474570134 0 0.0053109971248363891 -0.011783494245936331 0 0.0073836167842774589 -0.0070132619661025667 0 0.0063899634131523988 -0.0025418309308936128 0 0.0066271726241410563 -0.0022067620076756042 0 0.007021585873334399 -0.0024333525896969325 0 0.006852615670872351 -0.0030668617120220066 0 0.0063899634131523988 -0.0025418309308936128 0 0.007021585873334399 -0.0024333525896969325 0 0.0018003590368252311 -0.034570450076899628 0 0.0009326844039593584 -0.0334275468659933 0 0.0010100551225400028 -0.033937364496619438 0 0.0058872137340167845 -0.016411433087555143 0 0.0053511637644762531 -0.015780501412735508 0 0.0077476509642343842 -0.0028457435749898335 0 0.006852615670872351 -0.0030668617120220066 0 0.007021585873334399 -0.0024333525896969325 0 0.0075586456126225431 -0.0022057989840956979 0 0.0068072477414351977 -0.0018232920474570134 0 0.0076575277852859291 -0.0016111083173415406 0 0.0075586456126225431 -0.0022057989840956979 0 0.007021585873334399 -0.0024333525896969325 0 0.0068072477414351977 -0.0018232920474570134 0 0.0074404808530549428 -0.0014572382896975227 0 0.007338488582018925 -0.0016816088438348818 0 0.0076575277852859291 -0.0016111083173415406 0 0.0073836167842774589 -0.0070132619661025667 0 0.0078172936265355746 -0.0057086099942685702 0 0.0074404808530549428 -0.0014572382896975227 0 0.0075024770773493427 -0.0012356146033680648 0 0.007757189888518542 -0.0012629229676044962 0 0.0074404808530549428 -0.0014572382896975227 0 0.0075024770773493427 -0.0012356146033680648 0 0.0072519693544548149 -0.0013614692826083223 0 0.0074404808530549428 -0.0014572382896975227 0 0.0072519693544548149 -0.0013614692826083223 0 0.0072197187657366459 -0.0015391436516371483 0 0.0072519693544548149 -0.0013614692826083223 0 0.0071147923138445103 -0.0013787710171536129 0 0.0072822166560821038 -0.0011918933459162666 0 0.0072519693544548149 -0.0013614692826083223 0 0.0072197187657366459 -0.0015391436516371483 0 0.0071330431330126403 -0.001474835358300306 0 0.0074404808530549428 -0.0014572382896975227 0 0.0072197187657366459 -0.0015391436516371483 0 0.007338488582018925 -0.0016816088438348818 0 0.0070294500922952136 -0.001761270210678519 0 0.0072197187657366459 -0.0015391436516371483 0 0.007338488582018925 -0.0016816088438348818 0 0.0070294500922952136 -0.001761270210678519 0 0.0072197187657366459 -0.0015391436516371483 0 0.0070540193398219795 -0.001574090627876367 0 0.0070294500922952136 -0.001761270210678519 0 0.0070540193398219795 -0.001574090627876367 0 0.006979676777129221 -0.0016615548270878444 0 0.0072197187657366459 -0.0015391436516371483 0 0.0070540193398219795 -0.001574090627876367 0 0.0071330431330126403 -0.001474835358300306 0 0.0036262006226559433 -0.013268315612210441 0 0.003612807006233296 -0.013299428015713894 0 0.0036819489930703616 -0.013317218773537183 0 0.0044638896834313215 -0.011303692711669274 0 0.0036349065435556608 -0.011632109682936745 0 0.0044638896834313215 -0.011303692711669274 0 0.0039677307938871366 -0.0098661300363802312 0 0.0070294500922952136 -0.001761270210678519 0 0.006979676777129221 -0.0016615548270878444 0 0.006925059657526606 -0.0016979635428616112 0 0.006979676777129221 -0.0016615548270878444 0 0.006925059657526606 -0.0016979635428616112 0 0.0069244376654174367 -0.0016139812504021925 0 0.0070540193398219795 -0.001574090627876367 0 0.006979676777129221 -0.0016615548270878444 0 0.0069244376654174367 -0.0016139812504021925 0 0.0070540193398219795 -0.001574090627876367 0 0.0069244376654174367 -0.0016139812504021925 0 0.0069435420311305352 -0.0015237890116348916 0 0.0069244376654174367 -0.0016139812504021925 0 0.006878291324177192 -0.001558957746458869 0 0.0069435420311305352 -0.0015237890116348916 0 0.0069244376654174367 -0.0016139812504021925 0 0.006878291324177192 -0.001558957746458869 0 0.0068395361169806858 -0.0016198905662623854 0 0.006925059657526606 -0.0016979635428616112 0 0.0069244376654174367 -0.0016139812504021925 0 0.0068395361169806858 -0.0016198905662623854 0 0.006878291324177192 -0.001558957746458869 0 0.0069435420311305352 -0.0015237890116348916 0 0.0068577568277095498 -0.0014851662095925738 0 0.006878291324177192 -0.001558957746458869 0 0.0068577568277095498 -0.0014851662095925738 0 0.0067924404169489409 -0.0015562754219426021 0 0.0069435420311305352 -0.0015237890116348916 0 0.0069782341158197321 -0.0014280112904795292 0 0.007041927616261337 -0.0014812417016728473 0 0.0069435420311305352 -0.0015237890116348916 0 0.0069782341158197321 -0.0014280112904795292 0 0.0068577568277095498 -0.0014851662095925738 0 0.0068577568277095498 -0.0014851662095925738 0 0.0069092813050952735 -0.0013877919503814066 0 0.0068135271665485334 -0.0013955972324641752 0 0.0069782341158197321 -0.0014280112904795292 0 0.0068577568277095498 -0.0014851662095925738 0 0.0069092813050952735 -0.0013877919503814066 0 0.0071330431330126403 -0.001474835358300306 0 0.007041927616261337 -0.0014812417016728473 0 0.0071147923138445103 -0.0013787710171536129 0 0.0070540193398219795 -0.001574090627876367 0 0.0069435420311305352 -0.0015237890116348916 0 0.007041927616261337 -0.0014812417016728473 0 0.0070540193398219795 -0.001574090627876367 0 0.0071330431330126403 -0.001474835358300306 0 0.007041927616261337 -0.0014812417016728473 0 0.0069782341158197321 -0.0014280112904795292 0 0.0071147923138445103 -0.0013787710171536129 0 0.0070113253902780092 -0.0013087723318953375 0 0.0069782341158197321 -0.0014280112904795292 0 0.007041927616261337 -0.0014812417016728473 0 0.0071147923138445103 -0.0013787710171536129 0 0.0072519693544548149 -0.0013614692826083223 0 0.0071330431330126403 -0.001474835358300306 0 0.0071147923138445103 -0.0013787710171536129 0 0.0071147923138445103 -0.0013787710171536129 0 0.0070113253902780092 -0.0013087723318953375 0 0.0071234377625524594 -0.0011851162265828716 0 0.0071147923138445103 -0.0013787710171536129 0 0.0071234377625524594 -0.0011851162265828716 0 0.0072822166560821038 -0.0011918933459162666 0 0.0070113253902780092 -0.0013087723318953375 0 0.0071234377625524594 -0.0011851162265828716 0 0.007012228278656764 -0.0011991362414593065 0 0.0069092813050952735 -0.0013877919503814066 0 0.0068942576806295449 -0.001295090610766122 0 0.0068135271665485334 -0.0013955972324641752 0 0.0069782341158197321 -0.0014280112904795292 0 0.0070113253902780092 -0.0013087723318953375 0 0.0069092813050952735 -0.0013877919503814066 0 0.0070113253902780092 -0.0013087723318953375 0 0.0069092813050952735 -0.0013877919503814066 0 0.0068942576806295449 -0.001295090610766122 0 0.0070113253902780092 -0.0013087723318953375 0 0.0068942576806295449 -0.001295090610766122 0 0.007012228278656764 -0.0011991362414593065 0 0.007012228278656764 -0.0011991362414593065 0 0.0068827437414224514 -0.0011723444442297668 0 0.0071025912538753219 -0.0010760741340468279 0 0.0068942576806295449 -0.001295090610766122 0 0.007012228278656764 -0.0011991362414593065 0 0.0068827437414224514 -0.0011723444442297668 0 0.0071234377625524594 -0.0011851162265828716 0 0.0071025912538753219 -0.0010760741340468279 0 0.0072491226145731747 -0.0009965064924498349 0 0.0071234377625524594 -0.0011851162265828716 0 0.007012228278656764 -0.0011991362414593065 0 0.0071025912538753219 -0.0010760741340468279 0 0.0072491226145731747 -0.0009965064924498349 0 0.0071988459563799298 -0.00075086504800039996 0 0.00769759172351851 -0.00069424241686310184 0 0.0071025912538753219 -0.0010760741340468279 0 0.0072491226145731747 -0.0009965064924498349 0 0.0072030017357699828 -0.00099092242995571923 0 0.0093971644525273328 -0.0076831347756781817 0 0.0099183588453692871 -0.0098548248580026306 0 0.0075002883800651962 -0.0010179313314331777 0 0.00769759172351851 -0.00069424241686310184 0 0.0078050175736616902 -0.00095544076209100196 0 0.0072491226145731747 -0.0009965064924498349 0 0.0075002883800651962 -0.0010179313314331777 0 0.00769759172351851 -0.00069424241686310184 0 0.0075024770773493427 -0.0012356146033680648 0 0.0075002883800651962 -0.0010179313314331777 0 0.0078050175736616902 -0.00095544076209100196 0 0.0075024770773493427 -0.0012356146033680648 0 0.0075002883800651962 -0.0010179313314331777 0 0.0072822166560821038 -0.0011918933459162666 0 0.0072491226145731747 -0.0009965064924498349 0 0.0075002883800651962 -0.0010179313314331777 0 0.0072822166560821038 -0.0011918933459162666 0 0.0071234377625524594 -0.0011851162265828716 0 0.0072491226145731747 -0.0009965064924498349 0 0.0072822166560821038 -0.0011918933459162666 0 0.0075024770773493427 -0.0012356146033680648 0 0.0072519693544548149 -0.0013614692826083223 0 0.0072822166560821038 -0.0011918933459162666 0 -0.0015114684153457896 -0.031279822877230946 0 -0.0017952741444089962 -0.031370248930604416 0 -0.0014447424797050935 -0.031563598743305638 0 -0.0015114684153457896 -0.031279822877230946 0 -0.0014447424797050935 -0.031563598743305638 0 -0.001214469214019222 -0.031292311911457413 0 -0.0017953852818123816 -0.030779287918344628 0 -0.0015407997226213382 -0.030978745867717979 0 -0.0012472080295505854 -0.030909090794137457 0 -0.0015407997226213382 -0.030978745867717979 0 -0.001214469214019222 -0.031292311911457413 0 -0.0012472080295505854 -0.030909090794137457 0 -0.0015114684153457896 -0.031279822877230946 0 -0.0015407997226213382 -0.030978745867717979 0 -0.001214469214019222 -0.031292311911457413 0 -0.0015114684153457896 -0.031279822877230946 0 -0.0015407997226213382 -0.030978745867717979 0 -0.0016733186449802281 -0.031135624015819215 0 -0.0016733186449802281 -0.031135624015819215 0 -0.0017143882421505557 -0.03097689859290291 0 -0.0018504915514525053 -0.03100831134260364 0 -0.0015407997226213382 -0.030978745867717979 0 -0.0016733186449802281 -0.031135624015819215 0 -0.0017143882421505557 -0.03097689859290291 0 -0.0017953852818123816 -0.030779287918344628 0 -0.0015407997226213382 -0.030978745867717979 0 -0.0017143882421505557 -0.03097689859290291 0 -0.0017953852818123816 -0.030779287918344628 0 -0.0017143882421505557 -0.03097689859290291 0 -0.0018504915514525053 -0.03100831134260364 0 0.001786876382015055 -0.019618646091801376 0 0.0017209601505616752 -0.019009698329612763 0 0.0020922818988481193 -0.019220424984540217 0 -0.0016733186449802281 -0.031135624015819215 0 -0.0018504915514525053 -0.03100831134260364 0 -0.0017952741444089962 -0.031370248930604416 0 0.00092355405381835162 -0.02326091341460327 0 0.0026447417742014138 -0.015844998470181716 0 -0.0015114684153457896 -0.031279822877230946 0 -0.0016733186449802281 -0.031135624015819215 0 -0.0017952741444089962 -0.031370248930604416 0 0.0065102658828492827 -0.0015380081603251722 0 0.0065549547721370652 -0.0015381109941780833 0 0.0065721949217188323 -0.001461800421808061 0 0.0065549547721370652 -0.0015381109941780833 0 0.0066414112348313582 -0.0014943717063754119 0 0.0065721949217188323 -0.001461800421808061 0 0.0065549547721370652 -0.0015381109941780833 0 0.0066414112348313582 -0.0014943717063754119 0 0.0066173910443570903 -0.0015718337296414405 0 0.0065102658828492827 -0.0015380081603251722 0 0.0065549547721370652 -0.0015381109941780833 0 0.0066381019735049117 -0.0016758412940435987 0 0.0066414112348313582 -0.0014943717063754119 0 0.0066173910443570903 -0.0015718337296414405 0 0.0067073708403619274 -0.0015478594640057782 0 0.002597020381148998 -0.012491299646801051 0 0.0028952139379138722 -0.013434625469651537 0 0.0026447417742014138 -0.015844998470181716 0 0.0028952139379138722 -0.013434625469651537 0 0.001786876382015055 -0.019618646091801376 0 0.0020922818988481193 -0.019220424984540217 0 0.0021568523256152608 -0.019791854950800974 0 0.0020922818988481193 -0.019220424984540217 0 0.0021568523256152608 -0.019791854950800974 0 0.0025259752194607319 -0.019618054026111383 0 0.0028952139379138722 -0.013434625469651537 0 0.0036349065435556608 -0.011632109682936745 0 0.0028952139379138722 -0.013434625469651537 0 0.0029303655386284638 -0.01631108359644309 0 0.0069589616192092885 -0.0017993719888368639 0 0.0067501559759376188 -0.0016371049373605745 0 0.0068395361169806858 -0.0016198905662623854 0 0.003612807006233296 -0.013299428015713894 0 0.0036761387985381725 -0.013329954024544852 0 0.0036819489930703616 -0.013317218773537183 0 0.0037251463425862648 -0.013351306914859216 0 0.0036761387985381725 -0.013329954024544852 0 0.0036819489930703616 -0.013317218773537183 0 0.0027072447965533378 -0.018957876995636072 0 0.0029303655386284638 -0.01631108359644309 0 0.0067501559759376188 -0.0016371049373605745 0 0.0068395361169806858 -0.0016198905662623854 0 0.0067924404169489409 -0.0015562754219426021 0 0.006878291324177192 -0.001558957746458869 0 0.0068395361169806858 -0.0016198905662623854 0 0.0067924404169489409 -0.0015562754219426021 0 0.0068577568277095498 -0.0014851662095925738 0 0.0067924404169489409 -0.0015562754219426021 0 0.0067458483230079403 -0.0014871242773277556 0 0.0066173910443570903 -0.0015718337296414405 0 0.0067501559759376188 -0.0016371049373605745 0 0.0067073708403619274 -0.0015478594640057782 0 0.0067924404169489409 -0.0015562754219426021 0 0.0067073708403619274 -0.0015478594640057782 0 0.0067458483230079403 -0.0014871242773277556 0 0.0067501559759376188 -0.0016371049373605745 0 0.0067924404169489409 -0.0015562754219426021 0 0.0067073708403619274 -0.0015478594640057782 0 0.0066414112348313582 -0.0014943717063754119 0 0.0067073708403619274 -0.0015478594640057782 0 0.0067458483230079403 -0.0014871242773277556 0 0.0066414112348313582 -0.0014943717063754119 0 0.0067458483230079403 -0.0014871242773277556 0 0.0067239975417027727 -0.0014179349374257295 0 0.0068577568277095498 -0.0014851662095925738 0 0.0067458483230079403 -0.0014871242773277556 0 0.0068135271665485334 -0.0013955972324641752 0 0.0068135271665485334 -0.0013955972324641752 0 0.0067239975417027727 -0.0014179349374257295 0 0.0067597788938123073 -0.0013361897790292059 0 0.0067458483230079403 -0.0014871242773277556 0 0.0068135271665485334 -0.0013955972324641752 0 0.0067239975417027727 -0.0014179349374257295 0 0.0067239975417027727 -0.0014179349374257295 0 0.0067597788938123073 -0.0013361897790292059 0 0.0066447173082996788 -0.0013983761600628627 0 0.0068942576806295449 -0.001295090610766122 0 0.0068135271665485334 -0.0013955972324641752 0 0.0067597788938123073 -0.0013361897790292059 0 0.0068827437414224514 -0.0011723444442297668 0 0.0067597788938123073 -0.0013361897790292059 0 0.0066234482075039746 -0.0013101293184484459 0 0.0068942576806295449 -0.001295090610766122 0 0.0068827437414224514 -0.0011723444442297668 0 0.0067597788938123073 -0.0013361897790292059 0 0.0066234482075039746 -0.0013101293184484459 0 0.0064825276888440348 -0.0013665184377223303 0 0.0064916036664186671 -0.0012724072334701858 0 0.0066234482075039746 -0.0013101293184484459 0 0.0065800589569877822 -0.0013805044564551569 0 0.0064825276888440348 -0.0013665184377223303 0 0.0066234482075039746 -0.0013101293184484459 0 0.0065800589569877822 -0.0013805044564551569 0 0.0066447173082996788 -0.0013983761600628627 0 0.0065800589569877822 -0.0013805044564551569 0 0.0066447173082996788 -0.0013983761600628627 0 0.0065721949217188323 -0.001461800421808061 0 0.0067597788938123073 -0.0013361897790292059 0 0.0066234482075039746 -0.0013101293184484459 0 0.0066447173082996788 -0.0013983761600628627 0 0.0066414112348313582 -0.0014943717063754119 0 0.0067239975417027727 -0.0014179349374257295 0 0.0066447173082996788 -0.0013983761600628627 0 0.0066414112348313582 -0.0014943717063754119 0 0.0066447173082996788 -0.0013983761600628627 0 0.0065721949217188323 -0.001461800421808061 0 0.0065102658828492827 -0.0015380081603251722 0 0.0065721949217188323 -0.001461800421808061 0 0.0064825276888440348 -0.0013665184377223303 0 0.0026447417742014138 -0.015844998470181716 0 0.0037906648301472058 -0.0066102700057418052 0 0.0075187852044137924 -0.011028743768509706 0 0.006948261395861576 -0.0061544341369823051 0 0.0038222064086589425 -0.0089901829287835668 0 0.0026447417742014138 -0.015844998470181716 0 0.0015071731083814179 -0.020393658346449073 0 0.0065800589569877822 -0.0013805044564551569 0 0.0065721949217188323 -0.001461800421808061 0 0.0064825276888440348 -0.0013665184377223303 0 0.0037906648301472058 -0.0066102700057418052 0 0.0041288515526835302 -0.0041652721106609581 0 0.006948261395861576 -0.0061544341369823051 0 0.0035285904288382621 -0.0061562074782521622 0 0.0048103504869648501 -0.0034282587777129149 0 0.0035285904288382621 -0.0061562074782521622 0 0.0025130252139083644 -0.0035279103906899409 0 0.0048103504869648501 -0.0034282587777129149 0 0.006948261395861576 -0.0061544341369823051 0 0.0035285904288382621 -0.0061562074782521622 0 0.0038222064086589425 -0.0089901829287835668 0 0.0035285904288382621 -0.0061562074782521622 0 0.0038222064086589425 -0.0089901829287835668 0 0.00012491849091135588 -0.0069807347920092964 0 0.005889022146478266 -0.038282830686176293 0 0.0057259940038010869 -0.038521173573882087 0 0.0029684654175336262 -0.037797412347749339 0 0.0064137923157236111 -0.063096272984549506 0 0.0064455285903885114 -0.063135439421855191 0 0.0064200214828786959 -0.063096132792077944 0 0.004593474640727604 -0.034742170235907525 0 0.0033351882998496961 -0.04593263443747396 0 0.0064137923157236111 -0.063096272984549506 0 0.0064200214828786959 -0.063096132792077944 0 0.0064169647501025927 -0.063054478351240714 0 0.001885112249761401 -0.051649896305402343 0 0.0033351882998496961 -0.04593263443747396 0 0.004593474640727604 -0.034742170235907525 0 0.0051180259210049034 -0.033623707079407608 0 0.004962982620801951 -0.00039885653770674816 0 0.0048103504869648501 -0.0034282587777129149 0 0.006248509236871644 -0.0012957872027165925 0 0.004962982620801951 -0.00039885653770674816 0 0.0025130252139083644 -0.0035279103906899409 0 0.0048103504869648501 -0.0034282587777129149 0 0.0051180259210049034 -0.033623707079407608 0 0.0044867603506764803 -0.02571935417184891 0 0.0038875929046048971 -0.034165471788664137 0 0.0034383253102312074 -0.034805159756255255 0 0.0028830335092479816 -0.034191604338868455 0 0.0064825276888440348 -0.0013665184377223303 0 0.006248509236871644 -0.0012957872027165925 0 0.0064916036664186671 -0.0012724072334701858 0 0.006948261395861576 -0.0061544341369823051 0 0.0048103504869648501 -0.0034282587777129149 0 0.006248509236871644 -0.0012957872027165925 0 0.006248509236871644 -0.0012957872027165925 0 0.0064916036664186671 -0.0012724072334701858 0 0.0063221093464412795 -0.00088268798057264007 0 0.0069195494488601588 -0.025617028908009438 0 0.0072267133730005212 -0.02566143927641867 0 0.0074291943751074816 -0.024892810239135341 0 0.0072267133730005212 -0.02566143927641867 0 0.0077243740475319766 -0.025253821007146453 0 0.0074291943751074816 -0.024892810239135341 0 0.0054927010122364141 -0.031266831322431826 0 0.0068892674085697242 -0.029904512881532803 0 0.004593474640727604 -0.034742170235907525 0 0.0056580320373703598 -0.039752401072095093 0 0.004962982620801951 -0.00039885653770674816 0 0.006248509236871644 -0.0012957872027165925 0 0.0063221093464412795 -0.00088268798057264007 0 0.0029555962878223775 -0.031444383258214963 0 0.002500324111436037 -0.032109173179488137 0 0.0063874183227948219 -0.032026562897249547 0 0.0051180259210049034 -0.033623707079407608 0 0.0054927010122364141 -0.031266831322431826 0 0.004593474640727604 -0.034742170235907525 0 0.0054927010122364141 -0.031266831322431826 0 0.0078012362663249981 -0.02559605011646756 0 0.0081603518357399856 -0.025754581015550539 0 0.0084079409446909271 -0.025566463083769777 0 0.0071777559889022848 -0.025642843097301027 0 0.0078012362663249981 -0.02559605011646756 0 0.0081603518357399856 -0.025754581015550539 0 0.0054927010122364141 -0.031266831322431826 0 0.0065136143889818667 -0.020827391106739063 0 0.0068892674085697242 -0.029904512881532803 0 0.0073351236749818992 -0.029479090418188095 0 0.0080997410454340737 -0.025286624141061653 0 0.0078282882614661101 -0.025624982336014897 0 0.0084079409446909271 -0.025566463083769777 0 0.0072267133730005212 -0.02566143927641867 0 0.0077243740475319766 -0.025253821007146453 0 0.0078282882614661101 -0.025624982336014897 0 0.0077243740475319766 -0.025253821007146453 0 0.0080997410454340737 -0.025286624141061653 0 0.0078282882614661101 -0.025624982336014897 0 0.0066234482075039746 -0.0013101293184484459 0 0.0064916036664186671 -0.0012724072334701858 0 0.0067426678280673837 -0.0010926896341062857 0 0.0064916036664186671 -0.0012724072334701858 0 0.0063221093464412795 -0.00088268798057264007 0 0.0067426678280673837 -0.0010926896341062857 0 0.0081603518357399856 -0.025754581015550539 0 0.0084079409446909271 -0.025566463083769777 0 0.0090663465481232892 -0.025835163589543259 0 0.0068827437414224514 -0.0011723444442297668 0 0.0067426678280673837 -0.0010926896341062857 0 0.0069710641966036586 -0.0010412928495321398 0 0.0068827437414224514 -0.0011723444442297668 0 0.0066234482075039746 -0.0013101293184484459 0 0.0067426678280673837 -0.0010926896341062857 0 0.0065136143889818667 -0.020827391106739063 0 0.0079725371296166421 -0.014878663110478257 0 0.0080997410454340737 -0.025286624141061653 0 0.0084079409446909271 -0.025566463083769777 0 0.00849203181708056 -0.025130435748727441 0 0.0084079409446909271 -0.025566463083769777 0 0.00849203181708056 -0.025130435748727441 0 0.0088557302587708164 -0.025329573070202512 0 0.00849203181708056 -0.025130435748727441 0 0.0085362135544950462 -0.024599792594353437 0 0.0089950047902513878 -0.024897508419298029 0 0.0080997410454340737 -0.025286624141061653 0 0.00849203181708056 -0.025130435748727441 0 0.0080395067109097253 -0.024902620242638073 0 0.00849203181708056 -0.025130435748727441 0 0.0085362135544950462 -0.024599792594353437 0 0.0080395067109097253 -0.024902620242638073 0 0.0089751761306358264 -0.038463367776194371 0 0.012466605807218726 -0.02891164507261464 0 0.0085362135544950462 -0.024599792594353437 0 0.00792398973614406 -0.024204025133163058 0 0.0087157242656504992 -0.024021651815102522 0 0.0085362135544950462 -0.024599792594353437 0 0.00792398973614406 -0.024204025133163058 0 0.0080395067109097253 -0.024902620242638073 0 0.0089751761306358264 -0.038463367776194371 0 0.0056580320373703598 -0.039752401072095093 0 0.0078183676670225931 -0.062078560772117722 0 0.0070974190568703441 -0.062397535407790292 0 0.0065873378100775992 -0.063187504359955182 0 0.0078183676670225931 -0.062078560772117722 0 0.007362232978309978 -0.062146147120037847 0 0.0070974190568703441 -0.062397535407790292 0 0.007995262971191304 -0.062081110268714733 0 0.007362232978309978 -0.062146147120037847 0 0.0078100511450409481 -0.061139750742131467 0 0.0089751761306358264 -0.038463367776194371 0 0.0086692936136102735 -0.038899073533197666 0 0.00792398973614406 -0.024204025133163058 0 0.0080395067109097253 -0.024902620242638073 0 0.0074291943751074816 -0.024892810239135341 0 0.0077243740475319766 -0.025253821007146453 0 0.0080395067109097253 -0.024902620242638073 0 0.0074291943751074816 -0.024892810239135341 0 0.0077243740475319766 -0.025253821007146453 0 0.0080997410454340737 -0.025286624141061653 0 0.0080395067109097253 -0.024902620242638073 0 0.0064137923157236111 -0.063096272984549506 0 0.0065873378100775992 -0.063187504359955182 0 0.0064455285903885114 -0.063135439421855191 0 0.0064455285903885114 -0.063135439421855191 0 0.0063219088209367693 -0.062682272737649272 0 0.005852123260239676 -0.062938671433251062 0 0.0064455285903885114 -0.063135439421855191 0 0.0065530506680811073 -0.062840683638363398 0 0.0063219088209367693 -0.062682272737649272 0 0.0065873378100775992 -0.063187504359955182 0 0.0065530506680811073 -0.062840683638363398 0 0.0067490039009751512 -0.062642119017801409 0 0.0070974190568703441 -0.062397535407790292 0 0.0065873378100775992 -0.063187504359955182 0 0.0067490039009751512 -0.062642119017801409 0 0.0065873378100775992 -0.063187504359955182 0 0.0064455285903885114 -0.063135439421855191 0 0.0065530506680811073 -0.062840683638363398 0 0.0065530506680811073 -0.062840683638363398 0 0.0067490039009751512 -0.062642119017801409 0 0.0065729281468096127 -0.06244074162773057 0 0.0065729281468096127 -0.06244074162773057 0 0.0068025513824856911 -0.062186285734995177 0 0.0062443058230524841 -0.062202102944383601 0 0.0067490039009751512 -0.062642119017801409 0 0.0065729281468096127 -0.06244074162773057 0 0.0068025513824856911 -0.062186285734995177 0 0.0070974190568703441 -0.062397535407790292 0 0.0067490039009751512 -0.062642119017801409 0 0.0068025513824856911 -0.062186285734995177 0 0.007362232978309978 -0.062146147120037847 0 0.0070974190568703441 -0.062397535407790292 0 0.0068025513824856911 -0.062186285734995177 0 0.0068025513824856911 -0.062186285734995177 0 0.0064225048616680224 -0.061648404953698027 0 0.0070072286006091647 -0.061605408650587924 0 0.007362232978309978 -0.062146147120037847 0 0.0068025513824856911 -0.062186285734995177 0 0.0070072286006091647 -0.061605408650587924 0 0.0058529537489614702 -0.061726023400118755 0 0.0062443058230524841 -0.062202102944383601 0 0.0064225048616680224 -0.061648404953698027 0 0.0068025513824856911 -0.062186285734995177 0 0.0062443058230524841 -0.062202102944383601 0 0.0064225048616680224 -0.061648404953698027 0 0.0062443058230524841 -0.062202102944383601 0 0.0063219088209367693 -0.062682272737649272 0 0.005882372960403455 -0.06250664211731051 0 0.0065729281468096127 -0.06244074162773057 0 0.0062443058230524841 -0.062202102944383601 0 0.0063219088209367693 -0.062682272737649272 0 0.0065530506680811073 -0.062840683638363398 0 0.0065729281468096127 -0.06244074162773057 0 0.0063219088209367693 -0.062682272737649272 0 0.0063219088209367693 -0.062682272737649272 0 0.005882372960403455 -0.06250664211731051 0 0.005852123260239676 -0.062938671433251062 0 0.005882372960403455 -0.06250664211731051 0 0.0051984639303408881 -0.062805059371858582 0 0.005852123260239676 -0.062938671433251062 0 0.0062443058230524841 -0.062202102944383601 0 0.005882372960403455 -0.06250664211731051 0 0.005489315209950529 -0.062147751732730079 0 0.005882372960403455 -0.06250664211731051 0 0.005489315209950529 -0.062147751732730079 0 0.0051984639303408881 -0.062805059371858582 0 0.0058529537489614702 -0.061726023400118755 0 0.005489315209950529 -0.062147751732730079 0 0.0051961080330392307 -0.061411907222128068 0 0.0058529537489614702 -0.061726023400118755 0 0.0062443058230524841 -0.062202102944383601 0 0.005489315209950529 -0.062147751732730079 0 0.005489315209950529 -0.062147751732730079 0 0.0043907907801224539 -0.062127794592963727 0 0.0051961080330392307 -0.061411907222128068 0 0.005489315209950529 -0.062147751732730079 0 0.0051984639303408881 -0.062805059371858582 0 0.0043907907801224539 -0.062127794592963727 0 0.0051984639303408881 -0.062805059371858582 0 0.0044676355989248743 -0.063279587813284646 0 0.0043907907801224539 -0.062127794592963727 0 0.0051984639303408881 -0.062805059371858582 0 0.0052771473472972086 -0.063909365108500163 0 0.0044676355989248743 -0.063279587813284646 0 0.0052771473472972086 -0.063909365108500163 0 0.0042256884186758154 -0.064570817293677432 0 0.0044676355989248743 -0.063279587813284646 0 0.0051984639303408881 -0.062805059371858582 0 0.005852123260239676 -0.062938671433251062 0 0.0052771473472972086 -0.063909365108500163 0 0.0064455285903885114 -0.063135439421855191 0 0.005852123260239676 -0.062938671433251062 0 0.0052771473472972086 -0.063909365108500163 0 0.001750109983152561 -0.053210157018750863 0 0.001885112249761401 -0.051649896305402343 0 0.021685309434630852 -0.0012496720507477912 0 0.02336184849294665 -0.0017854052124603855 0 0.022450410570678259 -0.0029543713279914121 0 0.021685309434630852 -0.0012496720507477912 0 0.022983114296529456 -0.00015130724439139473 0 0.02336184849294665 -0.0017854052124603855 0 0.0099183588453692871 -0.0098548248580026306 0 0.013020108222778203 -0.0040242145006604219 0 0.021685309434630852 -0.0012496720507477912 0 0.022983114296529456 -0.00015130724439139473 0 0.020789815636978178 0.00024078300296924421 0 0.0099183588453692871 -0.0098548248580026306 0 0.013510761008020435 -0.013285248729635379 0 0.0099183588453692871 -0.0098548248580026306 0 0.0079725371296166421 -0.014878663110478257 0 0.0071025912538753219 -0.0010760741340468279 0 0.0072030017357699828 -0.00099092242995571923 0 0.0069710641966036586 -0.0010412928495321398 0 0.0099107437025537579 -0.025927363342154671 0 0.0090663465481232892 -0.025835163589543259 0 0.0097696600536668204 -0.025261192729754495 0 0.0068827437414224514 -0.0011723444442297668 0 0.0071025912538753219 -0.0010760741340468279 0 0.0069710641966036586 -0.0010412928495321398 0 0.0090663465481232892 -0.025835163589543259 0 0.0088557302587708164 -0.025329573070202512 0 0.0092759000525724725 -0.025189523006543594 0 0.0084079409446909271 -0.025566463083769777 0 0.0090663465481232892 -0.025835163589543259 0 0.0088557302587708164 -0.025329573070202512 0 0.0088557302587708164 -0.025329573070202512 0 0.0092759000525724725 -0.025189523006543594 0 0.0089950047902513878 -0.024897508419298029 0 0.0090663465481232892 -0.025835163589543259 0 0.0097696600536668204 -0.025261192729754495 0 0.0092759000525724725 -0.025189523006543594 0 0.0097696600536668204 -0.025261192729754495 0 0.0092759000525724725 -0.025189523006543594 0 0.0096377692125000393 -0.024563470412379128 0 0.0092759000525724725 -0.025189523006543594 0 0.0089950047902513878 -0.024897508419298029 0 0.0096377692125000393 -0.024563470412379128 0 0.013510761008020435 -0.013285248729635379 0 0.015620775827870552 -0.015279775839125332 0 0.0089950047902513878 -0.024897508419298029 0 0.0091092037561277296 -0.024410217191610795 0 0.0096377692125000393 -0.024563470412379128 0 0.0085362135544950462 -0.024599792594353437 0 0.0089950047902513878 -0.024897508419298029 0 0.0091092037561277296 -0.024410217191610795 0 0.00849203181708056 -0.025130435748727441 0 0.0088557302587708164 -0.025329573070202512 0 0.0089950047902513878 -0.024897508419298029 0 0.0085362135544950462 -0.024599792594353437 0 0.0091092037561277296 -0.024410217191610795 0 0.0087157242656504992 -0.024021651815102522 0 0.0091092037561277296 -0.024410217191610795 0 0.0094993781580011375 -0.02384185236886488 0 0.0087157242656504992 -0.024021651815102522 0 0.015620775827870552 -0.015279775839125332 0 0.01763206538331652 -0.019285896325900564 0 0.023783104058815167 -0.0034272565675618032 0 0.022949349526537731 -0.0043153388248243383 0 0.024230497750651267 -0.0051636768407199562 0 0.0091092037561277296 -0.024410217191610795 0 0.0096377692125000393 -0.024563470412379128 0 0.0094993781580011375 -0.02384185236886488 0 0.023783104058815167 -0.0034272565675618032 0 0.022949349526537731 -0.0043153388248243383 0 0.022450410570678259 -0.0029543713279914121 0 0.022949349526537731 -0.0043153388248243383 0 0.022450410570678259 -0.0029543713279914121 0 0.021941790457875664 -0.0042206234718635523 0 0.02336184849294665 -0.0017854052124603855 0 0.023783104058815167 -0.0034272565675618032 0 0.022450410570678259 -0.0029543713279914121 0 0.021685309434630852 -0.0012496720507477912 0 0.022450410570678259 -0.0029543713279914121 0 0.020822304341966129 -0.0026450094884985917 0 0.022450410570678259 -0.0029543713279914121 0 0.021941790457875664 -0.0042206234718635523 0 0.020822304341966129 -0.0026450094884985917 0 0.020023400890737782 -0.0034808978649707874 0 0.019087200194440213 -0.0026748516902021712 0 0.021941790457875664 -0.0042206234718635523 0 0.020441061743573383 -0.001623859331864151 0 0.02018949550410884 -0.0047058560934490701 0 0.018118230950473182 -0.0038568717423492871 0 0.020441061743573383 -0.001623859331864151 0 0.02018949550410884 -0.0047058560934490701 0 0.018118230950473182 -0.0038568717423492871 0 0.016241404964530724 -0.0040492404318656135 0 0.01641268900831552 -0.0054831585425298441 0 0.018118230950473182 -0.0038568717423492871 0 0.01653168442007133 -0.0027766214582748121 0 0.016241404964530724 -0.0040492404318656135 0 0.018118230950473182 -0.0038568717423492871 0 0.018268787711423748 -0.0014568571018436793 0 0.01653168442007133 -0.0027766214582748121 0 0.018268787711423748 -0.0014568571018436793 0 0.01648978965889096 -0.0012044289267118054 0 0.01653168442007133 -0.0027766214582748121 0 0.018268787711423748 -0.0014568571018436793 0 0.017156901575951469 -7.2206529866970998e-05 0 0.01648978965889096 -0.0012044289267118054 0 0.018118230950473182 -0.0038568717423492871 0 0.018268787711423748 -0.0014568571018436793 0 0.020441061743573383 -0.001623859331864151 0 0.019087200194440213 -0.0026748516902021712 0 0.016832013275019223 -0.0014300121808956466 0 0.021685309434630852 -0.0012496720507477912 0 0.020822304341966129 -0.0026450094884985917 0 0.019687446638314218 -0.0010243462460395104 0 0.018268787711423748 -0.0014568571018436793 0 0.020441061743573383 -0.001623859331864151 0 0.018717310953251468 0.00090989362443731733 0 0.018268787711423748 -0.0014568571018436793 0 0.018717310953251468 0.00090989362443731733 0 0.017156901575951469 -7.2206529866970998e-05 0 0.018717310953251468 0.00090989362443731733 0 0.017156901575951469 -7.2206529866970998e-05 0 0.016335385890998404 0.0012377206236026974 0 0.018717310953251468 0.00090989362443731733 0 0.016335385890998404 0.0012377206236026974 0 0.017029154108918785 0.0033132054733253911 0 0.016832013275019223 -0.0014300121808956466 0 0.013022910003069519 -0.0005291157494657408 0 0.019687446638314218 -0.0010243462460395104 0 0.020789815636978178 0.00024078300296924421 0 0.018554273001224697 0.00062424716437703247 0 0.021685309434630852 -0.0012496720507477912 0 0.019687446638314218 -0.0010243462460395104 0 0.020789815636978178 0.00024078300296924421 0 0.014863856224276543 0.0020789256240123948 0 0.012890993677136206 0.0015562508341005485 0 0.013838176124524322 0.0038071935910208455 0 0.014863856224276543 0.0020789256240123948 0 0.01425191319252659 0.00048107700502997015 0 0.012890993677136206 0.0015562508341005485 0 0.014863856224276543 0.0020789256240123948 0 0.016335385890998404 0.0012377206236026974 0 0.01425191319252659 0.00048107700502997015 0 0.014863856224276543 0.0020789256240123948 0 0.016335385890998404 0.0012377206236026974 0 0.017029154108918785 0.0033132054733253911 0 0.016335385890998404 0.0012377206236026974 0 0.015531430465755329 -0.00031334201203561598 0 0.01425191319252659 0.00048107700502997015 0 0.017156901575951469 -7.2206529866970998e-05 0 0.016335385890998404 0.0012377206236026974 0 0.015531430465755329 -0.00031334201203561598 0 0.017156901575951469 -7.2206529866970998e-05 0 0.015531430465755329 -0.00031334201203561598 0 0.01648978965889096 -0.0012044289267118054 0 0.015531430465755329 -0.00031334201203561598 0 0.01425191319252659 0.00048107700502997015 0 0.014386581141508495 -0.0009074345592281082 0 0.01425191319252659 0.00048107700502997015 0 0.013132348453400361 0.00028754514108708922 0 0.012890993677136206 0.0015562508341005485 0 0.01425191319252659 0.00048107700502997015 0 0.013132348453400361 0.00028754514108708922 0 0.0133144588147828 -0.00066967119025831663 0 0.01425191319252659 0.00048107700502997015 0 0.0133144588147828 -0.00066967119025831663 0 0.014386581141508495 -0.0009074345592281082 0 0.0133144588147828 -0.00066967119025831663 0 0.013916122721380174 -0.0013477489098414699 0 0.013548589811242587 -0.0019010810896153893 0 0.012828170194639452 -0.0020956627948634657 0 0.013201038824570575 -0.0016440925406595946 0 0.014919969214472157 -0.0035804619172489951 0 0.0133144588147828 -0.00066967119025831663 0 0.013916122721380174 -0.0013477489098414699 0 0.014386581141508495 -0.0009074345592281082 0 0.013916122721380174 -0.0013477489098414699 0 0.014411158549247138 -0.0019066876470318511 0 0.013548589811242587 -0.0019010810896153893 0 0.013916122721380174 -0.0013477489098414699 0 0.014386581141508495 -0.0009074345592281082 0 0.014411158549247138 -0.0019066876470318511 0 0.014386581141508495 -0.0009074345592281082 0 0.014411158549247138 -0.0019066876470318511 0 0.015327633466442761 -0.0017858353519609538 0 0.014411158549247138 -0.0019066876470318511 0 0.013548589811242587 -0.0019010810896153893 0 0.014919969214472157 -0.0035804619172489951 0 0.015531430465755329 -0.00031334201203561598 0 0.01648978965889096 -0.0012044289267118054 0 0.015327633466442761 -0.0017858353519609538 0 0.015531430465755329 -0.00031334201203561598 0 0.014386581141508495 -0.0009074345592281082 0 0.015327633466442761 -0.0017858353519609538 0 0.014411158549247138 -0.0019066876470318511 0 0.015327633466442761 -0.0017858353519609538 0 0.014919969214472157 -0.0035804619172489951 0 0.01648978965889096 -0.0012044289267118054 0 0.015327633466442761 -0.0017858353519609538 0 0.01653168442007133 -0.0027766214582748121 0 0.01653168442007133 -0.0027766214582748121 0 0.014919969214472157 -0.0035804619172489951 0 0.016241404964530724 -0.0040492404318656135 0 0.015327633466442761 -0.0017858353519609538 0 0.01653168442007133 -0.0027766214582748121 0 0.014919969214472157 -0.0035804619172489951 0 0.014919969214472157 -0.0035804619172489951 0 0.014119661568224027 -0.0044329903903544392 0 0.015188985960374751 -0.0047253392708597993 0 0.014919969214472157 -0.0035804619172489951 0 0.016241404964530724 -0.0040492404318656135 0 0.015188985960374751 -0.0047253392708597993 0 0.012828170194639452 -0.0020956627948634657 0 0.014919969214472157 -0.0035804619172489951 0 0.014119661568224027 -0.0044329903903544392 0 0.012761897155739452 -0.0016573977657414411 0 0.014119661568224027 -0.0044329903903544392 0 0.012484585213407987 -0.0035263229595359491 0 0.012569465958182823 -0.0015120641694299655 0 0.01308842189831335 -0.0024492161447969918 0 0.012951201739762446 -0.0013480453899479702 0 0.013583445184569283 -0.0020590819556770353 0 0.014119661568224027 -0.0044329903903544392 0 0.012484585213407987 -0.0035263229595359491 0 0.01288887207076714 -0.0047304789501602246 0 0.011328581509579265 -0.0025831185672885088 0 0.011341451802835033 -0.0042776794482252698 0 0.0087987213204767725 -0.002684932639785983 0 0.012484585213407987 -0.0035263229595359491 0 0.011328581509579265 -0.0025831185672885088 0 0.011341451802835033 -0.0042776794482252698 0 0.012484585213407987 -0.0035263229595359491 0 0.011341451802835033 -0.0042776794482252698 0 0.01288887207076714 -0.0047304789501602246 0 0.012761897155739452 -0.0016573977657414411 0 0.012484585213407987 -0.0035263229595359491 0 0.011328581509579265 -0.0025831185672885088 0 0.011341451802835033 -0.0042776794482252698 0 0.0087987213204767725 -0.002684932639785983 0 0.010340180458116235 -0.0060304054344510315 0 0.011328581509579265 -0.0025831185672885088 0 0.0087987213204767725 -0.002684932639785983 0 0.010856915616533097 -0.00093129252756099978 0 0.0095971424350641144 -0.0023071707915791806 0 0.009809214290595716 -0.0009036218312921721 0 0.010164172485695131 -0.00063403176106443572 0 0.0094554901420172022 0.00083499591495349345 0 0.010073698940936522 0.0010641917577542607 0 0.0087987213204767725 -0.002684932639785983 0 0.010856915616533097 -0.00093129252756099978 0 0.010073698940936522 0.0010641917577542607 0 0.012828170194639452 -0.0020956627948634657 0 0.013201038824570575 -0.0016440925406595946 0 0.011491499361056225 0.00028124767372764874 0 0.012569465958182823 -0.0015120641694299655 0 0.011699967981379095 4.6387247460743643e-05 0 0.012761897155739452 -0.0016573977657414411 0 0.010856915616533097 -0.00093129252756099978 0 0.01131983945148003 0.00092572971333135777 0 0.012951201739762446 -0.0013480453899479702 0 0.011699967981379095 4.6387247460743643e-05 0 0.0133144588147828 -0.00066967119025831663 0 0.013548589811242587 -0.0019010810896153893 0 0.012075910267155788 -0.00021845859450740136 0 0.012761897155739452 -0.0016573977657414411 0 0.011328581509579265 -0.0025831185672885088 0 0.010856915616533097 -0.00093129252756099978 0 0.0080557902862361391 -0.00061904677749072691 0 0.00904446556628055 -0.001768731670089973 0 0.007558337895059151 -0.0020139415324913284 0 0.0069166476368263275 -0.00071960431646766858 0 0.0080557902862361391 -0.00061904677749072691 0 0.007558337895059151 -0.0020139415324913284 0 0.0069166476368263275 -0.00071960431646766858 0 0.0071566163918578458 0.00043130842487156592 0 0.0080557902862361391 -0.00061904677749072691 0 0.010164172485695131 -0.00063403176106443572 0 0.0080557902862361391 -0.00061904677749072691 0 0.00904446556628055 -0.001768731670089973 0 0.010164172485695131 -0.00063403176106443572 0 0.0080557902862361391 -0.00061904677749072691 0 0.0085673288596897438 0.00051571061698421335 0 0.010164172485695131 -0.00063403176106443572 0 0.0085673288596897438 0.00051571061698421335 0 0.0094554901420172022 0.00083499591495349345 0 0.0071566163918578458 0.00043130842487156592 0 0.0080557902862361391 -0.00061904677749072691 0 0.0085673288596897438 0.00051571061698421335 0 0.0071566163918578458 0.00043130842487156592 0 0.0085673288596897438 0.00051571061698421335 0 0.0077687305754727317 0.0014053027022267665 0 0.0077687305754727317 0.0014053027022267665 0 0.0088100624240996361 0.0015319932171750992 0 0.008019378633019561 0.0021975350572394476 0 0.0085673288596897438 0.00051571061698421335 0 0.0088100624240996361 0.0015319932171750992 0 0.0094554901420172022 0.00083499591495349345 0 0.0085673288596897438 0.00051571061698421335 0 0.0077687305754727317 0.0014053027022267665 0 0.0088100624240996361 0.0015319932171750992 0 0.0088100624240996361 0.0015319932171750992 0 0.0094554901420172022 0.00083499591495349345 0 0.0096439416052684045 0.0017582482295162368 0 0.0088100624240996361 0.0015319932171750992 0 0.0087027980061156647 0.0026115018808204648 0 0.0096439416052684045 0.0017582482295162368 0 0.0087027980061156647 0.0026115018808204648 0 0.0096439416052684045 0.0017582482295162368 0 0.0095771712325394883 0.0028281180391299828 0 0.0088100624240996361 0.0015319932171750992 0 0.0087027980061156647 0.0026115018808204648 0 0.008019378633019561 0.0021975350572394476 0 0.0070076469296952975 0.0024152597787903025 0 0.007096566158039312 0.003624570998523403 0 0.0078406145732697434 0.0029952896177039365 0 0.0087027980061156647 0.0026115018808204648 0 0.008019378633019561 0.0021975350572394476 0 0.0078406145732697434 0.0029952896177039365 0 0.0070076469296952975 0.0024152597787903025 0 0.008019378633019561 0.0021975350572394476 0 0.0078406145732697434 0.0029952896177039365 0 0.0070076469296952975 0.0024152597787903025 0 0.0077687305754727317 0.0014053027022267665 0 0.008019378633019561 0.0021975350572394476 0 0.011699967981379095 4.6387247460743643e-05 0 0.011023223028817711 0.0014047297528037696 0 0.013132348453400361 0.00028754514108708922 0 0.012075910267155788 -0.00021845859450740136 0 0.012890993677136206 0.0015562508341005485 0 0.013132348453400361 0.00028754514108708922 0 0.0133144588147828 -0.00066967119025831663 0 0.012075910267155788 -0.00021845859450740136 0 0.010856915616533097 -0.00093129252756099978 0 0.01131983945148003 0.00092572971333135777 0 0.010073698940936522 0.0010641917577542607 0 0.01131983945148003 0.00092572971333135777 0 0.0096439416052684045 0.0017582482295162368 0 0.0095771712325394883 0.0028281180391299828 0 0.01131983945148003 0.00092572971333135777 0 0.010073698940936522 0.0010641917577542607 0 0.0096439416052684045 0.0017582482295162368 0 0.0094554901420172022 0.00083499591495349345 0 0.010073698940936522 0.0010641917577542607 0 0.0096439416052684045 0.0017582482295162368 0 0.011699967981379095 4.6387247460743643e-05 0 0.0097046545267449307 0.0018885962083250859 0 0.012014627002061098 -1.8218326986097576e-05 0 0.010947403155583292 0.0018768174227104897 0 0.0098908345002168413 0.0023732714027198984 0 0.010947403155583292 0.0018768174227104897 0 0.0098908345002168413 0.0023732714027198984 0 0.009879407091502191 0.0037756770776453037 0 0.010961654874297538 0.0018024386920268993 0 0.011859805864018689 0.0029108046830073433 0 0.010895993807950723 0.0030964369725215877 0 0.012075910267155788 -0.00021845859450740136 0 0.010961654874297538 0.0018024386920268993 0 0.012890993677136206 0.0015562508341005485 0 0.012890993677136206 0.0015562508341005485 0 0.011859805864018689 0.0029108046830073433 0 0.013838176124524322 0.0038071935910208455 0 0.010961654874297538 0.0018024386920268993 0 0.012890993677136206 0.0015562508341005485 0 0.011859805864018689 0.0029108046830073433 0 0.011859805864018689 0.0029108046830073433 0 0.010728945527912976 0.0042798109505461862 0 0.013838176124524322 0.0038071935910208455 0 0.0099944901458473047 0.0014206553572074718 0 0.011350783619371464 0.00078832209646355746 0 0.011859805864018689 0.0029108046830073433 0 0.010895993807950723 0.0030964369725215877 0 0.010728945527912976 0.0042798109505461862 0 0.010961654874297538 0.0018024386920268993 0 0.010895993807950723 0.0030964369725215877 0 0.009879407091502191 0.0037756770776453037 0 0.011023223028817711 0.0014047297528037696 0 0.010626096131785764 0.0021586621898758052 0 0.010895993807950723 0.0030964369725215877 0 0.009879407091502191 0.0037756770776453037 0 0.010728945527912976 0.0042798109505461862 0 0.0092094534580782154 -0.00046139602644245498 0 0.0092221155166792718 -0.00049534087126136214 0 0.0091833456561763865 -0.00062216232027085703 0 0.0092094534580782154 -0.00046139602644245498 0 0.0090586646624581778 -0.00058392575943061323 0 0.0089548631719766607 -0.00039828162574985623 0 0.0092094534580782154 -0.00046139602644245498 0 0.0090586646624581778 -0.00058392575943061323 0 0.0091833456561763865 -0.00062216232027085703 0 0.007096566158039312 0.003624570998523403 0 0.0078406145732697434 0.0029952896177039365 0 0.0081788698497433799 0.0043403304403029867 0 0.0087027980061156647 0.0026115018808204648 0 0.0078406145732697434 0.0029952896177039365 0 0.0081788698497433799 0.0043403304403029867 0 0.0097046545267449307 0.0018885962083250859 0 0.0090322844851318737 0.0016508718697963787 0 0.0087027980061156647 0.0026115018808204648 0 0.0095771712325394883 0.0028281180391299828 0 0.0081788698497433799 0.0043403304403029867 0 0.009879407091502191 0.0037756770776453037 0 0.010728945527912976 0.0042798109505461862 0 0.0077562777394067205 0.0047598660123575349 0 0.0098908345002168413 0.0023732714027198984 0 0.009879407091502191 0.0037756770776453037 0 0.0077562777394067205 0.0047598660123575349 0 0.0099944901458473047 0.0014206553572074718 0 0.0090322844851318737 0.0016508718697963787 0 0.0092104796198265674 -0.0004480454073070183 0 0.0092221155166792718 -0.00049534087126136214 0 0.0092104002002671229 -0.00041096606352563123 0 0.0092094534580782154 -0.00046139602644245498 0 0.0092104796198265674 -0.0004480454073070183 0 0.0092221155166792718 -0.00049534087126136214 0 0.0071973565606663478 0.0020082150274801521 0 0.0090322844851318737 0.0016508718697963787 0 0.009727628157776733 0.00044823276653411181 0 0.0090322844851318737 0.0016508718697963787 0 0.0092347738749921898 -0.00011787844764686714 0 0.0091443768755785238 -0.00015425257027203387 0 0.010767568146996689 -0.0015444672058872557 0 0.0092347738749921898 -0.00011787844764686714 0 0.0092104796198265674 -0.0004480454073070183 0 0.0092047594355700642 -0.00029757613484084256 0 0.0092104796198265674 -0.0004480454073070183 0 0.0092047594355700642 -0.00029757613484084256 0 0.0092104002002671229 -0.00041096606352563123 0 0.0091961760280780229 -0.00028289719817960521 0 0.0092047594355700642 -0.00029757613484084256 0 0.0091959836847272589 -0.00035113616434334459 0 0.009207294518105048 -0.00022368897010450979 0 0.0091961760280780229 -0.00028289719817960521 0 0.0092047594355700642 -0.00029757613484084256 0 0.009207294518105048 -0.00022368897010450979 0 0.0092347738749921898 -0.00011787844764686714 0 0.0092047594355700642 -0.00029757613484084256 0 0.0092047594355700642 -0.00029757613484084256 0 0.0091959836847272589 -0.00035113616434334459 0 0.0092104002002671229 -0.00041096606352563123 0 0.0092221155166792718 -0.00049534087126136214 0 0.0092104002002671229 -0.00041096606352563123 0 0.0092138531516554895 -0.00054005373861179355 0 0.0092091601889331739 -0.00055836759972440278 0 0.0092138531516554895 -0.00054005373861179355 0 0.0091876755424499228 -0.00049552615024933016 0 0.0092138531516554895 -0.00054005373861179355 0 0.0091876755424499228 -0.00049552615024933016 0 0.0091865094890252446 -0.00043271004313584309 0 0.0091731583491173538 -0.00044797877965078976 0 0.0091876755424499228 -0.00049552615024933016 0 0.0091865094890252446 -0.00043271004313584309 0 0.0092104002002671229 -0.00041096606352563123 0 0.0092138531516554895 -0.00054005373861179355 0 0.0091865094890252446 -0.00043271004313584309 0 0.0091959836847272589 -0.00035113616434334459 0 0.0091865094890252446 -0.00043271004313584309 0 0.0091878966610089673 -0.00035761270264483543 0 0.0091959836847272589 -0.00035113616434334459 0 0.0092104002002671229 -0.00041096606352563123 0 0.0091865094890252446 -0.00043271004313584309 0 0.0091865094890252446 -0.00043271004313584309 0 0.0091802405278329797 -0.00040371277927746214 0 0.0091878966610089673 -0.00035761270264483543 0 0.0091731583491173538 -0.00044797877965078976 0 0.0091865094890252446 -0.00043271004313584309 0 0.0091802405278329797 -0.00040371277927746214 0 0.0091981271326726372 -0.00035933611367666094 0 0.0091983695653399117 -0.00038988316609210735 0 0.0091802405278329797 -0.00040371277927746214 0 0.0091981271326726372 -0.00035933611367666094 0 0.0091802405278329797 -0.00040371277927746214 0 0.0091878966610089673 -0.00035761270264483543 0 0.0091981271326726372 -0.00035933611367666094 0 0.0092004095590592205 -0.00031164296835746452 0 0.0091878966610089673 -0.00035761270264483543 0 0.0092004095590592205 -0.00031164296835746452 0 0.0091961760280780229 -0.00028289719817960521 0 0.0091878966610089673 -0.00035761270264483543 0 0.0091961760280780229 -0.00028289719817960521 0 0.0091959836847272589 -0.00035113616434334459 0 0.0091878966610089673 -0.00035761270264483543 0 0.0091833456561763865 -0.00062216232027085703 0 0.0091033707471382206 -0.00078401926319609757 0 0.0090366564155752761 -0.00076957415913326622 0 0.0090586646624581778 -0.00058392575943061323 0 0.0091833456561763865 -0.00062216232027085703 0 0.0090366564155752761 -0.00076957415913326622 0 0.0092221155166792718 -0.00049534087126136214 0 0.0092138531516554895 -0.00054005373861179355 0 0.0091833456561763865 -0.00062216232027085703 0 0.0092138531516554895 -0.00054005373861179355 0 0.0091833456561763865 -0.00062216232027085703 0 0.0092655808564286006 -0.00069312964517291044 0 0.0092091601889331739 -0.00055836759972440278 0 0.0092138531516554895 -0.00054005373861179355 0 0.0092655808564286006 -0.00069312964517291044 0 0.0091833456561763865 -0.00062216232027085703 0 0.0092655808564286006 -0.00069312964517291044 0 0.0091033707471382206 -0.00078401926319609757 0 0.009376604335807023 -0.0008085651912495633 0 0.0092655808564286006 -0.00069312964517291044 0 0.0091033707471382206 -0.00078401926319609757 0 0.0086894599248509129 -0.0016272362857257996 0 0.0087492687038469904 -0.001364064934180011 0 0.0087849415724666428 -0.00092113724574898457 0 0.0091033707471382206 -0.00078401926319609757 0 0.0089042286001156743 -0.00093593286205343308 0 0.0091033707471382206 -0.00078401926319609757 0 0.0090366564155752761 -0.00076957415913326622 0 0.0089042286001156743 -0.00093593286205343308 0 0.0090366564155752761 -0.00076957415913326622 0 0.0089042286001156743 -0.00093593286205343308 0 0.0088449303958496785 -0.0008285984931410903 0 0.0089042286001156743 -0.00093593286205343308 0 0.0088449303958496785 -0.0008285984931410903 0 0.0085177934682357619 -0.0010484359192089484 0 0.0090586646624581778 -0.00058392575943061323 0 0.0090366564155752761 -0.00076957415913326622 0 0.0088449303958496785 -0.0008285984931410903 0 0.0088449303958496785 -0.0008285984931410903 0 0.0085177934682357619 -0.0010484359192089484 0 0.0084477895601715852 -0.00077605699844322579 0 0.0089042286001156743 -0.00093593286205343308 0 0.0085177934682357619 -0.0010484359192089484 0 0.0085148836115940332 -0.0013568280134619785 0 0.0085177934682357619 -0.0010484359192089484 0 0.0085148836115940332 -0.0013568280134619785 0 0.0081649034824198084 -0.0012250344081406691 0 0.0087909195896585818 -0.0019049417289391023 0 0.0089042286001156743 -0.00093593286205343308 0 0.0085148836115940332 -0.0013568280134619785 0 0.0087909195896585818 -0.0019049417289391023 0 0.0085148836115940332 -0.0013568280134619785 0 0.0081487322665894542 -0.0016320449420828284 0 0.0081487322665894542 -0.0016320449420828284 0 0.0076575277852859291 -0.0016111083173415406 0 0.0081649034824198084 -0.0012250344081406691 0 0.0085148836115940332 -0.0013568280134619785 0 0.0081487322665894542 -0.0016320449420828284 0 0.0081649034824198084 -0.0012250344081406691 0 0.0074404808530549428 -0.0014572382896975227 0 0.0076575277852859291 -0.0016111083173415406 0 0.007757189888518542 -0.0012629229676044962 0 0.0076575277852859291 -0.0016111083173415406 0 0.007757189888518542 -0.0012629229676044962 0 0.0081649034824198084 -0.0012250344081406691 0 0.007757189888518542 -0.0012629229676044962 0 0.0081649034824198084 -0.0012250344081406691 0 0.0081619206539783936 -0.00096107125979972522 0 0.0085177934682357619 -0.0010484359192089484 0 0.0081649034824198084 -0.0012250344081406691 0 0.0081619206539783936 -0.00096107125979972522 0 0.0081619206539783936 -0.00096107125979972522 0 0.0078050175736616902 -0.00095544076209100196 0 0.0082077971871558075 -0.00061601349210545155 0 0.0075024770773493427 -0.0012356146033680648 0 0.007757189888518542 -0.0012629229676044962 0 0.0078050175736616902 -0.00095544076209100196 0 0.007757189888518542 -0.0012629229676044962 0 0.0081619206539783936 -0.00096107125979972522 0 0.0078050175736616902 -0.00095544076209100196 0 0.013020108222778203 -0.0040242145006604219 0 0.013022910003069519 -0.0005291157494657408 0 0.00769759172351851 -0.00069424241686310184 0 0.0078050175736616902 -0.00095544076209100196 0 0.0082077971871558075 -0.00061601349210545155 0 0.014863856224276543 0.0020789256240123948 0 0.017029154108918785 0.0033132054733253911 0 0.013838176124524322 0.0038071935910208455 0 0.0085855090529296484 -0.00032893230662183116 0 0.0089548631719766607 -0.00039828162574985623 0 0.0087202243334018881 -0.00054469554303553732 0 0.013022910003069519 -0.0005291157494657408 0 0.011350783619371464 0.00078832209646355746 0 0.013022910003069519 -0.0005291157494657408 0 0.011226530500026217 4.7590266941014971e-05 0 0.0090586646624581778 -0.00058392575943061323 0 0.0089548631719766607 -0.00039828162574985623 0 0.0088940305141589973 -0.0005819231865776879 0 0.0089548631719766607 -0.00039828162574985623 0 0.0088940305141589973 -0.0005819231865776879 0 0.0087202243334018881 -0.00054469554303553732 0 0.0088449303958496785 -0.0008285984931410903 0 0.0088940305141589973 -0.0005819231865776879 0 0.0087202243334018881 -0.00054469554303553732 0 0.0090586646624581778 -0.00058392575943061323 0 0.0088449303958496785 -0.0008285984931410903 0 0.0088940305141589973 -0.0005819231865776879 0 0.0085177934682357619 -0.0010484359192089484 0 0.0081619206539783936 -0.00096107125979972522 0 0.0084477895601715852 -0.00077605699844322579 0 0.010799265171216703 6.4115396444704408e-05 0 0.011226530500026217 4.7590266941014971e-05 0 0.0081619206539783936 -0.00096107125979972522 0 0.0082077971871558075 -0.00061601349210545155 0 0.0084477895601715852 -0.00077605699844322579 0 -2.3169283183973949e-05 -0.074968683078407011 0 -2.2057397700747459e-05 -0.074442659841729153 0 6.9200018243329063e-05 -0.074748657290440917 0 2.3250556028995354e-05 -0.074413241206782763 0 1.2298458635891304e-05 -0.074408832298065553 0 -2.2057397700747459e-05 -0.074442659841729153 0 -2.0089003151326331e-05 -0.074729981347892133 0 -3.0257436003187901e-05 -0.074665309466750901 0 2.3250556028995354e-05 -0.074413241206782763 0 1.2298458635891304e-05 -0.074408832298065553 0 -6.416943204735811e-05 -0.074455077055019789 0 -2.3169283183973949e-05 -0.074968683078407011 0 2.9673269549209727e-05 -0.074965188562991461 0 6.9200018243329063e-05 -0.074748657290440917 0 1.0468062752985759e-07 -0.074999665340424695 0 2.9673269549209727e-05 -0.074965188562991461 0 3.9601538662909059e-09 -0.075000050806250801 0 1.0468062752985759e-07 -0.074999665340424695 0 2.9673269549209727e-05 -0.074965188562991461 0 6.9200018243329063e-05 -0.074748657290440917 0 -2.3169283183973949e-05 -0.074968683078407011 0 2.9673269549209727e-05 -0.074965188562991461 0 6.8604942870229486e-06 -0.074985817092095702 0 -2.0089003151326331e-05 -0.074729981347892133 0 -1.2772979473428444e-05 -0.074839739452338822 0 2.9673269549209727e-05 -0.074965188562991461 0 6.8604942870229486e-06 -0.074985817092095702 0 3.9601538662909059e-09 -0.075000050806250801 0 -2.3169283183973949e-05 -0.074968683078407011 0 6.8604942870229486e-06 -0.074985817092095702 0 3.6347553694478667e-06 -0.075002793394915959 0 6.8604942870229486e-06 -0.074985817092095702 0 3.9601538662909059e-09 -0.075000050806250801 0 3.6347553694478667e-06 -0.075002793394915959 0 2.3250556028995354e-05 -0.074413241206782763 0 -7.8123669790124917e-06 -0.074594515527509037 0 -2.9217054106801398e-05 -0.074518034249231854 0 2.3250556028995354e-05 -0.074413241206782763 0 -7.8123669790124917e-06 -0.074594515527509037 0 6.9414668127929294e-05 -0.074677890808858741 0 -2.9217054106801398e-05 -0.074518034249231854 0 -8.0542221683536452e-05 -0.074592420159402137 0 -6.416943204735811e-05 -0.074455077055019789 0 2.3250556028995354e-05 -0.074413241206782763 0 -2.9217054106801398e-05 -0.074518034249231854 0 -6.416943204735811e-05 -0.074455077055019789 0 -7.8123669790124917e-06 -0.074594515527509037 0 -2.9217054106801398e-05 -0.074518034249231854 0 -8.0542221683536452e-05 -0.074592420159402137 0 -8.0542221683536452e-05 -0.074592420159402137 0 -0.00015920896998836788 -0.074462926334266849 0 -0.00021215219710774913 -0.074601125460482628 0 -8.0542221683536452e-05 -0.074592420159402137 0 -0.00015920896998836788 -0.074462926334266849 0 -6.416943204735811e-05 -0.074455077055019789 0 -0.00031161481399730743 -0.074450896513427164 0 -0.00043310186339040732 -0.074645275924688725 0 -0.00021215219710774913 -0.074601125460482628 0 -0.00015920896998836788 -0.074462926334266849 0 -0.00031161481399730743 -0.074450896513427164 0 -0.00021215219710774913 -0.074601125460482628 0 -0.00015920896998836788 -0.074462926334266849 0 -0.00031161481399730743 -0.074450896513427164 0 -0.00020697331900035415 -0.074304840205278361 0 -0.00020697331900035415 -0.074304840205278361 0 -0.00029535695117959037 -0.074134506495833627 0 -0.00040705525054972363 -0.074236999622866354 0 -0.00031161481399730743 -0.074450896513427164 0 -0.00020697331900035415 -0.074304840205278361 0 -0.00040705525054972363 -0.074236999622866354 0 -0.00020697331900035415 -0.074304840205278361 0 -9.9183284086373704e-05 -0.074352903639305412 0 -0.00014795438253117004 -0.074000307969618206 0 1.2298458635891304e-05 -0.074408832298065553 0 -9.9183284086373704e-05 -0.074352903639305412 0 -0.00014795438253117004 -0.074000307969618206 0 -0.00015920896998836788 -0.074462926334266849 0 -6.416943204735811e-05 -0.074455077055019789 0 -9.9183284086373704e-05 -0.074352903639305412 0 1.2298458635891304e-05 -0.074408832298065553 0 -6.416943204735811e-05 -0.074455077055019789 0 -9.9183284086373704e-05 -0.074352903639305412 0 -0.00015920896998836788 -0.074462926334266849 0 -0.00020697331900035415 -0.074304840205278361 0 -9.9183284086373704e-05 -0.074352903639305412 0 1.2298458635891304e-05 -0.074408832298065553 0 -0.00019768831893615194 -0.074343671036564626 0 -2.2057397700747459e-05 -0.074442659841729153 0 0.0004237504419567625 -0.073424813964372254 0 0.0004273976145365571 -0.073081695088293597 0 -0.00019768831893615194 -0.074343671036564626 0 -2.9782281265629362e-05 -0.074088077155342616 0 -2.2057397700747459e-05 -0.074442659841729153 0 -0.00014795438253117004 -0.074000307969618206 0 -0.00038894571225194137 -0.073648860253941115 0 -0.00040819139218409311 -0.073983733872735685 0 -0.00020697331900035415 -0.074304840205278361 0 -0.00014795438253117004 -0.074000307969618206 0 -0.00029535695117959037 -0.074134506495833627 0 -0.00029535695117959037 -0.074134506495833627 0 -0.00040819139218409311 -0.073983733872735685 0 -0.00040705525054972363 -0.074236999622866354 0 -0.00014795438253117004 -0.074000307969618206 0 -0.00029535695117959037 -0.074134506495833627 0 -0.00040819139218409311 -0.073983733872735685 0 -0.00019768831893615194 -0.074343671036564626 0 -0.00026333763761195953 -0.073588120947000513 0 -0.00081244274962131112 -0.073214053150882252 0 0.0004273976145365571 -0.073081695088293597 0 0.00045884010336847813 -0.071940636945909908 0 -0.00026333763761195953 -0.073588120947000513 0 -0.00047879771456660959 -0.072799817986929513 0 -0.00081244274962131112 -0.073214053150882252 0 -0.00026333763761195953 -0.073588120947000513 0 -2.9782281265629362e-05 -0.074088077155342616 0 -9.7236981230606169e-06 -0.073489204964752114 0 -2.9782281265629362e-05 -0.074088077155342616 0 0.00013165203191563738 -0.074398972792712487 0 -9.7236981230606169e-06 -0.073489204964752114 0 -0.00019768831893615194 -0.074343671036564626 0 -0.00026333763761195953 -0.073588120947000513 0 -2.9782281265629362e-05 -0.074088077155342616 0 -2.9782281265629362e-05 -0.074088077155342616 0 0.00013165203191563738 -0.074398972792712487 0 -2.2057397700747459e-05 -0.074442659841729153 0 0.00013165203191563738 -0.074398972792712487 0 -2.2057397700747459e-05 -0.074442659841729153 0 6.9200018243329063e-05 -0.074748657290440917 0 1.0468062752985759e-07 -0.074999665340424695 0 6.9200018243329063e-05 -0.074748657290440917 0 8.0009209214489126e-08 -0.07499943639502557 0 0.00013165203191563738 -0.074398972792712487 0 6.9200018243329063e-05 -0.074748657290440917 0 8.0009209214489126e-08 -0.07499943639502557 0 0.00013165203191563738 -0.074398972792712487 0 8.0009209214489126e-08 -0.07499943639502557 0 0.00027215704185600226 -0.074017039079037242 0 8.0009209214489126e-08 -0.07499943639502557 0 0.00027215704185600226 -0.074017039079037242 0 1.1470903401971483e-06 -0.074996960601353496 0 0.00013165203191563738 -0.074398972792712487 0 0.00027215704185600226 -0.074017039079037242 0 -9.7236981230606169e-06 -0.073489204964752114 0 0.00027215704185600226 -0.074017039079037242 0 0.00054754951966860289 -0.072524273381496793 0 4.5087754368604595e-05 -0.072865681443701036 0 4.0049151338915901e-07 -0.074997491294947816 0 -0.00011933375653684064 -0.073445708862790102 0 0.00027215704185600226 -0.074017039079037242 0 1.1470903401971483e-06 -0.074996960601353496 0 0.00054754951966860289 -0.072524273381496793 0 2.1147647079803501e-06 -0.074993701823735603 0 0.00034977259379510644 -0.073265823692825555 0 -3.0955385820786295e-06 -0.067010465040941491 0 -7.8071604817558535e-07 -0.075000202221032805 0 2.1147647079803501e-06 -0.074993701823735603 0 0.00034977259379510644 -0.073265823692825555 0 -0.0003226172180195148 -0.069611163329884637 0 -3.0955385820786295e-06 -0.067010465040941491 0 -0.0015680513291697544 -0.070955411347889533 0 1.2515947472376557e-08 -0.066997347737101365 0 -0.00036388850435426434 -0.06807965017342231 0 0.00034977259379510644 -0.073265823692825555 0 -0.0003226172180195148 -0.069611163329884637 0 -3.0955385820786295e-06 -0.067010465040941491 0 -0.00011933375653684064 -0.073445708862790102 0 -0.00046773214513414727 -0.072497635930344292 0 0.00054754951966860289 -0.072524273381496793 0 -0.0003226172180195148 -0.069611163329884637 0 -0.00041337253220811207 -0.071652862931989691 0 -0.00041337253220811207 -0.071652862931989691 0 -0.00093584052915194054 -0.071366060930745115 0 -0.0015680513291697544 -0.070955411347889533 0 -0.0003226172180195148 -0.069611163329884637 0 -0.00041337253220811207 -0.071652862931989691 0 -0.0015680513291697544 -0.070955411347889533 0 -0.00041337253220811207 -0.071652862931989691 0 -0.00050031161581295751 -0.072180529593906376 0 -0.00093584052915194054 -0.071366060930745115 0 -0.00041337253220811207 -0.071652862931989691 0 -0.00050031161581295751 -0.072180529593906376 0 4.5087754368604595e-05 -0.072865681443701036 0 -0.00050031161581295751 -0.072180529593906376 0 -0.0006965990229842908 -0.071903678576361305 0 -0.00093584052915194054 -0.071366060930745115 0 0.00054754951966860289 -0.072524273381496793 0 -0.00041337253220811207 -0.071652862931989691 0 4.5087754368604595e-05 -0.072865681443701036 0 -0.00050031161581295751 -0.072180529593906376 0 4.5087754368604595e-05 -0.072865681443701036 0 -9.7236981230606169e-06 -0.073489204964752114 0 0.00027215704185600226 -0.074017039079037242 0 4.5087754368604595e-05 -0.072865681443701036 0 -9.7236981230606169e-06 -0.073489204964752114 0 -0.00026333763761195953 -0.073588120947000513 0 -9.7236981230606169e-06 -0.073489204964752114 0 -0.00047879771456660959 -0.072799817986929513 0 -0.00050031161581295751 -0.072180529593906376 0 -9.7236981230606169e-06 -0.073489204964752114 0 -0.00047879771456660959 -0.072799817986929513 0 -0.00047879771456660959 -0.072799817986929513 0 -0.0006965990229842908 -0.071903678576361305 0 -0.00081244274962131112 -0.073214053150882252 0 -0.00050031161581295751 -0.072180529593906376 0 -0.00047879771456660959 -0.072799817986929513 0 -0.0006965990229842908 -0.071903678576361305 0 0.0004089018178217342 -0.069497382757471235 0 0.00045884010336847813 -0.071940636945909908 0 -0.0006965990229842908 -0.071903678576361305 0 -0.0010647959745798781 -0.07158411231621932 0 -0.00081244274962131112 -0.073214053150882252 0 -0.0006965990229842908 -0.071903678576361305 0 -0.0010647959745798781 -0.07158411231621932 0 -0.00054245215606667815 -0.070480316398703544 0 -0.00075466940227412614 -0.073224754908955844 0 -0.00088492927470826168 -0.073525622849314742 0 -0.00038894571225194137 -0.073648860253941115 0 -0.00075466940227412614 -0.073224754908955844 0 -0.0010126627132778885 -0.073203821435330274 0 -0.00088492927470826168 -0.073525622849314742 0 -0.0010647959745798781 -0.07158411231621932 0 -0.0013382201619582942 -0.068878273418479491 0 -0.0036155571394602183 -0.068138022980200857 0 0.0004089018178217342 -0.069497382757471235 0 -0.00049707870260163451 -0.064182012902850999 0 -0.00075466940227412614 -0.073224754908955844 0 -0.0010126627132778885 -0.073203821435330274 0 -0.0012212158703234217 -0.072771624423718179 0 -0.0010647959745798781 -0.07158411231621932 0 -0.00054245215606667815 -0.070480316398703544 0 -0.0013382201619582942 -0.068878273418479491 0 -0.00054245215606667815 -0.070480316398703544 0 -0.0013382201619582942 -0.068878273418479491 0 -0.00039882258545620436 -0.067513225909518443 0 -0.0013382201619582942 -0.068878273418479491 0 -0.00081689933739942865 -0.065852851564953047 0 -0.0036155571394602183 -0.068138022980200857 0 -0.00054245215606667815 -0.070480316398703544 0 0.0011297625164969048 -0.06497374692297217 0 -0.00039882258545620436 -0.067513225909518443 0 -0.00054245215606667815 -0.070480316398703544 0 -0.00093584052915194054 -0.071366060930745115 0 -0.0015680513291697544 -0.070955411347889533 0 -0.00072482319136288797 -0.068968640312358567 0 -0.00036388850435426434 -0.06807965017342231 0 -0.0006965990229842908 -0.071903678576361305 0 -0.00054245215606667815 -0.070480316398703544 0 -0.00093584052915194054 -0.071366060930745115 0 0.0011297625164969048 -0.06497374692297217 0 -0.00081689933739942865 -0.065852851564953047 0 0.00049222624836885902 -0.064249739373600998 0 0.0011297625164969048 -0.06497374692297217 0 -0.00039882258545620436 -0.067513225909518443 0 -0.00081689933739942865 -0.065852851564953047 0 -0.0013382201619582942 -0.068878273418479491 0 -0.00039882258545620436 -0.067513225909518443 0 -0.00081689933739942865 -0.065852851564953047 0 -0.00081689933739942865 -0.065852851564953047 0 -0.00039246006538618775 -0.063141104433429726 0 -0.0028093707163569519 -0.064342062378825948 0 -0.00081689933739942865 -0.065852851564953047 0 -0.00039246006538618775 -0.063141104433429726 0 0.00049222624836885902 -0.064249739373600998 0 -0.00039246006538618775 -0.063141104433429726 0 2.7413411273663292e-06 -0.063212031279141101 0 -7.2556704874255367e-06 -0.059430135711296225 0 -0.00039246006538618775 -0.063141104433429726 0 2.7413411273663292e-06 -0.063212031279141101 0 0.00049222624836885902 -0.064249739373600998 0 -7.9500312819348493e-08 -0.066991276529423549 0 0.0011297625164969048 -0.06497374692297217 0 0.00049222624836885902 -0.064249739373600998 0 -7.9500312819348493e-08 -0.066991276529423549 0 2.7413411273663292e-06 -0.063212031279141101 0 0.00049222624836885902 -0.064249739373600998 0 0.00030625255829737602 -0.057376584236277631 0 -3.2748821783355207e-07 -0.05941750075480156 0 2.9860321455501453e-07 -0.055290201000106572 0 0.00030625255829737602 -0.057376584236277631 0 0.00013890482428635144 -0.057176906236036426 0 7.0598249910500637e-05 -0.057066210385725666 0 -1.3698776989464757e-06 -0.059428792362218923 0 -0.00037642993668156327 -0.061711653187619689 0 -0.00039246006538618775 -0.063141104433429726 0 -7.2556704874255367e-06 -0.059430135711296225 0 -0.0028093707163569519 -0.064342062378825948 0 0.00030625255829737602 -0.057376584236277631 0 -3.2748821783355207e-07 -0.05941750075480156 0 -0.00033151505431135077 -0.057404555804814406 0 -0.00037642993668156327 -0.061711653187619689 0 -0.00049707870260163451 -0.064182012902850999 0 -0.00081689933739942865 -0.065852851564953047 0 -0.0028093707163569519 -0.064342062378825948 0 -0.0036155571394602183 -0.068138022980200857 0 -0.00033151505431135077 -0.057404555804814406 0 0.00013890482428635144 -0.057176906236036426 0 -0.00035860090470789035 -0.056769188777856625 0 -0.0012820183984861074 -0.061579418927395914 0 -0.00049707870260163451 -0.064182012902850999 0 0.00030625255829737602 -0.057376584236277631 0 -0.00033151505431135077 -0.057404555804814406 0 0.00013890482428635144 -0.057176906236036426 0 0.00061489198772790164 -0.057773451437253182 0 0.0001395949139448838 -0.057865249915465204 0 7.0598249910500637e-05 -0.057066210385725666 0 -0.0012820183984861074 -0.061579418927395914 0 -0.0014647163082561088 -0.06082102423945724 0 0.00031602410389022654 -0.058092860222540559 0 1.0715714732036024e-05 -0.058320762867511901 0 0.0001395949139448838 -0.057865249915465204 0 0.00061489198772790164 -0.057773451437253182 0 0.00031602410389022654 -0.058092860222540559 0 0.0001395949139448838 -0.057865249915465204 0 0.00031602410389022654 -0.058092860222540559 0 0.00049766680781328405 -0.058407524847451153 0 1.0715714732036024e-05 -0.058320762867511901 0 0.00061489198772790164 -0.057773451437253182 0 0.00031602410389022654 -0.058092860222540559 0 0.00049766680781328405 -0.058407524847451153 0 0.00061489198772790164 -0.057773451437253182 0 0.00049766680781328405 -0.058407524847451153 0 0.0010952214233608351 -0.058246741810459586 0 0.00049766680781328405 -0.058407524847451153 0 0.0007835271640392259 -0.058690912835063239 0 0.00050099247509997294 -0.058801821221121799 0 0.00049766680781328405 -0.058407524847451153 0 0.00050099247509997294 -0.058801821221121799 0 7.0761399757165625e-05 -0.058908196674582892 0 0.00049766680781328405 -0.058407524847451153 0 7.0761399757165625e-05 -0.058908196674582892 0 1.0715714732036024e-05 -0.058320762867511901 0 -0.0010126627132778885 -0.073203821435330274 0 -0.0012212158703234217 -0.072771624423718179 0 -0.0011902731803278255 -0.073272423603181605 0 0.0010952214233608351 -0.058246741810459586 0 0.0007835271640392259 -0.058690912835063239 0 0.001128377103833082 -0.059004343096323381 0 -0.00049707870260163451 -0.064182012902850999 0 0.00025792613260244466 -0.064999754324470749 0 0.00049766680781328405 -0.058407524847451153 0 0.0010952214233608351 -0.058246741810459586 0 0.0007835271640392259 -0.058690912835063239 0 0.0007835271640392259 -0.058690912835063239 0 0.001128377103833082 -0.059004343096323381 0 0.0006672068353359528 -0.059043260920233716 0 0.001128377103833082 -0.059004343096323381 0 0.0006672068353359528 -0.059043260920233716 0 0.00089036419132066281 -0.059382013042950266 0 -0.0010126627132778885 -0.073203821435330274 0 -0.0011902731803278255 -0.073272423603181605 0 -0.00088492927470826168 -0.073525622849314742 0 0.00050099247509997294 -0.058801821221121799 0 0.00041083335016215474 -0.059046607020207684 0 7.0761399757165625e-05 -0.058908196674582892 0 0.0007835271640392259 -0.058690912835063239 0 0.00050099247509997294 -0.058801821221121799 0 0.0006672068353359528 -0.059043260920233716 0 0.00050099247509997294 -0.058801821221121799 0 0.0006672068353359528 -0.059043260920233716 0 0.00041083335016215474 -0.059046607020207684 0 0.0006672068353359528 -0.059043260920233716 0 0.00052759857498574012 -0.059259853681301176 0 0.00057925420801711565 -0.059583545049254533 0 -0.0011589363114952414 -0.058891083552121665 0 -0.0013272958122748381 -0.05881945557536615 0 0.0006672068353359528 -0.059043260920233716 0 0.00052759857498574012 -0.059259853681301176 0 0.00041083335016215474 -0.059046607020207684 0 0.00041083335016215474 -0.059046607020207684 0 0.00024092557488902526 -0.059252480923803842 0 7.0761399757165625e-05 -0.058908196674582892 0 0.00052759857498574012 -0.059259853681301176 0 0.00041083335016215474 -0.059046607020207684 0 0.00024092557488902526 -0.059252480923803842 0 -0.0012071506991971754 -0.054632657255538793 0 -0.0010572327361922107 -0.054189294612409629 0 0.00052759857498574012 -0.059259853681301176 0 0.00022903727263783285 -0.059517110134148649 0 0.00057925420801711565 -0.059583545049254533 0 0.00052759857498574012 -0.059259853681301176 0 0.00024092557488902526 -0.059252480923803842 0 0.00019918125898837899 -0.05954679087956391 0 0.00024092557488902526 -0.059252480923803842 0 0.00019918125898837899 -0.05954679087956391 0 1.3243990497930225e-05 -0.059513989228001864 0 -0.0010572327361922107 -0.054189294612409629 0 -0.0013272958122748381 -0.05881945557536615 0 0.0006672068353359528 -0.059043260920233716 0 0.00058189522753664049 -0.059689072764613084 0 0.00089036419132066281 -0.059382013042950266 0 -0.00088260342810519304 -0.073840900541065679 0 -0.00086981717963562544 -0.073922336034433503 0 -0.0008544320080899467 -0.073892589781704612 0 -0.0013272958122748381 -0.05881945557536615 0 -0.00087746216976302533 -0.05972132651568287 0 0.00015158068328376744 -0.054709507066551991 0 6.122863709817389e-05 -0.054806961116394243 0 0.00012940950087191893 -0.054935041587933754 0 4.6643340452493675e-06 -0.054679635077600632 0 0.00015158068328376744 -0.054709507066551991 0 6.122863709817389e-05 -0.054806961116394243 0 4.6643340452493675e-06 -0.054679635077600632 0 6.122863709817389e-05 -0.054806961116394243 0 -7.7137106795460933e-05 -0.054750733991057149 0 -0.00084261715135901033 -0.051098357692946253 0 -0.00051413847688543536 -0.051713618745936309 0 6.122863709817389e-05 -0.054806961116394243 0 5.2722426793372176e-05 -0.055020653724848927 0 -7.7137106795460933e-05 -0.054750733991057149 0 6.122863709817389e-05 -0.054806961116394243 0 0.00012940950087191893 -0.054935041587933754 0 5.2722426793372176e-05 -0.055020653724848927 0 -0.00086981717963562544 -0.073922336034433503 0 -0.00084311083974673645 -0.07396452074305665 0 -0.0008544320080899467 -0.073892589781704612 0 0.00012940950087191893 -0.054935041587933754 0 9.3509086265164569e-05 -0.055029522962406964 0 0.00011740856631442985 -0.055159652576224141 0 -0.00086981717963562544 -0.073922336034433503 0 -0.00084311083974673645 -0.07396452074305665 0 -0.00080813246171852131 -0.073942416081461862 0 -0.00087746216976302533 -0.05972132651568287 0 -0.00014427451592109879 -0.056629185465203125 0 0.0015861467074318157 -0.041673871949570451 0 0.0015424082449177819 -0.041518876695584128 0 0.0017347576455869272 -0.041705863736364035 0 -0.00082688977616405613 -0.051111600059582533 0 -0.00084261715135901033 -0.051098357692946253 0 0.00012940950087191893 -0.054935041587933754 0 9.3509086265164569e-05 -0.055029522962406964 0 5.2722426793372176e-05 -0.055020653724848927 0 -0.00084311083974673645 -0.07396452074305665 0 -0.00084022907094209059 -0.073919173629572371 0 -0.0008454816162637716 -0.074041715483252168 0 -0.0008544320080899467 -0.073892589781704612 0 -0.00084022907094209059 -0.073919173629572371 0 -0.0008237921404273418 -0.073860021619883309 0 -0.00084311083974673645 -0.07396452074305665 0 -0.0008544320080899467 -0.073892589781704612 0 -0.00084022907094209059 -0.073919173629572371 0 0.0010041181485032258 -0.066121333694051682 0 0.0010239713145327191 -0.064265180826064736 0 0.00025792613260244466 -0.064999754324470749 0 0.0010239713145327191 -0.064265180826064736 0 0.001128377103833082 -0.059004343096323381 0 0.001180478134296385 -0.059793829151445647 0 0.00089036419132066281 -0.059382013042950266 0 -0.0011902731803278255 -0.073272423603181605 0 -0.0011457207509102437 -0.073729834932305172 0 -0.00088492927470826168 -0.073525622849314742 0 -0.00088260342810519304 -0.073840900541065679 0 -0.0008544320080899467 -0.073892589781704612 0 -0.0008237921404273418 -0.073860021619883309 0 -0.0013272958122748381 -0.05881945557536615 0 0.0010239713145327191 -0.064265180826064736 0 0.00058189522753664049 -0.059689072764613084 0 0.001180478134296385 -0.059793829151445647 0 0.00089036419132066281 -0.059382013042950266 0 -0.00088492927470826168 -0.073525622849314742 0 -0.00071200698383335728 -0.073807394557619671 0 -0.00038894571225194137 -0.073648860253941115 0 -0.0011457207509102437 -0.073729834932305172 0 -0.00088492927470826168 -0.073525622849314742 0 -0.00071200698383335728 -0.073807394557619671 0 -0.00084022907094209059 -0.073919173629572371 0 -0.00085181849175086362 -0.073794343347349856 0 -0.00071200698383335728 -0.073807394557619671 0 0.0010239713145327191 -0.064265180826064736 0 0.00075552721916569187 -0.06541210803390729 0 -0.00071200698383335728 -0.073807394557619671 0 -0.00038894571225194137 -0.073648860253941115 0 -0.00040819139218409311 -0.073983733872735685 0 -0.00071200698383335728 -0.073807394557619671 0 -0.00040819139218409311 -0.073983733872735685 0 -0.00062497765894063489 -0.0740490741271074 0 -0.00040819139218409311 -0.073983733872735685 0 -0.00062497765894063489 -0.0740490741271074 0 -0.00040705525054972363 -0.074236999622866354 0 -0.00071200698383335728 -0.073807394557619671 0 -0.00062497765894063489 -0.0740490741271074 0 -0.00076414149513923417 -0.073954536685387165 0 -0.00084022907094209059 -0.073919173629572371 0 -0.00071200698383335728 -0.073807394557619671 0 -0.00076414149513923417 -0.073954536685387165 0 -0.00084022907094209059 -0.073919173629572371 0 -0.00076414149513923417 -0.073954536685387165 0 -0.0008454816162637716 -0.074041715483252168 0 -0.00062497765894063489 -0.0740490741271074 0 -0.00076414149513923417 -0.073954536685387165 0 -0.0008454816162637716 -0.074041715483252168 0 -0.00062497765894063489 -0.0740490741271074 0 -0.0008454816162637716 -0.074041715483252168 0 -0.00061548009288224178 -0.074258763106248307 0 -0.00062497765894063489 -0.0740490741271074 0 -0.00061548009288224178 -0.074258763106248307 0 -0.00040705525054972363 -0.074236999622866354 0 -0.00061548009288224178 -0.074258763106248307 0 -0.00040705525054972363 -0.074236999622866354 0 -0.00047312764680552857 -0.074431599402181317 0 -0.00047312764680552857 -0.074431599402181317 0 -0.00073721135462098024 -0.074527237111763178 0 -0.00043310186339040732 -0.074645275924688725 0 -0.00031161481399730743 -0.074450896513427164 0 -0.00047312764680552857 -0.074431599402181317 0 -0.00043310186339040732 -0.074645275924688725 0 -0.00031161481399730743 -0.074450896513427164 0 -0.00040705525054972363 -0.074236999622866354 0 -0.00047312764680552857 -0.074431599402181317 0 -0.0008454816162637716 -0.074041715483252168 0 -0.00061548009288224178 -0.074258763106248307 0 -0.00073721135462098024 -0.074527237111763178 0 -0.00061548009288224178 -0.074258763106248307 0 -0.00047312764680552857 -0.074431599402181317 0 -0.00073721135462098024 -0.074527237111763178 0 -0.00015474986602687359 -0.07378682397142991 0 5.6163474696138414e-06 -0.073532577836575519 0 -0.00094961641702681837 -0.073808107925359939 0 -0.00075789671674454011 -0.073829054047072851 0 -0.00081906788108940482 -0.073933316516317918 0 -0.0008454816162637716 -0.074041715483252168 0 -0.00094961641702681837 -0.073808107925359939 0 -0.00081906788108940482 -0.073933316516317918 0 0.00027617994530151159 -0.054438792749764583 0 -0.00014427451592109879 -0.056629185465203125 0 0.00087905607619466995 -0.064100111773888802 0 -0.00014427451592109879 -0.056629185465203125 0 -0.0011186443972256925 -0.059590082485380239 0 -0.00015207274893931839 -0.059881788104542595 0 -0.00091264799169503094 -0.057841048121457427 0 -0.00075789671674454011 -0.073829054047072851 0 -0.00080813246171852131 -0.073942416081461862 0 -0.00081906788108940482 -0.073933316516317918 0 0.0016383419003949621 -0.041250329948282288 0 0.0015424082449177819 -0.041518876695584128 0 0.0017587768168578829 -0.041375049555264165 0 9.3509086265164569e-05 -0.055029522962406964 0 5.7864561939274003e-05 -0.055020195456666074 0 0.00011740856631442985 -0.055159652576224141 0 -0.00084261715135901033 -0.051098357692946253 0 -0.00014427451592109879 -0.056629185465203125 0 -0.00084311083974673645 -0.07396452074305665 0 -0.0008454816162637716 -0.074041715483252168 0 -0.00081906788108940482 -0.073933316516317918 0 -0.00084311083974673645 -0.07396452074305665 0 -0.00080813246171852131 -0.073942416081461862 0 -0.00081906788108940482 -0.073933316516317918 0 0.00076707943002520635 -0.039629591177495913 0 0.0012355693600455265 -0.039150780901449467 0 0.0012708789013950797 -0.039873814384670365 0 0.00076707943002520635 -0.039629591177495913 0 0.0012355693600455265 -0.039150780901449467 0 0.00029435181178553087 -0.039067772552408134 0 0.0012355693600455265 -0.039150780901449467 0 0.00029435181178553087 -0.039067772552408134 0 0.0012971852000506021 -0.038242606834970855 0 0.0012355693600455265 -0.039150780901449467 0 0.0016982287749556738 -0.038896631225692743 0 0.0013061323989886084 -0.03824264145109163 0 0.00086326836427492906 -0.042977032086379416 0 -1.7712742656707635e-05 -0.047823794737395543 0 0.0016982287749556738 -0.038896631225692743 0 0.0020374934484658621 -0.039783338867437519 0 0.0021767184214300898 -0.038423297387815997 0 0.0015424082449177819 -0.041518876695584128 0 0.0017587768168578829 -0.041375049555264165 0 0.0017347576455869272 -0.041705863736364035 0 0.0012355693600455265 -0.039150780901449467 0 0.0020374934484658621 -0.039783338867437519 0 0.0012708789013950797 -0.039873814384670365 0 0.0012355693600455265 -0.039150780901449467 0 0.0016982287749556738 -0.038896631225692743 0 0.0020374934484658621 -0.039783338867437519 0 0.0020374934484658621 -0.039783338867437519 0 0.0014820164487844346 -0.040527685120731363 0 0.0012708789013950797 -0.039873814384670365 0 0.0020374934484658621 -0.039783338867437519 0 0.0014820164487844346 -0.040527685120731363 0 0.0016772950480888212 -0.041153863404572902 0 0.00086326836427492906 -0.042977032086379416 0 0.0010611348176136459 -0.042048764881636239 0 0.0016383419003949621 -0.041250329948282288 0 0.0017587768168578829 -0.041375049555264165 0 0.0016772950480888212 -0.041153863404572902 0 0.0014820164487844346 -0.040527685120731363 0 0.00087346065960065464 -0.040354376485848144 0 0.001448822287614369 -0.041228587802588555 0 0.00087346065960065464 -0.040354376485848144 0 -5.5255071524862705e-05 -0.04087643107240068 0 0.001448822287614369 -0.041228587802588555 0 0.0014820164487844346 -0.040527685120731363 0 0.0012708789013950797 -0.039873814384670365 0 0.00087346065960065464 -0.040354376485848144 0 0.00076707943002520635 -0.039629591177495913 0 0.0012708789013950797 -0.039873814384670365 0 0.00087346065960065464 -0.040354376485848144 0 0.00076707943002520635 -0.039629591177495913 0 0.00087346065960065464 -0.040354376485848144 0 0.00020256834393446414 -0.039902333296082733 0 0.00087346065960065464 -0.040354376485848144 0 -5.5255071524862705e-05 -0.04087643107240068 0 0.00020256834393446414 -0.039902333296082733 0 -5.5255071524862705e-05 -0.04087643107240068 0 0.00020256834393446414 -0.039902333296082733 0 -0.00095913225280572787 -0.039785508568691091 0 -0.00084965448392031054 -0.046619589908564858 0 -0.0016842742174997653 -0.045402267689665696 0 -0.002266506115645904 -0.040447330631627226 0 -0.0031498046558715346 -0.040237718380961504 0 -0.000954024332436022 -0.04312239261311325 0 -5.5255071524862705e-05 -0.04087643107240068 0 -0.002266506115645904 -0.040447330631627226 0 -0.00095913225280572787 -0.039785508568691091 0 -0.002266506115645904 -0.040447330631627226 0 -0.0022861539763543133 -0.038861842839191772 0 -0.0031498046558715346 -0.040237718380961504 0 -0.002266506115645904 -0.040447330631627226 0 -0.00095913225280572787 -0.039785508568691091 0 -0.0022861539763543133 -0.038861842839191772 0 -0.00095913225280572787 -0.039785508568691091 0 -0.0022861539763543133 -0.038861842839191772 0 -0.00081354402643448516 -0.038088783853549323 0 -0.0022861539763543133 -0.038861842839191772 0 -0.00081354402643448516 -0.038088783853549323 0 -0.0016534715903730236 -0.037093322302142365 0 -0.00081354402643448516 -0.038088783853549323 0 -0.0016534715903730236 -0.037093322302142365 0 -1.6921401340915565e-05 -0.037049983129725718 0 0.00020256834393446414 -0.039902333296082733 0 -0.00095913225280572787 -0.039785508568691091 0 0.00029435181178553087 -0.039067772552408134 0 0.00076707943002520635 -0.039629591177495913 0 0.00020256834393446414 -0.039902333296082733 0 0.00029435181178553087 -0.039067772552408134 0 -0.00095913225280572787 -0.039785508568691091 0 -0.00081354402643448516 -0.038088783853549323 0 0.00077644831864293387 -0.037926631396912644 0 0.0013440565019497851 -0.041847602643597173 0 0.0015975697986790503 -0.042316322178450119 0 -0.00081354402643448516 -0.038088783853549323 0 0.00077644831864293387 -0.037926631396912644 0 -1.6921401340915565e-05 -0.037049983129725718 0 -1.6921401340915565e-05 -0.037049983129725718 0 -0.00057483651696938289 -0.035866743242924173 0 0.0023949238518417644 -0.036438408736487571 0 -0.00065593491944999688 -0.04176245485760359 0 0.00068266864127734643 -0.045448468478314373 0 -0.0016534715903730236 -0.037093322302142365 0 -1.6921401340915565e-05 -0.037049983129725718 0 -0.00057483651696938289 -0.035866743242924173 0 -0.0016534715903730236 -0.037093322302142365 0 -0.00057483651696938289 -0.035866743242924173 0 -0.0027229854991459384 -0.035590771321002621 0 -0.00065593491944999688 -0.04176245485760359 0 -0.0011991532503700495 -0.040076338676696514 0 -0.00037054649554600595 -0.041881103490254416 0 -8.6890865076224013e-06 -0.042351329046446277 0 0.0002690948002331657 -0.042008115224942091 0 -0.00037054649554600595 -0.041881103490254416 0 -0.00079791406395573442 -0.04200992384701803 0 -0.00055756936522023844 -0.042341568340377271 0 -0.00037054649554600595 -0.041881103490254416 0 -0.00055756936522023844 -0.042341568340377271 0 -8.6890865076224013e-06 -0.042351329046446277 0 -0.00079791406395573442 -0.04200992384701803 0 -0.0010645232116782131 -0.042260093059054885 0 -0.00055756936522023844 -0.042341568340377271 0 -0.00079791406395573442 -0.04200992384701803 0 -0.00098468705624175402 -0.041771485059795575 0 -0.0010645232116782131 -0.042260093059054885 0 0.00068266864127734643 -0.045448468478314373 0 -0.00054349754807837217 -0.049388591419496246 0 -0.00054349754807837217 -0.049388591419496246 0 -0.0010583592198109611 -0.048039993843440071 0 0.00077644831864293387 -0.037926631396912644 0 -1.6921401340915565e-05 -0.037049983129725718 0 0.0023949238518417644 -0.036438408736487571 0 -0.00037054649554600595 -0.041881103490254416 0 -0.00079791406395573442 -0.04200992384701803 0 -0.00098468705624175402 -0.041771485059795575 0 0.00080830574908963022 -0.043766208958767164 0 0.00068266864127734643 -0.045448468478314373 0 0.0015975697986790503 -0.042316322178450119 0 0.00068266864127734643 -0.045448468478314373 0 -0.00023358667009960166 -0.047804225157900102 0 0.00016792173836075407 -0.047895937041632912 0 0.00022156524218224421 -0.047403861046355945 0 -1.7712742656707635e-05 -0.047823794737395543 0 -0.00051413847688543536 -0.051713618745936309 0 -0.0015511501672361113 -0.050706377966768523 0 -0.0019327147842754799 -0.050622030875498457 0 -0.0018655498570172887 -0.050007975768917634 0 -0.00084261715135901033 -0.051098357692946253 0 -1.7712742656707635e-05 -0.047823794737395543 0 0.0016982287749556738 -0.038896631225692743 0 0.0013061323989886084 -0.03824264145109163 0 0.0021767184214300898 -0.038423297387815997 0 0.00068266864127734643 -0.045448468478314373 0 -1.7712742656707635e-05 -0.047823794737395543 0 0.00068266864127734643 -0.045448468478314373 0 -0.00051413847688543536 -0.051713618745936309 0 0.00042581540451738499 -0.049576731001460136 0 0.00019614296479335245 -0.050002031964047663 0 0.00032623262543788006 -0.050153420325501873 0 2.3835394172077466e-05 -0.049944095414049858 0 0.00019614296479335245 -0.050002031964047663 0 1.5039878463587589e-05 -0.05002376734809897 0 -0.0010572327361922107 -0.054189294612409629 0 -0.00051413847688543536 -0.051713618745936309 0 0.0011993264825092076 -0.053072243218862461 0 -0.0013148364459428577 -0.055321258448754788 0 -0.0011644883318858124 -0.053970047098519283 0 -0.00051413847688543536 -0.051713618745936309 0 -0.00052005860881953884 -0.052306879065423445 0 0.00042581540451738499 -0.049576731001460136 0 2.3835394172077466e-05 -0.049944095414049858 0 0.00019614296479335245 -0.050002031964047663 0 -0.00054349754807837217 -0.049388591419496246 0 -0.00052592155191910866 -0.052877243284317227 0 0.00019614296479335245 -0.050002031964047663 0 0.00032623262543788006 -0.050153420325501873 0 6.4336202538882396e-06 -0.050099561885001635 0 -0.0010572327361922107 -0.054189294612409629 0 -0.00052592155191910866 -0.052877243284317227 0 0.0011993264825092076 -0.053072243218862461 0 -0.0010215668140629473 -0.052687081675412382 0 -0.0011644883318858124 -0.053970047098519283 0 -0.00052592155191910866 -0.052877243284317227 0 -0.00052005860881953884 -0.052306879065423445 0 0.00019614296479335245 -0.050002031964047663 0 6.4336202538882396e-06 -0.050099561885001635 0 1.5039878463587589e-05 -0.05002376734809897 0 0.00024092557488902526 -0.059252480923803842 0 1.3243990497930225e-05 -0.059513989228001864 0 7.0761399757165625e-05 -0.058908196674582892 0 -0.00052592155191910866 -0.052877243284317227 0 -0.00062135111180479017 -0.05478319749366297 0 1.7709559584390777e-05 -0.059457071300145617 0 7.0761399757165625e-05 -0.058908196674582892 0 -0.00035030751032649808 -0.058687871992140879 0 -0.00054349754807837217 -0.049388591419496246 0 -0.00078040992535550037 -0.050146636816851504 0 -0.0016936956180038526 -0.051065161121250882 0 -0.0014536620375461835 -0.051108373912416932 0 -0.0016442423211640949 -0.050667275261001746 0 -0.00052592155191910866 -0.052877243284317227 0 -0.00078040992535550037 -0.050146636816851504 0 -0.0011670002354243715 -0.042256918732476237 0 -0.00097495722245379522 -0.042546679774149214 0 -0.0012386448588016644 -0.042786095875653365 0 -0.00097495722245379522 -0.042546679774149214 0 -0.00082943914253734809 -0.04282161190906137 0 -0.00055756936522023844 -0.042341568340377271 0 -0.0011670002354243715 -0.042256918732476237 0 -0.00097495722245379522 -0.042546679774149214 0 -0.00055756936522023844 -0.042341568340377271 0 -0.00097495722245379522 -0.042546679774149214 0 -0.00082943914253734809 -0.04282161190906137 0 -0.0012386448588016644 -0.042786095875653365 0 -0.00082943914253734809 -0.04282161190906137 0 -0.0011098494530865516 -0.043142006586116888 0 -0.0012386448588016644 -0.042786095875653365 0 -0.00082943914253734809 -0.04282161190906137 0 -0.0011098494530865516 -0.043142006586116888 0 -0.00078061288959200865 -0.04319085353753143 0 -0.00078040992535550037 -0.050146636816851504 0 -0.00054274089475983686 -0.051017159681753535 0 -0.0011098494530865516 -0.043142006586116888 0 -0.0012134889138795694 -0.042849185852431623 0 -0.0012956734819590987 -0.043339529371160514 0 -0.00035030751032649808 -0.058687871992140879 0 1.0715714732036024e-05 -0.058320762867511901 0 -0.00036254261536278437 -0.057898514092689625 0 7.0761399757165625e-05 -0.058908196674582892 0 -0.00035030751032649808 -0.058687871992140879 0 1.0715714732036024e-05 -0.058320762867511901 0 -0.0012169645176937087 -0.048531259988589218 0 -0.00078040992535550037 -0.050146636816851504 0 1.0715714732036024e-05 -0.058320762867511901 0 0.0001395949139448838 -0.057865249915465204 0 -0.00036254261536278437 -0.057898514092689625 0 -0.0012956734819590987 -0.043339529371160514 0 -0.00094002111679776458 -0.043498759671753658 0 -0.0013695300369045659 -0.043893777742238786 0 0.0001395949139448838 -0.057865249915465204 0 -0.00036254261536278437 -0.057898514092689625 0 7.0598249910500637e-05 -0.057066210385725666 0 -0.0011098494530865516 -0.043142006586116888 0 -0.0012956734819590987 -0.043339529371160514 0 -0.00094002111679776458 -0.043498759671753658 0 -0.0011098494530865516 -0.043142006586116888 0 -0.00078061288959200865 -0.04319085353753143 0 -0.00094002111679776458 -0.043498759671753658 0 -0.00078061288959200865 -0.04319085353753143 0 -0.00094002111679776458 -0.043498759671753658 0 -0.0005460891178715228 -0.043506391835055551 0 -0.00094002111679776458 -0.043498759671753658 0 -0.00082859905816061257 -0.04394380916681484 0 -0.0005460891178715228 -0.043506391835055551 0 -4.0763352125721619e-06 -0.052231546262091276 0 1.6414501517227945e-07 -0.052220015492574177 0 1.072712547203541e-05 -0.05497430099748446 0 -0.00094002111679776458 -0.043498759671753658 0 -0.00082859905816061257 -0.04394380916681484 0 -0.0013695300369045659 -0.043893777742238786 0 0.0010736731052244496 -0.05015876953552495 0 -0.00028802541648774763 -0.052685100489515142 0 1.6414501517227945e-07 -0.052220015492574177 0 -1.700956782966178e-07 -0.055280481281727925 0 1.072712547203541e-05 -0.05497430099748446 0 -0.00036254261536278437 -0.057898514092689625 0 -0.00027056467051434321 -0.056294883827432175 0 7.0598249910500637e-05 -0.057066210385725666 0 -0.00054274089475983686 -0.051017159681753535 0 -0.00028802541648774763 -0.052685100489515142 0 0.00030625255829737602 -0.057376584236277631 0 2.9860321455501453e-07 -0.055290201000106572 0 -0.00027056467051434321 -0.056294883827432175 0 -4.2465361747765777e-06 -0.055270357003079515 0 -0.00028802541648774763 -0.052685100489515142 0 0.00030625255829737602 -0.057376584236277631 0 -0.00027056467051434321 -0.056294883827432175 0 7.0598249910500637e-05 -0.057066210385725666 0 0.0037542886166980474 -0.048462371949002297 0 0.0023328156899563787 -0.045430566795353705 0 -0.00028052834299151854 -0.044000795991676833 0 -0.0005460891178715228 -0.043506391835055551 0 5.7623836613875193e-06 -0.043428914575389041 0 -4.0181158395310635e-06 -0.048134666403617243 0 -0.00058758258834955507 -0.043607986019441852 0 0.00015770751505045564 -0.044881297156988298 0 -4.0181158395310635e-06 -0.048134666403617243 0 -0.0012250150497918168 -0.048005021952890227 0 -0.00058758258834955507 -0.043607986019441852 0 2.3804435846591494e-06 -0.048141632507042217 0 0.0037542886166980474 -0.048462371949002297 0 0.0010736731052244496 -0.05015876953552495 0 0.0037542886166980474 -0.048462371949002297 0 -0.00082859905816061257 -0.04394380916681484 0 -0.00028052834299151854 -0.044000795991676833 0 -0.0005460891178715228 -0.043506391835055551 0 -4.0763352125721619e-06 -0.052231546262091276 0 1.6414501517227945e-07 -0.052220015492574177 0 -1.4550138125365959e-07 -0.049098025318062601 0 -0.00078061288959200865 -0.04319085353753143 0 -0.0005460891178715228 -0.043506391835055551 0 -0.00047301419948097705 -0.042982897217625333 0 -0.0005460891178715228 -0.043506391835055551 0 5.7623836613875193e-06 -0.043428914575389041 0 -0.00047301419948097705 -0.042982897217625333 0 5.7623836613875193e-06 -0.043428914575389041 0 -0.00011344092150156962 -0.042797633424703566 0 0.00026591134863425333 -0.042832950521993984 0 5.7623836613875193e-06 -0.043428914575389041 0 -0.00011344092150156962 -0.042797633424703566 0 -0.00047301419948097705 -0.042982897217625333 0 -0.00082943914253734809 -0.04282161190906137 0 -0.00078061288959200865 -0.04319085353753143 0 -0.00047301419948097705 -0.042982897217625333 0 -0.00082943914253734809 -0.04282161190906137 0 -0.00047301419948097705 -0.042982897217625333 0 -0.00055756936522023844 -0.042341568340377271 0 -0.00011344092150156962 -0.042797633424703566 0 -0.00047301419948097705 -0.042982897217625333 0 -0.00055756936522023844 -0.042341568340377271 0 -0.00011344092150156962 -0.042797633424703566 0 -0.00055756936522023844 -0.042341568340377271 0 -8.6890865076224013e-06 -0.042351329046446277 0 -0.00011344092150156962 -0.042797633424703566 0 -8.6890865076224013e-06 -0.042351329046446277 0 0.00026591134863425333 -0.042832950521993984 0 0.0015614277255874239 -0.043432345906140778 0 0.0017107093448396641 -0.043920770232386754 0 -8.6890865076224013e-06 -0.042351329046446277 0 0.00044657282154907335 -0.042207454904030377 0 0.00026591134863425333 -0.042832950521993984 0 0.00044657282154907335 -0.042207454904030377 0 0.00058087189736492949 -0.042216818274065648 0 0.00059084951375508021 -0.042181077341423373 0 0.00044657282154907335 -0.042207454904030377 0 0.00062661946409285944 -0.042270377890912272 0 0.00058087189736492949 -0.042216818274065648 0 0.00044657282154907335 -0.042207454904030377 0 0.00062661946409285944 -0.042270377890912272 0 0.00011653479011437728 -0.042393846218664551 0 0.00062661946409285944 -0.042270377890912272 0 0.00011653479011437728 -0.042393846218664551 0 0.00039941706977612363 -0.043186171569770178 0 0.0023328156899563787 -0.045430566795353705 0 0.0017107093448396641 -0.043920770232386754 0 -0.00058758258834955507 -0.043607986019441852 0 0.00039941706977612363 -0.043186171569770178 0 0.00015770751505045564 -0.044881297156988298 0 -0.00058758258834955507 -0.043607986019441852 0 0.00011653479011437728 -0.042393846218664551 0 0.00039941706977612363 -0.043186171569770178 0 0.00062661946409285944 -0.042270377890912272 0 0.00039941706977612363 -0.043186171569770178 0 0.00063917239598374745 -0.042140846577326092 0 2.0163313683196308e-06 -0.04440098864127609 0 2.127159555508446e-06 -0.040659989607100502 0 0.00063917239598374745 -0.042140846577326092 0 0.00039941706977612363 -0.043186171569770178 0 2.0163313683196308e-06 -0.04440098864127609 0 0.00063917239598374745 -0.042140846577326092 0 0.00039941706977612363 -0.043186171569770178 0 2.0163313683196308e-06 -0.04440098864127609 0 0.00015770751505045564 -0.044881297156988298 0 -4.0181158395310635e-06 -0.048134666403617243 0 2.0163313683196308e-06 -0.04440098864127609 0 0.00015770751505045564 -0.044881297156988298 0 -0.0007565204465830596 -0.040456054379247444 0 -4.1933463377567884e-06 -0.036926930411198954 0 0.00031688883518278326 -0.040461192903530778 0 -4.1933463377567884e-06 -0.036926930411198954 0 0.00031688883518278326 -0.040461192903530778 0 2.127159555508446e-06 -0.040659989607100502 0 0.00031688883518278326 -0.040461192903530778 0 2.127159555508446e-06 -0.040659989607100502 0 0.00063917239598374745 -0.042140846577326092 0 0.00031688883518278326 -0.040461192903530778 0 0.00063917239598374745 -0.042140846577326092 0 0.00047871294588032242 -0.041876575988041516 0 0.00062661946409285944 -0.042270377890912272 0 0.00063917239598374745 -0.042140846577326092 0 0.00047871294588032242 -0.041876575988041516 0 -0.0007565204465830596 -0.040456054379247444 0 0.00031688883518278326 -0.040461192903530778 0 0.00047871294588032242 -0.041876575988041516 0 0.00014379396842139567 -0.042037094517159188 0 0.00047871294588032242 -0.041876575988041516 0 0.00052417153104275006 -0.042182780994057416 0 0.00062661946409285944 -0.042270377890912272 0 0.00047871294588032242 -0.041876575988041516 0 0.00052417153104275006 -0.042182780994057416 0 0.00062661946409285944 -0.042270377890912272 0 0.00058087189736492949 -0.042216818274065648 0 0.00052417153104275006 -0.042182780994057416 0 0.00058087189736492949 -0.042216818274065648 0 0.00052417153104275006 -0.042182780994057416 0 0.00059084951375508021 -0.042181077341423373 0 0.00053781794468578479 -0.040165577687725031 0 0.00072022191198372926 -0.040773424792597379 0 0.00052417153104275006 -0.042182780994057416 0 0.00044728930506596052 -0.042228153187837264 0 0.00059084951375508021 -0.042181077341423373 0 0.00027593833282699344 -0.041959429120153768 0 0.00052417153104275006 -0.042182780994057416 0 0.00044728930506596052 -0.042228153187837264 0 -0.0028886743878075343 -0.03593503376789297 0 -0.0029093106741623484 -0.035318923804226153 0 -0.0032792023719685967 -0.035595420285729339 0 -0.0029093106741623484 -0.035318923804226153 0 -0.0032792023719685967 -0.035595420285729339 0 -0.0033619286310558804 -0.035050470710423456 0 -0.0032792023719685967 -0.035595420285729339 0 -0.0035487905792429115 -0.035781689260958913 0 -0.0033619286310558804 -0.035050470710423456 0 -0.0032792023719685967 -0.035595420285729339 0 -0.0035112678219672466 -0.035698174310768632 0 -0.0035487905792429115 -0.035781689260958913 0 -0.0011099215036682159 -0.038727767244890479 0 -0.0013217569980795024 -0.039267028841214545 0 -0.0028886743878075343 -0.03593503376789297 0 -0.0032792023719685967 -0.035595420285729339 0 -0.0035112678219672466 -0.035698174310768632 0 0.00044657282154907335 -0.042207454904030377 0 0.00059084951375508021 -0.042181077341423373 0 0.0002690948002331657 -0.042008115224942091 0 -0.0035112678219672466 -0.035698174310768632 0 -0.0027229854991459384 -0.035590771321002621 0 -0.0035487905792429115 -0.035781689260958913 0 -0.0013217569980795024 -0.039267028841214545 0 -0.0011991532503700495 -0.040076338676696514 0 -8.6890865076224013e-06 -0.042351329046446277 0 0.00044657282154907335 -0.042207454904030377 0 0.0002690948002331657 -0.042008115224942091 0 -0.0016534715903730236 -0.037093322302142365 0 -0.0027229854991459384 -0.035590771321002621 0 -0.0031175602384578291 -0.036873863699240859 0 -0.0027362436681523357 -0.035513440998640913 0 -0.0025444002153080106 -0.035511296454042947 0 -0.0027229854991459384 -0.035590771321002621 0 -0.0035487905792429115 -0.035781689260958913 0 -0.0031175602384578291 -0.036873863699240859 0 -0.0035487905792429115 -0.035781689260958913 0 -0.004043036807054483 -0.035208125178331814 0 -0.0033619286310558804 -0.035050470710423456 0 -0.00060572359979885063 -0.030884218630032722 0 -0.00063553242713964967 -0.031074202832276354 0 -0.00083964266102512801 -0.03092126477821442 0 -0.0025444002153080106 -0.035511296454042947 0 -0.0021169631157039901 -0.03374724287270698 0 -0.0022861539763543133 -0.038861842839191772 0 -0.0016534715903730236 -0.037093322302142365 0 -0.0052088706074362359 -0.037747481480159016 0 -0.0025444002153080106 -0.035511296454042947 0 -0.0016995087329335975 -0.036102307402317457 0 -0.0025551360601540848 -0.035884190179522012 0 -0.0025444002153080106 -0.035511296454042947 0 -0.0022861539763543133 -0.038861842839191772 0 -0.0052088706074362359 -0.037747481480159016 0 -0.0031498046558715346 -0.040237718380961504 0 -0.00043635420295846342 -0.03107918296201264 0 -0.00063553242713964967 -0.031074202832276354 0 -0.00045222993214330927 -0.031262021835187677 0 -0.00060572359979885063 -0.030884218630032722 0 -0.00043635420295846342 -0.03107918296201264 0 -0.00063553242713964967 -0.031074202832276354 0 -0.00063553242713964967 -0.031074202832276354 0 -0.00078727966358598618 -0.031074576490371344 0 -0.00083964266102512801 -0.03092126477821442 0 -0.00063553242713964967 -0.031074202832276354 0 -0.00078727966358598618 -0.031074576490371344 0 -0.00076647692778970518 -0.031227151746266283 0 -0.00078727966358598618 -0.031074576490371344 0 -0.00090755314728126527 -0.031076368036307197 0 -0.00076647692778970518 -0.031227151746266283 0 -0.00090755314728126527 -0.031076368036307197 0 -0.0010841196129821836 -0.031180231153234251 0 -0.00076647692778970518 -0.031227151746266283 0 -0.00078727966358598618 -0.031074576490371344 0 -0.00090755314728126527 -0.031076368036307197 0 -0.00083964266102512801 -0.03092126477821442 0 -0.00090755314728126527 -0.031076368036307197 0 -0.001079340242203478 -0.030960557935603174 0 -0.0010841196129821836 -0.031180231153234251 0 -0.0019348182915757605 -0.032317886578035866 0 -0.0021169631157039901 -0.03374724287270698 0 -0.0029093106741623484 -0.035318923804226153 0 -0.0028566101924874039 -0.03482497306089874 0 -0.0033619286310558804 -0.035050470710423456 0 -0.00090755314728126527 -0.031076368036307197 0 -0.001079340242203478 -0.030960557935603174 0 -0.00083964266102512801 -0.03092126477821442 0 -0.00087372713405033131 -0.031277295149521857 0 -0.00082361273607903414 -0.031485722789836516 0 -0.00071913780413899737 -0.031416952630528711 0 -0.00087372713405033131 -0.031277295149521857 0 -0.00082361273607903414 -0.031485722789836516 0 -0.0010189579840987819 -0.031434141259709204 0 -0.0010189579840987819 -0.031434141259709204 0 -0.001214469214019222 -0.031292311911457413 0 -0.001155945658818685 -0.031519170320839444 0 -0.0014447424797050935 -0.031563598743305638 0 -0.001214469214019222 -0.031292311911457413 0 -0.001155945658818685 -0.031519170320839444 0 -0.00087372713405033131 -0.031277295149521857 0 -0.0010189579840987819 -0.031434141259709204 0 -0.001214469214019222 -0.031292311911457413 0 -0.0010556412832534705 -0.0311011345671162 0 -0.0012083622561989964 -0.030977882140509685 0 -0.00087372713405033131 -0.031277295149521857 0 -0.001214469214019222 -0.031292311911457413 0 -0.0012472080295505854 -0.030909090794137457 0 -0.0012083622561989964 -0.030977882140509685 0 -0.00082981878126727371 -0.031110768512337399 0 -0.00087372713405033131 -0.031277295149521857 0 -0.0011118115168996304 -0.03109762905043037 0 -0.00080580976742879466 -0.031148255185571082 0 -0.00082981878126727371 -0.031110768512337399 0 -0.00065467827490929976 -0.031160328528686915 0 -0.00063553242713964967 -0.031074202832276354 0 -0.00076647692778970518 -0.031227151746266283 0 -0.00045222993214330927 -0.031262021835187677 0 -0.00087372713405033131 -0.031277295149521857 0 -0.00080580976742879466 -0.031148255185571082 0 -0.00066913197467328273 -0.03130823790180335 0 -0.00080580976742879466 -0.031148255185571082 0 -0.00045222993214330927 -0.031262021835187677 0 -0.00066913197467328273 -0.03130823790180335 0 -0.00045222993214330927 -0.031262021835187677 0 -0.00053080550859041433 -0.031363872016402838 0 -0.00066913197467328273 -0.03130823790180335 0 -0.00045222993214330927 -0.031262021835187677 0 -0.00053080550859041433 -0.031363872016402838 0 -0.00037870980784621329 -0.031363335496877857 0 -0.00053080550859041433 -0.031363872016402838 0 -0.00041761716802645479 -0.031454763057983573 0 -0.00037870980784621329 -0.031363335496877857 0 -0.00053080550859041433 -0.031363872016402838 0 -0.00051280250084375322 -0.031475945273466852 0 -0.00062005249883403707 -0.031398553137104289 0 -0.00051280250084375322 -0.031475945273466852 0 -0.00062790023258828623 -0.031485522030868081 0 -0.00058254432026069963 -0.031583067146360277 0 -0.00051280250084375322 -0.031475945273466852 0 -0.00062005249883403707 -0.031398553137104289 0 -0.00062790023258828623 -0.031485522030868081 0 -0.00051280250084375322 -0.031475945273466852 0 -0.00045360016149212145 -0.03151606090032031 0 -0.00048818912215615762 -0.031581588359283728 0 -0.00053080550859041433 -0.031363872016402838 0 -0.00051280250084375322 -0.031475945273466852 0 -0.00041761716802645479 -0.031454763057983573 0 -0.00051280250084375322 -0.031475945273466852 0 -0.00045360016149212145 -0.03151606090032031 0 -0.00041761716802645479 -0.031454763057983573 0 -0.00045360016149212145 -0.03151606090032031 0 -0.00041761716802645479 -0.031454763057983573 0 -0.00039650336703169332 -0.031552643258789231 0 -0.00087372713405033131 -0.031277295149521857 0 -0.00066913197467328273 -0.03130823790180335 0 -0.00071913780413899737 -0.031416952630528711 0 -0.00053080550859041433 -0.031363872016402838 0 -0.00066913197467328273 -0.03130823790180335 0 -0.00062005249883403707 -0.031398553137104289 0 -0.00066913197467328273 -0.03130823790180335 0 -0.00062005249883403707 -0.031398553137104289 0 -0.00071913780413899737 -0.031416952630528711 0 -0.00062005249883403707 -0.031398553137104289 0 -0.00062790023258828623 -0.031485522030868081 0 -0.00071913780413899737 -0.031416952630528711 0 -0.00062790023258828623 -0.031485522030868081 0 -0.00071913780413899737 -0.031416952630528711 0 -0.00070493170341607908 -0.031552157321528183 0 -0.00082361273607903414 -0.031485722789836516 0 -0.00071913780413899737 -0.031416952630528711 0 -0.00070493170341607908 -0.031552157321528183 0 -0.00082361273607903414 -0.031485722789836516 0 -0.00070493170341607908 -0.031552157321528183 0 -0.00083717537334954942 -0.031662166051292177 0 -0.00070493170341607908 -0.031552157321528183 0 -0.00064267787828786336 -0.031676228262133392 0 -0.00058254432026069963 -0.031583067146360277 0 -0.00062790023258828623 -0.031485522030868081 0 -0.00070493170341607908 -0.031552157321528183 0 -0.00058254432026069963 -0.031583067146360277 0 -0.00064267787828786336 -0.031676228262133392 0 -0.00074059391272826688 -0.031787658896059702 0 -0.00083717537334954942 -0.031662166051292177 0 -0.00070493170341607908 -0.031552157321528183 0 -0.00064267787828786336 -0.031676228262133392 0 -0.00083717537334954942 -0.031662166051292177 0 -0.00043648651368260159 -0.031622237112624664 0 -0.00039650336703169332 -0.031552643258789231 0 -0.00035619224911086217 -0.031658916152329908 0 -0.00043648651368260159 -0.031622237112624664 0 -0.00039650336703169332 -0.031552643258789231 0 -0.00048818912215615762 -0.031581588359283728 0 -0.00045360016149212145 -0.03151606090032031 0 -0.00039650336703169332 -0.031552643258789231 0 -0.00048818912215615762 -0.031581588359283728 0 -0.00043648651368260159 -0.031622237112624664 0 -0.00048818912215615762 -0.031581588359283728 0 -0.00047645500484387604 -0.031662718980029592 0 -0.00048818912215615762 -0.031581588359283728 0 -0.00058254432026069963 -0.031583067146360277 0 -0.00047645500484387604 -0.031662718980029592 0 -0.00051280250084375322 -0.031475945273466852 0 -0.00048818912215615762 -0.031581588359283728 0 -0.00058254432026069963 -0.031583067146360277 0 -0.00064267787828786336 -0.031676228262133392 0 -0.00047645500484387604 -0.031662718980029592 0 -0.00050334496143794268 -0.031815744177157004 0 -0.00064267787828786336 -0.031676228262133392 0 -0.00058254432026069963 -0.031583067146360277 0 -0.00047645500484387604 -0.031662718980029592 0 -0.00043648651368260159 -0.031622237112624664 0 -0.00047645500484387604 -0.031662718980029592 0 -0.00035619224911086217 -0.031658916152329908 0 -0.00047645500484387604 -0.031662718980029592 0 -0.00050334496143794268 -0.031815744177157004 0 -0.0003293726267966785 -0.03169444648631857 0 0.0011334863779801018 -0.049196785342078039 0 0.0013381192822208008 -0.049339718234015721 0 0.0013530674002901861 -0.049035668446380763 0 0.0011334863779801018 -0.049196785342078039 0 0.00089635958541560456 -0.04935017750051867 0 0.001183523409779506 -0.049521460627566162 0 0.0011334863779801018 -0.049196785342078039 0 0.001183523409779506 -0.049521460627566162 0 0.0013381192822208008 -0.049339718234015721 0 0.00099190773637054135 -0.041011735084802131 0 5.3579154957388836e-05 -0.042800473961955396 0 -0.00064267787828786336 -0.031676228262133392 0 -0.00050334496143794268 -0.031815744177157004 0 -0.00074059391272826688 -0.031787658896059702 0 -0.00050334496143794268 -0.031815744177157004 0 -0.00074059391272826688 -0.031787658896059702 0 -0.00068732488023183448 -0.031945667011085761 0 0.00099190773637054135 -0.041011735084802131 0 0.0022954259176984184 -0.039210910694998484 0 0.0022954259176984184 -0.039210910694998484 0 0.0014982403910386657 -0.03232823865201883 0 -0.00074059391272826688 -0.031787658896059702 0 -0.00068732488023183448 -0.031945667011085761 0 -0.00088558927589174922 -0.031829753387930551 0 0.0024439168699201094 -0.035156521263605196 0 0.0029879362388606154 -0.035440568120212658 0 0.0028286453239388413 -0.034825725212719857 0 -0.00088558927589174922 -0.031829753387930551 0 -0.00083717537334954942 -0.031662166051292177 0 -0.0010918031311940996 -0.031709071147437609 0 0.0018967778263468682 -0.034867908277004922 0 0.0024439168699201094 -0.035156521263605196 0 0.0023888814905239104 -0.034528351138365172 0 0.0014982403910386657 -0.03232823865201883 0 0.00091109498237857821 -0.025216483372039609 0 -0.00074059391272826688 -0.031787658896059702 0 -0.00088558927589174922 -0.031829753387930551 0 -0.00083717537334954942 -0.031662166051292177 0 -0.00083717537334954942 -0.031662166051292177 0 -0.00099732061849166988 -0.031568023893259474 0 -0.0010918031311940996 -0.031709071147437609 0 -0.00082361273607903414 -0.031485722789836516 0 -0.0010189579840987819 -0.031434141259709204 0 -0.00099732061849166988 -0.031568023893259474 0 -0.00082361273607903414 -0.031485722789836516 0 -0.00083717537334954942 -0.031662166051292177 0 -0.00099732061849166988 -0.031568023893259474 0 -0.0014447424797050935 -0.031563598743305638 0 -0.001155945658818685 -0.031519170320839444 0 -0.0011154074148025798 -0.031735893258265896 0 0.0015071731083814179 -0.020393658346449073 0 0.00091109498237857821 -0.025216483372039609 0 -0.0010189579840987819 -0.031434141259709204 0 -0.00099732061849166988 -0.031568023893259474 0 -0.001155945658818685 -0.031519170320839444 0 -0.00099732061849166988 -0.031568023893259474 0 -0.001155945658818685 -0.031519170320839444 0 -0.0011154074148025798 -0.031735893258265896 0 0.00024886965078374182 -0.026393872073487527 0 0.00091109498237857821 -0.025216483372039609 0 0.0044867603506764803 -0.02571935417184891 0 0.00091109498237857821 -0.025216483372039609 0 0.0034383253102312074 -0.034805159756255255 0 0.0029879362388606154 -0.035440568120212658 0 0.0028286453239388413 -0.034825725212719857 0 0.0035285904288382621 -0.0061562074782521622 0 0.0025130252139083644 -0.0035279103906899409 0 0.00012491849091135588 -0.0069807347920092964 0 0.0034383253102312074 -0.034805159756255255 0 0.0028286453239388413 -0.034825725212719857 0 0.0028830335092479816 -0.034191604338868455 0 0.0010002151726202489 -0.049519428395508804 0 0.00094514247768801463 -0.049542145470811941 0 0.0010527455542038813 -0.049582828353112347 0 0.0028286453239388413 -0.034825725212719857 0 0.0023888814905239104 -0.034528351138365172 0 0.0028830335092479816 -0.034191604338868455 0 0.0024439168699201094 -0.035156521263605196 0 0.0028286453239388413 -0.034825725212719857 0 0.0023888814905239104 -0.034528351138365172 0 0.0023618994216119452 -0.041129793274545481 0 0.0031631725925106847 -0.042458803473708277 0 0.0042256884186758154 -0.064570817293677432 0 0.0032758114299076403 -0.062984197888318466 0 0.0022398898483771534 -0.064198981084457499 0 0.0031631725925106847 -0.042458803473708277 0 0.0019216579195966978 -0.043844164689706464 0 0.00092670966668408159 -0.049588885794974072 0 0.0010527455542038813 -0.049582828353112347 0 0.0010215005290630239 -0.049662262234973088 0 0.00088884603980048072 -0.049612020621383056 0 0.00092670966668408159 -0.049588885794974072 0 0.0010215005290630239 -0.049662262234973088 0 0.0033351882998496961 -0.04593263443747396 0 0.0022131129098548218 -0.052703300184359488 0 0.0051180259210049034 -0.033623707079407608 0 0.0031631725925106847 -0.042458803473708277 0 0.0057259940038010869 -0.038521173573882087 0 0.0029684654175336262 -0.037797412347749339 0 0.0017721483588837917 -0.038617564367208909 0 0.0033351882998496961 -0.04593263443747396 0 0.0031631725925106847 -0.042458803473708277 0 0.0042256884186758154 -0.064570817293677432 0 0.0044676355989248743 -0.063279587813284646 0 0.0032758114299076403 -0.062984197888318466 0 0.0044676355989248743 -0.063279587813284646 0 0.0032758114299076403 -0.062984197888318466 0 0.0043907907801224539 -0.062127794592963727 0 0.0032758114299076403 -0.062984197888318466 0 0.0016362189376780702 -0.062546391856612302 0 0.0022398898483771534 -0.064198981084457499 0 0.00042014536672829597 -0.060402781393168507 0 0.0017508036515145073 -0.060507963480242566 0 0.0032758114299076403 -0.062984197888318466 0 0.0016362189376780702 -0.062546391856612302 0 0.0029688984096767905 -0.061230728037872412 0 0.0032758114299076403 -0.062984197888318466 0 0.0043907907801224539 -0.062127794592963727 0 0.0029688984096767905 -0.061230728037872412 0 0.00060090333532572819 -0.063121089226245805 0 -0.0016434063772864506 -0.062663894942973128 0 -0.00024528928717770565 -0.060967729214326409 0 0.0016362189376780702 -0.062546391856612302 0 0.00029970294753301315 -0.063845976930557588 0 0.0022398898483771534 -0.064198981084457499 0 0.00042014536672829597 -0.060402781393168507 0 0.00094469981820352361 -0.056656158327230623 0 0.00060090333532572819 -0.063121089226245805 0 -0.00088570621584848426 -0.064529184025700251 0 -0.0016434063772864506 -0.062663894942973128 0 0.001231813601245484 -0.049770118926080437 0 0.0010527455542038813 -0.049582828353112347 0 0.001183523409779506 -0.049521460627566162 0 0.001231813601245484 -0.049770118926080437 0 0.0010527455542038813 -0.049582828353112347 0 0.0010215005290630239 -0.049662262234973088 0 0.00094469981820352361 -0.056656158327230623 0 0.0022131129098548218 -0.052703300184359488 0 0.0010730208775291846 -0.049455632688072453 0 0.0010527455542038813 -0.049582828353112347 0 0.001183523409779506 -0.049521460627566162 0 0.0010730208775291846 -0.049455632688072453 0 0.0010002151726202489 -0.049519428395508804 0 0.0010527455542038813 -0.049582828353112347 0 0.0022954259176984184 -0.039210910694998484 0 0.0023618994216119452 -0.041129793274545481 0 0.0022954259176984184 -0.039210910694998484 0 0.0030829760958353933 -0.04099243850391638 0 0.001183523409779506 -0.049521460627566162 0 0.0014846831212735438 -0.049650006029658682 0 0.0013381192822208008 -0.049339718234015721 0 0.0014846831212735438 -0.049650006029658682 0 0.0016000614894564635 -0.049330389156103736 0 0.0013381192822208008 -0.049339718234015721 0 0.0023917693525941554 -0.054606188923279196 0 0.002597548803501798 -0.051678341889199786 0 2.2141780514373426e-05 -0.051593489444060649 0 0.0004866622269589485 -0.054331244576419122 0 0.0007922366865172495 -0.049450267909655572 0 0.0014846831212735438 -0.049650006029658682 0 0.0020357284554481858 -0.049786735881310946 0 0.0016000614894564635 -0.049330389156103736 0 0.0014846831212735438 -0.049650006029658682 0 0.0016371067437053156 -0.050405354032553043 0 0.0020357284554481858 -0.049786735881310946 0 0.0016371067437053156 -0.050405354032553043 0 0.0020357284554481858 -0.049786735881310946 0 0.0021177581933872099 -0.050248183429839492 0 0.001231813601245484 -0.049770118926080437 0 0.001183523409779506 -0.049521460627566162 0 0.0014846831212735438 -0.049650006029658682 0 0.00094469981820352361 -0.056656158327230623 0 0.0025163295313957476 -0.053585453124402452 0 0.00084100340781294997 -0.050285276444015134 0 0.0014846831212735438 -0.049650006029658682 0 0.0016371067437053156 -0.050405354032553043 0 -0.00088570621584848426 -0.064529184025700251 0 -0.0028345659588808049 -0.064179954506302164 0 -0.0016434063772864506 -0.062663894942973128 0 0.00094469981820352361 -0.056656158327230623 0 -0.00044355554028145 -0.058940060644335393 0 -0.0028345659588808049 -0.064179954506302164 0 -0.0016434063772864506 -0.062663894942973128 0 -0.003731896563405624 -0.062352710216196788 0 -0.0074803820680451865 -0.067267870387685863 0 -0.008936007902070605 -0.066482510876427078 0 -0.0083368330385777973 -0.067850392486558705 0 -0.0074803820680451865 -0.067267870387685863 0 -0.008936007902070605 -0.066482510876427078 0 -0.0075467077109389602 -0.06580899854808403 0 -0.0028764214464799672 -0.063675544338701956 0 -0.00076373740984516281 -0.062263284874092821 0 -0.0074803820680451865 -0.067267870387685863 0 -0.0053631688655381322 -0.066421448335626659 0 -0.0075467077109389602 -0.06580899854808403 0 -0.0074803820680451865 -0.067267870387685863 0 -0.0053631688655381322 -0.066421448335626659 0 -0.0069484496005376454 -0.068552269368119881 0 -0.00044355554028145 -0.058940060644335393 0 -0.00076373740984516281 -0.062263284874092821 0 0.0016371067437053156 -0.050405354032553043 0 0.0023861816441686752 -0.050555974389922653 0 0.0021177581933872099 -0.050248183429839492 0 -0.0028345659588808049 -0.064179954506302164 0 -0.003731896563405624 -0.062352710216196788 0 -0.0047544235963576063 -0.063845008066086048 0 0.0023861816441686752 -0.050555974389922653 0 0.0025015079702483179 -0.05039718209169422 0 0.0021177581933872099 -0.050248183429839492 0 -0.00076373740984516281 -0.062263284874092821 0 6.9536962024464817e-05 -0.061072488638988912 0 -8.8122553972172016e-05 -0.061879931272105615 0 -0.0004090233787087961 -0.061476534816751569 0 -0.00059470289552268358 -0.062609415270324362 0 -0.00029676156128028059 -0.063619284164738346 0 -5.0771407532194818e-05 -0.063260544118342338 0 -0.001025799230433835 -0.074153155848926205 0 -0.0010392601293175913 -0.074073491354611609 0 -0.00099140082224011402 -0.074119178034731878 0 0.0016191561502594289 -0.06286618877942754 0 2.4169925466288292e-05 -0.065175235649970284 0 -0.0023512828541089902 -0.062194353937470831 0 6.9536962024464817e-05 -0.061072488638988912 0 -0.00029676156128028059 -0.063619284164738346 0 -0.0074803820680451865 -0.067267870387685863 0 -0.0069484496005376454 -0.068552269368119881 0 -0.0079472374856577824 -0.068356603593132489 0 -0.0074803820680451865 -0.067267870387685863 0 -0.0079472374856577824 -0.068356603593132489 0 -0.0083368330385777973 -0.067850392486558705 0 -0.00076373740984516281 -0.062263284874092821 0 -0.00029676156128028059 -0.063619284164738346 0 -0.00029676156128028059 -0.063619284164738346 0 -0.00041895650716028865 -0.063630791876339465 0 -0.001025799230433835 -0.074153155848926205 0 -0.00099140082224011402 -0.074119178034731878 0 -0.00096933385732417255 -0.074136554188282355 0 -0.0010392601293175913 -0.074073491354611609 0 -0.00099409430574421863 -0.074097017850627375 0 -0.00099140082224011402 -0.074119178034731878 0 6.9536962024464817e-05 -0.061072488638988912 0 -5.0771407532194818e-05 -0.063260544118342338 0 -0.001057489265316087 -0.074038260867589967 0 -0.0010392601293175913 -0.074073491354611609 0 -0.00099409430574421863 -0.074097017850627375 0 -0.00040018618428006828 -0.063967281727043523 0 -5.0771407532194818e-05 -0.063260544118342338 0 6.9536962024464817e-05 -0.061072488638988912 0 0.0004866622269589485 -0.054331244576419122 0 0.0025015079702483179 -0.05039718209169422 0 0.0020357284554481858 -0.049786735881310946 0 0.0021177581933872099 -0.050248183429839492 0 0.0061148978223924096 -0.055675898785648971 0 0.0023917693525941554 -0.054606188923279196 0 0.0047372182109819815 -0.053428384144136948 0 0.0047711458213337355 -0.057621750568497478 0 0.0061148978223924096 -0.055675898785648971 0 0.0023917693525941554 -0.054606188923279196 0 0.0023917693525941554 -0.054606188923279196 0 0.0047372182109819815 -0.053428384144136948 0 0.002597548803501798 -0.051678341889199786 0 -5.0771407532194818e-05 -0.063260544118342338 0 0.00094603721584302157 -0.062061212489965149 0 0.0061148978223924096 -0.055675898785648971 0 0.0047372182109819815 -0.053428384144136948 0 0.0066211319002563865 -0.051604592073435006 0 -0.001057489265316087 -0.074038260867589967 0 -0.0011095007345620729 -0.074159462037946391 0 -0.0011905972884833302 -0.073647600383457995 0 0.0047372182109819815 -0.053428384144136948 0 0.0066211319002563865 -0.051604592073435006 0 0.0043077176818176474 -0.049837925012533195 0 0.0066211319002563865 -0.051604592073435006 0 0.0043077176818176474 -0.049837925012533195 0 0.0071122591429231951 -0.047541511944721497 0 0.00094603721584302157 -0.062061212489965149 0 0.0010739697359788223 -0.059874355258360504 0 0.0048074914440449758 -0.047418025399103558 0 0.0043077176818176474 -0.049837925012533195 0 0.0071122591429231951 -0.047541511944721497 0 0.0048074914440449758 -0.047418025399103558 0 0.0055247009537015028 -0.045733139358823678 0 0.0071122591429231951 -0.047541511944721497 0 0.0031720365359909184 -0.047617382543339748 0 0.0043077176818176474 -0.049837925012533195 0 0.001530891074376895 -0.048930415542130797 0 0.0031720365359909184 -0.047617382543339748 0 0.001530891074376895 -0.048930415542130797 0 0.0019163522644348317 -0.046891686572203786 0 0.0031720365359909184 -0.047617382543339748 0 0.0038645620954518593 -0.046314812067735196 0 0.0027885532748088558 -0.046389395882083365 0 0.0031720365359909184 -0.047617382543339748 0 0.0019163522644348317 -0.046891686572203786 0 0.0027885532748088558 -0.046389395882083365 0 0.0048074914440449758 -0.047418025399103558 0 0.0031720365359909184 -0.047617382543339748 0 0.0038645620954518593 -0.046314812067735196 0 0.0048074914440449758 -0.047418025399103558 0 0.0031720365359909184 -0.047617382543339748 0 0.0043077176818176474 -0.049837925012533195 0 0.002597548803501798 -0.051678341889199786 0 0.0043077176818176474 -0.049837925012533195 0 0.001530891074376895 -0.048930415542130797 0 0.0047372182109819815 -0.053428384144136948 0 0.002597548803501798 -0.051678341889199786 0 0.0043077176818176474 -0.049837925012533195 0 2.2141780514373426e-05 -0.051593489444060649 0 -0.0023544828322841116 -0.048587353300265833 0 0.001530891074376895 -0.048930415542130797 0 0.002597548803501798 -0.051678341889199786 0 2.2141780514373426e-05 -0.051593489444060649 0 0.001530891074376895 -0.048930415542130797 0 0.0007922366865172495 -0.049450267909655572 0 5.3579154957388836e-05 -0.042800473961955396 0 0.0016000614894564635 -0.049330389156103736 0 0.0013381192822208008 -0.049339718234015721 0 0.0013530674002901861 -0.049035668446380763 0 -0.00035619224911086217 -0.031658916152329908 0 -0.0003321816487943052 -0.031693080248706484 0 -0.00028974589454902974 -0.031491572794100538 0 -0.0003321816487943052 -0.031693080248706484 0 -6.0793398513735763e-05 -0.031512217894100317 0 -0.00028974589454902974 -0.031491572794100538 0 -0.00047645500484387604 -0.031662718980029592 0 -0.00035619224911086217 -0.031658916152329908 0 -0.0003293726267966785 -0.03169444648631857 0 -1.9917896851922001e-05 -0.042662111478760589 0 5.3579154957388836e-05 -0.042800473961955396 0 -0.00039650336703169332 -0.031552643258789231 0 -0.00035619224911086217 -0.031658916152329908 0 -0.00028974589454902974 -0.031491572794100538 0 5.3579154957388836e-05 -0.042800473961955396 0 0.0013636007968204492 -0.039229708018794461 0 -0.0023544828322841116 -0.048587353300265833 0 0.001530891074376895 -0.048930415542130797 0 0.0012751407061203056 -0.046108008996051095 0 0.001530891074376895 -0.048930415542130797 0 0.0019163522644348317 -0.046891686572203786 0 0.0012751407061203056 -0.046108008996051095 0 -6.0793398513735763e-05 -0.031512217894100317 0 -0.00028974589454902974 -0.031491572794100538 0 -0.00025168078695746876 -0.031278443359647121 0 0.0019163522644348317 -0.046891686572203786 0 0.001969116385590637 -0.045635455018461502 0 0.0012812193009488501 -0.046096746834346385 0 0.0013286518732019328 -0.046065479176133232 0 0.0012977412093830131 -0.044260896140752806 0 -0.000954024332436022 -0.04312239261311325 0 0.0013636007968204492 -0.039229708018794461 0 -0.00038076529097750579 -0.037418333149197548 0 0.0015303683952746171 -0.039537016334892872 0 0.0013636007968204492 -0.039229708018794461 0 0.0012888861477378737 -0.039346209885118874 0 0.0013636007968204492 -0.039229708018794461 0 0.001969116385590637 -0.045635455018461502 0 0.0012977412093830131 -0.044260896140752806 0 0.0026263545189364273 -0.044499482457392887 0 0.001969116385590637 -0.045635455018461502 0 0.0013286518732019328 -0.046065479176133232 0 0.0012977412093830131 -0.044260896140752806 0 -0.00028974589454902974 -0.031491572794100538 0 -0.00037870980784621329 -0.031363335496877857 0 -0.00025168078695746876 -0.031278443359647121 0 -0.00041761716802645479 -0.031454763057983573 0 -0.00039650336703169332 -0.031552643258789231 0 -0.00028974589454902974 -0.031491572794100538 0 -0.00041761716802645479 -0.031454763057983573 0 -0.00028974589454902974 -0.031491572794100538 0 -0.00037870980784621329 -0.031363335496877857 0 -0.00043635420295846342 -0.03107918296201264 0 -0.00045222993214330927 -0.031262021835187677 0 -0.00025168078695746876 -0.031278443359647121 0 -0.00045222993214330927 -0.031262021835187677 0 -0.00037870980784621329 -0.031363335496877857 0 -0.00025168078695746876 -0.031278443359647121 0 0.00090691442344733881 -0.041500577143206076 0 -0.002266506115645904 -0.040447330631627226 0 -0.000954024332436022 -0.04312239261311325 0 -0.0016995087329335975 -0.036102307402317457 0 -0.00038076529097750579 -0.037418333149197548 0 0.0012977412093830131 -0.044260896140752806 0 0.00066723080178143388 -0.043001082397900639 0 0.0021740367510415083 -0.043242184766535893 0 0.0012977412093830131 -0.044260896140752806 0 0.0021740367510415083 -0.043242184766535893 0 0.0026263545189364273 -0.044499482457392887 0 0.0012977412093830131 -0.044260896140752806 0 -0.000954024332436022 -0.04312239261311325 0 0.00066723080178143388 -0.043001082397900639 0 0.00090691442344733881 -0.041500577143206076 0 -0.000954024332436022 -0.04312239261311325 0 0.00066723080178143388 -0.043001082397900639 0 0.00090691442344733881 -0.041500577143206076 0 0.00066723080178143388 -0.043001082397900639 0 0.0021740367510415083 -0.043242184766535893 0 0.00090691442344733881 -0.041500577143206076 0 0.0021740367510415083 -0.043242184766535893 0 0.0042134455156917052 -0.042511876189387995 0 -0.00084965448392031054 -0.046619589908564858 0 0.00019713184630173788 -0.050242888629194939 0 0.0021740367510415083 -0.043242184766535893 0 0.0035154549670601766 -0.043718007159262107 0 0.0026263545189364273 -0.044499482457392887 0 0.0021740367510415083 -0.043242184766535893 0 0.0035154549670601766 -0.043718007159262107 0 0.0042134455156917052 -0.042511876189387995 0 0.0043841604308484106 -0.043684172566107439 0 0.0035154549670601766 -0.043718007159262107 0 0.0040364876739469079 -0.044736209183187069 0 0.0043841604308484106 -0.043684172566107439 0 0.0035154549670601766 -0.043718007159262107 0 0.0042134455156917052 -0.042511876189387995 0 0.00019713184630173788 -0.050242888629194939 0 0.00021158187577456972 -0.057252789742215308 0 0.001448822287614369 -0.041228587802588555 0 0.0016772950480888212 -0.041153863404572902 0 0.0018091923144338607 -0.041262727074800838 0 0.0042134455156917052 -0.042511876189387995 0 0.005535063265868348 -0.043892878471452935 0 0.0075857362958573126 -0.04353272371310199 0 0.0016383419003949621 -0.041250329948282288 0 0.0016772950480888212 -0.041153863404572902 0 0.0018091923144338607 -0.041262727074800838 0 0.0014820164487844346 -0.040527685120731363 0 0.001448822287614369 -0.041228587802588555 0 0.0016772950480888212 -0.041153863404572902 0 0.0043841604308484106 -0.043684172566107439 0 0.005535063265868348 -0.043892878471452935 0 0.0040364876739469079 -0.044736209183187069 0 0.0043841604308484106 -0.043684172566107439 0 0.0042134455156917052 -0.042511876189387995 0 0.005535063265868348 -0.043892878471452935 0 0.005535063265868348 -0.043892878471452935 0 0.0055247009537015028 -0.045733139358823678 0 0.0040364876739469079 -0.044736209183187069 0 0.0055247009537015028 -0.045733139358823678 0 0.0075857362958573126 -0.04353272371310199 0 0.0071122591429231951 -0.047541511944721497 0 0.005535063265868348 -0.043892878471452935 0 0.0055247009537015028 -0.045733139358823678 0 0.0075857362958573126 -0.04353272371310199 0 0.0048074914440449758 -0.047418025399103558 0 0.0055247009537015028 -0.045733139358823678 0 0.0038645620954518593 -0.046314812067735196 0 0.0055247009537015028 -0.045733139358823678 0 0.0038645620954518593 -0.046314812067735196 0 0.0040364876739469079 -0.044736209183187069 0 0.0038645620954518593 -0.046314812067735196 0 0.0030134367373264893 -0.045492137419420549 0 0.0040364876739469079 -0.044736209183187069 0 0.0038645620954518593 -0.046314812067735196 0 0.0027885532748088558 -0.046389395882083365 0 0.0030134367373264893 -0.045492137419420549 0 0.0019163522644348317 -0.046891686572203786 0 0.001969116385590637 -0.045635455018461502 0 0.0027885532748088558 -0.046389395882083365 0 0.001969116385590637 -0.045635455018461502 0 0.0027885532748088558 -0.046389395882083365 0 0.0030134367373264893 -0.045492137419420549 0 0.0030134367373264893 -0.045492137419420549 0 0.0026263545189364273 -0.044499482457392887 0 0.0040364876739469079 -0.044736209183187069 0 0.001969116385590637 -0.045635455018461502 0 0.0030134367373264893 -0.045492137419420549 0 0.0026263545189364273 -0.044499482457392887 0 0.0035154549670601766 -0.043718007159262107 0 0.0026263545189364273 -0.044499482457392887 0 0.0040364876739469079 -0.044736209183187069 0 0.0012113264595278754 -0.066945839305859886 0 0.0012230859209122692 -0.071589502778535125 0 -0.00048734940767953703 -0.07232258235707599 0 -0.0010958610098365615 -0.072115921673050948 0 -0.001177465709750785 -0.072904576669563431 0 0.00021158187577456972 -0.057252789742215308 0 0.0010739697359788223 -0.059874355258360504 0 -0.0011186443972256925 -0.059590082485380239 0 -0.00015207274893931839 -0.059881788104542595 0 -0.0013304814247295598 -0.06133570203402483 0 -0.00015207274893931839 -0.059881788104542595 0 0.00060000474907723764 -0.061920185818032242 0 -0.0013304814247295598 -0.06133570203402483 0 0.0012113264595278754 -0.066945839305859886 0 0.00021158187577456972 -0.057252789742215308 0 0.00027617994530151159 -0.054438792749764583 0 0.00021158187577456972 -0.057252789742215308 0 -0.00094961641702681837 -0.073808107925359939 0 -0.00075789671674454011 -0.073829054047072851 0 -0.00081290220048873347 -0.073606818612862945 0 0.00087905607619466995 -0.064100111773888802 0 0.0012113264595278754 -0.066945839305859886 0 -0.00073721135462098024 -0.074527237111763178 0 -0.00043310186339040732 -0.074645275924688725 0 -0.00062278655112973046 -0.074838230875390335 0 -0.00094961641702681837 -0.073808107925359939 0 -0.00081290220048873347 -0.073606818612862945 0 -0.0010018511364761425 -0.073545916010451587 0 5.6163474696138414e-06 -0.073532577836575519 0 0.00042724136967644481 -0.071862626612194724 0 -0.00043310186339040732 -0.074645275924688725 0 -0.00062278655112973046 -0.074838230875390335 0 -0.00021917099772339043 -0.074881391087201432 0 0.00042724136967644481 -0.071862626612194724 0 0.00032461662575584494 -0.072709487994676719 0 -0.00014816123100573657 -0.074239752521174929 0 2.4982364063252817e-05 -0.074308294144001169 0 -7.5611283729888629e-05 -0.074447512801064611 0 0.0012113264595278754 -0.066945839305859886 0 0.00042724136967644481 -0.071862626612194724 0 2.4982364063252817e-05 -0.074308294144001169 0 3.6159180825254425e-05 -0.074507015327063789 0 -7.5611283729888629e-05 -0.074447512801064611 0 0.00042724136967644481 -0.071862626612194724 0 0.00045495065597819643 -0.073730812274212049 0 3.6159180825254425e-05 -0.074507015327063789 0 3.183041505635965e-06 -0.074575741880566038 0 -7.5611283729888629e-05 -0.074447512801064611 0 2.7048182115137169e-05 -0.074957826006261899 0 -6.2411766387057256e-06 -0.074791570357653242 0 -0.00021917099772339043 -0.074881391087201432 0 -6.2411766387057256e-06 -0.074791570357653242 0 -0.00013724235538160623 -0.074745003679455482 0 -0.00021917099772339043 -0.074881391087201432 0 -6.2411766387057256e-06 -0.074791570357653242 0 -4.7684959193540499e-05 -0.074563311138364063 0 -0.00013724235538160623 -0.074745003679455482 0 0.00045495065597819643 -0.073730812274212049 0 0.00042271168033106014 -0.07409641936030413 0 -4.7684959193540499e-05 -0.074563311138364063 0 -0.00014462047907992572 -0.074611241609898626 0 -0.00013724235538160623 -0.074745003679455482 0 -0.00010775252363776185 -0.073615219941838825 0 -0.00045360062216938195 -0.073442160692855182 0 -0.00027687673025766815 -0.072973306047060149 0 3.6159180825254425e-05 -0.074507015327063789 0 3.183041505635965e-06 -0.074575741880566038 0 -4.7684959193540499e-05 -0.074563311138364063 0 0.0009726288012703938 -0.07311402832822235 0 0.0012230859209122692 -0.071589502778535125 0 -0.00010775252363776185 -0.073615219941838825 0 -0.00045360062216938195 -0.073442160692855182 0 -0.00044186548802205381 -0.07385042739160648 0 -0.0007132819652709958 -0.073603411499649052 0 -0.00045360062216938195 -0.073442160692855182 0 -0.00044186548802205381 -0.07385042739160648 0 -0.0007132819652709958 -0.073603411499649052 0 -0.00045360062216938195 -0.073442160692855182 0 -0.0007173123160443888 -0.073149115853333044 0 -0.00048734940767953703 -0.07232258235707599 0 -0.0007173123160443888 -0.073149115853333044 0 -0.00027687673025766815 -0.072973306047060149 0 -0.00045360062216938195 -0.073442160692855182 0 -0.0007173123160443888 -0.073149115853333044 0 -0.00027687673025766815 -0.072973306047060149 0 -0.00048734940767953703 -0.07232258235707599 0 -0.0007173123160443888 -0.073149115853333044 0 -0.001177465709750785 -0.072904576669563431 0 -0.0011905972884833302 -0.073647600383457995 0 -0.0007173123160443888 -0.073149115853333044 0 -0.001177465709750785 -0.072904576669563431 0 -0.0011905972884833302 -0.073647600383457995 0 -0.0007132819652709958 -0.073603411499649052 0 -0.0007173123160443888 -0.073149115853333044 0 -0.001057489265316087 -0.074038260867589967 0 -0.0011905972884833302 -0.073647600383457995 0 -0.0009442722590416189 -0.073859269252651766 0 -0.0011905972884833302 -0.073647600383457995 0 -0.0007132819652709958 -0.073603411499649052 0 -0.0009442722590416189 -0.073859269252651766 0 -0.0007132819652709958 -0.073603411499649052 0 -0.0009442722590416189 -0.073859269252651766 0 -0.00069577541377602607 -0.073869061258523827 0 -0.0009442722590416189 -0.073859269252651766 0 -0.00085257995802728165 -0.074052748388623094 0 -0.00069577541377602607 -0.073869061258523827 0 -0.001057489265316087 -0.074038260867589967 0 -0.0009442722590416189 -0.073859269252651766 0 -0.00085257995802728165 -0.074052748388623094 0 -0.0007132819652709958 -0.073603411499649052 0 -0.00044186548802205381 -0.07385042739160648 0 -0.00069577541377602607 -0.073869061258523827 0 -0.00044186548802205381 -0.07385042739160648 0 -0.00069577541377602607 -0.073869061258523827 0 -0.00047646873383839014 -0.074164821441880913 0 -0.00085257995802728165 -0.074052748388623094 0 -0.00069577541377602607 -0.073869061258523827 0 -0.00047646873383839014 -0.074164821441880913 0 -0.00044186548802205381 -0.07385042739160648 0 -0.00047646873383839014 -0.074164821441880913 0 -0.00027243538348822004 -0.074173716329363773 0 -0.00047646873383839014 -0.074164821441880913 0 -0.0003543764223894981 -0.074325941867870587 0 -0.00048973575072037707 -0.074398978287633713 0 -0.00047646873383839014 -0.074164821441880913 0 -0.0003543764223894981 -0.074325941867870587 0 -0.00027243538348822004 -0.074173716329363773 0 -0.00047646873383839014 -0.074164821441880913 0 -0.00060836183265394739 -0.074272581253155681 0 -0.00048973575072037707 -0.074398978287633713 0 -0.00085257995802728165 -0.074052748388623094 0 -0.00047646873383839014 -0.074164821441880913 0 -0.00060836183265394739 -0.074272581253155681 0 -0.00060836183265394739 -0.074272581253155681 0 -0.00064450975684891918 -0.074454556697470531 0 -0.00048973575072037707 -0.074398978287633713 0 -0.0003543764223894981 -0.074325941867870587 0 -0.00048973575072037707 -0.074398978287633713 0 -0.00032820006035770463 -0.074477540230299302 0 -0.00085257995802728165 -0.074052748388623094 0 -0.00060836183265394739 -0.074272581253155681 0 -0.00064450975684891918 -0.074454556697470531 0 -0.00085257995802728165 -0.074052748388623094 0 -0.00091704046596363306 -0.074119583647352619 0 -0.00093310652746872252 -0.074098618069336722 0 -0.0028544031244588392 -0.072812734857967548 0 -0.0032612104385315948 -0.072025261321493103 0 -0.001057489265316087 -0.074038260867589967 0 -0.00085257995802728165 -0.074052748388623094 0 -0.00093310652746872252 -0.074098618069336722 0 -0.001057489265316087 -0.074038260867589967 0 -0.00093310652746872252 -0.074098618069336722 0 -0.00099409430574421863 -0.074097017850627375 0 -0.00091704046596363306 -0.074119583647352619 0 -0.00094567624320677167 -0.074120938442252954 0 -0.00093310652746872252 -0.074098618069336722 0 -0.00094567624320677167 -0.074120938442252954 0 -0.00093310652746872252 -0.074098618069336722 0 -0.00099409430574421863 -0.074097017850627375 0 -0.00094567624320677167 -0.074120938442252954 0 -0.00099409430574421863 -0.074097017850627375 0 -0.00099140082224011402 -0.074119178034731878 0 -0.00029676156128028059 -0.063619284164738346 0 -0.0048003018329083854 -0.068694173066271541 0 -0.001025799230433835 -0.074153155848926205 0 -0.00096933385732417255 -0.074136554188282355 0 -0.00094937075306676568 -0.07414994624597164 0 -0.001025799230433835 -0.074153155848926205 0 -0.00094937075306676568 -0.07414994624597164 0 -0.00090733300318474855 -0.074169095023712772 0 -0.0079789040781896164 -0.068310674240731215 0 -0.0083368330385777973 -0.067850392486558705 0 -0.011080805070964457 -0.067649776770605616 0 -0.00094567624320677167 -0.074120938442252954 0 -0.00099140082224011402 -0.074119178034731878 0 -0.00096933385732417255 -0.074136554188282355 0 -0.00094937075306676568 -0.07414994624597164 0 -0.0009345307139272096 -0.074136339117020195 0 -0.00090733300318474855 -0.074169095023712772 0 -0.00091704046596363306 -0.074119583647352619 0 -0.00094567624320677167 -0.074120938442252954 0 -0.0009345307139272096 -0.074136339117020195 0 -0.00096933385732417255 -0.074136554188282355 0 -0.00094937075306676568 -0.07414994624597164 0 -0.0009345307139272096 -0.074136339117020195 0 -0.00094567624320677167 -0.074120938442252954 0 -0.00096933385732417255 -0.074136554188282355 0 -0.0009345307139272096 -0.074136339117020195 0 -0.00091704046596363306 -0.074119583647352619 0 -0.0009345307139272096 -0.074136339117020195 0 -0.00090733300318474855 -0.074169095023712772 0 -0.00064450975684891918 -0.074454556697470531 0 -0.00057475245319480394 -0.074501448509123158 0 -0.00056601616030088403 -0.074582531014146733 0 -0.00064450975684891918 -0.074454556697470531 0 -0.00048973575072037707 -0.074398978287633713 0 -0.00057475245319480394 -0.074501448509123158 0 -0.0032612104385315948 -0.072025261321493103 0 -0.0048003018329083854 -0.068694173066271541 0 -0.00048973575072037707 -0.074398978287633713 0 -0.00057475245319480394 -0.074501448509123158 0 -0.000428006018644231 -0.074504778277523928 0 -0.00048973575072037707 -0.074398978287633713 0 -0.000428006018644231 -0.074504778277523928 0 -0.00032820006035770463 -0.074477540230299302 0 -0.000428006018644231 -0.074504778277523928 0 -0.00032015754513812746 -0.074623041407076693 0 -0.00032820006035770463 -0.074477540230299302 0 -0.00057475245319480394 -0.074501448509123158 0 -0.000428006018644231 -0.074504778277523928 0 -0.00032015754513812746 -0.074623041407076693 0 -0.00057475245319480394 -0.074501448509123158 0 -0.00056601616030088403 -0.074582531014146733 0 -0.0004906307516474842 -0.074586889312731872 0 -0.0030462806387942677 -0.071566609174928242 0 -0.0045881049354505495 -0.069944216330303996 0 -0.011080805070964457 -0.067649776770605616 0 -0.010148606464313722 -0.065737308999253619 0 -0.011597731435576582 -0.065298027816840812 0 -0.012014885427835131 -0.062781467598588894 0 -0.01188273971802061 -0.06292040019131441 0 -0.011991483167292739 -0.063003287150690188 0 -0.0048003018329083854 -0.068694173066271541 0 -0.008153236504801863 -0.064790387014176484 0 -0.0048003018329083854 -0.068694173066271541 0 -0.0045881049354505495 -0.069944216330303996 0 -0.012014885427835131 -0.062781467598588894 0 -0.01188273971802061 -0.06292040019131441 0 -0.011901919017967996 -0.062798714736915978 0 -0.008936007902070605 -0.066482510876427078 0 -0.011080805070964457 -0.067649776770605616 0 -0.010148606464313722 -0.065737308999253619 0 -0.008936007902070605 -0.066482510876427078 0 -0.0083368330385777973 -0.067850392486558705 0 -0.011080805070964457 -0.067649776770605616 0 -0.0027495223667037584 -0.071221915708041345 0 -0.0020464386214905125 -0.071901017973211995 0 -0.00015225122854539276 -0.074552005646381328 0 -0.00012161748903717886 -0.074492225397148101 0 -0.0001271674086974277 -0.074494950185213141 0 -0.0039341141092809513 -0.070969528663893208 0 -0.0035417346675516649 -0.07103594933487542 0 -0.0038725773760533723 -0.071363738006996316 0 -0.0020464386214905125 -0.071901017973211995 0 -0.0049573275977799116 -0.070199242516195429 0 -0.0027495223667037584 -0.071221915708041345 0 -0.0045881049354505495 -0.069944216330303996 0 -0.0039341141092809513 -0.070969528663893208 0 -0.0043258134494309503 -0.0709033399448733 0 -0.0038725773760533723 -0.071363738006996316 0 -0.0045881049354505495 -0.069944216330303996 0 -0.0049573275977799116 -0.070199242516195429 0 -0.01188273971802061 -0.06292040019131441 0 -0.011901919017967996 -0.062798714736915978 0 -0.011641887400395136 -0.062995700295191179 0 -0.00015225122854539276 -0.074552005646381328 0 -0.00032015754513812746 -0.074623041407076693 0 -0.00018273816455042182 -0.074505257660083299 0 -0.00032015754513812746 -0.074623041407076693 0 -0.00032820006035770463 -0.074477540230299302 0 -0.00018273816455042182 -0.074505257660083299 0 -0.00032820006035770463 -0.074477540230299302 0 -0.00018273816455042182 -0.074505257660083299 0 -0.0001868787642736355 -0.074405223856088595 0 -0.00018273816455042182 -0.074505257660083299 0 -0.00012161748903717886 -0.074492225397148101 0 -0.00011225480560965268 -0.074442952138825874 0 -0.00015225122854539276 -0.074552005646381328 0 -0.00018273816455042182 -0.074505257660083299 0 -0.00012161748903717886 -0.074492225397148101 0 -0.00012161748903717886 -0.074492225397148101 0 -0.00011225480560965268 -0.074442952138825874 0 -0.00012345276353861663 -0.074471629985254056 0 -0.00011225480560965268 -0.074442952138825874 0 -0.00010400617288357237 -0.074464657278512314 0 -0.00012345276353861663 -0.074471629985254056 0 -0.00011225480560965268 -0.074442952138825874 0 -0.00010400617288357237 -0.074464657278512314 0 -4.769050370344181e-05 -0.07435580554140446 0 -0.0003543764223894981 -0.074325941867870587 0 -0.00032820006035770463 -0.074477540230299302 0 -0.0001868787642736355 -0.074405223856088595 0 -0.00018273816455042182 -0.074505257660083299 0 -0.00011225480560965268 -0.074442952138825874 0 -0.0001868787642736355 -0.074405223856088595 0 -0.00011225480560965268 -0.074442952138825874 0 -0.0001868787642736355 -0.074405223856088595 0 -4.769050370344181e-05 -0.07435580554140446 0 -0.0001868787642736355 -0.074405223856088595 0 -4.769050370344181e-05 -0.07435580554140446 0 -0.00027243538348822004 -0.074173716329363773 0 -0.0003543764223894981 -0.074325941867870587 0 -0.0001868787642736355 -0.074405223856088595 0 -0.00027243538348822004 -0.074173716329363773 0 -0.00010775252363776185 -0.073615219941838825 0 -4.769050370344181e-05 -0.07435580554140446 0 -0.00027243538348822004 -0.074173716329363773 0 3.183041505635965e-06 -0.074575741880566038 0 -4.769050370344181e-05 -0.07435580554140446 0 -4.7684959193540499e-05 -0.074563311138364063 0 0.0009726288012703938 -0.07311402832822235 0 0.0008737907124653088 -0.073508521192581 0 -0.00010775252363776185 -0.073615219941838825 0 -0.00044186548802205381 -0.07385042739160648 0 -0.00027243538348822004 -0.074173716329363773 0 -0.00010400617288357237 -0.074464657278512314 0 -4.7684959193540499e-05 -0.074563311138364063 0 -0.00014462047907992572 -0.074611241609898626 0 -0.00010400617288357237 -0.074464657278512314 0 -4.769050370344181e-05 -0.07435580554140446 0 -4.7684959193540499e-05 -0.074563311138364063 0 -0.00010400617288357237 -0.074464657278512314 0 -0.00014462047907992572 -0.074611241609898626 0 -0.00017203901673465823 -0.074517164144998482 0 -9.9645535446173754e-05 -0.074737025952280323 0 -0.00012421062270575586 -0.074758896173115041 0 -0.00014462047907992572 -0.074611241609898626 0 -0.00020885030789418842 -0.074551541605560975 0 -0.00017203901673465823 -0.074517164144998482 0 -0.00014462047907992572 -0.074611241609898626 0 -0.0001488596529454338 -0.074858042530123708 0 -0.00017241734190341128 -0.074829971115895427 0 -0.00020885030789418842 -0.074551541605560975 0 -0.00017203901673465823 -0.074517164144998482 0 -0.00022451329299652249 -0.074507756159060495 0 -0.00017203901673465823 -0.074517164144998482 0 -0.00016318043570004656 -0.0744716787294641 0 -0.00022451329299652249 -0.074507756159060495 0 -0.00017203901673465823 -0.074517164144998482 0 -0.00012345276353861663 -0.074471629985254056 0 -0.00016318043570004656 -0.0744716787294641 0 -0.00010400617288357237 -0.074464657278512314 0 -0.00017203901673465823 -0.074517164144998482 0 -0.00012345276353861663 -0.074471629985254056 0 -0.00012161748903717886 -0.074492225397148101 0 -0.00012345276353861663 -0.074471629985254056 0 -0.00016318043570004656 -0.0744716787294641 0 -0.00012161748903717886 -0.074492225397148101 0 -0.00016318043570004656 -0.0744716787294641 0 -0.0001271674086974277 -0.074494950185213141 0 -0.0011920253672804883 -0.073418852372575963 0 -0.0020464386214905125 -0.071901017973211995 0 -0.0011920253672804883 -0.073418852372575963 0 -0.00059755901964483969 -0.074232683707051245 0 4.1994075082142905e-06 -0.074985453876800612 0 2.5431290089292922e-06 -0.074976853154450115 0 4.9635361714056975e-06 -0.074972565017820417 0 4.1994075082142905e-06 -0.074985453876800612 0 2.5431290089292922e-06 -0.074976853154450115 0 1.0301814389230574e-06 -0.074991791370360814 0 -0.0008783013467268991 -0.072551944576337152 0 -0.0020464386214905125 -0.071901017973211995 0 2.5431290089292922e-06 -0.074976853154450115 0 -1.8619998711645738e-05 -0.074951982366577227 0 -1.0974244093425628e-05 -0.074967823193490782 0 -3.2202334221786564e-08 -0.07500003052196387 0 1.0301814389230574e-06 -0.074991791370360814 0 5.6367045822078996e-06 -0.07498934362353997 0 -3.2202334221786564e-08 -0.07500003052196387 0 1.0301814389230574e-06 -0.074991791370360814 0 8.5219594103701156e-09 -0.074999978398744505 0 2.5431290089292922e-06 -0.074976853154450115 0 1.0301814389230574e-06 -0.074991791370360814 0 5.6367045822078996e-06 -0.07498934362353997 0 4.1994075082142905e-06 -0.074985453876800612 0 1.0301814389230574e-06 -0.074991791370360814 0 1.8345884401930801e-06 -0.074995627714429594 0 1.0301814389230574e-06 -0.074991791370360814 0 8.5219594103701156e-09 -0.074999978398744505 0 1.098308362204603e-07 -0.074998111108241353 0 8.5219594103701156e-09 -0.074999978398744505 0 1.098308362204603e-07 -0.074998111108241353 0 -5.1624929457815684e-09 -0.075000007228483517 0 1.0301814389230574e-06 -0.074991791370360814 0 1.098308362204603e-07 -0.074998111108241353 0 1.8345884401930801e-06 -0.074995627714429594 0 1.098308362204603e-07 -0.074998111108241353 0 1.8345884401930801e-06 -0.074995627714429594 0 1.9914229998693899e-07 -0.074999590231945024 0 -0.00059755901964483969 -0.074232683707051245 0 -0.00016568648700974342 -0.074809043721024385 0 -0.00012421062270575586 -0.074758896173115041 0 -0.00016568648700974342 -0.074809043721024385 0 -0.0001488596529454338 -0.074858042530123708 0 -5.4078286034083618e-05 -0.074977739567014007 0 -6.0573678606482291e-05 -0.074949787906025578 0 -0.00020885030789418842 -0.074551541605560975 0 -0.00022451329299652249 -0.074507756159060495 0 -0.00026374147685018256 -0.074546817975124358 0 -3.2882942327666922e-07 -0.074999172666115041 0 -0.00016568648700974342 -0.074809043721024385 0 1.098308362204603e-07 -0.074998111108241353 0 -5.1624929457815684e-09 -0.075000007228483517 0 1.9914229998693899e-07 -0.074999590231945024 0 -5.4078286034083618e-05 -0.074977739567014007 0 -4.6978373133254557e-08 -0.07499987960871507 0 -6.0573678606482291e-05 -0.074949787906025578 0 -3.4695490493921288e-10 -0.074999999508875911 0 -3.1736452688787776e-07 -0.074999685798899637 0 9.3142618156995546e-11 -0.074999999899821063 0 -0.00016568648700974342 -0.074809043721024385 0 -5.2823564519719647e-07 -0.074999422403429647 0 -6.0573678606482291e-05 -0.074949787906025578 0 -7.3876585372842632e-08 -0.075000010646572163 0 -9.1828497391456096e-05 -0.074913332112023723 0 -4.6978373133254557e-08 -0.07499987960871507 0 -6.0573678606482291e-05 -0.074949787906025578 0 -7.3876585372842632e-08 -0.075000010646572163 0 -7.3876585372842632e-08 -0.075000010646572163 0 -5.0005385021962256e-05 -0.074917428536218827 0 -9.1828497391456096e-05 -0.074913332112023723 0 -7.3876585372842632e-08 -0.075000010646572163 0 -5.0005385021962256e-05 -0.074917428536218827 0 1.9712600907480362e-07 -0.074999576870587045 0 -5.0005385021962256e-05 -0.074917428536218827 0 -9.1828497391456096e-05 -0.074913332112023723 0 -0.0001299694404450938 -0.074880420720698518 0 -5.0005385021962256e-05 -0.074917428536218827 0 -0.0001299694404450938 -0.074880420720698518 0 -0.00011546082256215943 -0.074830152678227416 0 -0.0001488596529454338 -0.074858042530123708 0 -6.0573678606482291e-05 -0.074949787906025578 0 -9.1828497391456096e-05 -0.074913332112023723 0 -0.0001488596529454338 -0.074858042530123708 0 -9.1828497391456096e-05 -0.074913332112023723 0 -0.00017241734190341128 -0.074829971115895427 0 -0.00014462047907992572 -0.074611241609898626 0 -0.00017241734190341128 -0.074829971115895427 0 -0.00013724235538160623 -0.074745003679455482 0 -0.00017241734190341128 -0.074829971115895427 0 -0.00013724235538160623 -0.074745003679455482 0 -0.00021917099772339043 -0.074881391087201432 0 -0.00017241734190341128 -0.074829971115895427 0 -0.00021917099772339043 -0.074881391087201432 0 -0.0001299694404450938 -0.074880420720698518 0 -9.1828497391456096e-05 -0.074913332112023723 0 -0.00017241734190341128 -0.074829971115895427 0 -0.0001299694404450938 -0.074880420720698518 0 -0.00011546082256215943 -0.074830152678227416 0 -0.00022915073267265517 -0.074740551293912286 0 -0.00013871051180317352 -0.074704223243794513 0 -0.00021917099772339043 -0.074881391087201432 0 -0.00011546082256215943 -0.074830152678227416 0 -0.00022915073267265517 -0.074740551293912286 0 -0.00021917099772339043 -0.074881391087201432 0 -0.0001299694404450938 -0.074880420720698518 0 -0.00011546082256215943 -0.074830152678227416 0 -0.00043310186339040732 -0.074645275924688725 0 -0.00021917099772339043 -0.074881391087201432 0 -0.00022915073267265517 -0.074740551293912286 0 -0.00043310186339040732 -0.074645275924688725 0 -0.00022915073267265517 -0.074740551293912286 0 -0.00021215219710774913 -0.074601125460482628 0 -8.0542221683536452e-05 -0.074592420159402137 0 -0.00021215219710774913 -0.074601125460482628 0 -0.00013871051180317352 -0.074704223243794513 0 -0.00022915073267265517 -0.074740551293912286 0 -0.00021215219710774913 -0.074601125460482628 0 -0.00013871051180317352 -0.074704223243794513 0 -5.0596650608440882e-05 -0.074734931508964222 0 6.9414668127929294e-05 -0.074677890808858741 0 -2.6961882522061321e-05 -0.074858374777043088 0 -8.0542221683536452e-05 -0.074592420159402137 0 -0.00013871051180317352 -0.074704223243794513 0 -5.0596650608440882e-05 -0.074734931508964222 0 -7.8123669790124917e-06 -0.074594515527509037 0 -8.0542221683536452e-05 -0.074592420159402137 0 -5.0596650608440882e-05 -0.074734931508964222 0 -0.00011546082256215943 -0.074830152678227416 0 -0.00013871051180317352 -0.074704223243794513 0 -5.0596650608440882e-05 -0.074734931508964222 0 -7.8123669790124917e-06 -0.074594515527509037 0 -5.0596650608440882e-05 -0.074734931508964222 0 6.9414668127929294e-05 -0.074677890808858741 0 6.9414668127929294e-05 -0.074677890808858741 0 1.9712600907480362e-07 -0.074999576870587045 0 -2.6961882522061321e-05 -0.074858374777043088 0 3.9601538662909059e-09 -0.075000050806250801 0 3.6347553694478667e-06 -0.075002793394915959 0 -2.7478705838947777e-10 -0.074999974007022671 0 -1.2772979473428444e-05 -0.074839739452338822 0 2.8111795807240906e-08 -0.074999766325663603 0 -5.0005385021962256e-05 -0.074917428536218827 0 1.9712600907480362e-07 -0.074999576870587045 0 -2.6961882522061321e-05 -0.074858374777043088 0 -5.0005385021962256e-05 -0.074917428536218827 0 -0.00011546082256215943 -0.074830152678227416 0 -2.6961882522061321e-05 -0.074858374777043088 0 -0.00011546082256215943 -0.074830152678227416 0 -5.0596650608440882e-05 -0.074734931508964222 0 -2.6961882522061321e-05 -0.074858374777043088 0 -9.3729622363762661e-06 -0.074983055873284202 0 -1.3395693864714184e-05 -0.074977199611638831 0 -1.3820353411873801e-05 -0.074973174473833212 0 -9.3729622363762661e-06 -0.074983055873284202 0 -1.3395693864714184e-05 -0.074977199611638831 0 -7.7987565636132568e-06 -0.074988028610222898 0 -1.3395693864714184e-05 -0.074977199611638831 0 -1.3820353411873801e-05 -0.074973174473833212 0 -1.9304789625979789e-05 -0.074966334151419109 0 -1.3395693864714184e-05 -0.074977199611638831 0 -1.9304789625979789e-05 -0.074966334151419109 0 -1.5092340298246701e-05 -0.074977657268264858 0 -1.3395693864714184e-05 -0.074977199611638831 0 -7.7987565636132568e-06 -0.074988028610222898 0 -1.5092340298246701e-05 -0.074977657268264858 0 -9.3729622363762661e-06 -0.074983055873284202 0 -7.7987565636132568e-06 -0.074988028610222898 0 -8.7112649989477447e-09 -0.0749999741767651 0 -7.7987565636132568e-06 -0.074988028610222898 0 -8.7112649989477447e-09 -0.0749999741767651 0 -8.9741487267652163e-09 -0.074999974563610752 0 -9.3729622363762661e-06 -0.074983055873284202 0 -8.7112649989477447e-09 -0.0749999741767651 0 -1.0739291596168684e-05 -0.074976838552690231 0 -8.7112649989477447e-09 -0.0749999741767651 0 -1.0739291596168684e-05 -0.074976838552690231 0 -5.5634233513905428e-06 -0.07498476897322659 0 -9.3729622363762661e-06 -0.074983055873284202 0 -1.0739291596168684e-05 -0.074976838552690231 0 -1.3820353411873801e-05 -0.074973174473833212 0 -1.0739291596168684e-05 -0.074976838552690231 0 -1.3820353411873801e-05 -0.074973174473833212 0 -1.5324705287191843e-05 -0.074963376330368744 0 -1.0739291596168684e-05 -0.074976838552690231 0 -1.5324705287191843e-05 -0.074963376330368744 0 -1.3058399884717485e-05 -0.074964123572310984 0 -1.5324705287191843e-05 -0.074963376330368744 0 -1.565565980690258e-05 -0.074953544679338707 0 -1.3008332182246411e-05 -0.07494703290292222 0 -1.5324705287191843e-05 -0.074963376330368744 0 -1.565565980690258e-05 -0.074953544679338707 0 -1.9304789625979789e-05 -0.074966334151419109 0 -1.3820353411873801e-05 -0.074973174473833212 0 -1.5324705287191843e-05 -0.074963376330368744 0 -1.9304789625979789e-05 -0.074966334151419109 0 -1.565565980690258e-05 -0.074953544679338707 0 -6.3117905325729503e-06 -0.074944611015050941 0 -6.1055853160576323e-06 -0.074931221638367823 0 -1.565565980690258e-05 -0.074953544679338707 0 -6.1055853160576323e-06 -0.074931221638367823 0 -1.3008332182246411e-05 -0.07494703290292222 0 -0.0049366395314755758 -0.069656335043851741 0 -0.0059523194107346756 -0.066554155098613621 0 -1.565565980690258e-05 -0.074953544679338707 0 -2.2148746342622438e-05 -0.074960606614047381 0 -6.3117905325729503e-06 -0.074944611015050941 0 -0.0087100215105507146 -0.065303301826460644 0 -0.0082598875264896631 -0.065081339737925167 0 -0.0083688830693082472 -0.064559636028046125 0 -0.0091248003580724369 -0.064968297591356319 0 -0.0087100215105507146 -0.065303301826460644 0 -0.0083688830693082472 -0.064559636028046125 0 -0.0049366395314755758 -0.069656335043851741 0 -0.0080688647478699208 -0.067507720340670596 0 -0.0043319319035362508 -0.070185954510647644 0 -0.0049366395314755758 -0.069656335043851741 0 -1.565565980690258e-05 -0.074953544679338707 0 -1.9304789625979789e-05 -0.074966334151419109 0 -2.2148746342622438e-05 -0.074960606614047381 0 -1.9304789625979789e-05 -0.074966334151419109 0 -2.3924650829083572e-05 -0.074962994500466548 0 -1.5092340298246701e-05 -0.074977657268264858 0 -0.0092325062250681791 -0.079943836505622548 0 -0.0068214037817486174 -0.077218760620330965 0 -0.0043003670064527683 -0.077381633887086354 0 -0.0049366395314755758 -0.069656335043851741 0 -0.0033077202430650712 -0.072667996388617317 0 -0.0083711643294689629 -0.076622271638488934 0 -0.011416689967920612 -0.075020255775792077 0 -0.0053814226537624099 -0.074930208915855265 0 -0.011416689967920612 -0.075020255775792077 0 -0.0084085738663197043 -0.070967512020180867 0 -0.0060343666911129665 -0.07500768388584568 0 -0.0066934224833792725 -0.074767761925501788 0 -0.0047383059482677776 -0.0747094231226864 0 -0.0068214037817486174 -0.077218760620330965 0 -0.0083711643294689629 -0.076622271638488934 0 -0.0053814226537624099 -0.074930208915855265 0 -0.0092325062250681791 -0.079943836505622548 0 -0.0068214037817486174 -0.077218760620330965 0 -0.0083711643294689629 -0.076622271638488934 0 -0.0092325062250681791 -0.079943836505622548 0 -0.0083711643294689629 -0.076622271638488934 0 -0.013122173725243642 -0.076827591375174822 0 -0.013122173725243642 -0.076827591375174822 0 -0.011416689967920612 -0.075020255775792077 0 -0.017085798447772058 -0.073623112553391171 0 -0.0083711643294689629 -0.076622271638488934 0 -0.013122173725243642 -0.076827591375174822 0 -0.011416689967920612 -0.075020255775792077 0 -0.0080688647478699208 -0.067507720340670596 0 -0.010638611477061209 -0.064647734443273028 0 -0.011416689967920612 -0.075020255775792077 0 -0.010873820151235593 -0.065981265416942339 0 -0.017085798447772058 -0.073623112553391171 0 -0.011676358170019732 -0.066181111523570119 0 -0.010638611477061209 -0.064647734443273028 0 -0.010873820151235593 -0.065981265416942339 0 -0.011444019460032914 -0.065095485171919223 0 -0.011556057775233011 -0.065077581742406312 0 -0.011416689967920612 -0.075020255775792077 0 -0.0084085738663197043 -0.070967512020180867 0 -0.010873820151235593 -0.065981265416942339 0 -0.0084085738663197043 -0.070967512020180867 0 -0.0058761184557224099 -0.071380561893020111 0 -0.0060343666911129665 -0.07500768388584568 0 -0.0084085738663197043 -0.070967512020180867 0 -0.0076390309506102873 -0.067642067927521199 0 -0.010873820151235593 -0.065981265416942339 0 -0.0084085738663197043 -0.070967512020180867 0 -0.0058761184557224099 -0.071380561893020111 0 -0.0076390309506102873 -0.067642067927521199 0 -0.0058761184557224099 -0.071380561893020111 0 -0.0039161836792590268 -0.067632263348542304 0 -0.0076390309506102873 -0.067642067927521199 0 -0.0032574490977250754 -0.0728182850484516 0 -0.0058761184557224099 -0.071380561893020111 0 -0.0039161836792590268 -0.067632263348542304 0 -0.0032574490977250754 -0.0728182850484516 0 -0.0058761184557224099 -0.071380561893020111 0 -0.0060343666911129665 -0.07500768388584568 0 -0.0047383059482677776 -0.0747094231226864 0 -0.0014838765009691436 -0.07454684764614164 0 -0.0053814226537624099 -0.074930208915855265 0 -0.0043003670064527683 -0.077381633887086354 0 0.00059991990324023226 -0.074844227170674321 0 -0.0032574490977250754 -0.0728182850484516 0 -0.0060343666911129665 -0.07500768388584568 0 -0.0012873861180217041 -0.075474903940533133 0 -7.7987565636132568e-06 -0.074988028610222898 0 -1.5092340298246701e-05 -0.074977657268264858 0 -6.5799244222622992e-06 -0.074990670431009029 0 -0.0033077202430650712 -0.072667996388617317 0 -0.0014838765009691436 -0.07454684764614164 0 -0.0068214037817486174 -0.077218760620330965 0 -0.0053814226537624099 -0.074930208915855265 0 -0.0043003670064527683 -0.077381633887086354 0 -7.7987565636132568e-06 -0.074988028610222898 0 -6.5799244222622992e-06 -0.074990670431009029 0 -8.9741487267652163e-09 -0.074999974563610752 0 -0.0014838765009691436 -0.07454684764614164 0 -3.7128700370242714e-06 -0.074997272696500472 0 -4.9989565943845417e-06 -0.074998804273751843 0 -3.6152489774449436e-09 -0.075000002146691266 0 1.9777206806260022e-09 -0.074999996704532515 0 -0.0014838765009691436 -0.07454684764614164 0 -3.044983415381849e-06 -0.074998001968753975 0 -0.0012873861180217041 -0.075474903940533133 0 -0.00011426515940016157 -0.07462510856853391 0 1.0270381868399669e-06 -0.074996586962937095 0 -0.00011426515940016157 -0.07462510856853391 0 1.0270381868399669e-06 -0.074996586962937095 0 -4.498970820924659e-07 -0.075000617712845663 0 -0.0032574490977250754 -0.0728182850484516 0 -0.00011426515940016157 -0.07462510856853391 0 -0.0039161836792590268 -0.067632263348542304 0 -0.0017360966325426308 -0.072341680619601709 0 -0.0026043843894556795 -0.07142437681028331 0 -0.0032574490977250754 -0.0728182850484516 0 -0.0012873861180217041 -0.075474903940533133 0 -0.00011426515940016157 -0.07462510856853391 0 -0.00011426515940016157 -0.07462510856853391 0 -4.498970820924659e-07 -0.075000617712845663 0 7.3175314534068418e-05 -0.074920100404561471 0 -4.498970820924659e-07 -0.075000617712845663 0 7.3175314534068418e-05 -0.074920100404561471 0 2.508816058496494e-05 -0.074985464495661958 0 -0.0026043843894556795 -0.07142437681028331 0 -0.0040448282287453936 -0.070169420278013872 0 7.3175314534068418e-05 -0.074920100404561471 0 2.508816058496494e-05 -0.074985464495661958 0 2.5385163483567573e-05 -0.074975311426018487 0 -4.498970820924659e-07 -0.075000617712845663 0 2.508816058496494e-05 -0.074985464495661958 0 1.3609434997565376e-07 -0.074999820760369096 0 1.3609434997565376e-07 -0.074999820760369096 0 1.3085230722276861e-05 -0.074986931225925035 0 5.6367045822078996e-06 -0.07498934362353997 0 2.508816058496494e-05 -0.074985464495661958 0 1.3609434997565376e-07 -0.074999820760369096 0 1.3085230722276861e-05 -0.074986931225925035 0 2.508816058496494e-05 -0.074985464495661958 0 1.3085230722276861e-05 -0.074986931225925035 0 1.1973004922918058e-05 -0.074980341298748393 0 2.5431290089292922e-06 -0.074976853154450115 0 5.6367045822078996e-06 -0.07498934362353997 0 4.0141985557335877e-06 -0.074976847987721765 0 1.3085230722276861e-05 -0.074986931225925035 0 5.6367045822078996e-06 -0.07498934362353997 0 4.0141985557335877e-06 -0.074976847987721765 0 -3.2202334221786564e-08 -0.07500003052196387 0 1.3609434997565376e-07 -0.074999820760369096 0 5.6367045822078996e-06 -0.07498934362353997 0 -1.0974244093425628e-05 -0.074967823193490782 0 -1.3626426799432625e-05 -0.074977736301645961 0 -4.1476424685587967e-05 -0.074960734851900912 0 -1.0974244093425628e-05 -0.074967823193490782 0 4.0141985557335877e-06 -0.074976847987721765 0 -1.3626426799432625e-05 -0.074977736301645961 0 -1.8619998711645738e-05 -0.074951982366577227 0 -1.0974244093425628e-05 -0.074967823193490782 0 -4.1476424685587967e-05 -0.074960734851900912 0 2.5431290089292922e-06 -0.074976853154450115 0 -1.0974244093425628e-05 -0.074967823193490782 0 4.0141985557335877e-06 -0.074976847987721765 0 1.3085230722276861e-05 -0.074986931225925035 0 4.0141985557335877e-06 -0.074976847987721765 0 1.1973004922918058e-05 -0.074980341298748393 0 4.0141985557335877e-06 -0.074976847987721765 0 1.1973004922918058e-05 -0.074980341298748393 0 -1.3626426799432625e-05 -0.074977736301645961 0 1.1973004922918058e-05 -0.074980341298748393 0 -1.3626426799432625e-05 -0.074977736301645961 0 2.5385163483567573e-05 -0.074975311426018487 0 -0.011101122100083365 -0.062917563924203432 0 -0.011013545069601444 -0.064027552659143533 0 -0.011447260008959369 -0.063541614651932588 0 -0.011101122100083365 -0.062917563924203432 0 -0.011013545069601444 -0.064027552659143533 0 -0.0089203100194336707 -0.063592888157744734 0 -0.0049927226044781687 -0.069634691068279561 0 -0.0040448282287453936 -0.070169420278013872 0 2.508816058496494e-05 -0.074985464495661958 0 1.1973004922918058e-05 -0.074980341298748393 0 2.5385163483567573e-05 -0.074975311426018487 0 -0.0039161836792590268 -0.067632263348542304 0 -0.0089203100194336707 -0.063592888157744734 0 -0.0076390309506102873 -0.067642067927521199 0 -0.0089203100194336707 -0.063592888157744734 0 -0.0076390309506102873 -0.067642067927521199 0 -0.010873820151235593 -0.065981265416942339 0 -0.011013545069601444 -0.064027552659143533 0 -0.010873820151235593 -0.065981265416942339 0 -0.011444019460032914 -0.065095485171919223 0 -0.011013545069601444 -0.064027552659143533 0 -0.0089203100194336707 -0.063592888157744734 0 -0.010873820151235593 -0.065981265416942339 0 -0.011732958020713308 -0.064292710898327776 0 -0.01171619568658488 -0.063779695939526371 0 -0.011444019460032914 -0.065095485171919223 0 -0.011013545069601444 -0.064027552659143533 0 -0.01171619568658488 -0.063779695939526371 0 -0.011444019460032914 -0.065095485171919223 0 -0.011732958020713308 -0.064292710898327776 0 -0.011948099891033117 -0.063562793394429482 0 -0.01171619568658488 -0.063779695939526371 0 -0.011948099891033117 -0.063562793394429482 0 -0.012038219466587136 -0.062498760664160206 0 -0.01189742000467809 -0.064621359581920057 0 -0.012197096474188254 -0.063197322413544824 0 -0.012140923035210227 -0.063324289738488637 0 -0.011732958020713308 -0.064292710898327776 0 -0.011948099891033117 -0.063562793394429482 0 -0.01189742000467809 -0.064621359581920057 0 -0.011948099891033117 -0.063562793394429482 0 -0.011999025242259031 -0.063362908560691877 0 -0.01171619568658488 -0.063779695939526371 0 -0.011948099891033117 -0.063562793394429482 0 -0.011999025242259031 -0.063362908560691877 0 -0.012038219466587136 -0.062498760664160206 0 -0.011999025242259031 -0.063362908560691877 0 -0.011784430353559175 -0.063346107784016004 0 -0.011903593497728624 -0.06347127817552152 0 -0.011999025242259031 -0.063362908560691877 0 -0.011903593497728624 -0.06347127817552152 0 -0.012038219466587136 -0.062498760664160206 0 -0.011013545069601444 -0.064027552659143533 0 -0.01171619568658488 -0.063779695939526371 0 -0.011447260008959369 -0.063541614651932588 0 -0.011999025242259031 -0.063362908560691877 0 -0.01171619568658488 -0.063779695939526371 0 -0.011784430353559175 -0.063346107784016004 0 -0.01171619568658488 -0.063779695939526371 0 -0.011447260008959369 -0.063541614651932588 0 -0.011784430353559175 -0.063346107784016004 0 -0.0049927226044781687 -0.069634691068279561 0 -0.0049573275977799116 -0.070199242516195429 0 -0.011101122100083365 -0.062917563924203432 0 -0.011626340904633424 -0.063073816344490052 0 -0.011647506864062285 -0.06294395620469756 0 -0.011101122100083365 -0.062917563924203432 0 -0.011447260008959369 -0.063541614651932588 0 -0.011784430353559175 -0.063346107784016004 0 -0.011101122100083365 -0.062917563924203432 0 -0.011626340904633424 -0.063073816344490052 0 -0.011784430353559175 -0.063346107784016004 0 -0.011626340904633424 -0.063073816344490052 0 -0.011784430353559175 -0.063346107784016004 0 -0.011791467952945044 -0.063217643291029038 0 -0.011626340904633424 -0.063073816344490052 0 -0.011791467952945044 -0.063217643291029038 0 -0.011685159372869703 -0.063022812099609735 0 -0.011784430353559175 -0.063346107784016004 0 -0.011903593497728624 -0.06347127817552152 0 -0.011791467952945044 -0.063217643291029038 0 -0.011903593497728624 -0.06347127817552152 0 -0.011791467952945044 -0.063217643291029038 0 -0.011831113954679916 -0.063039117364092637 0 -0.01188273971802061 -0.06292040019131441 0 -0.011831113954679916 -0.063039117364092637 0 -0.011641887400395136 -0.062995700295191179 0 -0.011831113954679916 -0.063039117364092637 0 -0.011641887400395136 -0.062995700295191179 0 -0.011685159372869703 -0.063022812099609735 0 -0.011903593497728624 -0.06347127817552152 0 -0.011831113954679916 -0.063039117364092637 0 -0.011991483167292739 -0.063003287150690188 0 -0.011791467952945044 -0.063217643291029038 0 -0.011831113954679916 -0.063039117364092637 0 -0.011685159372869703 -0.063022812099609735 0 -0.01188273971802061 -0.06292040019131441 0 -0.011831113954679916 -0.063039117364092637 0 -0.011991483167292739 -0.063003287150690188 0 -0.011626340904633424 -0.063073816344490052 0 -0.011647506864062285 -0.06294395620469756 0 -0.011685159372869703 -0.063022812099609735 0 -0.0049573275977799116 -0.070199242516195429 0 -0.005024361703755976 -0.070106561849222496 0 -0.008936007902070605 -0.066482510876427078 0 -0.010148606464313722 -0.065737308999253619 0 -0.0089295754218251186 -0.064651239857239945 0 -0.010425107864061062 -0.064598581473009939 0 -0.010148606464313722 -0.065737308999253619 0 -0.0089295754218251186 -0.064651239857239945 0 -0.010425107864061062 -0.064598581473009939 0 -0.010148606464313722 -0.065737308999253619 0 -0.011597731435576582 -0.065298027816840812 0 -0.0090445955233048204 -0.063907324805048238 0 -0.008153236504801863 -0.064790387014176484 0 -0.011903593497728624 -0.06347127817552152 0 -0.010425107864061062 -0.064598581473009939 0 -0.0098786104352886154 -0.063315081410006649 0 -0.011903593497728624 -0.06347127817552152 0 -0.010425107864061062 -0.064598581473009939 0 -0.011597731435576582 -0.065298027816840812 0 -0.010425107864061062 -0.064598581473009939 0 -0.0098786104352886154 -0.063315081410006649 0 -0.0089295754218251186 -0.064651239857239945 0 -0.0098786104352886154 -0.063315081410006649 0 -0.010487590823330556 -0.062656517707578241 0 -0.0082045628202164836 -0.062134738879644699 0 -0.011903593497728624 -0.06347127817552152 0 -0.0098786104352886154 -0.063315081410006649 0 -0.010487590823330556 -0.062656517707578241 0 -0.011903593497728624 -0.06347127817552152 0 -0.010487590823330556 -0.062656517707578241 0 -0.012038219466587136 -0.062498760664160206 0 -0.010487590823330556 -0.062656517707578241 0 -0.012038219466587136 -0.062498760664160206 0 -0.0099374109288746879 -0.060800320755268207 0 -0.010487590823330556 -0.062656517707578241 0 -0.0099374109288746879 -0.060800320755268207 0 -0.0082045628202164836 -0.062134738879644699 0 -0.0099374109288746879 -0.060800320755268207 0 -0.010091756319859986 -0.057194707853879069 0 -0.011632625040171688 -0.059363893011601637 0 -0.0099374109288746879 -0.060800320755268207 0 -0.010091756319859986 -0.057194707853879069 0 -0.0083698854111687263 -0.058762652323459987 0 -0.010091756319859986 -0.057194707853879069 0 -0.012524537670294019 -0.057422722389436923 0 -0.011275248375233943 -0.054745789425885899 0 -0.010091756319859986 -0.057194707853879069 0 -0.012524537670294019 -0.057422722389436923 0 -0.011632625040171688 -0.059363893011601637 0 -0.012038219466587136 -0.062498760664160206 0 -0.011632625040171688 -0.059363893011601637 0 -0.01313326915265553 -0.059606374900282415 0 -0.012038219466587136 -0.062498760664160206 0 -0.0099374109288746879 -0.060800320755268207 0 -0.011632625040171688 -0.059363893011601637 0 -0.012524537670294019 -0.057422722389436923 0 -0.011632625040171688 -0.059363893011601637 0 -0.01313326915265553 -0.059606374900282415 0 -0.012038219466587136 -0.062498760664160206 0 -0.014726559919165617 -0.060306232787231823 0 -0.01313326915265553 -0.059606374900282415 0 -0.014726559919165617 -0.060306232787231823 0 -0.014670056948515618 -0.058801215426639318 0 -0.01313326915265553 -0.059606374900282415 0 -0.011732958020713308 -0.064292710898327776 0 -0.01189742000467809 -0.064621359581920057 0 -0.011444019460032914 -0.065095485171919223 0 -0.01189742000467809 -0.064621359581920057 0 -0.011444019460032914 -0.065095485171919223 0 -0.011556057775233011 -0.065077581742406312 0 -0.012140923035210227 -0.063324289738488637 0 -0.010638611477061209 -0.064647734443273028 0 -0.014726559919165617 -0.060306232787231823 0 -0.014670056948515618 -0.058801215426639318 0 -0.016900109640773681 -0.058420900801393547 0 -0.0087100215105507146 -0.065303301826460644 0 -0.0082941531613070461 -0.065641617731242732 0 -0.0082598875264896631 -0.065081339737925167 0 -0.0082941531613070461 -0.065641617731242732 0 -0.0076641867632080748 -0.064819695746532582 0 -0.0082598875264896631 -0.065081339737925167 0 -0.010638611477061209 -0.064647734443273028 0 -0.010588767485309585 -0.059402674655476398 0 -0.014670056948515618 -0.058801215426639318 0 -0.016900109640773681 -0.058420900801393547 0 -0.014309969712530313 -0.055097370594091449 0 -0.01143847176984604 -0.05841013723944008 0 -0.010588767485309585 -0.059402674655476398 0 -0.012524537670294019 -0.057422722389436923 0 -0.014670056948515618 -0.058801215426639318 0 -0.014188228803242131 -0.055040482868456968 0 -0.012524537670294019 -0.057422722389436923 0 -0.014670056948515618 -0.058801215426639318 0 -0.01313326915265553 -0.059606374900282415 0 -0.0076641867632080748 -0.064819695746532582 0 -0.0082598875264896631 -0.065081339737925167 0 -0.0083688830693082472 -0.064559636028046125 0 -0.0059523194107346756 -0.066554155098613621 0 -0.008103434202622422 -0.061885161831185434 0 -0.0076641867632080748 -0.064819695746532582 0 -0.0083688830693082472 -0.064559636028046125 0 -0.0075999586766921081 -0.064150101826216888 0 -6.3117905325729503e-06 -0.074944611015050941 0 3.1038588006228909e-05 -0.074913687920479782 0 -6.1055853160576323e-06 -0.074931221638367823 0 -0.014003522122385753 -0.055127973781227829 0 -0.013773339356508683 -0.052562870197451102 0 -0.011946186851441134 -0.052427651306514639 0 -0.010588767485309585 -0.059402674655476398 0 -0.010213268703513034 -0.056993194408377294 0 -0.010588767485309585 -0.059402674655476398 0 -0.008103434202622422 -0.061885161831185434 0 -0.014188228803242131 -0.055040482868456968 0 -0.011946186851441134 -0.052427651306514639 0 -0.011275248375233943 -0.054745789425885899 0 -0.011946186851441134 -0.052427651306514639 0 -0.010087989841593667 -0.052638333883006337 0 -0.011275248375233943 -0.054745789425885899 0 -0.0088989317964522779 -0.054034336376413299 0 -0.010087989841593667 -0.052638333883006337 0 -0.0081256248569012667 -0.051586839432790799 0 -0.0088989317964522779 -0.054034336376413299 0 -0.010087989841593667 -0.052638333883006337 0 -0.011275248375233943 -0.054745789425885899 0 -0.010091756319859986 -0.057194707853879069 0 -0.0088989317964522779 -0.054034336376413299 0 -0.0073960239688278372 -0.056134399823965252 0 -0.010091756319859986 -0.057194707853879069 0 -0.0088989317964522779 -0.054034336376413299 0 -0.011275248375233943 -0.054745789425885899 0 -0.012524537670294019 -0.057422722389436923 0 -0.014188228803242131 -0.055040482868456968 0 -0.011275248375233943 -0.054745789425885899 0 -0.0066516045395501018 -0.053472944348520852 0 -0.0044652154277325358 -0.05296624917789057 0 -0.0043541583865943324 -0.054931890814509533 0 -0.0066516045395501018 -0.053472944348520852 0 -0.0043541583865943324 -0.054931890814509533 0 -0.0073960239688278372 -0.056134399823965252 0 -0.0088989317964522779 -0.054034336376413299 0 -0.0066516045395501018 -0.053472944348520852 0 -0.0073960239688278372 -0.056134399823965252 0 -0.0088989317964522779 -0.054034336376413299 0 -0.0066516045395501018 -0.053472944348520852 0 -0.0081256248569012667 -0.051586839432790799 0 -0.0066516045395501018 -0.053472944348520852 0 -0.0044652154277325358 -0.05296624917789057 0 -0.0058377504007766307 -0.051284166353903655 0 -0.0044652154277325358 -0.05296624917789057 0 -0.0027169402818516819 -0.052132979120535203 0 -0.0041042096208134139 -0.051300033409369929 0 -0.0044652154277325358 -0.05296624917789057 0 -0.0027169402818516819 -0.052132979120535203 0 -0.0021373706062309964 -0.054194920426513866 0 -0.0027169402818516819 -0.052132979120535203 0 -0.0021373706062309964 -0.054194920426513866 0 -0.0012771988249983554 -0.052580177077183106 0 -0.0044652154277325358 -0.05296624917789057 0 -0.0021373706062309964 -0.054194920426513866 0 -0.0043541583865943324 -0.054931890814509533 0 -0.0043541583865943324 -0.054931890814509533 0 -0.0030248646190128878 -0.055936404860937254 0 -0.0059942878342110996 -0.056551411608594039 0 -0.0021373706062309964 -0.054194920426513866 0 -0.0030248646190128878 -0.055936404860937254 0 -0.00066388257885708875 -0.055135747028234275 0 -0.0021373706062309964 -0.054194920426513866 0 -0.0043541583865943324 -0.054931890814509533 0 -0.0030248646190128878 -0.055936404860937254 0 -0.0030248646190128878 -0.055936404860937254 0 -0.003701453890995356 -0.058231825563518726 0 -0.00079055076004450509 -0.058111344192712321 0 -0.0030248646190128878 -0.055936404860937254 0 -0.0059942878342110996 -0.056551411608594039 0 -0.003701453890995356 -0.058231825563518726 0 -0.0043541583865943324 -0.054931890814509533 0 -0.0059562310764399579 -0.058916144960342122 0 -0.0073960239688278372 -0.056134399823965252 0 -0.0055484809661714785 -0.056784923359487219 0 -0.0063705213155103683 -0.058113262673108831 0 -0.0059562310764399579 -0.058916144960342122 0 -0.0073960239688278372 -0.056134399823965252 0 -0.0083698854111687263 -0.058762652323459987 0 -0.010091756319859986 -0.057194707853879069 0 -0.0073960239688278372 -0.056134399823965252 0 -0.0083698854111687263 -0.058762652323459987 0 -0.0099374109288746879 -0.060800320755268207 0 -0.0083698854111687263 -0.058762652323459987 0 -0.0082045628202164836 -0.062134738879644699 0 -0.0059562310764399579 -0.058916144960342122 0 -0.0083698854111687263 -0.058762652323459987 0 -0.0082045628202164836 -0.062134738879644699 0 -0.0063705213155103683 -0.058113262673108831 0 -0.0078001790238937559 -0.06035485950276484 0 -0.0059942878342110996 -0.056551411608594039 0 -0.0057572956288698927 -0.059571684238367978 0 -0.003701453890995356 -0.058231825563518726 0 -0.0059942878342110996 -0.056551411608594039 0 -0.0081102023947551699 -0.059490386257000816 0 -0.0057572956288698927 -0.059571684238367978 0 -0.0081102023947551699 -0.059490386257000816 0 -0.0057572956288698927 -0.059571684238367978 0 -0.0066694068384212856 -0.062943775908891941 0 -0.0057572956288698927 -0.059571684238367978 0 -0.0066694068384212856 -0.062943775908891941 0 -0.0043526863828742173 -0.061056766694358937 0 -0.0086081713025258858 -0.061618486218863303 0 -0.0078001790238937559 -0.06035485950276484 0 -0.0098786104352886154 -0.063315081410006649 0 -0.0081102023947551699 -0.059490386257000816 0 -0.0066694068384212856 -0.062943775908891941 0 -0.0098786104352886154 -0.063315081410006649 0 -0.0066694068384212856 -0.062943775908891941 0 -0.0089295754218251186 -0.064651239857239945 0 -0.0053631688655381322 -0.066421448335626659 0 -0.0066694068384212856 -0.062943775908891941 0 -0.0075467077109389602 -0.06580899854808403 0 -0.0066694068384212856 -0.062943775908891941 0 -0.0075467077109389602 -0.06580899854808403 0 -0.0089295754218251186 -0.064651239857239945 0 -0.008936007902070605 -0.066482510876427078 0 -0.0075467077109389602 -0.06580899854808403 0 -0.0089295754218251186 -0.064651239857239945 0 -0.0016434063772864506 -0.062663894942973128 0 -0.0026987283516787023 -0.060837443905272189 0 -0.00024528928717770565 -0.060967729214326409 0 -0.0053631688655381322 -0.066421448335626659 0 -0.0066694068384212856 -0.062943775908891941 0 -0.0036468192971514735 -0.064010379350527197 0 -0.0028764214464799672 -0.063675544338701956 0 -0.0026401645347540301 -0.062465943893090736 0 -0.0016434063772864506 -0.062663894942973128 0 -0.003731896563405624 -0.062352710216196788 0 -0.0026987283516787023 -0.060837443905272189 0 -0.0036468192971514735 -0.064010379350527197 0 -0.0020382694584331488 -0.06118137619595812 0 -0.0043526863828742173 -0.061056766694358937 0 -0.0066694068384212856 -0.062943775908891941 0 -0.0036468192971514735 -0.064010379350527197 0 -0.0043526863828742173 -0.061056766694358937 0 -0.0026987283516787023 -0.060837443905272189 0 -0.0016536297762194741 -0.059324068640139574 0 -0.00024528928717770565 -0.060967729214326409 0 -0.0026401645347540301 -0.062465943893090736 0 -0.0018536729094011147 -0.060849801915121196 0 -0.0020382694584331488 -0.06118137619595812 0 -0.0043526863828742173 -0.061056766694358937 0 -0.003701453890995356 -0.058231825563518726 0 -0.0057572956288698927 -0.059571684238367978 0 -0.0043526863828742173 -0.061056766694358937 0 -0.003701453890995356 -0.058231825563518726 0 -0.0020382694584331488 -0.06118137619595812 0 -0.003701453890995356 -0.058231825563518726 0 -0.00079055076004450509 -0.058111344192712321 0 -0.00079055076004450509 -0.058111344192712321 0 0.0018752939296262203 -0.058043050984199075 0 0.00098178306481321075 -0.056583330155931151 0 -0.00079055076004450509 -0.058111344192712321 0 0.00016516632134808129 -0.059295596676635157 0 0.0018752939296262203 -0.058043050984199075 0 -0.0016536297762194741 -0.059324068640139574 0 -0.00079055076004450509 -0.058111344192712321 0 0.00016516632134808129 -0.059295596676635157 0 -0.0018536729094011147 -0.060849801915121196 0 -0.00136602094927682 -0.059959753507131279 0 -0.0016536297762194741 -0.059324068640139574 0 0.00016516632134808129 -0.059295596676635157 0 -0.00024528928717770565 -0.060967729214326409 0 0.00016516632134808129 -0.059295596676635157 0 -0.00024528928717770565 -0.060967729214326409 0 0.0020116083965431865 -0.059769920537443941 0 0.00060090333532572819 -0.063121089226245805 0 -0.00024528928717770565 -0.060967729214326409 0 0.0022011543297432196 -0.061677167752550326 0 -0.00024528928717770565 -0.060967729214326409 0 0.0022011543297432196 -0.061677167752550326 0 0.0020116083965431865 -0.059769920537443941 0 0.0043907907801224539 -0.062127794592963727 0 0.0043843577930315252 -0.061011432294152013 0 0.0029688984096767905 -0.061230728037872412 0 0.0043843577930315252 -0.061011432294152013 0 0.0029688984096767905 -0.061230728037872412 0 0.0041246062096909611 -0.059923677351311148 0 0.0017508036515145073 -0.060507963480242566 0 0.0025821172872749574 -0.060085282086420048 0 0.0022011543297432196 -0.061677167752550326 0 0.0020116083965431865 -0.059769920537443941 0 0.0041246062096909611 -0.059923677351311148 0 0.0020116083965431865 -0.059769920537443941 0 0.0041246062096909611 -0.059923677351311148 0 0.0044714129140339945 -0.058589495530019922 0 0.0018752939296262203 -0.058043050984199075 0 0.0034529028345491315 -0.056685868641111824 0 0.004176525782550275 -0.058231375050927077 0 0.003336526485090478 -0.058168572197748979 0 0.0045077880688808294 -0.058468209834077765 0 0.0020116083965431865 -0.059769920537443941 0 0.0018752939296262203 -0.058043050984199075 0 0.0044714129140339945 -0.058589495530019922 0 0.00016516632134808129 -0.059295596676635157 0 0.0020116083965431865 -0.059769920537443941 0 0.0018752939296262203 -0.058043050984199075 0 0.0018752939296262203 -0.058043050984199075 0 0.0034529028345491315 -0.056685868641111824 0 0.00098178306481321075 -0.056583330155931151 0 0.0034529028345491315 -0.056685868641111824 0 0.0028520237205470434 -0.054300184563750305 0 0.0055588508437221336 -0.055630823565984151 0 0.0034529028345491315 -0.056685868641111824 0 0.0028520237205470434 -0.054300184563750305 0 0.00098178306481321075 -0.056583330155931151 0 0.0028520237205470434 -0.054300184563750305 0 -0.00066388257885708875 -0.055135747028234275 0 0.00051664056039021065 -0.051566408677844712 0 0.0028520237205470434 -0.054300184563750305 0 0.00098178306481321075 -0.056583330155931151 0 -0.00066388257885708875 -0.055135747028234275 0 -0.00079055076004450509 -0.058111344192712321 0 0.00098178306481321075 -0.056583330155931151 0 -0.00066388257885708875 -0.055135747028234275 0 -0.0030248646190128878 -0.055936404860937254 0 -0.00079055076004450509 -0.058111344192712321 0 -0.00066388257885708875 -0.055135747028234275 0 0.00017098873470069387 -0.053652179829420013 0 0.00089237404167579663 -0.052402883868615302 0 -0.0021373706062309964 -0.054194920426513866 0 -0.00066388257885708875 -0.055135747028234275 0 0.00044172094324517749 -0.053383066624030119 0 -0.0021373706062309964 -0.054194920426513866 0 0.00044172094324517749 -0.053383066624030119 0 -0.0012771988249983554 -0.052580177077183106 0 -0.0027169402818516819 -0.052132979120535203 0 -0.0012771988249983554 -0.052580177077183106 0 -0.0016100714716802465 -0.051262938751992261 0 0.00044172094324517749 -0.053383066624030119 0 -0.0012771988249983554 -0.052580177077183106 0 -0.00031543284772782461 -0.051532789119383221 0 0.00044172094324517749 -0.053383066624030119 0 0.00066908103801856039 -0.051472704806681716 0 -0.00031543284772782461 -0.051532789119383221 0 0.00044172094324517749 -0.053383066624030119 0 0.001752119211968871 -0.051108968098502947 0 0.00066908103801856039 -0.051472704806681716 0 0.00089237404167579663 -0.052402883868615302 0 0.0020846305197214127 -0.050774170916082384 0 0.0031523687464424942 -0.049820274715261965 0 0.0023780894772227647 -0.05147243283333372 0 0.0019092273336570775 -0.04838950015296449 0 0.00051664056039021065 -0.051566408677844712 0 0.0023780894772227647 -0.05147243283333372 0 0.0019092273336570775 -0.04838950015296449 0 0.0031523687464424942 -0.049820274715261965 0 0.0041895407987287405 -0.051865818682082211 0 0.0023780894772227647 -0.05147243283333372 0 0.0031523687464424942 -0.049820274715261965 0 0.0041895407987287405 -0.051865818682082211 0 0.0048468785381733728 -0.049115042226656101 0 0.0028520237205470434 -0.054300184563750305 0 0.0041895407987287405 -0.051865818682082211 0 0.0023780894772227647 -0.05147243283333372 0 0.0028520237205470434 -0.054300184563750305 0 0.00051664056039021065 -0.051566408677844712 0 0.0023780894772227647 -0.05147243283333372 0 0.005636764777097728 -0.042696844737434042 0 0.005778749456705012 -0.042555628218318285 0 0.0056539143884690723 -0.042065396057204697 0 0.0058978668344604416 -0.042360633581102196 0 0.0058167033999376484 -0.042760087147127451 0 0.0063443780603814753 -0.042066150659942923 0 0.0058740994491600206 -0.042990455596743749 0 0.0058167033999376484 -0.042760087147127451 0 0.0063443780603814753 -0.042066150659942923 0 0.0058978668344604416 -0.042360633581102196 0 0.0056539143884690723 -0.042065396057204697 0 0.0063443780603814753 -0.042066150659942923 0 0.005778749456705012 -0.042555628218318285 0 0.0058978668344604416 -0.042360633581102196 0 0.0058167033999376484 -0.042760087147127451 0 0.0015499358940603673 -0.053031314028834875 0 0.0016198534365966717 -0.052939911961348389 0 0.005636764777097728 -0.042696844737434042 0 0.005778749456705012 -0.042555628218318285 0 0.0058167033999376484 -0.042760087147127451 0 0.005778749456705012 -0.042555628218318285 0 0.0058978668344604416 -0.042360633581102196 0 0.0056539143884690723 -0.042065396057204697 0 0.0020846305197214127 -0.050774170916082384 0 0.0047601433065298853 -0.044759559011086386 0 0.0040705706193002195 -0.047182206554816669 0 0.0015169378099489296 -0.047870262781961777 0 0.0033394467862527615 -0.044761083041620534 0 0.0040705706193002195 -0.047182206554816669 0 0.0034364176179326597 -0.048512743931992994 0 0.0015169378099489296 -0.047870262781961777 0 0.0031523687464424942 -0.049820274715261965 0 0.0034364176179326597 -0.048512743931992994 0 0.0048468785381733728 -0.049115042226656101 0 0.0040705706193002195 -0.047182206554816669 0 0.0034364176179326597 -0.048512743931992994 0 0.0048468785381733728 -0.049115042226656101 0 0.0031523687464424942 -0.049820274715261965 0 0.0034364176179326597 -0.048512743931992994 0 0.0015169378099489296 -0.047870262781961777 0 0.0020271778363643261 -0.050461565606554619 0 0.0020846305197214127 -0.050774170916082384 0 0.0012025513333603281 -0.050464818906404252 0 0.001752119211968871 -0.051108968098502947 0 0.00066908103801856039 -0.051472704806681716 0 0.005623193657203567 -0.042708894561526038 0 0.0058740994491600206 -0.042990455596743749 0 0.0058167033999376484 -0.042760087147127451 0 0.0015499358940603673 -0.053031314028834875 0 0.0020846305197214127 -0.050774170916082384 0 0.0012025513333603281 -0.050464818906404252 0 -0.00031543284772782461 -0.051532789119383221 0 -0.0011115749534600034 -0.049680798795570989 0 0.0012025513333603281 -0.050464818906404252 0 0.00066908103801856039 -0.051472704806681716 0 -0.00031543284772782461 -0.051532789119383221 0 -0.00031543284772782461 -0.051532789119383221 0 -0.0016100714716802465 -0.051262938751992261 0 -0.0011115749534600034 -0.049680798795570989 0 -0.0012771988249983554 -0.052580177077183106 0 -0.00031543284772782461 -0.051532789119383221 0 -0.0016100714716802465 -0.051262938751992261 0 -0.0016100714716802465 -0.051262938751992261 0 -0.0011115749534600034 -0.049680798795570989 0 -0.0026975615544987063 -0.050364465654956385 0 0.005636764777097728 -0.042696844737434042 0 0.0050362673779874257 -0.041926704633008564 0 0.0056539143884690723 -0.042065396057204697 0 -0.0018940288714920362 -0.064697469401542196 0 0.00064132747045514155 -0.065533419038789495 0 -0.00023377830381656332 -0.066670810502475655 0 0.0015499358940603673 -0.053031314028834875 0 0.00019654559912929214 -0.056129222487536927 0 0.0015499358940603673 -0.053031314028834875 0 0.0020242989527946213 -0.055016222575328629 0 0.0050362673779874257 -0.041926704633008564 0 0.0053874424506157896 -0.041589264954524918 0 0.0056539143884690723 -0.042065396057204697 0 0.0050362673779874257 -0.041926704633008564 0 0.0048984812979765858 -0.041355516228491332 0 0.0050876688066302965 -0.041535971426105094 0 0.0050362673779874257 -0.041926704633008564 0 0.0053874424506157896 -0.041589264954524918 0 0.0050876688066302965 -0.041535971426105094 0 -0.00023377830381656332 -0.066670810502475655 0 0.0014167332958002644 -0.06676811473636711 0 0.0012119533862486121 -0.067343452383145749 0 0.0020242989527946213 -0.055016222575328629 0 0.00282294445109137 -0.058092354121915615 0 0.00064132747045514155 -0.065533419038789495 0 -0.00023377830381656332 -0.066670810502475655 0 0.0014167332958002644 -0.06676811473636711 0 -0.00023377830381656332 -0.066670810502475655 0 0.0012119533862486121 -0.067343452383145749 0 0.0014050274238860984 -0.068381533138116235 0 -0.00023377830381656332 -0.066670810502475655 0 0.0013968624536750977 -0.06852242172504984 0 0.0014050274238860984 -0.068381533138116235 0 0.0050362673779874257 -0.041926704633008564 0 0.0048984812979765858 -0.041355516228491332 0 0.0044660693705811964 -0.041218654344814344 0 0.0048984812979765858 -0.041355516228491332 0 0.0049693872519886769 -0.041056732433808682 0 0.004753755219684761 -0.041057141714783238 0 0.0048984812979765858 -0.041355516228491332 0 0.004753755219684761 -0.041057141714783238 0 0.0044660693705811964 -0.041218654344814344 0 0.00282294445109137 -0.058092354121915615 0 0.0028197140753901057 -0.058131236861429382 0 0.0053874424506157896 -0.041589264954524918 0 0.0051453355365344263 -0.041275860891545918 0 0.0055398638656953911 -0.041148502351473881 0 0.0053874424506157896 -0.041589264954524918 0 0.0050876688066302965 -0.041535971426105094 0 0.0051453355365344263 -0.041275860891545918 0 0.0048984812979765858 -0.041355516228491332 0 0.0050876688066302965 -0.041535971426105094 0 0.0051453355365344263 -0.041275860891545918 0 0.0049693872519886769 -0.041056732433808682 0 0.0051453355365344263 -0.041275860891545918 0 0.0052118040428268588 -0.040890564360270457 0 0.0048984812979765858 -0.041355516228491332 0 0.0049693872519886769 -0.041056732433808682 0 0.0051453355365344263 -0.041275860891545918 0 0.0051453355365344263 -0.041275860891545918 0 0.0055398638656953911 -0.041148502351473881 0 0.0052118040428268588 -0.040890564360270457 0 0.0053874424506157896 -0.041589264954524918 0 0.0059506621413483963 -0.041485132116346801 0 0.0055398638656953911 -0.041148502351473881 0 0.0059506621413483963 -0.041485132116346801 0 0.0055398638656953911 -0.041148502351473881 0 0.0060356057925317341 -0.040857932650274952 0 0.0053874424506157896 -0.041589264954524918 0 0.0059506621413483963 -0.041485132116346801 0 0.0056539143884690723 -0.042065396057204697 0 0.0059506621413483963 -0.041485132116346801 0 0.0056539143884690723 -0.042065396057204697 0 0.0063443780603814753 -0.042066150659942923 0 0.0047601433065298853 -0.044759559011086386 0 0.0058827408475634066 -0.042343196827161027 0 0.0059506621413483963 -0.041485132116346801 0 0.0063443780603814753 -0.042066150659942923 0 0.0067637414752058029 -0.041141883895291539 0 0.0059506621413483963 -0.041485132116346801 0 0.0060356057925317341 -0.040857932650274952 0 0.0067637414752058029 -0.041141883895291539 0 0.0064720950372879026 -0.040379845480179047 0 0.0060356057925317341 -0.040857932650274952 0 0.0067637414752058029 -0.041141883895291539 0 0.0064720950372879026 -0.040379845480179047 0 0.0060356057925317341 -0.040857932650274952 0 0.0058803062807530736 -0.040220788731309576 0 0.0055927612914170935 -0.040714085501293733 0 0.0060356057925317341 -0.040857932650274952 0 0.0058803062807530736 -0.040220788731309576 0 0.0055927612914170935 -0.040714085501293733 0 0.0058803062807530736 -0.040220788731309576 0 0.0052406407563691535 -0.040352980656032732 0 0.0055398638656953911 -0.041148502351473881 0 0.0055927612914170935 -0.040714085501293733 0 0.0060356057925317341 -0.040857932650274952 0 0.0058803062807530736 -0.040220788731309576 0 0.006371220767828153 -0.03971527320943332 0 0.0058944054459125778 -0.039679132041091886 0 0.0058803062807530736 -0.040220788731309576 0 0.0058944054459125778 -0.039679132041091886 0 0.0055165934162410297 -0.039888635586634302 0 0.0064720950372879026 -0.040379845480179047 0 0.0058803062807530736 -0.040220788731309576 0 0.006371220767828153 -0.03971527320943332 0 0.0064720950372879026 -0.040379845480179047 0 0.006371220767828153 -0.03971527320943332 0 0.0068942072652069912 -0.039804757710950871 0 0.006371220767828153 -0.03971527320943332 0 0.0061511396218659658 -0.039134173020446451 0 0.0071813876488982069 -0.039285022017198253 0 0.007564612368476914 -0.052072777194811515 0 0.0070907903256720757 -0.049922451505878249 0 0.006371220767828153 -0.03971527320943332 0 0.0058944054459125778 -0.039679132041091886 0 0.006185237731501478 -0.039336827208454765 0 0.0066820120086678808 -0.049075149429463859 0 0.007564612368476914 -0.052072777194811515 0 0.0058944054459125778 -0.039679132041091886 0 0.0054226893295936706 -0.039284177105711859 0 0.0055165934162410297 -0.039888635586634302 0 0.0058944054459125778 -0.039679132041091886 0 0.006185237731501478 -0.039336827208454765 0 0.0054226893295936706 -0.039284177105711859 0 0.019021912978520177 -0.072552745183073739 0 0.020225573263339597 -0.07372650524645849 0 0.018249888042734863 -0.073543075886201417 0 0.007564612368476914 -0.052072777194811515 0 0.010386236343437348 -0.057743184702092443 0 0.010296824229966669 -0.042631256369693123 0 0.010495596978158628 -0.039247420191448674 0 0.013374056337473038 -0.045773311289703723 0 0.019021912978520177 -0.072552745183073739 0 0.020225573263339597 -0.07372650524645849 0 0.019524503725475123 -0.071493363043238348 0 0.007564612368476914 -0.052072777194811515 0 0.013319216886159549 -0.05840667934236482 0 0.0085064673433818232 -0.040610734213634689 0 0.010495596978158628 -0.039247420191448674 0 0.0071813876488982069 -0.039285022017198253 0 0.010296824229966669 -0.042631256369693123 0 0.0085064673433818232 -0.040610734213634689 0 0.0092274348612250735 -0.043308322845623727 0 0.010296824229966669 -0.042631256369693123 0 0.0085064673433818232 -0.040610734213634689 0 0.010495596978158628 -0.039247420191448674 0 0.016071515621847731 -0.07328150725683602 0 0.018249888042734863 -0.073543075886201417 0 0.017157213532702564 -0.072044012082067885 0 0.010337629059242612 -0.063708758915243635 0 0.010386236343437348 -0.057743184702092443 0 0.018249888042734863 -0.073543075886201417 0 0.018211628555299363 -0.072197567423442216 0 0.017157213532702564 -0.072044012082067885 0 0.019021912978520177 -0.072552745183073739 0 0.018249888042734863 -0.073543075886201417 0 0.018211628555299363 -0.072197567423442216 0 0.0046754101945417851 -0.03923682453743662 0 0.0054226893295936706 -0.039284177105711859 0 0.005084794955312848 -0.039787486548192745 0 0.0054226893295936706 -0.039284177105711859 0 0.0055165934162410297 -0.039888635586634302 0 0.005084794955312848 -0.039787486548192745 0 0.0046754101945417851 -0.03923682453743662 0 0.005084794955312848 -0.039787486548192745 0 0.0045752700244969385 -0.040194807687874805 0 0.010337629059242612 -0.063708758915243635 0 0.0059130700051358504 -0.05714098211434325 0 0.005084794955312848 -0.039787486548192745 0 0.0045752700244969385 -0.040194807687874805 0 0.0052406407563691535 -0.040352980656032732 0 0.0045752700244969385 -0.040194807687874805 0 0.0052406407563691535 -0.040352980656032732 0 0.0048399857770996127 -0.040712458287654567 0 0.0055165934162410297 -0.039888635586634302 0 0.005084794955312848 -0.039787486548192745 0 0.0052406407563691535 -0.040352980656032732 0 0.0058803062807530736 -0.040220788731309576 0 0.0055165934162410297 -0.039888635586634302 0 0.0052406407563691535 -0.040352980656032732 0 0.0055927612914170935 -0.040714085501293733 0 0.0052406407563691535 -0.040352980656032732 0 0.0052118040428268588 -0.040890564360270457 0 0.0052406407563691535 -0.040352980656032732 0 0.0052118040428268588 -0.040890564360270457 0 0.0048399857770996127 -0.040712458287654567 0 0.0049693872519886769 -0.041056732433808682 0 0.0052118040428268588 -0.040890564360270457 0 0.0048399857770996127 -0.040712458287654567 0 0.0055398638656953911 -0.041148502351473881 0 0.0055927612914170935 -0.040714085501293733 0 0.0052118040428268588 -0.040890564360270457 0 0.00282294445109137 -0.058092354121915615 0 0.0059130700051358504 -0.05714098211434325 0 0.0044660693705811964 -0.041218654344814344 0 0.0045752700244969385 -0.040194807687874805 0 0.0048399857770996127 -0.040712458287654567 0 0.0049693872519886769 -0.041056732433808682 0 0.004753755219684761 -0.041057141714783238 0 0.0048399857770996127 -0.040712458287654567 0 0.004753755219684761 -0.041057141714783238 0 0.0044660693705811964 -0.041218654344814344 0 0.0048399857770996127 -0.040712458287654567 0 0.0029029958035811636 -0.069744632658492775 0 0.0028572411545200365 -0.070960596715505322 0 0.0034184956497814588 -0.070364976349446579 0 0.00282294445109137 -0.058092354121915615 0 0.00499603897545644 -0.064203117359390868 0 0.0037529963700321748 -0.069343616444029726 0 0.0043823022291002104 -0.069264018766289029 0 0.0042698588582284272 -0.068548221764767228 0 0.0025463279645383881 -0.069791934013230694 0 0.0037529963700321748 -0.069343616444029726 0 0.0026882661576289549 -0.068533819862265935 0 0.0025463279645383881 -0.069791934013230694 0 0.0037529963700321748 -0.069343616444029726 0 0.0039011580552178507 -0.070158850816526702 0 0.0025463279645383881 -0.069791934013230694 0 0.0039011580552178507 -0.070158850816526702 0 0.0038089265967214785 -0.070964577930039657 0 0.0037529963700321748 -0.069343616444029726 0 0.0039011580552178507 -0.070158850816526702 0 0.0044663151633696947 -0.069889325646635234 0 0.0039011580552178507 -0.070158850816526702 0 0.0038089265967214785 -0.070964577930039657 0 0.0045628416696674463 -0.070522030967349589 0 0.0034184956497814588 -0.070364976349446579 0 0.0038089265967214785 -0.070964577930039657 0 0.0034072051777847621 -0.070953207617421007 0 0.00499603897545644 -0.064203117359390868 0 0.0055141907901945396 -0.065886525896711845 0 0.0038089265967214785 -0.070964577930039657 0 0.0034072051777847621 -0.070953207617421007 0 0.0039583919286932129 -0.071623655706528386 0 0.0038089265967214785 -0.070964577930039657 0 0.0039583919286932129 -0.071623655706528386 0 0.0043265248032165315 -0.071190086955146573 0 0.0028572411545200365 -0.070960596715505322 0 0.0034184956497814588 -0.070364976349446579 0 0.0034072051777847621 -0.070953207617421007 0 0.0028572411545200365 -0.070960596715505322 0 0.0034072051777847621 -0.070953207617421007 0 0.0034309624934899981 -0.071592127368104885 0 0.0028267311290805122 -0.072213188069907369 0 0.0028572411545200365 -0.070960596715505322 0 0.0034309624934899981 -0.071592127368104885 0 0.0034309624934899981 -0.071592127368104885 0 0.0039583919286932129 -0.071623655706528386 0 0.0041414087257280532 -0.072306957648581652 0 0.0034072051777847621 -0.070953207617421007 0 0.0034309624934899981 -0.071592127368104885 0 0.0039583919286932129 -0.071623655706528386 0 0.0041414087257280532 -0.072306957648581652 0 0.0041412495445761338 -0.072275376112484635 0 0.0041675497863034542 -0.072033897728198765 0 0.0039583919286932129 -0.071623655706528386 0 0.0041414087257280532 -0.072306957648581652 0 0.0041412495445761338 -0.072275376112484635 0 0.0052823545731386845 -0.072457753892723048 0 0.0041414087257280532 -0.072306957648581652 0 0.0047468201912425822 -0.071829323809195586 0 0.010337629059242612 -0.063708758915243635 0 0.0067022104755926496 -0.065567070641530181 0 0.0028267311290805122 -0.072213188069907369 0 0.0034309624934899981 -0.071592127368104885 0 0.0041414087257280532 -0.072306957648581652 0 0.0031806155020337248 -0.072939000634486661 0 0.0026653498691234984 -0.073122765315610377 0 0.0032099557442770879 -0.072468117406451218 0 0.0031806155020337248 -0.072939000634486661 0 0.0036771689796330051 -0.073677589872057095 0 0.0026653498691234984 -0.073122765315610377 0 0.0022232129034838971 -0.073228087782867851 0 0.0024700773155206255 -0.073002570673978043 0 0.0041412495445761338 -0.072275376112484635 0 0.0045255380636058506 -0.071942433793851304 0 0.0037649807576559465 -0.072429239217302321 0 0.0037024889249866254 -0.072221433936286855 0 0.0037357083800333723 -0.072276276015601243 0 0.0031806155020337248 -0.072939000634486661 0 0.0036771689796330051 -0.073677589872057095 0 0.0037649807576559465 -0.072429239217302321 0 0.0039583919286932129 -0.071623655706528386 0 0.0045255380636058506 -0.071942433793851304 0 0.0043265248032165315 -0.071190086955146573 0 0.0039583919286932129 -0.071623655706528386 0 0.0041412495445761338 -0.072275376112484635 0 0.0045255380636058506 -0.071942433793851304 0 0.0036771689796330051 -0.073677589872057095 0 0.0028632496385717172 -0.074335257292625703 0 0.0026653498691234984 -0.073122765315610377 0 0.0036771689796330051 -0.073677589872057095 0 0.0028632496385717172 -0.074335257292625703 0 0.0036989456219451559 -0.074739563363826977 0 0.0049565208455412809 -0.06827054689878144 0 0.0050492360549818389 -0.068505168193370741 0 0.0047758971879942828 -0.06863275557721861 0 0.0032055029738752815 -0.072039786908349598 0 0.0034763713305341654 -0.071280866144784211 0 0.0049565208455412809 -0.06827054689878144 0 0.005243216111837882 -0.068490735586617515 0 0.0050492360549818389 -0.068505168193370741 0 0.0037024889249866254 -0.072221433936286855 0 0.0034763713305341654 -0.071280866144784211 0 0.0045255380636058506 -0.071942433793851304 0 0.0043265248032165315 -0.071190086955146573 0 0.0048207337925469723 -0.070726894008596303 0 0.0034763713305341654 -0.071280866144784211 0 0.0035201154810264846 -0.071283494702803624 0 0.0038089265967214785 -0.070964577930039657 0 0.0043265248032165315 -0.071190086955146573 0 0.0045628416696674463 -0.070522030967349589 0 0.0043265248032165315 -0.071190086955146573 0 0.0048207337925469723 -0.070726894008596303 0 0.0045628416696674463 -0.070522030967349589 0 0.0050452690599734661 -0.070753252931171504 0 0.0044663151633696947 -0.069889325646635234 0 0.0050600813826483255 -0.069271681071870303 0 0.005243216111837882 -0.068490735586617515 0 0.0050859264568484455 -0.068618687767799752 0 0.0051700347043011864 -0.068584510131107654 0 0.0034763713305341654 -0.071280866144784211 0 0.0038507273505438695 -0.069756785541518762 0 0.0050452690599734661 -0.070753252931171504 0 0.0045628416696674463 -0.070522030967349589 0 0.0044663151633696947 -0.069889325646635234 0 0.0039011580552178507 -0.070158850816526702 0 0.0045628416696674463 -0.070522030967349589 0 0.0044663151633696947 -0.069889325646635234 0 0.0050859264568484455 -0.068618687767799752 0 0.0051700347043011864 -0.068584510131107654 0 0.0052206844001796184 -0.068644537985010717 0 0.0037529963700321748 -0.069343616444029726 0 0.0044663151633696947 -0.069889325646635234 0 0.0043823022291002104 -0.069264018766289029 0 0.0044663151633696947 -0.069889325646635234 0 0.0050600813826483255 -0.069271681071870303 0 0.0043823022291002104 -0.069264018766289029 0 0.0050492360549818389 -0.068505168193370741 0 0.0051052423420416279 -0.068605487785642572 0 0.0049834117153186889 -0.068680178953012969 0 0.0050492360549818389 -0.068505168193370741 0 0.0049834117153186889 -0.068680178953012969 0 0.0047758971879942828 -0.06863275557721861 0 0.005243216111837882 -0.068490735586617515 0 0.0050492360549818389 -0.068505168193370741 0 0.0051700347043011864 -0.068584510131107654 0 0.0050492360549818389 -0.068505168193370741 0 0.0051700347043011864 -0.068584510131107654 0 0.0051052423420416279 -0.068605487785642572 0 0.0051052423420416279 -0.068605487785642572 0 0.0052206844001796184 -0.068644537985010717 0 0.0049834117153186889 -0.068680178953012969 0 0.0051700347043011864 -0.068584510131107654 0 0.0051052423420416279 -0.068605487785642572 0 0.0052206844001796184 -0.068644537985010717 0 0.0052206844001796184 -0.068644537985010717 0 0.0049834117153186889 -0.068680178953012969 0 0.0047464801837762667 -0.06907529543220875 0 0.0052206844001796184 -0.068644537985010717 0 0.0053541374786508673 -0.068060579363209334 0 0.0064583284400066077 -0.067810625516053907 0 0.0053541374786508673 -0.068060579363209334 0 0.0051448338041369512 -0.067287005905481242 0 0.0064583284400066077 -0.067810625516053907 0 0.0028240556371048379 -0.066719754320109181 0 0.00040556850909334916 -0.067128948160403615 0 -0.0065281857113071795 -0.047679318734903421 0 -0.0088881479237488317 -0.048238838688387395 0 -0.0095411422118300369 -0.046773748224292769 0 -0.0011699962247964349 -0.061108087607091355 0 0.00040556850909334916 -0.067128948160403615 0 -0.0074917795763841232 -0.048689524894034469 0 -0.0065281857113071795 -0.047679318734903421 0 -0.0088881479237488317 -0.048238838688387395 0 0.0051448338041369512 -0.067287005905481242 0 0.0049506785814019518 -0.067787849717820925 0 0.0038297542143754292 -0.067448169592054519 0 -0.0065281857113071795 -0.047679318734903421 0 -0.0036437940336842595 -0.048706420456650849 0 -0.0058756066894836423 -0.048900675301786774 0 -0.0074917795763841232 -0.048689524894034469 0 -0.0065281857113071795 -0.047679318734903421 0 -0.0058756066894836423 -0.048900675301786774 0 0.0050859264568484455 -0.068618687767799752 0 0.0053541374786508673 -0.068060579363209334 0 0.0049506785814019518 -0.067787849717820925 0 0.0049506785814019518 -0.067787849717820925 0 0.0042698588582284272 -0.068548221764767228 0 0.0038297542143754292 -0.067448169592054519 0 0.0050600813826483255 -0.069271681071870303 0 0.0049506785814019518 -0.067787849717820925 0 0.0042698588582284272 -0.068548221764767228 0 0.0038507273505438695 -0.069756785541518762 0 0.0039603565380091615 -0.069208005289978974 0 0.0053541374786508673 -0.068060579363209334 0 0.0051448338041369512 -0.067287005905481242 0 0.0049506785814019518 -0.067787849717820925 0 0.0050859264568484455 -0.068618687767799752 0 0.0052206844001796184 -0.068644537985010717 0 0.0053541374786508673 -0.068060579363209334 0 0.0050600813826483255 -0.069271681071870303 0 0.0043823022291002104 -0.069264018766289029 0 0.0042698588582284272 -0.068548221764767228 0 0.0026882661576289549 -0.068533819862265935 0 0.0022390273363227277 -0.067553497252428665 0 0.0038297542143754292 -0.067448169592054519 0 0.0042698588582284272 -0.068548221764767228 0 0.0026882661576289549 -0.068533819862265935 0 0.0038297542143754292 -0.067448169592054519 0 0.0037529963700321748 -0.069343616444029726 0 0.0042698588582284272 -0.068548221764767228 0 0.0026882661576289549 -0.068533819862265935 0 0.0013981585341333563 -0.068515716098886584 0 0.0014050274238860984 -0.068381533138116235 0 0.0026882661576289549 -0.068533819862265935 0 0.0013981585341333563 -0.068515716098886584 0 0.0025463279645383881 -0.069791934013230694 0 0.0026882661576289549 -0.068533819862265935 0 0.0012119533862486121 -0.067343452383145749 0 0.0014050274238860984 -0.068381533138116235 0 0.0022390273363227277 -0.067553497252428665 0 0.0014050274238860984 -0.068381533138116235 0 0.0026882661576289549 -0.068533819862265935 0 0.0022390273363227277 -0.067553497252428665 0 0.0014167332958002644 -0.06676811473636711 0 0.0022390273363227277 -0.067553497252428665 0 0.0030466687434435391 -0.066404698884167959 0 0.00064132747045514155 -0.065533419038789495 0 0.0014167332958002644 -0.06676811473636711 0 0.0030466687434435391 -0.066404698884167959 0 0.0014167332958002644 -0.06676811473636711 0 0.0012119533862486121 -0.067343452383145749 0 0.0022390273363227277 -0.067553497252428665 0 -0.0011699962247964349 -0.061108087607091355 0 -0.0005780982030776365 -0.058309751222131147 0 0.0022390273363227277 -0.067553497252428665 0 0.0030466687434435391 -0.066404698884167959 0 0.0038297542143754292 -0.067448169592054519 0 0.0051448338041369512 -0.067287005905481242 0 0.0030466687434435391 -0.066404698884167959 0 0.0038297542143754292 -0.067448169592054519 0 -0.0036437940336842595 -0.048706420456650849 0 -0.004836810631155361 -0.04996083332019683 0 -0.0058756066894836423 -0.048900675301786774 0 -0.0036437940336842595 -0.048706420456650849 0 -0.004836810631155361 -0.04996083332019683 0 -0.0026975615544987063 -0.050364465654956385 0 0.00019654559912929214 -0.056129222487536927 0 -0.0005780982030776365 -0.058309751222131147 0 -0.0011115749534600034 -0.049680798795570989 0 -0.0036437940336842595 -0.048706420456650849 0 -0.0026975615544987063 -0.050364465654956385 0 -0.0027169402818516819 -0.052132979120535203 0 -0.0016100714716802465 -0.051262938751992261 0 -0.0026975615544987063 -0.050364465654956385 0 -0.0027169402818516819 -0.052132979120535203 0 -0.0026975615544987063 -0.050364465654956385 0 -0.0041042096208134139 -0.051300033409369929 0 -0.0044652154277325358 -0.05296624917789057 0 -0.0041042096208134139 -0.051300033409369929 0 -0.0058377504007766307 -0.051284166353903655 0 -0.004836810631155361 -0.04996083332019683 0 -0.0026975615544987063 -0.050364465654956385 0 -0.0041042096208134139 -0.051300033409369929 0 -0.004836810631155361 -0.04996083332019683 0 -0.0041042096208134139 -0.051300033409369929 0 -0.0058377504007766307 -0.051284166353903655 0 -0.0058377504007766307 -0.051284166353903655 0 -0.0081256248569012667 -0.051586839432790799 0 -0.0068611470250462747 -0.049741189852582128 0 -0.0066516045395501018 -0.053472944348520852 0 -0.0058377504007766307 -0.051284166353903655 0 -0.0081256248569012667 -0.051586839432790799 0 -0.0081256248569012667 -0.051586839432790799 0 -0.0068611470250462747 -0.049741189852582128 0 -0.0085849100532329504 -0.049421008371525119 0 -0.0074917795763841232 -0.048689524894034469 0 -0.0085849100532329504 -0.049421008371525119 0 -0.0088881479237488317 -0.048238838688387395 0 -0.0074917795763841232 -0.048689524894034469 0 -0.0068611470250462747 -0.049741189852582128 0 -0.0085849100532329504 -0.049421008371525119 0 -0.004836810631155361 -0.04996083332019683 0 -0.0068611470250462747 -0.049741189852582128 0 -0.0058756066894836423 -0.048900675301786774 0 -0.0074917795763841232 -0.048689524894034469 0 -0.0068611470250462747 -0.049741189852582128 0 -0.0058756066894836423 -0.048900675301786774 0 -0.004836810631155361 -0.04996083332019683 0 -0.0058377504007766307 -0.051284166353903655 0 -0.0068611470250462747 -0.049741189852582128 0 -0.011187254838479949 -0.049544974807066461 0 -0.010126841469769079 -0.05088616465181646 0 -0.011876423167236937 -0.050787205808813553 0 -0.011187254838479949 -0.049544974807066461 0 -0.010017006658304127 -0.0488876971285475 0 -0.010126841469769079 -0.05088616465181646 0 -0.011187254838479949 -0.049544974807066461 0 -0.011876423167236937 -0.050787205808813553 0 -0.01267164942757721 -0.049202779459967733 0 -0.011187254838479949 -0.049544974807066461 0 -0.01267164942757721 -0.049202779459967733 0 -0.01113772453664773 -0.04799472580075486 0 -0.011187254838479949 -0.049544974807066461 0 -0.010017006658304127 -0.0488876971285475 0 -0.01113772453664773 -0.04799472580075486 0 -0.0085849100532329504 -0.049421008371525119 0 -0.010017006658304127 -0.0488876971285475 0 -0.010126841469769079 -0.05088616465181646 0 -0.0085849100532329504 -0.049421008371525119 0 -0.010017006658304127 -0.0488876971285475 0 -0.0088881479237488317 -0.048238838688387395 0 -0.0081256248569012667 -0.051586839432790799 0 -0.0085849100532329504 -0.049421008371525119 0 -0.010126841469769079 -0.05088616465181646 0 -0.010087989841593667 -0.052638333883006337 0 -0.0081256248569012667 -0.051586839432790799 0 -0.010126841469769079 -0.05088616465181646 0 -0.011946186851441134 -0.052427651306514639 0 -0.010087989841593667 -0.052638333883006337 0 -0.010126841469769079 -0.05088616465181646 0 -0.008103434202622422 -0.061885161831185434 0 -0.0082291195381660534 -0.058429635725016103 0 -0.013773339356508683 -0.052562870197451102 0 -0.011946186851441134 -0.052427651306514639 0 -0.010126841469769079 -0.05088616465181646 0 -0.01294631206041346 -0.052417038998532631 0 -0.010126841469769079 -0.05088616465181646 0 -0.011876423167236937 -0.050787205808813553 0 -0.01294631206041346 -0.052417038998532631 0 -0.011876423167236937 -0.050787205808813553 0 -0.01267164942757721 -0.049202779459967733 0 3.1038588006228909e-05 -0.074913687920479782 0 7.1804082691980271e-06 -0.074902288896939714 0 4.6947369370722901e-05 -0.074836408498027834 0 -0.008103434202622422 -0.061885161831185434 0 -0.0022447326953197789 -0.06713104752294595 0 3.1038588006228909e-05 -0.074913687920479782 0 7.1804082691980271e-06 -0.074902288896939714 0 -6.1055853160576323e-06 -0.074931221638367823 0 7.1804082691980271e-06 -0.074902288896939714 0 2.3662126535322444e-05 -0.074883543571422337 0 8.6719084999122955e-06 -0.074897066981863311 0 7.1804082691980271e-06 -0.074902288896939714 0 8.6719084999122955e-06 -0.074897066981863311 0 9.9448362391323975e-07 -0.074910250907300829 0 -0.0026490973482500677 -0.069388251016667943 0 -0.0022447326953197789 -0.06713104752294595 0 7.1804082691980271e-06 -0.074902288896939714 0 2.3662126535322444e-05 -0.074883543571422337 0 3.8197325379554518e-05 -0.074877488905632145 0 2.3662126535322444e-05 -0.074883543571422337 0 3.8197325379554518e-05 -0.074877488905632145 0 3.9493273080504535e-05 -0.074866150510423377 0 -0.0022447326953197789 -0.06713104752294595 0 -0.0022377443530483807 -0.067725772695329187 0 2.3662126535322444e-05 -0.074883543571422337 0 3.9493273080504535e-05 -0.074866150510423377 0 2.4515843290018437e-05 -0.074867973074860816 0 3.9493273080504535e-05 -0.074866150510423377 0 3.918237371639866e-05 -0.074871936132815745 0 2.4515843290018437e-05 -0.074867973074860816 0 3.0319280908330006e-05 -0.074922231610890552 0 3.0425055723379203e-05 -0.074916870017545129 0 3.918237371639866e-05 -0.074871936132815745 0 2.4515843290018437e-05 -0.074867973074860816 0 4.4498545314657992e-05 -0.074884770595599476 0 3.7941342858482065e-05 -0.07485257412065921 0 3.9493273080504535e-05 -0.074866150510423377 0 3.1979546228861187e-05 -0.074861458522359411 0 2.3662126535322444e-05 -0.074883543571422337 0 8.6719084999122955e-06 -0.074897066981863311 0 2.4515843290018437e-05 -0.074867973074860816 0 7.2736894219935976e-05 -0.074948127894041178 0 5.5459436661045896e-05 -0.074949955282143765 0 6.8135163059229419e-05 -0.074938795162624694 0 7.2736894219935976e-05 -0.074948127894041178 0 5.5459436661045896e-05 -0.074949955282143765 0 4.5368277596920368e-05 -0.074963438631741541 0 5.5459436661045896e-05 -0.074949955282143765 0 6.8135163059229419e-05 -0.074938795162624694 0 6.1377348750685251e-05 -0.074943591872083201 0 7.2736894219935976e-05 -0.074948127894041178 0 6.8135163059229419e-05 -0.074938795162624694 0 6.9033800626260508e-05 -0.074931974678187088 0 7.2736894219935976e-05 -0.074948127894041178 0 6.9033800626260508e-05 -0.074931974678187088 0 6.1304103399804609e-05 -0.074916901287371843 0 6.8135163059229419e-05 -0.074938795162624694 0 7.0346833594767547e-05 -0.074932731513456668 0 7.5163461064152256e-05 -0.074935625273677364 0 6.8135163059229419e-05 -0.074938795162624694 0 6.9033800626260508e-05 -0.074931974678187088 0 7.0346833594767547e-05 -0.074932731513456668 0 6.9033800626260508e-05 -0.074931974678187088 0 7.0346833594767547e-05 -0.074932731513456668 0 6.6529377014369864e-05 -0.074926318624734825 0 7.1010429143307139e-05 -0.074932748469588514 0 7.1497304552644371e-05 -0.07493858843321359 0 6.6529377014369864e-05 -0.074926318624734825 0 7.0346833594767547e-05 -0.074932731513456668 0 7.1010429143307139e-05 -0.074932748469588514 0 7.5163461064152256e-05 -0.074935625273677364 0 7.0346833594767547e-05 -0.074932731513456668 0 7.1010429143307139e-05 -0.074932748469588514 0 6.6529377014369864e-05 -0.074926318624734825 0 7.1010429143307139e-05 -0.074932748469588514 0 7.1497304552644371e-05 -0.07493858843321359 0 7.5163461064152256e-05 -0.074935625273677364 0 0.0011871949139550949 -0.070977513276811427 0 0.0011309270802358309 -0.071061473606912853 0 7.5163461064152256e-05 -0.074935625273677364 0 7.3788008523274418e-05 -0.074940534120757227 0 8.7306257127260883e-05 -0.074944232104449435 0 7.1937478225229652e-05 -0.074940601790600567 0 7.5163461064152256e-05 -0.074935625273677364 0 8.7306257127260883e-05 -0.074944232104449435 0 0.0011871949139550949 -0.070977513276811427 0 0.0011786615428886899 -0.071020978211725372 0 6.8135163059229419e-05 -0.074938795162624694 0 7.5163461064152256e-05 -0.074935625273677364 0 7.3788008523274418e-05 -0.074940534120757227 0 6.8135163059229419e-05 -0.074938795162624694 0 7.3788008523274418e-05 -0.074940534120757227 0 6.1377348750685251e-05 -0.074943591872083201 0 7.3788008523274418e-05 -0.074940534120757227 0 6.7650929480307328e-05 -0.074938333553431366 0 8.7306257127260883e-05 -0.074944232104449435 0 7.3788008523274418e-05 -0.074940534120757227 0 6.7650929480307328e-05 -0.074938333553431366 0 6.1377348750685251e-05 -0.074943591872083201 0 7.1497304552644371e-05 -0.07493858843321359 0 6.6529377014369864e-05 -0.074926318624734825 0 4.6658909049135418e-05 -0.07489734742307011 0 6.1304103399804609e-05 -0.074916901287371843 0 6.6529377014369864e-05 -0.074926318624734825 0 4.6658909049135418e-05 -0.07489734742307011 0 0.0039176341490180459 -0.068838999795083858 0 0.0043351068401936282 -0.068958553572369699 0 0.0042505299037261914 -0.068735718135446155 0 0.0011871949139550949 -0.070977513276811427 0 0.001708253531928917 -0.069729672834218631 0 7.2736894219935976e-05 -0.074948127894041178 0 6.1304103399804609e-05 -0.074916901287371843 0 4.4498545314657992e-05 -0.074884770595599476 0 6.1304103399804609e-05 -0.074916901287371843 0 4.6658909049135418e-05 -0.07489734742307011 0 4.4498545314657992e-05 -0.074884770595599476 0 6.9033800626260508e-05 -0.074931974678187088 0 6.1304103399804609e-05 -0.074916901287371843 0 6.6529377014369864e-05 -0.074926318624734825 0 0.0043351068401936282 -0.068958553572369699 0 0.0045854483002918892 -0.06884059871567072 0 0.0047464801837762667 -0.06907529543220875 0 4.6658909049135418e-05 -0.07489734742307011 0 4.4498545314657992e-05 -0.074884770595599476 0 1.113702774248655e-05 -0.074863581566855769 0 0.001708253531928917 -0.069729672834218631 0 0.00040556850909334916 -0.067128948160403615 0 0.0043351068401936282 -0.068958553572369699 0 0.0045854483002918892 -0.06884059871567072 0 0.0044867341697264803 -0.068694911052088359 0 4.4498545314657992e-05 -0.074884770595599476 0 3.1979546228861187e-05 -0.074861458522359411 0 1.113702774248655e-05 -0.074863581566855769 0 3.918237371639866e-05 -0.074871936132815745 0 4.4498545314657992e-05 -0.074884770595599476 0 3.1979546228861187e-05 -0.074861458522359411 0 -0.0022447326953197789 -0.06713104752294595 0 -0.0014989128229319281 -0.066501619871862719 0 3.9493273080504535e-05 -0.074866150510423377 0 3.918237371639866e-05 -0.074871936132815745 0 3.1979546228861187e-05 -0.074861458522359411 0 -0.01113772453664773 -0.04799472580075486 0 -0.0088881479237488317 -0.048238838688387395 0 -0.0095411422118300369 -0.046773748224292769 0 -0.010017006658304127 -0.0488876971285475 0 -0.01113772453664773 -0.04799472580075486 0 -0.0088881479237488317 -0.048238838688387395 0 -0.0014989128229319281 -0.066501619871862719 0 0.00040556850909334916 -0.067128948160403615 0 0.0045854483002918892 -0.06884059871567072 0 0.0047464801837762667 -0.06907529543220875 0 0.0047758971879942828 -0.06863275557721861 0 0.0049834117153186889 -0.068680178953012969 0 0.0047464801837762667 -0.06907529543220875 0 0.0047758971879942828 -0.06863275557721861 0 0.0045854483002918892 -0.06884059871567072 0 0.0047758971879942828 -0.06863275557721861 0 0.0044867341697264803 -0.068694911052088359 0 0.0047758971879942828 -0.06863275557721861 0 0.0044867341697264803 -0.068694911052088359 0 0.0046017236907406169 -0.068413146986491799 0 0.0044867341697264803 -0.068694911052088359 0 0.0046017236907406169 -0.068413146986491799 0 0.0042626032673519481 -0.068452240360296082 0 0.0043351068401936282 -0.068958553572369699 0 0.0044867341697264803 -0.068694911052088359 0 0.0042505299037261914 -0.068735718135446155 0 0.0044867341697264803 -0.068694911052088359 0 0.0042626032673519481 -0.068452240360296082 0 0.0042505299037261914 -0.068735718135446155 0 0.0023529199898379991 -0.072887594817225232 0 0.0020126478489030314 -0.071713972290642691 0 0.0046017236907406169 -0.068413146986491799 0 0.0045965042302169266 -0.068086306933246632 0 0.0042626032673519481 -0.068452240360296082 0 0.0049565208455412809 -0.06827054689878144 0 0.0047758971879942828 -0.06863275557721861 0 0.0046017236907406169 -0.068413146986491799 0 0.0049565208455412809 -0.06827054689878144 0 0.0046017236907406169 -0.068413146986491799 0 0.0045965042302169266 -0.068086306933246632 0 0.0032055029738752815 -0.072039786908349598 0 0.0023529199898379991 -0.072887594817225232 0 0.0028632496385717172 -0.074335257292625703 0 0.0019953276660218413 -0.073905653996720208 0 0.0026653498691234984 -0.073122765315610377 0 0.0023529199898379991 -0.072887594817225232 0 0.0022232129034838971 -0.073228087782867851 0 0.0023529199898379991 -0.072887594817225232 0 0.0010721909151644488 -0.073375526319612944 0 0.00039206634501932712 -0.074721537311869909 0 0.00023568336183117387 -0.074647095430451033 0 0.00025117381185088458 -0.074870526674391646 0 0.00025407281246933063 -0.074253907446813913 0 -9.910577604807264e-05 -0.074441964228458529 0 -5.0323035609538185e-05 -0.074132896324223346 0 0.00043754870747950039 -0.075054318702529918 0 0.00025407281246933063 -0.074253907446813913 0 -9.910577604807264e-05 -0.074441964228458529 0 0.00043754870747950039 -0.075054318702529918 0 0.00025407281246933063 -0.074253907446813913 0 0.0014729061106037494 -0.074403327004467598 0 0.00025407281246933063 -0.074253907446813913 0 0.0014729061106037494 -0.074403327004467598 0 0.0015818702906257595 -0.073121891489932311 0 0.00073036239302139659 -0.073525828741548435 0 0.0010721909151644488 -0.073375526319612944 0 1.1331775809379882e-05 -0.074522568521697682 0 0.00023568336183117387 -0.074647095430451033 0 0.00013113499924942112 -0.074751261947993392 0 1.1331775809379882e-05 -0.074522568521697682 0 -9.910577604807264e-05 -0.074441964228458529 0 -5.0323035609538185e-05 -0.074132896324223346 0 0.00023568336183117387 -0.074647095430451033 0 0.00013113499924942112 -0.074751261947993392 0 0.00025117381185088458 -0.074870526674391646 0 1.1331775809379882e-05 -0.074522568521697682 0 0.00013113499924942112 -0.074751261947993392 0 2.8696292465562918e-05 -0.074777335590462499 0 0.00013113499924942112 -0.074751261947993392 0 0.00010345891089723347 -0.074848663503787341 0 2.8696292465562918e-05 -0.074777335590462499 0 0.00010345891089723347 -0.074848663503787341 0 5.9099904758302645e-05 -0.074891806695877555 0 3.508978885398962e-05 -0.074854449329062794 0 0.00013113499924942112 -0.074751261947993392 0 0.00010345891089723347 -0.074848663503787341 0 0.00025117381185088458 -0.074870526674391646 0 0.00010345891089723347 -0.074848663503787341 0 0.00025117381185088458 -0.074870526674391646 0 0.00013635006006249174 -0.074903394464783904 0 0.0039176341490180459 -0.068838999795083858 0 0.0042626032673519481 -0.068452240360296082 0 0.0042505299037261914 -0.068735718135446155 0 0.000121785945398471 -0.074959171606047315 0 0.00025117381185088458 -0.074870526674391646 0 0.00013635006006249174 -0.074903394464783904 0 0.0011871949139550949 -0.070977513276811427 0 0.0020126478489030314 -0.071713972290642691 0 8.7455572376953921e-05 -0.074912851112379317 0 5.2278230410086555e-05 -0.074924583800577843 0 5.9099904758302645e-05 -0.074891806695877555 0 0.00010345891089723347 -0.074848663503787341 0 8.7455572376953921e-05 -0.074912851112379317 0 5.9099904758302645e-05 -0.074891806695877555 0 0.00010345891089723347 -0.074848663503787341 0 8.7455572376953921e-05 -0.074912851112379317 0 0.00013635006006249174 -0.074903394464783904 0 8.7455572376953921e-05 -0.074912851112379317 0 0.00013635006006249174 -0.074903394464783904 0 8.7306257127260883e-05 -0.074944232104449435 0 0.000121785945398471 -0.074959171606047315 0 0.00013635006006249174 -0.074903394464783904 0 8.7306257127260883e-05 -0.074944232104449435 0 6.7650929480307328e-05 -0.074938333553431366 0 8.7455572376953921e-05 -0.074912851112379317 0 8.7306257127260883e-05 -0.074944232104449435 0 6.7650929480307328e-05 -0.074938333553431366 0 8.7455572376953921e-05 -0.074912851112379317 0 5.2278230410086555e-05 -0.074924583800577843 0 6.7650929480307328e-05 -0.074938333553431366 0 5.2278230410086555e-05 -0.074924583800577843 0 4.9601202629785762e-05 -0.074940950139724516 0 5.2278230410086555e-05 -0.074924583800577843 0 2.965905545477046e-05 -0.074938193592276658 0 4.9601202629785762e-05 -0.074940950139724516 0 5.2278230410086555e-05 -0.074924583800577843 0 2.965905545477046e-05 -0.074938193592276658 0 2.9071462901900567e-05 -0.074905615979821538 0 5.2278230410086555e-05 -0.074924583800577843 0 2.9071462901900567e-05 -0.074905615979821538 0 5.9099904758302645e-05 -0.074891806695877555 0 2.965905545477046e-05 -0.074938193592276658 0 1.8717333331010855e-06 -0.074922503430221055 0 3.5632220082829707e-06 -0.074952792240130697 0 2.965905545477046e-05 -0.074938193592276658 0 2.9071462901900567e-05 -0.074905615979821538 0 1.8717333331010855e-06 -0.074922503430221055 0 1.8717333331010855e-06 -0.074922503430221055 0 -2.0204502178942149e-06 -0.074868657626916538 0 -1.1930544750965016e-05 -0.074943574226458864 0 2.9071462901900567e-05 -0.074905615979821538 0 1.8717333331010855e-06 -0.074922503430221055 0 -2.0204502178942149e-06 -0.074868657626916538 0 -2.0204502178942149e-06 -0.074868657626916538 0 3.508978885398962e-05 -0.074854449329062794 0 2.8696292465562918e-05 -0.074777335590462499 0 2.9071462901900567e-05 -0.074905615979821538 0 5.9099904758302645e-05 -0.074891806695877555 0 3.508978885398962e-05 -0.074854449329062794 0 2.9071462901900567e-05 -0.074905615979821538 0 -2.0204502178942149e-06 -0.074868657626916538 0 3.508978885398962e-05 -0.074854449329062794 0 0.00010345891089723347 -0.074848663503787341 0 3.508978885398962e-05 -0.074854449329062794 0 2.8696292465562918e-05 -0.074777335590462499 0 -2.0204502178942149e-06 -0.074868657626916538 0 2.8696292465562918e-05 -0.074777335590462499 0 -6.6374092767371655e-06 -0.074776048869267905 0 1.1331775809379882e-05 -0.074522568521697682 0 2.8696292465562918e-05 -0.074777335590462499 0 -6.6374092767371655e-06 -0.074776048869267905 0 -2.0204502178942149e-06 -0.074868657626916538 0 -6.6374092767371655e-06 -0.074776048869267905 0 -1.0679179338439777e-05 -0.074897458362650854 0 -6.6374092767371655e-06 -0.074776048869267905 0 -6.7350935822920679e-06 -0.074799399514339088 0 1.2903039048626227e-05 -0.074657309852417975 0 -6.6374092767371655e-06 -0.074776048869267905 0 -6.7350935822920679e-06 -0.074799399514339088 0 -1.0679179338439777e-05 -0.074897458362650854 0 1.1331775809379882e-05 -0.074522568521697682 0 -6.6374092767371655e-06 -0.074776048869267905 0 1.2903039048626227e-05 -0.074657309852417975 0 -6.7350935822920679e-06 -0.074799399514339088 0 -1.0679179338439777e-05 -0.074897458362650854 0 3.3377022061669019e-06 -0.07486377445866664 0 -1.0679179338439777e-05 -0.074897458362650854 0 -4.0908896836263293e-08 -0.074999872840493712 0 3.3377022061669019e-06 -0.07486377445866664 0 -4.0908896836263293e-08 -0.074999872840493712 0 3.3377022061669019e-06 -0.07486377445866664 0 1.0072947872817131e-08 -0.074999791082986822 0 -1.0679179338439777e-05 -0.074897458362650854 0 -4.0908896836263293e-08 -0.074999872840493712 0 -1.1930544750965016e-05 -0.074943574226458864 0 -4.0908896836263293e-08 -0.074999872840493712 0 -1.1930544750965016e-05 -0.074943574226458864 0 -6.1228695078078176e-09 -0.074999941338733667 0 -2.0204502178942149e-06 -0.074868657626916538 0 -1.0679179338439777e-05 -0.074897458362650854 0 -1.1930544750965016e-05 -0.074943574226458864 0 -1.1930544750965016e-05 -0.074943574226458864 0 -6.118726344098046e-06 -0.074977262658280877 0 3.5632220082829707e-06 -0.074952792240130697 0 1.8717333331010855e-06 -0.074922503430221055 0 -1.1930544750965016e-05 -0.074943574226458864 0 3.5632220082829707e-06 -0.074952792240130697 0 -1.1930544750965016e-05 -0.074943574226458864 0 -6.1228695078078176e-09 -0.074999941338733667 0 -6.118726344098046e-06 -0.074977262658280877 0 -6.1228695078078176e-09 -0.074999941338733667 0 -1.1783819060487768e-08 -0.0749999627455495 0 -6.118726344098046e-06 -0.074977262658280877 0 -1.1783819060487768e-08 -0.0749999627455495 0 -3.0876738283664366e-06 -0.07497917045665041 0 -6.118726344098046e-06 -0.074977262658280877 0 -1.5398455778680689e-09 -0.074999993815968086 0 -4.5826302328662474e-06 -0.074985885592472504 0 -2.8816306099981797e-06 -0.074990376714510185 0 -8.9722429153158189e-10 -0.074999983333418577 0 1.2458008549564755e-06 -0.074993135275933417 0 -3.0876738283664366e-06 -0.07497917045665041 0 2.0109098068092924e-06 -0.074968894405539138 0 -6.118726344098046e-06 -0.074977262658280877 0 2.0109098068092924e-06 -0.074968894405539138 0 -6.118726344098046e-06 -0.074977262658280877 0 3.5632220082829707e-06 -0.074952792240130697 0 3.5632220082829707e-06 -0.074952792240130697 0 1.4801973144132276e-05 -0.074962342130926923 0 2.4349195129695693e-05 -0.074952362310674842 0 2.965905545477046e-05 -0.074938193592276658 0 3.5632220082829707e-06 -0.074952792240130697 0 2.4349195129695693e-05 -0.074952362310674842 0 1.4801973144132276e-05 -0.074962342130926923 0 2.4349195129695693e-05 -0.074952362310674842 0 2.9656369418799687e-05 -0.074964301514698045 0 2.0109098068092924e-06 -0.074968894405539138 0 3.5632220082829707e-06 -0.074952792240130697 0 1.4801973144132276e-05 -0.074962342130926923 0 2.0109098068092924e-06 -0.074968894405539138 0 1.4801973144132276e-05 -0.074962342130926923 0 1.2945842345238761e-05 -0.074971418343612622 0 6.1377348750685251e-05 -0.074943591872083201 0 4.9601202629785762e-05 -0.074940950139724516 0 4.1398437795259754e-05 -0.074951721134263322 0 6.7650929480307328e-05 -0.074938333553431366 0 6.1377348750685251e-05 -0.074943591872083201 0 4.9601202629785762e-05 -0.074940950139724516 0 2.965905545477046e-05 -0.074938193592276658 0 4.9601202629785762e-05 -0.074940950139724516 0 4.1398437795259754e-05 -0.074951721134263322 0 2.965905545477046e-05 -0.074938193592276658 0 2.4349195129695693e-05 -0.074952362310674842 0 4.1398437795259754e-05 -0.074951721134263322 0 2.4349195129695693e-05 -0.074952362310674842 0 4.1398437795259754e-05 -0.074951721134263322 0 2.9656369418799687e-05 -0.074964301514698045 0 4.1398437795259754e-05 -0.074951721134263322 0 4.2674069879816125e-05 -0.074957249432776207 0 2.9656369418799687e-05 -0.074964301514698045 0 5.5459436661045896e-05 -0.074949955282143765 0 6.1377348750685251e-05 -0.074943591872083201 0 4.1398437795259754e-05 -0.074951721134263322 0 5.5459436661045896e-05 -0.074949955282143765 0 4.1398437795259754e-05 -0.074951721134263322 0 4.2674069879816125e-05 -0.074957249432776207 0 8.6719084999122955e-06 -0.074897066981863311 0 2.4515843290018437e-05 -0.074867973074860816 0 -1.1971512703315458e-05 -0.074910048693910797 0 3.0319280908330006e-05 -0.074922231610890552 0 2.0122348482117296e-05 -0.074935838265108301 0 7.2736894219935976e-05 -0.074948127894041178 0 4.5368277596920368e-05 -0.074963438631741541 0 2.4219221683703807e-05 -0.074987751370114986 0 4.5368277596920368e-05 -0.074963438631741541 0 4.2674069879816125e-05 -0.074957249432776207 0 2.9656369418799687e-05 -0.074964301514698045 0 5.5459436661045896e-05 -0.074949955282143765 0 4.5368277596920368e-05 -0.074963438631741541 0 4.2674069879816125e-05 -0.074957249432776207 0 4.5368277596920368e-05 -0.074963438631741541 0 2.9656369418799687e-05 -0.074964301514698045 0 3.009400315987762e-05 -0.074972730533452103 0 2.9656369418799687e-05 -0.074964301514698045 0 2.5356485136873141e-05 -0.074971241339803443 0 3.009400315987762e-05 -0.074972730533452103 0 4.5368277596920368e-05 -0.074963438631741541 0 3.009400315987762e-05 -0.074972730533452103 0 2.4219221683703807e-05 -0.074987751370114986 0 2.5356485136873141e-05 -0.074971241339803443 0 3.009400315987762e-05 -0.074972730533452103 0 1.9458606697117945e-05 -0.074977953940239359 0 3.009400315987762e-05 -0.074972730533452103 0 1.9458606697117945e-05 -0.074977953940239359 0 2.4219221683703807e-05 -0.074987751370114986 0 -3.0876738283664366e-06 -0.07497917045665041 0 2.0109098068092924e-06 -0.074968894405539138 0 1.2945842345238761e-05 -0.074971418343612622 0 1.2458008549564755e-06 -0.074993135275933417 0 7.0613160425311837e-06 -0.07499118990116721 0 -4.5826302328662474e-06 -0.074985885592472504 0 1.9458606697117945e-05 -0.074977953940239359 0 5.6065437353030069e-06 -0.074981776562337177 0 -3.0876738283664366e-06 -0.07497917045665041 0 1.2945842345238761e-05 -0.074971418343612622 0 1.9458606697117945e-05 -0.074977953940239359 0 2.9656369418799687e-05 -0.074964301514698045 0 2.5356485136873141e-05 -0.074971241339803443 0 1.2945842345238761e-05 -0.074971418343612622 0 1.4801973144132276e-05 -0.074962342130926923 0 2.9656369418799687e-05 -0.074964301514698045 0 1.2945842345238761e-05 -0.074971418343612622 0 1.9458606697117945e-05 -0.074977953940239359 0 5.6065437353030069e-06 -0.074981776562337177 0 2.4219221683703807e-05 -0.074987751370114986 0 2.5356485136873141e-05 -0.074971241339803443 0 1.2945842345238761e-05 -0.074971418343612622 0 1.9458606697117945e-05 -0.074977953940239359 0 5.6065437353030069e-06 -0.074981776562337177 0 2.4219221683703807e-05 -0.074987751370114986 0 -8.7707413456383292e-06 -0.074977871404535573 0 2.0122348482117296e-05 -0.074935838265108301 0 1.3919935955110151e-05 -0.074943533263519921 0 -1.286309395799348e-05 -0.07494473666746021 0 -1.1971512703315458e-05 -0.074910048693910797 0 -8.7707413456383292e-06 -0.074977871404535573 0 7.1804082691980271e-06 -0.074902288896939714 0 -6.1865704404937377e-06 -0.074925399960905928 0 9.9448362391323975e-07 -0.074910250907300829 0 8.6719084999122955e-06 -0.074897066981863311 0 -1.1971512703315458e-05 -0.074910048693910797 0 9.9448362391323975e-07 -0.074910250907300829 0 -1.286309395799348e-05 -0.07494473666746021 0 -1.1971512703315458e-05 -0.074910048693910797 0 -6.1865704404937377e-06 -0.074925399960905928 0 -1.1971512703315458e-05 -0.074910048693910797 0 -6.1865704404937377e-06 -0.074925399960905928 0 9.9448362391323975e-07 -0.074910250907300829 0 7.1804082691980271e-06 -0.074902288896939714 0 -6.1865704404937377e-06 -0.074925399960905928 0 -6.1055853160576323e-06 -0.074931221638367823 0 -6.1865704404937377e-06 -0.074925399960905928 0 -6.1055853160576323e-06 -0.074931221638367823 0 -1.3008332182246411e-05 -0.07494703290292222 0 -1.286309395799348e-05 -0.07494473666746021 0 -1.3058399884717485e-05 -0.074964123572310984 0 -8.7707413456383292e-06 -0.074977871404535573 0 -1.286309395799348e-05 -0.07494473666746021 0 -1.3008332182246411e-05 -0.07494703290292222 0 -1.3058399884717485e-05 -0.074964123572310984 0 -1.286309395799348e-05 -0.07494473666746021 0 -6.1865704404937377e-06 -0.074925399960905928 0 -1.3008332182246411e-05 -0.07494703290292222 0 -1.5324705287191843e-05 -0.074963376330368744 0 -1.3008332182246411e-05 -0.07494703290292222 0 -1.3058399884717485e-05 -0.074964123572310984 0 -1.0739291596168684e-05 -0.074976838552690231 0 -1.3058399884717485e-05 -0.074964123572310984 0 -5.5634233513905428e-06 -0.07498476897322659 0 -1.3058399884717485e-05 -0.074964123572310984 0 -5.5634233513905428e-06 -0.07498476897322659 0 -8.7707413456383292e-06 -0.074977871404535573 0 -8.7112649989477447e-09 -0.0749999741767651 0 -2.5963078075465977e-09 -0.074999970243933262 0 -5.5634233513905428e-06 -0.07498476897322659 0 -2.5963078075465977e-09 -0.074999970243933262 0 -5.5634233513905428e-06 -0.07498476897322659 0 -2.8816306099981797e-06 -0.074990376714510185 0 -1.5398455778680689e-09 -0.074999993815968086 0 -2.5963078075465977e-09 -0.074999970243933262 0 -2.8816306099981797e-06 -0.074990376714510185 0 -4.5826302328662474e-06 -0.074985885592472504 0 5.6065437353030069e-06 -0.074981776562337177 0 -8.7707413456383292e-06 -0.074977871404535573 0 -4.5826302328662474e-06 -0.074985885592472504 0 -2.8816306099981797e-06 -0.074990376714510185 0 -8.7707413456383292e-06 -0.074977871404535573 0 -5.5634233513905428e-06 -0.07498476897322659 0 -2.8816306099981797e-06 -0.074990376714510185 0 -8.7707413456383292e-06 -0.074977871404535573 0 0.012688957053318997 -0.015779473629296104 0 0.013165039673343691 -0.013550495207028682 0 0.014588592863496562 -0.015964910890626061 0 0.017147425428368161 -0.017338100298108103 0 0.01477561965869938 -0.015919988320232715 0 0.016708508916313709 -0.02032224401931558 0 0.014466290446174306 -0.015335967501713203 0 0.015942515464283956 -0.01869352500079461 0 0.012688957053318997 -0.015779473629296104 0 0.01220404376086474 -0.014541169202136201 0 0.013165039673343691 -0.013550495207028682 0 0.012688957053318997 -0.015779473629296104 0 0.011033066694298125 -0.016092190950148431 0 0.01220404376086474 -0.014541169202136201 0 0.01220404376086474 -0.014541169202136201 0 0.012283013580652691 -0.013392672385584815 0 0.013165039673343691 -0.013550495207028682 0 0.01220404376086474 -0.014541169202136201 0 0.012283013580652691 -0.013392672385584815 0 0.011013492359126732 -0.013412972567528006 0 0.012283013580652691 -0.013392672385584815 0 0.013165039673343691 -0.013550495207028682 0 0.013000519936524412 -0.011605853219449841 0 0.012283013580652691 -0.013392672385584815 0 0.011013492359126732 -0.013412972567528006 0 0.01181621118015394 -0.012805009764140913 0 0.017147425428368161 -0.017338100298108103 0 0.014897286607571411 -0.014723070233021222 0 0.019974005564587536 -0.016431660798199299 0 0.017147425428368161 -0.017338100298108103 0 0.014897286607571411 -0.014723070233021222 0 0.01477561965869938 -0.015919988320232715 0 0.014897286607571411 -0.014723070233021222 0 0.019974005564587536 -0.016431660798199299 0 0.020077650213545104 -0.012171305125591864 0 0.019974005564587536 -0.016431660798199299 0 0.023382563294595857 -0.018780608489022937 0 0.024197883491319922 -0.015886886872021753 0 0.019974005564587536 -0.016431660798199299 0 0.020077650213545104 -0.012171305125591864 0 0.024197883491319922 -0.015886886872021753 0 0.023382563294595857 -0.018780608489022937 0 0.019344563750533186 -0.019270279433121026 0 0.021697820080036481 -0.020858298823602895 0 0.019974005564587536 -0.016431660798199299 0 0.023382563294595857 -0.018780608489022937 0 0.019344563750533186 -0.019270279433121026 0 0.017147425428368161 -0.017338100298108103 0 0.019974005564587536 -0.016431660798199299 0 0.019344563750533186 -0.019270279433121026 0 0.017147425428368161 -0.017338100298108103 0 0.019344563750533186 -0.019270279433121026 0 0.016708508916313709 -0.02032224401931558 0 0.019344563750533186 -0.019270279433121026 0 0.018554897018272974 -0.024571144231844682 0 0.016708508916313709 -0.02032224401931558 0 0.019344563750533186 -0.019270279433121026 0 0.021697820080036481 -0.020858298823602895 0 0.018554897018272974 -0.024571144231844682 0 0.017678932700026753 -0.022662509622254894 0 0.015942515464283956 -0.01869352500079461 0 0.021697820080036481 -0.020858298823602895 0 0.021662979134562065 -0.023574816525503847 0 0.026415352042839492 -0.020643871457886737 0 0.021697820080036481 -0.020858298823602895 0 0.021662979134562065 -0.023574816525503847 0 0.018554897018272974 -0.024571144231844682 0 0.021662979134562065 -0.023574816525503847 0 0.021677856765776035 -0.026094706621945317 0 0.023614541291779756 -0.025773673342907685 0 0.021662979134562065 -0.023574816525503847 0 0.021677856765776035 -0.026094706621945317 0 0.018554897018272974 -0.024571144231844682 0 0.017659975671125008 -0.020741538498307868 0 0.014227592182890393 -0.022641944697043486 0 0.013204994279070448 -0.018799360682294739 0 0.014227592182890393 -0.022641944697043486 0 0.013204994279070448 -0.018799360682294739 0 0.01110143550802942 -0.021562579418833053 0 0.012688957053318997 -0.015779473629296104 0 0.013204994279070448 -0.018799360682294739 0 0.014588592863496562 -0.015964910890626061 0 0.017659975671125008 -0.020741538498307868 0 0.013204994279070448 -0.018799360682294739 0 0.014588592863496562 -0.015964910890626061 0 0.012688957053318997 -0.015779473629296104 0 0.013204994279070448 -0.018799360682294739 0 0.011634892109955957 -0.017518960373796133 0 0.011033066694298125 -0.016092190950148431 0 0.011634892109955957 -0.017518960373796133 0 0.010163121860294418 -0.017381329334317592 0 0.012688957053318997 -0.015779473629296104 0 0.011033066694298125 -0.016092190950148431 0 0.011634892109955957 -0.017518960373796133 0 0.013204994279070448 -0.018799360682294739 0 0.011634892109955957 -0.017518960373796133 0 0.010935305139188771 -0.019300216077444299 0 0.011634892109955957 -0.017518960373796133 0 0.010935305139188771 -0.019300216077444299 0 0.010163121860294418 -0.017381329334317592 0 0.013204994279070448 -0.018799360682294739 0 0.010935305139188771 -0.019300216077444299 0 0.01110143550802942 -0.021562579418833053 0 0.010935305139188771 -0.019300216077444299 0 0.01110143550802942 -0.021562579418833053 0 0.01057668949980829 -0.020415839216498817 0 0.010935305139188771 -0.019300216077444299 0 0.01057668949980829 -0.020415839216498817 0 0.009909321933058041 -0.019145772724512032 0 0.009909321933058041 -0.019145772724512032 0 0.010031836849416553 -0.020212675156997099 0 0.0093622736272232169 -0.019476013284314451 0 0.01057668949980829 -0.020415839216498817 0 0.009909321933058041 -0.019145772724512032 0 0.010031836849416553 -0.020212675156997099 0 0.010935305139188771 -0.019300216077444299 0 0.009909321933058041 -0.019145772724512032 0 0.010163121860294418 -0.017381329334317592 0 0.009909321933058041 -0.019145772724512032 0 0.0086569004542940923 -0.018475096016512236 0 0.0089557976472921103 -0.017401980309897497 0 0.009909321933058041 -0.019145772724512032 0 0.0086569004542940923 -0.018475096016512236 0 0.0093622736272232169 -0.019476013284314451 0 0.0086569004542940923 -0.018475096016512236 0 0.0078735171819777332 -0.017081534538963328 0 0.0071386981454850916 -0.018345630504893424 0 0.0086569004542940923 -0.018475096016512236 0 0.0071386981454850916 -0.018345630504893424 0 0.0085642582491578731 -0.019440610461356728 0 0.0086569004542940923 -0.018475096016512236 0 0.0085642582491578731 -0.019440610461356728 0 0.0093622736272232169 -0.019476013284314451 0 0.0086569004542940923 -0.018475096016512236 0 0.0078735171819777332 -0.017081534538963328 0 0.0089557976472921103 -0.017401980309897497 0 0.0078735171819777332 -0.017081534538963328 0 0.0070827988881433327 -0.01601224241324941 0 0.0085656320807216187 -0.015297819526835345 0 0.0078735171819777332 -0.017081534538963328 0 0.0089557976472921103 -0.017401980309897497 0 0.0085656320807216187 -0.015297819526835345 0 0.011033066694298125 -0.016092190950148431 0 0.010163121860294418 -0.017381329334317592 0 0.0085656320807216187 -0.015297819526835345 0 0.010163121860294418 -0.017381329334317592 0 0.0089557976472921103 -0.017401980309897497 0 0.0085656320807216187 -0.015297819526835345 0 0.009909321933058041 -0.019145772724512032 0 0.010163121860294418 -0.017381329334317592 0 0.0089557976472921103 -0.017401980309897497 0 0.0060080917669230356 -0.016124024561556285 0 0.0066782875364687555 -0.017024405955392615 0 0.0071386981454850916 -0.018345630504893424 0 0.0060080917669230356 -0.016124024561556285 0 0.0063082272640724892 -0.0161959366740679 0 0.0066782875364687555 -0.017024405955392615 0 0.0060977386314418017 -0.015415979975649774 0 0.0063082272640724892 -0.0161959366740679 0 0.0064928000739971677 -0.016237620529178595 0 0.0060080917669230356 -0.016124024561556285 0 0.0060977386314418017 -0.015415979975649774 0 0.0063082272640724892 -0.0161959366740679 0 0.0063082272640724892 -0.0161959366740679 0 0.0064928000739971677 -0.016237620529178595 0 0.0066782875364687555 -0.017024405955392615 0 0.0078735171819777332 -0.017081534538963328 0 0.0070059133457119902 -0.016751667604906914 0 0.0071386981454850916 -0.018345630504893424 0 0.0064928000739971677 -0.016237620529178595 0 0.0070059133457119902 -0.016751667604906914 0 0.0066782875364687555 -0.017024405955392615 0 0.0070059133457119902 -0.016751667604906914 0 0.0066782875364687555 -0.017024405955392615 0 0.0071386981454850916 -0.018345630504893424 0 0.0078735171819777332 -0.017081534538963328 0 0.0070059133457119902 -0.016751667604906914 0 0.0070827988881433327 -0.01601224241324941 0 0.0070827988881433327 -0.01601224241324941 0 0.0066897299675451301 -0.015761899458397823 0 0.0066513049334908422 -0.015993258665786055 0 0.0070827988881433327 -0.01601224241324941 0 0.0066356439446441642 -0.015471008364921634 0 0.0066344713187936385 -0.015563314789276023 0 0.0070827988881433327 -0.01601224241324941 0 0.0066897299675451301 -0.015761899458397823 0 0.0066344713187936385 -0.015563314789276023 0 0.0065854362342390501 -0.015586228061009648 0 0.0066897299675451301 -0.015761899458397823 0 0.0066344713187936385 -0.015563314789276023 0 0.0064928000739971677 -0.016237620529178595 0 0.0070059133457119902 -0.016751667604906914 0 0.0066513049334908422 -0.015993258665786055 0 0.0070059133457119902 -0.016751667604906914 0 0.0070827988881433327 -0.01601224241324941 0 0.0066513049334908422 -0.015993258665786055 0 0.006060738487488131 -0.014851183485843772 0 0.0060977386314418017 -0.015415979975649774 0 0.0063164168306479125 -0.015588628915852163 0 0.0070030181691099723 -0.013375432023090366 0 0.0083330469453516704 -0.01324994896200616 0 0.006060738487488131 -0.014851183485843772 0 0.006470941593961139 -0.015535336065748639 0 0.0066464811208173605 -0.015558314365571448 0 0.006060738487488131 -0.014851183485843772 0 0.006470941593961139 -0.015535336065748639 0 0.0063164168306479125 -0.015588628915852163 0 0.0064928000739971677 -0.016237620529178595 0 0.0066513049334908422 -0.015993258665786055 0 0.0063164168306479125 -0.015588628915852163 0 0.0066513049334908422 -0.015993258665786055 0 0.006470941593961139 -0.015535336065748639 0 0.0063164168306479125 -0.015588628915852163 0 0.0066897299675451301 -0.015761899458397823 0 0.0066513049334908422 -0.015993258665786055 0 0.006470941593961139 -0.015535336065748639 0 0.0065854362342390501 -0.015586228061009648 0 0.006470941593961139 -0.015535336065748639 0 0.0066464811208173605 -0.015558314365571448 0 0.0065854362342390501 -0.015586228061009648 0 0.0066897299675451301 -0.015761899458397823 0 0.006470941593961139 -0.015535336065748639 0 0.0060977386314418017 -0.015415979975649774 0 0.0064928000739971677 -0.016237620529178595 0 0.0063164168306479125 -0.015588628915852163 0 0.0083014896885986733 -0.011724999715321311 0 0.0089405754400673949 -0.010488606372183669 0 0.0097051537947801178 -0.011238378040682919 0 0.0089405754400673949 -0.010488606372183669 0 0.0097051537947801178 -0.011238378040682919 0 0.0095769799305812902 -0.010137235278347067 0 0.0069859418737608708 -0.015808712106874179 0 0.0082687868524069768 -0.01448972234960802 0 0.0074072273495907372 -0.013113027819275955 0 0.0069859418737608708 -0.015808712106874179 0 0.0082687868524069768 -0.01448972234960802 0 0.0098514431202330055 -0.015188058186091868 0 0.0070827988881433327 -0.01601224241324941 0 0.0066356439446441642 -0.015471008364921634 0 0.0085656320807216187 -0.015297819526835345 0 0.0083330469453516704 -0.01324994896200616 0 0.0086148291294904401 -0.010902497834569612 0 0.0065854362342390501 -0.015586228061009648 0 0.0066464811208173605 -0.015558314365571448 0 0.0066344713187936385 -0.015563314789276023 0 0.0083330469453516704 -0.01324994896200616 0 0.008329957738227459 -0.013259796890876358 0 0.0097051537947801178 -0.011238378040682919 0 0.010007113798387422 -0.009288601067819648 0 0.0095769799305812902 -0.010137235278347067 0 0.0082687868524069768 -0.01448972234960802 0 0.0074072273495907372 -0.013113027819275955 0 0.0090473573002091048 -0.013394921761032692 0 0.010007113798387422 -0.009288601067819648 0 0.0095598563763846477 -0.0096708500758692691 0 0.0092474313472045572 -0.0091764363599351317 0 0.010007113798387422 -0.009288601067819648 0 0.0095769799305812902 -0.010137235278347067 0 0.0095598563763846477 -0.0096708500758692691 0 0.0080969808604964364 -0.0097084494268833681 0 0.0089405754400673949 -0.010488606372183669 0 0.008677849982470667 -0.0085568353814373561 0 0.0084228477735315398 -0.0087101401444391827 0 0.0080138052190986339 -0.0071343893034881544 0 0.0089405754400673949 -0.010488606372183669 0 0.0092474313472045572 -0.0091764363599351317 0 0.0082127354295914133 -0.0086230926267125575 0 0.0089405754400673949 -0.010488606372183669 0 0.0095598563763846477 -0.0096708500758692691 0 0.0092474313472045572 -0.0091764363599351317 0 0.0089405754400673949 -0.010488606372183669 0 0.0095769799305812902 -0.010137235278347067 0 0.0095598563763846477 -0.0096708500758692691 0 0.01220404376086474 -0.014541169202136201 0 0.0098514431202330055 -0.015188058186091868 0 0.011013492359126732 -0.013412972567528006 0 0.011033066694298125 -0.016092190950148431 0 0.01220404376086474 -0.014541169202136201 0 0.0085656320807216187 -0.015297819526835345 0 0.010427737593923863 -0.014122964924783899 0 0.0091832790951141378 -0.014099946153813485 0 0.0083330469453516704 -0.01324994896200616 0 0.0091832790951141378 -0.014099946153813485 0 0.0082687868524069768 -0.01448972234960802 0 0.0098514431202330055 -0.015188058186091868 0 0.0090473573002091048 -0.013394921761032692 0 0.0090473573002091048 -0.013394921761032692 0 0.011013492359126732 -0.013412972567528006 0 0.0099375897027780824 -0.01198434584162332 0 0.0098514431202330055 -0.015188058186091868 0 0.0090473573002091048 -0.013394921761032692 0 0.011013492359126732 -0.013412972567528006 0 0.0074072273495907372 -0.013113027819275955 0 0.0090473573002091048 -0.013394921761032692 0 0.0086855144160229731 -0.011877667832956924 0 0.011444770117896226 -0.011937679067396368 0 0.011105657321344378 -0.010350291879235493 0 0.013000519936524412 -0.011605853219449841 0 0.011013492359126732 -0.013412972567528006 0 0.011444770117896226 -0.011937679067396368 0 0.01181621118015394 -0.012805009764140913 0 0.011444770117896226 -0.011937679067396368 0 0.0099375897027780824 -0.01198434584162332 0 0.011105657321344378 -0.010350291879235493 0 0.011013492359126732 -0.013412972567528006 0 0.011444770117896226 -0.011937679067396368 0 0.0099375897027780824 -0.01198434584162332 0 0.0090473573002091048 -0.013394921761032692 0 0.0099375897027780824 -0.01198434584162332 0 0.0086855144160229731 -0.011877667832956924 0 0.0099375897027780824 -0.01198434584162332 0 0.0086855144160229731 -0.011877667832956924 0 0.0093911445573913888 -0.010585788962792693 0 0.0093911445573913888 -0.010585788962792693 0 0.0076546673381789315 -0.010157098944473038 0 0.0097458073517083695 -0.0086874236250264417 0 0.0086855144160229731 -0.011877667832956924 0 0.0093911445573913888 -0.010585788962792693 0 0.0076546673381789315 -0.010157098944473038 0 0.0093911445573913888 -0.010585788962792693 0 0.011105657321344378 -0.010350291879235493 0 0.0097458073517083695 -0.0086874236250264417 0 0.011105657321344378 -0.010350291879235493 0 0.011801414303461547 -0.0078379222604396739 0 0.013499066085538769 -0.0091097160638585837 0 0.0099375897027780824 -0.01198434584162332 0 0.0093911445573913888 -0.010585788962792693 0 0.011105657321344378 -0.010350291879235493 0 0.0065537383584198085 -0.0059759321501414858 0 0.0088313234070331367 -0.0071093497693168924 0 0.0071031844432247766 -0.0081303574654234961 0 0.0092474313472045572 -0.0091764363599351317 0 0.0088313234070331367 -0.0071093497693168924 0 0.0071031844432247766 -0.0081303574654234961 0 0.0083871291399740793 -0.0074789274501354903 0 0.0080138052190986339 -0.0071343893034881544 0 0.0086148291294904401 -0.010902497834569612 0 0.0089295704236002169 -0.0080253997016702539 0 0.010007113798387422 -0.009288601067819648 0 0.0092474313472045572 -0.0091764363599351317 0 0.0088313234070331367 -0.0071093497693168924 0 0.010007113798387422 -0.009288601067819648 0 0.0088313234070331367 -0.0071093497693168924 0 0.010244386172128897 -0.0059314806656137198 0 0.0074072273495907372 -0.013113027819275955 0 0.0086855144160229731 -0.011877667832956924 0 0.0076546673381789315 -0.010157098944473038 0 0.0088313234070331367 -0.0071093497693168924 0 0.010244386172128897 -0.0059314806656137198 0 0.0079922132050796093 -0.0052714067310491233 0 0.0065537383584198085 -0.0059759321501414858 0 0.0088313234070331367 -0.0071093497693168924 0 0.0079922132050796093 -0.0052714067310491233 0 0.0060600964611179364 -0.0039407777641044675 0 0.0079922132050796093 -0.0052714067310491233 0 0.0082551400340226313 -0.003485232234155043 0 0.0068699308328023616 -0.0034331143201164517 0 0.0071660808120497417 -0.0034164227217217823 0 0.010244386172128897 -0.0059314806656137198 0 0.0079922132050796093 -0.0052714067310491233 0 0.0082551400340226313 -0.003485232234155043 0 0.0089295704236002169 -0.0080253997016702539 0 0.0092586158513241271 -0.0050094355559864006 0 0.010244386172128897 -0.0059314806656137198 0 0.0082551400340226313 -0.003485232234155043 0 0.010275698607374689 -0.002983299940519915 0 0.0082551400340226313 -0.003485232234155043 0 0.00904446556628055 -0.001768731670089973 0 0.010275698607374689 -0.002983299940519915 0 0.010164172485695131 -0.00063403176106443572 0 0.00904446556628055 -0.001768731670089973 0 0.010275698607374689 -0.002983299940519915 0 0.0082551400340226313 -0.003485232234155043 0 0.00904446556628055 -0.001768731670089973 0 0.007558337895059151 -0.0020139415324913284 0 0.0065028166999933001 -0.0038053377800678612 0 0.0082551400340226313 -0.003485232234155043 0 0.007558337895059151 -0.0020139415324913284 0 0.011105657321344378 -0.010350291879235493 0 0.011801414303461547 -0.0078379222604396739 0 0.0097458073517083695 -0.0086874236250264417 0 0.011801414303461547 -0.0078379222604396739 0 0.0097458073517083695 -0.0086874236250264417 0 0.010340180458116235 -0.0060304054344510315 0 0.0097458073517083695 -0.0086874236250264417 0 0.0080695381489328203 -0.0065842232871071039 0 0.010340180458116235 -0.0060304054344510315 0 0.0076546673381789315 -0.010157098944473038 0 0.0097458073517083695 -0.0086874236250264417 0 0.0080695381489328203 -0.0065842232871071039 0 0.0095971424350641144 -0.0023071707915791806 0 0.0092586158513241271 -0.0050094355559864006 0 0.0087987213204767725 -0.002684932639785983 0 0.0080695381489328203 -0.0065842232871071039 0 0.010340180458116235 -0.0060304054344510315 0 0.011341451802835033 -0.0042776794482252698 0 0.010340180458116235 -0.0060304054344510315 0 0.012179146856641825 -0.0058716458920646435 0 0.011801414303461547 -0.0078379222604396739 0 0.010340180458116235 -0.0060304054344510315 0 0.012179146856641825 -0.0058716458920646435 0 0.011341451802835033 -0.0042776794482252698 0 0.012179146856641825 -0.0058716458920646435 0 0.01288887207076714 -0.0047304789501602246 0 0.011801414303461547 -0.0078379222604396739 0 0.012179146856641825 -0.0058716458920646435 0 0.014190241870219293 -0.0061937454443279144 0 0.012179146856641825 -0.0058716458920646435 0 0.01288887207076714 -0.0047304789501602246 0 0.014190241870219293 -0.0061937454443279144 0 0.014119661568224027 -0.0044329903903544392 0 0.014190241870219293 -0.0061937454443279144 0 0.015188985960374751 -0.0047253392708597993 0 0.014119661568224027 -0.0044329903903544392 0 0.01288887207076714 -0.0047304789501602246 0 0.014190241870219293 -0.0061937454443279144 0 0.014190241870219293 -0.0061937454443279144 0 0.01641268900831552 -0.0054831585425298441 0 0.015570146862988507 -0.0077938114111608852 0 0.016241404964530724 -0.0040492404318656135 0 0.01641268900831552 -0.0054831585425298441 0 0.015188985960374751 -0.0047253392708597993 0 0.014190241870219293 -0.0061937454443279144 0 0.01641268900831552 -0.0054831585425298441 0 0.015188985960374751 -0.0047253392708597993 0 0.011801414303461547 -0.0078379222604396739 0 0.014190241870219293 -0.0061937454443279144 0 0.013499066085538769 -0.0091097160638585837 0 0.014190241870219293 -0.0061937454443279144 0 0.015570146862988507 -0.0077938114111608852 0 0.013499066085538769 -0.0091097160638585837 0 0.011105657321344378 -0.010350291879235493 0 0.013499066085538769 -0.0091097160638585837 0 0.013000519936524412 -0.011605853219449841 0 0.013499066085538769 -0.0091097160638585837 0 0.01564857994028683 -0.011045413653435126 0 0.013000519936524412 -0.011605853219449841 0 0.015570146862988507 -0.0077938114111608852 0 0.013499066085538769 -0.0091097160638585837 0 0.01564857994028683 -0.011045413653435126 0 0.015570146862988507 -0.0077938114111608852 0 0.01564857994028683 -0.011045413653435126 0 0.017839171909547771 -0.0093866873265125664 0 0.014897286607571411 -0.014723070233021222 0 0.01564857994028683 -0.011045413653435126 0 0.013000519936524412 -0.011605853219449841 0 0.014897286607571411 -0.014723070233021222 0 0.01564857994028683 -0.011045413653435126 0 0.018995418374815821 -0.01215845443712414 0 0.014466290446174306 -0.015335967501713203 0 0.013781669211838137 -0.013701724961918064 0 0.014897286607571411 -0.014723070233021222 0 0.01477561965869938 -0.015919988320232715 0 0.013000519936524412 -0.011605853219449841 0 0.012283013580652691 -0.013392672385584815 0 0.01181621118015394 -0.012805009764140913 0 0.013000519936524412 -0.011605853219449841 0 0.011444770117896226 -0.011937679067396368 0 0.01181621118015394 -0.012805009764140913 0 0.013000519936524412 -0.011605853219449841 0 0.018995418374815821 -0.01215845443712414 0 0.017839171909547771 -0.0093866873265125664 0 0.023534785340787082 -0.0099520558542773377 0 0.020077650213545104 -0.012171305125591864 0 0.023787990074574453 -0.012686795197716316 0 0.024197883491319922 -0.015886886872021753 0 0.017294345951169424 -0.013512750916290591 0 0.019808493547039622 -0.012126580377769269 0 0.01564857994028683 -0.011045413653435126 0 0.018995418374815821 -0.01215845443712414 0 0.017839171909547771 -0.0093866873265125664 0 0.019808493547039622 -0.012126580377769269 0 0.023934171964875177 -0.0098809019915048896 0 0.020077650213545104 -0.012171305125591864 0 0.023787990074574453 -0.012686795197716316 0 0.024770524462405519 -0.0097750528449087673 0 0.017839171909547771 -0.0093866873265125664 0 0.018951082511260615 -0.0067321595336985807 0 0.023534785340787082 -0.0099520558542773377 0 0.01641268900831552 -0.0054831585425298441 0 0.015570146862988507 -0.0077938114111608852 0 0.018951082511260615 -0.0067321595336985807 0 0.015570146862988507 -0.0077938114111608852 0 0.017839171909547771 -0.0093866873265125664 0 0.018951082511260615 -0.0067321595336985807 0 0.018118230950473182 -0.0038568717423492871 0 0.01641268900831552 -0.0054831585425298441 0 0.018951082511260615 -0.0067321595336985807 0 0.018118230950473182 -0.0038568717423492871 0 0.018951082511260615 -0.0067321595336985807 0 0.02018949550410884 -0.0047058560934490701 0 0.018951082511260615 -0.0067321595336985807 0 0.02018949550410884 -0.0047058560934490701 0 0.02183576475365635 -0.0058023800130720679 0 0.021587210094983034 -0.010422859035142231 0 0.022837361611723464 -0.011810544030852826 0 0.021941790457875664 -0.0042206234718635523 0 0.02018949550410884 -0.0047058560934490701 0 0.02183576475365635 -0.0058023800130720679 0 0.018951082511260615 -0.0067321595336985807 0 0.024378387357451931 -0.0053418954873787391 0 0.023534785340787082 -0.0099520558542773377 0 0.024378387357451931 -0.0053418954873787391 0 0.029001998484804389 -0.0072175651950106366 0 0.023534785340787082 -0.0099520558542773377 0 0.026497986508930298 -0.0084697880350950733 0 0.023934171964875177 -0.0098809019915048896 0 0.022949349526537731 -0.0043153388248243383 0 0.02183576475365635 -0.0058023800130720679 0 0.024230497750651267 -0.0051636768407199562 0 0.024378387357451931 -0.0053418954873787391 0 0.030203490639823277 -0.0041691663162498624 0 0.029001998484804389 -0.0072175651950106366 0 0.022949349526537731 -0.0043153388248243383 0 0.021941790457875664 -0.0042206234718635523 0 0.02183576475365635 -0.0058023800130720679 0 0.022837361611723464 -0.011810544030852826 0 0.01763206538331652 -0.019285896325900564 0 0.016719586322185183 -0.03234207856626415 0 0.015167921029600464 -0.031406565869567069 0 0.016274038037744999 -0.030296117141932123 0 0.016719586322185183 -0.03234207856626415 0 0.014521342331785536 -0.032850133408419607 0 0.015167921029600464 -0.031406565869567069 0 0.01763206538331652 -0.019285896325900564 0 0.012466605807218726 -0.02891164507261464 0 0.015167921029600464 -0.031406565869567069 0 0.014675307258677696 -0.029936943349479481 0 0.016274038037744999 -0.030296117141932123 0 0.030203490639823277 -0.0041691663162498624 0 0.030983761697986702 -0.0082225687350523449 0 0.029001998484804389 -0.0072175651950106366 0 0.030983761697986702 -0.0082225687350523449 0 0.029001998484804389 -0.0072175651950106366 0 0.028636117047195646 -0.010584023205532618 0 0.01763206538331652 -0.019285896325900564 0 0.01862209351538844 -0.022821747764086842 0 0.030983761697986702 -0.0082225687350523449 0 0.031812377424333349 -0.011826815096047844 0 0.028636117047195646 -0.010584023205532618 0 0.031812377424333349 -0.011826815096047844 0 0.028636117047195646 -0.010584023205532618 0 0.02910115280510445 -0.01609500732960005 0 0.01862209351538844 -0.022821747764086842 0 0.018467181080532264 -0.031472019601419668 0 0.014675307258677696 -0.029936943349479481 0 0.016274038037744999 -0.030296117141932123 0 0.01584831997147582 -0.028267766374509583 0 0.012702175909480078 -0.039605484001106486 0 0.018467181080532264 -0.031472019601419668 0 0.010905955429276143 -0.058827401896888551 0 0.012502716411136773 -0.056721862179483939 0 0.01021267146643391 -0.05714031695485082 0 0.018467181080532264 -0.031472019601419668 0 0.016400092616305987 -0.039998880682076063 0 0.012502716411136773 -0.056721862179483939 0 0.010195348812584283 -0.055120246083306235 0 0.011890127604738072 -0.053414835599549591 0 0.012502716411136773 -0.056721862179483939 0 0.01021267146643391 -0.05714031695485082 0 0.010195348812584283 -0.055120246083306235 0 0.018467181080532264 -0.031472019601419668 0 0.025292095992483877 -0.022322533816722598 0 0.026062739723931305 -0.01297375950167246 0 0.028636117047195646 -0.010584023205532618 0 0.02910115280510445 -0.01609500732960005 0 0.023787990074574453 -0.012686795197716316 0 0.026062739723931305 -0.01297375950167246 0 0.024197883491319922 -0.015886886872021753 0 0.023787990074574453 -0.012686795197716316 0 0.026062739723931305 -0.01297375950167246 0 0.024770524462405519 -0.0097750528449087673 0 0.029001998484804389 -0.0072175651950106366 0 0.024770524462405519 -0.0097750528449087673 0 0.028636117047195646 -0.010584023205532618 0 0.026062739723931305 -0.01297375950167246 0 0.024770524462405519 -0.0097750528449087673 0 0.028636117047195646 -0.010584023205532618 0 0.0054205573131594458 -0.06031297612517951 0 0.0066899507782575271 -0.059098641261782332 0 0.0044714129140339945 -0.058589495530019922 0 0.0041246062096909611 -0.059923677351311148 0 0.0054205573131594458 -0.06031297612517951 0 0.0044714129140339945 -0.058589495530019922 0 0.0043843577930315252 -0.061011432294152013 0 0.0041246062096909611 -0.059923677351311148 0 0.0054205573131594458 -0.06031297612517951 0 0.0043843577930315252 -0.061011432294152013 0 0.0054205573131594458 -0.06031297612517951 0 0.0051961080330392307 -0.061411907222128068 0 0.0043907907801224539 -0.062127794592963727 0 0.0043843577930315252 -0.061011432294152013 0 0.0051961080330392307 -0.061411907222128068 0 0.0058529537489614702 -0.061726023400118755 0 0.0051961080330392307 -0.061411907222128068 0 0.0059161530088583597 -0.061203186913749708 0 0.0054205573131594458 -0.06031297612517951 0 0.0051961080330392307 -0.061411907222128068 0 0.0059161530088583597 -0.061203186913749708 0 0.0054205573131594458 -0.06031297612517951 0 0.0059161530088583597 -0.061203186913749708 0 0.0066775694922102001 -0.060836060024485154 0 0.0059161530088583597 -0.061203186913749708 0 0.0064225048616680224 -0.061648404953698027 0 0.0066775694922102001 -0.060836060024485154 0 0.0058529537489614702 -0.061726023400118755 0 0.0059161530088583597 -0.061203186913749708 0 0.0064225048616680224 -0.061648404953698027 0 0.0064225048616680224 -0.061648404953698027 0 0.0070072286006091647 -0.061605408650587924 0 0.0066775694922102001 -0.060836060024485154 0 0.0070072286006091647 -0.061605408650587924 0 0.0066775694922102001 -0.060836060024485154 0 0.0078100511450409481 -0.061139750742131467 0 0.0066775694922102001 -0.060836060024485154 0 0.0066899507782575271 -0.059098641261782332 0 0.0077480390318394399 -0.060238435068974056 0 0.0054205573131594458 -0.06031297612517951 0 0.0066775694922102001 -0.060836060024485154 0 0.0066899507782575271 -0.059098641261782332 0 0.0065630034437455884 -0.058813963246677134 0 0.0092657653842412278 -0.059650220879901676 0 0.0085641932132391636 -0.057739243374998889 0 0.0066899507782575271 -0.059098641261782332 0 0.0077480390318394399 -0.060238435068974056 0 0.0092657653842412278 -0.059650220879901676 0 0.0064855635015273151 -0.058993424486379294 0 0.0077187226065480712 -0.059334906114844072 0 0.0077480390318394399 -0.060238435068974056 0 0.0085698679744565746 -0.060375338888166236 0 0.0092657653842412278 -0.059650220879901676 0 0.0089751761306358264 -0.038463367776194371 0 0.0099619629544922365 -0.041538087927609074 0 0.0066775694922102001 -0.060836060024485154 0 0.0077480390318394399 -0.060238435068974056 0 0.0078100511450409481 -0.061139750742131467 0 0.007995262971191304 -0.062081110268714733 0 0.0078100511450409481 -0.061139750742131467 0 0.0093195232884869562 -0.06064114817988165 0 0.007362232978309978 -0.062146147120037847 0 0.0070072286006091647 -0.061605408650587924 0 0.0078100511450409481 -0.061139750742131467 0 0.0078100511450409481 -0.061139750742131467 0 0.0085698679744565746 -0.060375338888166236 0 0.0093195232884869562 -0.06064114817988165 0 0.0077480390318394399 -0.060238435068974056 0 0.0078100511450409481 -0.061139750742131467 0 0.0085698679744565746 -0.060375338888166236 0 0.0122794080556951 -0.033353743719075124 0 0.014521342331785536 -0.032850133408419607 0 0.013479928274664854 -0.031625909742342438 0 0.014521342331785536 -0.032850133408419607 0 0.015167921029600464 -0.031406565869567069 0 0.013479928274664854 -0.031625909742342438 0 0.012702175909480078 -0.039605484001106486 0 0.0099619629544922365 -0.041538087927609074 0 0.010905955429276143 -0.058827401896888551 0 0.0093195232884869562 -0.06064114817988165 0 0.0092657653842412278 -0.059650220879901676 0 0.015167921029600464 -0.031406565869567069 0 0.014675307258677696 -0.029936943349479481 0 0.013479928274664854 -0.031625909742342438 0 0.0085698679744565746 -0.060375338888166236 0 0.0093195232884869562 -0.06064114817988165 0 0.0092657653842412278 -0.059650220879901676 0 0.010905955429276143 -0.058827401896888551 0 0.0092657653842412278 -0.059650220879901676 0 0.0097304675522094635 -0.058347810159275676 0 0.0092657653842412278 -0.059650220879901676 0 0.0097304675522094635 -0.058347810159275676 0 0.0085641932132391636 -0.057739243374998889 0 0.010905955429276143 -0.058827401896888551 0 0.0097304675522094635 -0.058347810159275676 0 0.01021267146643391 -0.05714031695485082 0 0.0097304675522094635 -0.058347810159275676 0 0.01021267146643391 -0.05714031695485082 0 0.0085641932132391636 -0.057739243374998889 0 0.01021267146643391 -0.05714031695485082 0 0.0088065117020595073 -0.056292132592165575 0 0.0085641932132391636 -0.057739243374998889 0 0.01021267146643391 -0.05714031695485082 0 0.010195348812584283 -0.055120246083306235 0 0.0088065117020595073 -0.056292132592165575 0 0.010195348812584283 -0.055120246083306235 0 0.0088065117020595073 -0.056292132592165575 0 0.0082544283049154742 -0.054726625748165232 0 0.0088065117020595073 -0.056292132592165575 0 0.007166403743472635 -0.056434310270967715 0 0.0085641932132391636 -0.057739243374998889 0 0.0088065117020595073 -0.056292132592165575 0 0.007166403743472635 -0.056434310270967715 0 0.0082544283049154742 -0.054726625748165232 0 0.007166403743472635 -0.056434310270967715 0 0.0071899518928561041 -0.054777441798101005 0 0.0082544283049154742 -0.054726625748165232 0 0.0065630034437455884 -0.058813963246677134 0 0.007166403743472635 -0.056434310270967715 0 0.0085641932132391636 -0.057739243374998889 0 0.0065630034437455884 -0.058813963246677134 0 0.007166403743472635 -0.056434310270967715 0 0.0054787462727837397 -0.057230843331849982 0 0.007166403743472635 -0.056434310270967715 0 0.0055588508437221336 -0.055630823565984151 0 0.0071899518928561041 -0.054777441798101005 0 0.007166403743472635 -0.056434310270967715 0 0.0054787462727837397 -0.057230843331849982 0 0.0055588508437221336 -0.055630823565984151 0 0.0034529028345491315 -0.056685868641111824 0 0.0054787462727837397 -0.057230843331849982 0 0.0055588508437221336 -0.055630823565984151 0 0.0034529028345491315 -0.056685868641111824 0 0.0054787462727837397 -0.057230843331849982 0 0.004176525782550275 -0.058231375050927077 0 0.0064855635015273151 -0.058993424486379294 0 0.0045077880688808294 -0.058468209834077765 0 0.0065630034437455884 -0.058813963246677134 0 0.0054787462727837397 -0.057230843331849982 0 0.004176525782550275 -0.058231375050927077 0 0.0028520237205470434 -0.054300184563750305 0 0.0055588508437221336 -0.055630823565984151 0 0.0060133369238395155 -0.053549270751986761 0 0.0028520237205470434 -0.054300184563750305 0 0.0041895407987287405 -0.051865818682082211 0 0.0060133369238395155 -0.053549270751986761 0 0.0059048594510098988 -0.05390214305640275 0 0.0060522785674527119 -0.052589268092567996 0 0.0055588508437221336 -0.055630823565984151 0 0.0071899518928561041 -0.054777441798101005 0 0.0058354377168260974 -0.052449236189010255 0 0.0058354377168260974 -0.052449236189010255 0 0.0077968095190378145 -0.053120592178713205 0 0.0080814935741044241 -0.050725605641607836 0 0.0071899518928561041 -0.054777441798101005 0 0.0058354377168260974 -0.052449236189010255 0 0.0077968095190378145 -0.053120592178713205 0 0.0077968095190378145 -0.053120592178713205 0 0.0096137729863565689 -0.052094908259775669 0 0.0080814935741044241 -0.050725605641607836 0 0.0077968095190378145 -0.053120592178713205 0 0.0082544283049154742 -0.054726625748165232 0 0.0096137729863565689 -0.052094908259775669 0 0.0071899518928561041 -0.054777441798101005 0 0.0077968095190378145 -0.053120592178713205 0 0.0082544283049154742 -0.054726625748165232 0 0.0082544283049154742 -0.054726625748165232 0 0.010405666915184453 -0.0512052288777987 0 0.0091643959214934099 -0.046319963113005548 0 0.010195348812584283 -0.055120246083306235 0 0.0082544283049154742 -0.054726625748165232 0 0.010405666915184453 -0.0512052288777987 0 0.010195348812584283 -0.055120246083306235 0 0.010405666915184453 -0.0512052288777987 0 0.013903524962359351 -0.051335643938846438 0 0.010405666915184453 -0.0512052288777987 0 0.011042999771321419 -0.0484507616161136 0 0.013903524962359351 -0.051335643938846438 0 0.0090512156361039729 -0.05165943453211197 0 0.0096729864940526978 -0.049239329386970287 0 0.010405666915184453 -0.0512052288777987 0 0.011042999771321419 -0.0484507616161136 0 0.0091643959214934099 -0.046319963113005548 0 0.011042999771321419 -0.0484507616161136 0 0.0091643959214934099 -0.046319963113005548 0 0.011783356084423317 -0.045895088197989709 0 0.0091643959214934099 -0.046319963113005548 0 0.010779140777221452 -0.042327354459484087 0 0.011783356084423317 -0.045895088197989709 0 0.0096137729863565689 -0.052094908259775669 0 0.010738613400100957 -0.048747540571570734 0 0.0080814935741044241 -0.050725605641607836 0 0.0096729864940526978 -0.049239329386970287 0 0.010649619026903416 -0.04592781489400765 0 0.010738613400100957 -0.048747540571570734 0 0.0080814935741044241 -0.050725605641607836 0 0.0081199493451911461 -0.048314796218511424 0 0.0058354377168260974 -0.052449236189010255 0 0.0080814935741044241 -0.050725605641607836 0 0.0062510380938407767 -0.049546321672452709 0 0.0060522785674527119 -0.052589268092567996 0 0.0063200681405666138 -0.050278889224177552 0 0.0080814935741044241 -0.050725605641607836 0 0.0062510380938407767 -0.049546321672452709 0 0.0081199493451911461 -0.048314796218511424 0 0.0041895407987287405 -0.051865818682082211 0 0.0066406366036550965 -0.050523970284677922 0 0.0048468785381733728 -0.049115042226656101 0 0.0041895407987287405 -0.051865818682082211 0 0.0060133369238395155 -0.053549270751986761 0 0.0066406366036550965 -0.050523970284677922 0 0.024643861550519501 -0.024993127194035156 0 0.024640996348598777 -0.024724469073392593 0 0.024617252174261552 -0.024690406513180919 0 0.024197883491319922 -0.015886886872021753 0 0.02910115280510445 -0.01609500732960005 0 0.026415352042839492 -0.020643871457886737 0 0.025292095992483877 -0.022322533816722598 0 0.025108350934835287 -0.022983906371642882 0 0.023382563294595857 -0.018780608489022937 0 0.021697820080036481 -0.020858298823602895 0 0.026415352042839492 -0.020643871457886737 0 0.023382563294595857 -0.018780608489022937 0 0.024197883491319922 -0.015886886872021753 0 0.026415352042839492 -0.020643871457886737 0 0.026062739723931305 -0.01297375950167246 0 0.024197883491319922 -0.015886886872021753 0 0.02910115280510445 -0.01609500732960005 0 0.024306300392389263 -0.025504835892104651 0 0.024643861550519501 -0.024993127194035156 0 0.02423896571711211 -0.024988277935579242 0 0.012670059340795336 -0.044970554648778215 0 0.016400092616305987 -0.039998880682076063 0 0.011042999771321419 -0.0484507616161136 0 0.013903524962359351 -0.051335643938846438 0 0.011783356084423317 -0.045895088197989709 0 0.016400092616305987 -0.039998880682076063 0 0.016205280855949321 -0.042884674370789071 0 0.012102873790198631 -0.047212458931656424 0 0.011783356084423317 -0.045895088197989709 0 0.013571192704947317 -0.045360410384393805 0 0.024643861550519501 -0.024993127194035156 0 0.02423896571711211 -0.024988277935579242 0 0.024640996348598777 -0.024724469073392593 0 0.016400092616305987 -0.039998880682076063 0 0.018918785290040832 -0.036204960584565897 0 0.013571192704947317 -0.045360410384393805 0 0.012587181422209688 -0.043896237627227462 0 0.01352007672471422 -0.043324231558535042 0 0.011783356084423317 -0.045895088197989709 0 0.013571192704947317 -0.045360410384393805 0 0.012587181422209688 -0.043896237627227462 0 0.010779140777221452 -0.042327354459484087 0 0.011783356084423317 -0.045895088197989709 0 0.012587181422209688 -0.043896237627227462 0 0.010779140777221452 -0.042327354459484087 0 0.012587181422209688 -0.043896237627227462 0 0.012690198352773966 -0.042049047806593715 0 0.012587181422209688 -0.043896237627227462 0 0.01352007672471422 -0.043324231558535042 0 0.012690198352773966 -0.042049047806593715 0 0.01352007672471422 -0.043324231558535042 0 0.013668116415675653 -0.041891436165001128 0 0.012690198352773966 -0.042049047806593715 0 0.01352007672471422 -0.043324231558535042 0 0.014895722950210168 -0.043153029498973317 0 0.013668116415675653 -0.041891436165001128 0 0.018918785290040832 -0.036204960584565897 0 0.019551623398958665 -0.034958310536751552 0 0.024640996348598777 -0.024724469073392593 0 0.024622491715299736 -0.025204618335453233 0 0.024617252174261552 -0.024690406513180919 0 0.013571192704947317 -0.045360410384393805 0 0.01352007672471422 -0.043324231558535042 0 0.014895722950210168 -0.043153029498973317 0 0.024308888180110528 -0.024294737633025146 0 0.025108350934835287 -0.022983906371642882 0 0.021662979134562065 -0.023574816525503847 0 0.023614541291779756 -0.025773673342907685 0 0.026415352042839492 -0.020643871457886737 0 0.019551623398958665 -0.034958310536751552 0 0.019289994419176323 -0.03490986679558028 0 0.023614541291779756 -0.025773673342907685 0 0.024622491715299736 -0.025204618335453233 0 0.023731326951238012 -0.027478383381935239 0 0.023614541291779756 -0.025773673342907685 0 0.024622491715299736 -0.025204618335453233 0 0.024617252174261552 -0.024690406513180919 0 0.014895722950210168 -0.043153029498973317 0 0.015585551557132805 -0.040508581461891638 0 0.014313671391423224 -0.040629260542560552 0 0.014895722950210168 -0.043153029498973317 0 0.015585551557132805 -0.040508581461891638 0 0.017017298589655051 -0.040651026741558384 0 0.015585551557132805 -0.040508581461891638 0 0.015534013245062742 -0.039191265934853184 0 0.014313671391423224 -0.040629260542560552 0 0.015585551557132805 -0.040508581461891638 0 0.015534013245062742 -0.039191265934853184 0 0.016602668013492985 -0.038763886488813216 0 0.015534013245062742 -0.039191265934853184 0 0.01367001820950855 -0.03924228816489244 0 0.017566536681419092 -0.036779946571235456 0 0.015534013245062742 -0.039191265934853184 0 0.014313671391423224 -0.040629260542560552 0 0.01367001820950855 -0.03924228816489244 0 0.013155099264331518 -0.04063577357879955 0 0.012833750185216883 -0.04017541958895527 0 0.01367001820950855 -0.03924228816489244 0 0.014313671391423224 -0.040629260542560552 0 0.013155099264331518 -0.04063577357879955 0 0.01367001820950855 -0.03924228816489244 0 0.014895722950210168 -0.043153029498973317 0 0.014313671391423224 -0.040629260542560552 0 0.013668116415675653 -0.041891436165001128 0 0.014313671391423224 -0.040629260542560552 0 0.013668116415675653 -0.041891436165001128 0 0.013155099264331518 -0.04063577357879955 0 0.012690198352773966 -0.042049047806593715 0 0.011969702811844406 -0.040368593690301657 0 0.013155099264331518 -0.04063577357879955 0 0.013668116415675653 -0.041891436165001128 0 0.012690198352773966 -0.042049047806593715 0 0.013155099264331518 -0.04063577357879955 0 0.010779140777221452 -0.042327354459484087 0 0.012690198352773966 -0.042049047806593715 0 0.011969702811844406 -0.040368593690301657 0 0.011969702811844406 -0.040368593690301657 0 0.013155099264331518 -0.04063577357879955 0 0.012833750185216883 -0.04017541958895527 0 0.012833750185216883 -0.04017541958895527 0 0.012207590680227939 -0.041111112581295656 0 0.012888652755297216 -0.040372099879277076 0 0.011969702811844406 -0.040368593690301657 0 0.012833750185216883 -0.04017541958895527 0 0.012207590680227939 -0.041111112581295656 0 0.011450475862237991 -0.043359085772934305 0 0.011782580754344773 -0.042227411203344258 0 0.012207590680227939 -0.041111112581295656 0 0.012888652755297216 -0.040372099879277076 0 0.012642012626644532 -0.040374291423903093 0 0.012888652755297216 -0.040372099879277076 0 0.013011235264500954 -0.040301701284944244 0 0.012642012626644532 -0.040374291423903093 0 0.012888652755297216 -0.040372099879277076 0 0.013011235264500954 -0.040301701284944244 0 0.013108452804014955 -0.040182056803433557 0 0.012888652755297216 -0.040372099879277076 0 0.013108452804014955 -0.040182056803433557 0 0.013207796650497403 -0.039967833945329045 0 0.013108452804014955 -0.040182056803433557 0 0.013025168405764289 -0.040342044837603896 0 0.013143661560786283 -0.039920584602387649 0 0.013011235264500954 -0.040301701284944244 0 0.013108452804014955 -0.040182056803433557 0 0.013025168405764289 -0.040342044837603896 0 0.013011235264500954 -0.040301701284944244 0 0.013025168405764289 -0.040342044837603896 0 0.012962755990850557 -0.040225689880784871 0 0.0057783361008714781 -0.042382668031976219 0 0.0072234651230197603 -0.042057422796818775 0 0.012767704643692458 -0.040451293107376045 0 0.012575973985651171 -0.039551101913248024 0 0.01236895890946116 -0.040101608902408437 0 0.012767704643692458 -0.040451293107376045 0 0.012542660180196671 -0.040609222900412793 0 0.01236895890946116 -0.040101608902408437 0 0.012575973985651171 -0.039551101913248024 0 0.01367001820950855 -0.03924228816489244 0 0.012024618790668641 -0.039221746056205375 0 0.013025168405764289 -0.040342044837603896 0 0.013143661560786283 -0.039920584602387649 0 0.012575973985651171 -0.039551101913248024 0 0.014201011793195112 -0.033672502151280065 0 0.013356188607589511 -0.032290711255306671 0 0.013143661560786283 -0.039920584602387649 0 0.012575973985651171 -0.039551101913248024 0 0.01367001820950855 -0.03924228816489244 0 0.012833750185216883 -0.04017541958895527 0 0.01367001820950855 -0.03924228816489244 0 0.013207796650497403 -0.039967833945329045 0 0.012833750185216883 -0.04017541958895527 0 0.012888652755297216 -0.040372099879277076 0 0.013207796650497403 -0.039967833945329045 0 0.013108452804014955 -0.040182056803433557 0 0.013143661560786283 -0.039920584602387649 0 0.013207796650497403 -0.039967833945329045 0 0.013143661560786283 -0.039920584602387649 0 0.01367001820950855 -0.03924228816489244 0 0.013207796650497403 -0.039967833945329045 0 0.0040705706193002195 -0.047182206554816669 0 0.0068244717586012135 -0.046780699054354606 0 0.0061602557243748022 -0.044565537226762784 0 0.0040705706193002195 -0.047182206554816669 0 0.0033394467862527615 -0.044761083041620534 0 0.0061602557243748022 -0.044565537226762784 0 0.0066406366036550965 -0.050523970284677922 0 0.0048468785381733728 -0.049115042226656101 0 0.0068244717586012135 -0.046780699054354606 0 0.0040705706193002195 -0.047182206554816669 0 0.0048468785381733728 -0.049115042226656101 0 0.0068244717586012135 -0.046780699054354606 0 0.0063200681405666138 -0.050278889224177552 0 0.0064742190734362612 -0.048841863828572606 0 0.0062510380938407767 -0.049546321672452709 0 0.0068244717586012135 -0.046780699054354606 0 0.0081199493451911461 -0.048314796218511424 0 0.0068244717586012135 -0.046780699054354606 0 0.0088873211059078555 -0.045843935121827717 0 0.0061602557243748022 -0.044565537226762784 0 0.0068244717586012135 -0.046780699054354606 0 0.0088873211059078555 -0.045843935121827717 0 0.0081199493451911461 -0.048314796218511424 0 0.010738613400100957 -0.048747540571570734 0 0.0088873211059078555 -0.045843935121827717 0 0.0081199493451911461 -0.048314796218511424 0 0.010649619026903416 -0.04592781489400765 0 0.011450475862237991 -0.043359085772934305 0 0.010738613400100957 -0.048747540571570734 0 0.011652314274676742 -0.045243207419682227 0 0.0088873211059078555 -0.045843935121827717 0 0.011652314274676742 -0.045243207419682227 0 0.012207590680227939 -0.041111112581295656 0 0.0087967117020823025 -0.042866778533113041 0 0.012207590680227939 -0.041111112581295656 0 0.0087967117020823025 -0.042866778533113041 0 0.01058785906447034 -0.04062086048978452 0 0.011652314274676742 -0.045243207419682227 0 0.0088873211059078555 -0.045843935121827717 0 0.0087967117020823025 -0.042866778533113041 0 0.0087967117020823025 -0.042866778533113041 0 0.0082466514254644092 -0.040870565246887973 0 0.01058785906447034 -0.04062086048978452 0 0.0088873211059078555 -0.045843935121827717 0 0.0087967117020823025 -0.042866778533113041 0 0.0061602557243748022 -0.044565537226762784 0 0.0087967117020823025 -0.042866778533113041 0 0.0052471100877616956 -0.042106824876881763 0 0.0061602557243748022 -0.044565537226762784 0 0.0087967117020823025 -0.042866778533113041 0 0.0052471100877616956 -0.042106824876881763 0 0.0082466514254644092 -0.040870565246887973 0 0.0033394467862527615 -0.044761083041620534 0 0.0052471100877616956 -0.042106824876881763 0 0.0061602557243748022 -0.044565537226762784 0 0.0068942072652069912 -0.039804757710950871 0 0.0070337088903794443 -0.040210932082795164 0 0.0073915030982394398 -0.039357395117430728 0 0.0064720950372879026 -0.040379845480179047 0 0.0068942072652069912 -0.039804757710950871 0 0.0070337088903794443 -0.040210932082795164 0 0.0064720950372879026 -0.040379845480179047 0 0.0067637414752058029 -0.041141883895291539 0 0.0070337088903794443 -0.040210932082795164 0 0.0058827408475634066 -0.042343196827161027 0 0.0063598548202685786 -0.041417160052432046 0 0.0052471100877616956 -0.042106824876881763 0 0.0070337088903794443 -0.040210932082795164 0 0.0082466514254644092 -0.040870565246887973 0 0.0070337088903794443 -0.040210932082795164 0 0.0084019412107948846 -0.039663150322325751 0 0.0073915030982394398 -0.039357395117430728 0 0.0070337088903794443 -0.040210932082795164 0 0.0084019412107948846 -0.039663150322325751 0 0.0082466514254644092 -0.040870565246887973 0 0.0084019412107948846 -0.039663150322325751 0 0.0082466514254644092 -0.040870565246887973 0 0.0095793720773048804 -0.039969214180021806 0 0.0084019412107948846 -0.039663150322325751 0 0.0095793720773048804 -0.039969214180021806 0 0.0097120115958514996 -0.039263234945868204 0 0.0082466514254644092 -0.040870565246887973 0 0.01058785906447034 -0.04062086048978452 0 0.0095793720773048804 -0.039969214180021806 0 0.01058785906447034 -0.04062086048978452 0 0.010758523925360829 -0.039649353647645352 0 0.0095793720773048804 -0.039969214180021806 0 0.010758523925360829 -0.039649353647645352 0 0.0097120115958514996 -0.039263234945868204 0 0.011136605570413906 -0.038694148820654528 0 0.010758523925360829 -0.039649353647645352 0 0.0095793720773048804 -0.039969214180021806 0 0.0097120115958514996 -0.039263234945868204 0 0.0034435063991342376 -0.040668977578040437 0 0.0013817597502187905 -0.041024608762344608 0 0.0097120115958514996 -0.039263234945868204 0 0.0087208789659085299 -0.038531524788232442 0 0.011136605570413906 -0.038694148820654528 0 -0.004305794433479079 -0.040454581879037013 0 -0.0019975356672129701 -0.039872402267307823 0 -0.0060939688922174743 -0.03850924305724332 0 -0.004305794433479079 -0.040454581879037013 0 -0.0039417978178299838 -0.042594073347669001 0 -0.0069502716326922146 -0.039665528514672317 0 -0.004305794433479079 -0.040454581879037013 0 -0.0039417978178299838 -0.042594073347669001 0 -0.0024838580163442964 -0.041688563434730257 0 -0.0039417978178299838 -0.042594073347669001 0 -0.0024838580163442964 -0.041688563434730257 0 -0.0022589637336066074 -0.043563057947597066 0 -0.004305794433479079 -0.040454581879037013 0 -0.0024838580163442964 -0.041688563434730257 0 -0.0019975356672129701 -0.039872402267307823 0 -0.00054985364325600228 -0.041994021008538905 0 -0.0019975356672129701 -0.039872402267307823 0 0.0028899552145625882 -0.041273850233473797 0 -0.0024838580163442964 -0.041688563434730257 0 -0.00054985364325600228 -0.041994021008538905 0 -0.0019975356672129701 -0.039872402267307823 0 -0.0024838580163442964 -0.041688563434730257 0 -0.00054985364325600228 -0.041994021008538905 0 -0.0022589637336066074 -0.043563057947597066 0 0.0084019412107948846 -0.039663150322325751 0 0.0087208789659085299 -0.038531524788232442 0 0.0073915030982394398 -0.039357395117430728 0 0.0084019412107948846 -0.039663150322325751 0 0.0097120115958514996 -0.039263234945868204 0 0.0087208789659085299 -0.038531524788232442 0 0.0087208789659085299 -0.038531524788232442 0 0.0073915030982394398 -0.039357395117430728 0 0.0068191106264010601 -0.039501902742273165 0 0.0034435063991342376 -0.040668977578040437 0 0.0056604981090499443 -0.04127782139054504 0 -0.00054985364325600228 -0.041994021008538905 0 0.0028899552145625882 -0.041273850233473797 0 0.0011836411354946381 -0.043643065426250467 0 0.0028899552145625882 -0.041273850233473797 0 0.0064032450568351712 -0.043186529027901044 0 0.0092274348612250735 -0.043308322845623727 0 0.0056604981090499443 -0.04127782139054504 0 0.0075234338793154368 -0.042059960446212907 0 0.0085064673433818232 -0.040610734213634689 0 0.0068191106264010601 -0.039501902742273165 0 0.0071813876488982069 -0.039285022017198253 0 0.0085064673433818232 -0.040610734213634689 0 0.0068191106264010601 -0.039501902742273165 0 0.0092274348612250735 -0.043308322845623727 0 0.0073915030982394398 -0.039357395117430728 0 0.0068191106264010601 -0.039501902742273165 0 0.0071813876488982069 -0.039285022017198253 0 0.006371220767828153 -0.03971527320943332 0 0.0068942072652069912 -0.039804757710950871 0 0.0071813876488982069 -0.039285022017198253 0 0.0068942072652069912 -0.039804757710950871 0 0.0073915030982394398 -0.039357395117430728 0 0.0071813876488982069 -0.039285022017198253 0 -0.015248138986593534 -0.051820735128265863 0 -0.015225497085665033 -0.052997711428512798 0 -0.016028931017063583 -0.053709885033900388 0 -0.015248138986593534 -0.051820735128265863 0 -0.015225497085665033 -0.052997711428512798 0 -0.014568323667171913 -0.053250807329826982 0 -0.015024720170295255 -0.052337018005464885 0 -0.014636019484063808 -0.052824881457511276 0 -0.014498838689520534 -0.053627579960387604 0 0.0041521253819177826 -0.030252777125894258 0 0.0038369291887589731 -0.030363747599004204 0 0.0037577004425099559 -0.031164206551236872 0 -0.00078128279411319871 -0.041431274394032713 0 -0.0040275926491984554 -0.046640065983865275 0 -0.00078128279411319871 -0.041431274394032713 0 -0.0018604000080499031 -0.037697770736562511 0 -0.00078128279411319871 -0.041431274394032713 0 -0.0023815845794921651 -0.042563138155654247 0 0.013215135757182571 -0.039796312658945343 0 0.012759559988515577 -0.039923506025615722 0 0.012840362431831887 -0.039370059076257312 0 -0.015024720170295255 -0.052337018005464885 0 -0.014636019484063808 -0.052824881457511276 0 -0.014350928385219052 -0.05294440394848187 0 -0.014636019484063808 -0.052824881457511276 0 -0.014361352341219536 -0.052949778919911483 0 -0.014498838689520534 -0.053627579960387604 0 -0.0026165556618474089 -0.042578600797411485 0 -0.0023815845794921651 -0.042563138155654247 0 0.003492779046474292 -0.030512187080512732 0 0.0038369291887589731 -0.030363747599004204 0 0.0037577004425099559 -0.031164206551236872 0 0.003492779046474292 -0.030512187080512732 0 0.0033879099030490493 -0.030863078746312018 0 0.0032184067841029887 -0.030615785287525222 0 0.003492779046474292 -0.030512187080512732 0 0.0035648040569917928 -0.030116635412726231 0 0.0030699365579870529 -0.030133765696714287 0 0.003492779046474292 -0.030512187080512732 0 0.0038369291887589731 -0.030363747599004204 0 0.0035648040569917928 -0.030116635412726231 0 0.0041521253819177826 -0.030252777125894258 0 0.0038369291887589731 -0.030363747599004204 0 0.0035648040569917928 -0.030116635412726231 0 0.012767704643692458 -0.040451293107376045 0 0.012967119030452355 -0.041035902754166451 0 0.012542660180196671 -0.040609222900412793 0 -0.00078128279411319871 -0.041431274394032713 0 0.0046901207702011675 -0.037284139730376649 0 0.0041521253819177826 -0.030252777125894258 0 0.0035648040569917928 -0.030116635412726231 0 0.0034271160619032525 -0.02954736879046824 0 0.0035648040569917928 -0.030116635412726231 0 0.0034271160619032525 -0.02954736879046824 0 0.0030699365579870529 -0.030133765696714287 0 0.013025168405764289 -0.040342044837603896 0 0.01297569759703494 -0.040166751051650337 0 0.012962755990850557 -0.040225689880784871 0 0.0057783361008714781 -0.042382668031976219 0 -0.00078128279411319871 -0.041431274394032713 0 -0.00078128279411319871 -0.041431274394032713 0 0.00017645940334513283 -0.040619852051251341 0 0.013215135757182571 -0.039796312658945343 0 0.012962755990850557 -0.040225689880784871 0 0.012759559988515577 -0.039923506025615722 0 0.013011235264500954 -0.040301701284944244 0 0.012962755990850557 -0.040225689880784871 0 0.012642012626644532 -0.040374291423903093 0 0.012642012626644532 -0.040374291423903093 0 0.011702119953253922 -0.040150997372538001 0 0.012307743633589968 -0.039864011176071509 0 0.012962755990850557 -0.040225689880784871 0 0.012642012626644532 -0.040374291423903093 0 0.012759559988515577 -0.039923506025615722 0 0.012642012626644532 -0.040374291423903093 0 0.012759559988515577 -0.039923506025615722 0 0.012307743633589968 -0.039864011176071509 0 0.012207590680227939 -0.041111112581295656 0 0.01058785906447034 -0.04062086048978452 0 0.011702119953253922 -0.040150997372538001 0 0.012207590680227939 -0.041111112581295656 0 0.012642012626644532 -0.040374291423903093 0 0.011702119953253922 -0.040150997372538001 0 0.01058785906447034 -0.04062086048978452 0 0.010758523925360829 -0.039649353647645352 0 0.011702119953253922 -0.040150997372538001 0 0.010758523925360829 -0.039649353647645352 0 0.011702119953253922 -0.040150997372538001 0 0.011779863234026369 -0.039551626763432012 0 0.011702119953253922 -0.040150997372538001 0 0.011779863234026369 -0.039551626763432012 0 0.012307743633589968 -0.039864011176071509 0 0.010758523925360829 -0.039649353647645352 0 0.011779863234026369 -0.039551626763432012 0 0.011136605570413906 -0.038694148820654528 0 0.011779863234026369 -0.039551626763432012 0 0.012840362431831887 -0.039370059076257312 0 0.011136605570413906 -0.038694148820654528 0 -0.0023815845794921651 -0.042563138155654247 0 0.0013817597502187905 -0.041024608762344608 0 0.011779863234026369 -0.039551626763432012 0 0.012307743633589968 -0.039864011176071509 0 0.012840362431831887 -0.039370059076257312 0 0.012759559988515577 -0.039923506025615722 0 0.012307743633589968 -0.039864011176071509 0 0.012840362431831887 -0.039370059076257312 0 -0.012999896571883579 -0.054325571556932989 0 -0.013976444669413961 -0.054897851136055054 0 -0.014498838689520534 -0.053627579960387604 0 -0.0049930751812006175 -0.048283127759068477 0 -0.0040275926491984554 -0.046640065983865275 0 -0.0023815845794921651 -0.042563138155654247 0 -0.0066125326555645687 -0.044930393691649577 0 -0.014361352341219536 -0.052949778919911483 0 -0.012999896571883579 -0.054325571556932989 0 -0.014498838689520534 -0.053627579960387604 0 -0.004305794433479079 -0.040454581879037013 0 -0.0069502716326922146 -0.039665528514672317 0 -0.0060939688922174743 -0.03850924305724332 0 -0.0096950896112595226 -0.037170952883798097 0 -0.0069502716326922146 -0.039665528514672317 0 -0.0060939688922174743 -0.03850924305724332 0 -0.012999896571883579 -0.054325571556932989 0 -0.013976444669413961 -0.054897851136055054 0 -0.012956875461899765 -0.055904407427524207 0 -0.011603559849357768 -0.055835025325423088 0 -0.012999896571883579 -0.054325571556932989 0 -0.012956875461899765 -0.055904407427524207 0 -0.006467911442528655 -0.048112131602366569 0 -0.0066125326555645687 -0.044930393691649577 0 -0.013976444669413961 -0.054897851136055054 0 -0.014602142482705284 -0.055933191484429941 0 -0.012956875461899765 -0.055904407427524207 0 -0.015122128928827762 -0.054408813021172668 0 -0.01639809866371511 -0.054341917417492398 0 -0.014602142482705284 -0.055933191484429941 0 0.0033852153841736248 -0.024019700802816353 0 0.0039342755502093669 -0.024433898247758462 0 0.0035579345096534566 -0.024693501558738236 0 -0.013976444669413961 -0.054897851136055054 0 -0.015122128928827762 -0.054408813021172668 0 -0.014602142482705284 -0.055933191484429941 0 -0.00014128338130302913 -0.035475467230117165 0 -0.0030641170476060822 -0.038164334328894899 0 -0.015122128928827762 -0.054408813021172668 0 -0.015197580180679954 -0.05367338590569299 0 -0.014568323667171913 -0.053250807329826982 0 -0.013976444669413961 -0.054897851136055054 0 -0.015122128928827762 -0.054408813021172668 0 -0.014568323667171913 -0.053250807329826982 0 -0.015122128928827762 -0.054408813021172668 0 -0.015197580180679954 -0.05367338590569299 0 -0.016189855526627835 -0.05383578499506704 0 -0.015122128928827762 -0.054408813021172668 0 -0.016189855526627835 -0.05383578499506704 0 -0.01639809866371511 -0.054341917417492398 0 -0.0055753757054988664 -0.041179937645985515 0 -0.0018604000080499031 -0.037697770736562511 0 -0.015197580180679954 -0.05367338590569299 0 -0.015225497085665033 -0.052997711428512798 0 -0.016189855526627835 -0.05383578499506704 0 -0.015197580180679954 -0.05367338590569299 0 -0.015225497085665033 -0.052997711428512798 0 -0.014568323667171913 -0.053250807329826982 0 0.0033879099030490493 -0.030863078746312018 0 0.0035752171075048491 -0.03132395079190247 0 0.0028968427593292967 -0.030702298118996562 0 0.003492779046474292 -0.030512187080512732 0 0.0033879099030490493 -0.030863078746312018 0 0.0037577004425099559 -0.031164206551236872 0 0.00037646251568398416 -0.033796778085458813 0 -0.00054415295581174334 -0.035911580954549611 0 -0.0013148166920302765 -0.035260978710159992 0 -0.0018604000080499031 -0.037697770736562511 0 -0.00014128338130302913 -0.035475467230117165 0 -0.0018604000080499031 -0.037697770736562511 0 -0.00017605795291437569 -0.034942659933831582 0 -0.00014128338130302913 -0.035475467230117165 0 -0.00017605795291437569 -0.034942659933831582 0 0.0033879099030490493 -0.030863078746312018 0 0.0037577004425099559 -0.031164206551236872 0 0.0035752171075048491 -0.03132395079190247 0 0.0016846068563680001 -0.029805476630326785 0 0.0019467216832650468 -0.030026817708302359 0 0.003779972034865616 -0.028434934994476413 0 0.0016846068563680001 -0.029805476630326785 0 0.003779972034865616 -0.028434934994476413 0 0.003041639395729925 -0.026713988681443594 0 -0.00017605795291437569 -0.034942659933831582 0 0.0035566858393273979 -0.024155453608515891 0 -0.00014128338130302913 -0.035475467230117165 0 0.0032969772599442792 -0.025919341026706864 0 0.0044681851267611783 -0.0089647793385438726 0 0.0035795313284883927 -0.0090258190914822428 0 0.0037902495018007497 -0.0075401470915324601 0 0.0034797197636506835 -0.0312065354582572 0 0.0030099727157360538 -0.031609536683028801 0 0.0030318938928619197 -0.031138662033561568 0 0.0035795313284883927 -0.0090258190914822428 0 0.0030647554709521989 -0.0082359026059521945 0 0.0018744920488480297 -0.0096809239591190629 0 0.0044681851267611783 -0.0089647793385438726 0 0.0035795313284883927 -0.0090258190914822428 0 0.0033734721238821582 -0.0099623620281876039 0 0.0035795313284883927 -0.0090258190914822428 0 0.0030647554709521989 -0.0082359026059521945 0 0.0037902495018007497 -0.0075401470915324601 0 0.0030647554709521989 -0.0082359026059521945 0 0.0029853908618980153 -0.0075516580856474251 0 0.0037902495018007497 -0.0075401470915324601 0 0.0030099727157360538 -0.031609536683028801 0 0.0026590771478648065 -0.030858964042138802 0 0.0030318938928619197 -0.031138662033561568 0 0.0034797197636506835 -0.0312065354582572 0 0.0030318938928619197 -0.031138662033561568 0 0.0028968427593292967 -0.030702298118996562 0 0.0026590771478648065 -0.030858964042138802 0 0.0030318938928619197 -0.031138662033561568 0 0.0028968427593292967 -0.030702298118996562 0 0.0035566858393273979 -0.024155453608515891 0 0.0026595969519281021 -0.020344255084771633 0 -0.00017605795291437569 -0.034942659933831582 0 0.00039306260447462282 -0.034187500329046598 0 0.0016583030380721512 -0.0085077704585020016 0 0.0022381257580806535 -0.0083425537337586154 0 0.001663157490738225 -0.0079979785545212529 0 0.0016583030380721512 -0.0085077704585020016 0 0.0022381257580806535 -0.0083425537337586154 0 0.0021842035406042151 -0.008747249323612493 0 0.0030647554709521989 -0.0082359026059521945 0 0.0022381257580806535 -0.0083425537337586154 0 0.0021702806534005057 -0.0091426921328229688 0 0.0035483094043601876 -0.010549237192839026 0 0.0028737985497183233 -0.012274871157688693 0 0.0028703419838403328 -0.011060015525879199 0 0.0028737985497183233 -0.012274871157688693 0 0.0029853908618980153 -0.0075516580856474251 0 0.0022381257580806535 -0.0083425537337586154 0 0.0023281847149926819 -0.0072986187012780198 0 0.0030647554709521989 -0.0082359026059521945 0 0.0029853908618980153 -0.0075516580856474251 0 0.0022381257580806535 -0.0083425537337586154 0 0.001663157490738225 -0.0079979785545212529 0 0.0016572889521182467 -0.0073632735854476539 0 0.0012257421683086651 -0.0077068955936695415 0 0.001663157490738225 -0.0079979785545212529 0 0.0016572889521182467 -0.0073632735854476539 0 0.0023281847149926819 -0.0072986187012780198 0 0.0022381257580806535 -0.0083425537337586154 0 0.001663157490738225 -0.0079979785545212529 0 0.0023281847149926819 -0.0072986187012780198 0 0.0013004835344883822 -0.0064678520969383814 0 0.0023281847149926819 -0.0072986187012780198 0 0.002230162610112189 -0.0058678069066000101 0 0.0013004835344883822 -0.0064678520969383814 0 0.0016572889521182467 -0.0073632735854476539 0 0.0012257421683086651 -0.0077068955936695415 0 0.0013004835344883822 -0.0064678520969383814 0 0.0016572889521182467 -0.0073632735854476539 0 0.0023281847149926819 -0.0072986187012780198 0 0.0029853908618980153 -0.0075516580856474251 0 0.0023281847149926819 -0.0072986187012780198 0 0.0032483731973554069 -0.0062617595877955895 0 0.0023281847149926819 -0.0072986187012780198 0 0.002230162610112189 -0.0058678069066000101 0 0.0032483731973554069 -0.0062617595877955895 0 0.002230162610112189 -0.0058678069066000101 0 0.0032483731973554069 -0.0062617595877955895 0 0.0026514203489867417 -0.0048338497380655899 0 0.0013004835344883822 -0.0064678520969383814 0 0.002230162610112189 -0.0058678069066000101 0 0.0011699292348080824 -0.0053970045462832343 0 0.0028968427593292967 -0.030702298118996562 0 0.0022732490268940787 -0.029996711779008266 0 0.0030699365579870529 -0.030133765696714287 0 0.003492779046474292 -0.030512187080512732 0 0.0032184067841029887 -0.030615785287525222 0 0.0030699365579870529 -0.030133765696714287 0 0.0033879099030490493 -0.030863078746312018 0 0.0032184067841029887 -0.030615785287525222 0 0.0028968427593292967 -0.030702298118996562 0 0.0032184067841029887 -0.030615785287525222 0 0.0028968427593292967 -0.030702298118996562 0 0.0030699365579870529 -0.030133765696714287 0 0.0029853908618980153 -0.0075516580856474251 0 0.0037902495018007497 -0.0075401470915324601 0 0.0032483731973554069 -0.0062617595877955895 0 0.0026595969519281021 -0.020344255084771633 0 0.0022050120224463249 -0.018831256959864845 0 0.0026590771478648065 -0.030858964042138802 0 0.0028968427593292967 -0.030702298118996562 0 0.0022732490268940787 -0.029996711779008266 0 0.0022050120224463249 -0.018831256959864845 0 0.0018662839253668166 -0.018615689707813035 0 0.0022732490268940787 -0.029996711779008266 0 0.0026923562746781187 -0.029530591586864934 0 0.0018935757527674079 -0.029113095351926157 0 0.0034271160619032525 -0.02954736879046824 0 0.0026923562746781187 -0.029530591586864934 0 0.0030699365579870529 -0.030133765696714287 0 0.0022732490268940787 -0.029996711779008266 0 0.0026923562746781187 -0.029530591586864934 0 0.0030699365579870529 -0.030133765696714287 0 0.0034271160619032525 -0.02954736879046824 0 0.0026923562746781187 -0.029530591586864934 0 0.002729240716601388 -0.028897165712536473 0 0.0046901207702011675 -0.037284139730376649 0 0.0069064294872304022 -0.033436979880719614 0 0.012542660180196671 -0.040609222900412793 0 0.01236895890946116 -0.040101608902408437 0 0.011739171632161555 -0.040019153775223512 0 0.012575973985651171 -0.039551101913248024 0 0.01236895890946116 -0.040101608902408437 0 0.012173552595644942 -0.039764212617981333 0 0.012173552595644942 -0.039764212617981333 0 0.011739171632161555 -0.040019153775223512 0 0.012024618790668641 -0.039221746056205375 0 0.01236895890946116 -0.040101608902408437 0 0.012173552595644942 -0.039764212617981333 0 0.011739171632161555 -0.040019153775223512 0 0.012575973985651171 -0.039551101913248024 0 0.012173552595644942 -0.039764212617981333 0 0.012024618790668641 -0.039221746056205375 0 0.002729240716601388 -0.028897165712536473 0 0.0018935757527674079 -0.029113095351926157 0 0.0020269022978774147 -0.028251903993845019 0 0.011739171632161555 -0.040019153775223512 0 0.010787207309039043 -0.039165160987614175 0 0.012024618790668641 -0.039221746056205375 0 0.0069064294872304022 -0.033436979880719614 0 0.007506651739623893 -0.027764946034451638 0 0.0026923562746781187 -0.029530591586864934 0 0.002729240716601388 -0.028897165712536473 0 0.0018935757527674079 -0.029113095351926157 0 0.002230162610112189 -0.0058678069066000101 0 0.0026514203489867417 -0.0048338497380655899 0 0.0011699292348080824 -0.0053970045462832343 0 0.0026514203489867417 -0.0048338497380655899 0 0.0011699292348080824 -0.0053970045462832343 0 0.0014240763965307445 -0.0043694612335341259 0 0.0011699292348080824 -0.0053970045462832343 0 0.0014240763965307445 -0.0043694612335341259 0 0.00032324489519191884 -0.0047790198251907228 0 0.0014240763965307445 -0.0043694612335341259 0 0.0020225013292888678 -0.0034391605942820764 0 0.00095820821758532085 -0.0034121782706860422 0 0.0026514203489867417 -0.0048338497380655899 0 0.0014240763965307445 -0.0043694612335341259 0 0.0020225013292888678 -0.0034391605942820764 0 0.0018935757527674079 -0.029113095351926157 0 0.0020269022978774147 -0.028251903993845019 0 0.0015174830186210492 -0.028234961704347805 0 0.0018662839253668166 -0.018615689707813035 0 0.0025307615723019886 -0.022048123514081284 0 0.004776863412374697 -0.022545483348163232 0 0.0034852527074840747 -0.021649511909381778 0 0.0032324820636417512 -0.021156510907758413 0 0.004776863412374697 -0.022545483348163232 0 0.0038659437024013946 -0.022523523174991584 0 0.0034852527074840747 -0.021649511909381778 0 0.007506651739623893 -0.027764946034451638 0 0.0025307615723019886 -0.022048123514081284 0 0.016899570399683036 -0.035000819041292257 0 0.0082728611356413413 -0.027445185126773988 0 0.015565819580935537 -0.029012357268881024 0 0.007506651739623893 -0.027764946034451638 0 0.0053838913335246394 -0.022967305091223255 0 0.0025307615723019886 -0.022048123514081284 0 0.003983536075553195 -0.016488905709895373 0 0.0038519288131231661 -0.022501122075019069 0 0.0026822149146148405 -0.022473809935161425 0 0.0034852527074840747 -0.021649511909381778 0 0.010391487484786155 -0.021877686492668733 0 0.010835792869225806 -0.020639754266954431 0 0.010161897263592116 -0.020989282463012199 0 0.0026822149146148405 -0.022473809935161425 0 0.0034852527074840747 -0.021649511909381778 0 0.0032324820636417512 -0.021156510907758413 0 0.003983536075553195 -0.016488905709895373 0 0.0053838913335246394 -0.022967305091223255 0 0.0025307615723019886 -0.022048123514081284 0 0.0026294934679869427 -0.022092823388003297 0 0.010357545527359329 -0.02068719679173418 0 0.010702601477325676 -0.020592278391884065 0 0.010835792869225806 -0.020639754266954431 0 0.010357545527359329 -0.02068719679173418 0 0.010835792869225806 -0.020639754266954431 0 0.010161897263592116 -0.020989282463012199 0 0.010357545527359329 -0.02068719679173418 0 0.010702601477325676 -0.020592278391884065 0 0.010434735347650739 -0.020454165421108061 0 0.0054230551918857195 -0.022976753689653868 0 0.0053838913335246394 -0.022967305091223255 0 0.0059573492255935957 -0.022441554930012802 0 0.0053838913335246394 -0.022967305091223255 0 0.01110143550802942 -0.021562579418833053 0 0.0082728611356413413 -0.027445185126773988 0 0.01249193732920908 -0.02505856389085041 0 0.01110143550802942 -0.021562579418833053 0 0.010702601477325676 -0.020592278391884065 0 0.010585837723655836 -0.020492264152949198 0 0.01110143550802942 -0.021562579418833053 0 0.01057668949980829 -0.020415839216498817 0 0.010702601477325676 -0.020592278391884065 0 0.01057668949980829 -0.020415839216498817 0 0.010702601477325676 -0.020592278391884065 0 0.010434735347650739 -0.020454165421108061 0 0.017659975671125008 -0.020741538498307868 0 0.014227592182890393 -0.022641944697043486 0 0.015565819580935537 -0.029012357268881024 0 0.0082728611356413413 -0.027445185126773988 0 0.015565819580935537 -0.029012357268881024 0 0.01249193732920908 -0.02505856389085041 0 0.014227592182890393 -0.022641944697043486 0 0.015565819580935537 -0.029012357268881024 0 0.01249193732920908 -0.02505856389085041 0 0.014227592182890393 -0.022641944697043486 0 0.01110143550802942 -0.021562579418833053 0 0.01249193732920908 -0.02505856389085041 0 0.021677856765776035 -0.026094706621945317 0 0.018554897018272974 -0.024571144231844682 0 0.020243940950910748 -0.029666782290512728 0 0.017659975671125008 -0.020741538498307868 0 0.015565819580935537 -0.029012357268881024 0 0.020243940950910748 -0.029666782290512728 0 0.017678932700026753 -0.022662509622254894 0 0.018739948255878359 -0.025257227465874645 0 0.015565819580935537 -0.029012357268881024 0 0.020243940950910748 -0.029666782290512728 0 0.017596302878257503 -0.031632302235239496 0 0.021677856765776035 -0.026094706621945317 0 0.020243940950910748 -0.029666782290512728 0 0.023731326951238012 -0.027478383381935239 0 0.021677856765776035 -0.026094706621945317 0 0.023614541291779756 -0.025773673342907685 0 0.023731326951238012 -0.027478383381935239 0 0.015585551557132805 -0.040508581461891638 0 0.017017298589655051 -0.040651026741558384 0 0.016602668013492985 -0.038763886488813216 0 0.017240372416673304 -0.037731595740815166 0 0.017566536681419092 -0.036779946571235456 0 0.017745593278893169 -0.035039956650791411 0 0.020243940950910748 -0.029666782290512728 0 0.023731326951238012 -0.027478383381935239 0 0.017745593278893169 -0.035039956650791411 0 0.017017298589655051 -0.040651026741558384 0 0.017240372416673304 -0.037731595740815166 0 0.017745593278893169 -0.035039956650791411 0 0.019289994419176323 -0.03490986679558028 0 0.018512377278795625 -0.035458490949039551 0 0.017017298589655051 -0.040651026741558384 0 0.017240372416673304 -0.037731595740815166 0 0.016602668013492985 -0.038763886488813216 0 0.015534013245062742 -0.039191265934853184 0 0.016602668013492985 -0.038763886488813216 0 0.017566536681419092 -0.036779946571235456 0 0.017240372416673304 -0.037731595740815166 0 0.016602668013492985 -0.038763886488813216 0 0.017566536681419092 -0.036779946571235456 0 0.016899570399683036 -0.035000819041292257 0 0.015565819580935537 -0.029012357268881024 0 0.017596302878257503 -0.031632302235239496 0 0.007506651739623893 -0.027764946034451638 0 0.013356188607589511 -0.032290711255306671 0 0.016899570399683036 -0.035000819041292257 0 0.017566536681419092 -0.036779946571235456 0 0.017745593278893169 -0.035039956650791411 0 0.016899570399683036 -0.035000819041292257 0 0.017745593278893169 -0.035039956650791411 0 0.017596302878257503 -0.031632302235239496 0 0.020243940950910748 -0.029666782290512728 0 0.017745593278893169 -0.035039956650791411 0 0.017596302878257503 -0.031632302235239496 0 -0.002326571660706862 -0.0072813014623672699 0 -0.0020607331165598316 -0.0070194305780489543 0 -0.0025248837287581215 -0.008089559358776921 0 -0.002326571660706862 -0.0072813014623672699 0 -0.0025248837287581215 -0.008089559358776921 0 -0.0023760751237261522 -0.0071569972721428135 0 0.0055978670923531341 -0.020030639453976602 0 0.0079944799686958098 -0.020015571140620535 0 0.0077575952272616175 -0.021497770862795605 0 0.0029792611736723469 -0.014201815932316956 0 0.0031638390232516704 -0.014081275968129288 0 -0.002326571660706862 -0.0072813014623672699 0 -0.0023760751237261522 -0.0071569972721428135 0 -0.0022172032981906888 -0.0070096125127374611 0 -0.002326571660706862 -0.0072813014623672699 0 -0.0020607331165598316 -0.0070194305780489543 0 -0.0022172032981906888 -0.0070096125127374611 0 -0.0015073523975948056 -0.0072590247253055155 0 -0.0020607331165598316 -0.0070194305780489543 0 -0.0018580340554876723 -0.0067741852585811949 0 -0.0015073523975948056 -0.0072590247253055155 0 -0.0020607331165598316 -0.0070194305780489543 0 -0.0025248837287581215 -0.008089559358776921 0 0.0040901808473928726 -0.014910950711553428 0 0.0059063789336864288 -0.015689260731772077 0 0.0031497345998883881 -0.018328943955514439 0 0.0055978670923531341 -0.020030639453976602 0 0.0071386981454850916 -0.018345630504893424 0 0.0040901808473928726 -0.014910950711553428 0 0.0029792611736723469 -0.014201815932316956 0 -0.0010096536679791335 -0.010466249098504901 0 -0.0015073523975948056 -0.0072590247253055155 0 -0.0025248837287581215 -0.008089559358776921 0 0.0055978670923531341 -0.020030639453976602 0 0.0071386981454850916 -0.018345630504893424 0 0.0079944799686958098 -0.020015571140620535 0 0.0071386981454850916 -0.018345630504893424 0 0.0085642582491578731 -0.019440610461356728 0 0.0079944799686958098 -0.020015571140620535 0 0.0085642582491578731 -0.019440610461356728 0 0.0093622736272232169 -0.019476013284314451 0 0.0092409799756499496 -0.020222695990183191 0 0.0079944799686958098 -0.020015571140620535 0 0.0092409799756499496 -0.020222695990183191 0 0.0086164276452671794 -0.02094895351571362 0 0.0085642582491578731 -0.019440610461356728 0 0.0079944799686958098 -0.020015571140620535 0 0.0092409799756499496 -0.020222695990183191 0 0.01057668949980829 -0.020415839216498817 0 0.010434735347650739 -0.020454165421108061 0 0.010031836849416553 -0.020212675156997099 0 0.010031836849416553 -0.020212675156997099 0 0.0093622736272232169 -0.019476013284314451 0 0.0092409799756499496 -0.020222695990183191 0 0.0092409799756499496 -0.020222695990183191 0 0.0098033483356679638 -0.020593488774635332 0 0.0094306800002046994 -0.021130716845505049 0 0.010031836849416553 -0.020212675156997099 0 0.0092409799756499496 -0.020222695990183191 0 0.0098033483356679638 -0.020593488774635332 0 0.010357545527359329 -0.02068719679173418 0 0.010031836849416553 -0.020212675156997099 0 0.0098033483356679638 -0.020593488774635332 0 0.010357545527359329 -0.02068719679173418 0 0.0098033483356679638 -0.020593488774635332 0 0.010161897263592116 -0.020989282463012199 0 0.010357545527359329 -0.02068719679173418 0 0.010434735347650739 -0.020454165421108061 0 0.010031836849416553 -0.020212675156997099 0 0.010391487484786155 -0.021877686492668733 0 0.0094306800002046994 -0.021130716845505049 0 0.0086602020077433169 -0.021985120725351918 0 0.003983536075553195 -0.016488905709895373 0 0.0033999928191604805 -0.014037283664042522 0 0.0098033483356679638 -0.020593488774635332 0 0.010161897263592116 -0.020989282463012199 0 0.0094306800002046994 -0.021130716845505049 0 0.010391487484786155 -0.021877686492668733 0 0.010161897263592116 -0.020989282463012199 0 0.0094306800002046994 -0.021130716845505049 0 0.0079944799686958098 -0.020015571140620535 0 0.0086164276452671794 -0.02094895351571362 0 0.0077575952272616175 -0.021497770862795605 0 0.0094306800002046994 -0.021130716845505049 0 0.0086164276452671794 -0.02094895351571362 0 0.0086602020077433169 -0.021985120725351918 0 0.0092409799756499496 -0.020222695990183191 0 0.0094306800002046994 -0.021130716845505049 0 0.0086164276452671794 -0.02094895351571362 0 -0.0022290132462065371 -0.0070282209971142505 0 -0.0023760751237261522 -0.0071569972721428135 0 -0.0022032316638722358 -0.0069848490696555587 0 0.0086164276452671794 -0.02094895351571362 0 0.0086602020077433169 -0.021985120725351918 0 0.0077575952272616175 -0.021497770862795605 0 0.0033999928191604805 -0.014037283664042522 0 0.0031638390232516704 -0.014081275968129288 0 -0.0023760751237261522 -0.0071569972721428135 0 -0.0022032316638722358 -0.0069848490696555587 0 -0.0022172032981906888 -0.0070096125127374611 0 -0.0022032316638722358 -0.0069848490696555587 0 -0.0021208852345777937 -0.0068952082195898844 0 -0.0022172032981906888 -0.0070096125127374611 0 -0.0022032316638722358 -0.0069848490696555587 0 -0.0021268793716911435 -0.0069155666076749943 0 -0.0021668995853047317 -0.0069978191423644585 0 -0.0022290132462065371 -0.0070282209971142505 0 -0.0022032316638722358 -0.0069848490696555587 0 -0.0021668995853047317 -0.0069978191423644585 0 0.0033999928191604805 -0.014037283664042522 0 0.0024393658488505846 -0.013247514591935246 0 -0.0022032316638722358 -0.0069848490696555587 0 -0.0021268793716911435 -0.0069155666076749943 0 -0.0021208852345777937 -0.0068952082195898844 0 -0.0022795013248287058 -0.0070567506637284538 0 -0.0021668995853047317 -0.0069978191423644585 0 -0.0021569283960193092 -0.0068469926229397056 0 -0.0022795013248287058 -0.0070567506637284538 0 -0.0020824279941243497 -0.007062488302753119 0 -0.0021668995853047317 -0.0069978191423644585 0 0.003983536075553195 -0.016488905709895373 0 0.002441574436966638 -0.0092804159804366262 0 0.0014240763965307445 -0.0043694612335341259 0 0.00095820821758532085 -0.0034121782706860422 0 0.00032324489519191884 -0.0047790198251907228 0 -0.0021268793716911435 -0.0069155666076749943 0 -0.0021668995853047317 -0.0069978191423644585 0 -0.0021569283960193092 -0.0068469926229397056 0 -0.0021268793716911435 -0.0069155666076749943 0 -0.0021569283960193092 -0.0068469926229397056 0 -0.001965343927118772 -0.006776826853610818 0 -0.0021569283960193092 -0.0068469926229397056 0 -0.001965343927118772 -0.006776826853610818 0 -0.001793591297121218 -0.0067246418239094588 0 -0.0021268793716911435 -0.0069155666076749943 0 -0.0021208852345777937 -0.0068952082195898844 0 -0.001965343927118772 -0.006776826853610818 0 -0.0021208852345777937 -0.0068952082195898844 0 -0.001965343927118772 -0.006776826853610818 0 -0.0019707502850836297 -0.0067639037944945213 0 -0.0019707502850836297 -0.0067639037944945213 0 -0.0019751105765339642 -0.006738199237640693 0 -0.0018412878934726754 -0.006696415506343284 0 -0.001965343927118772 -0.006776826853610818 0 -0.0019707502850836297 -0.0067639037944945213 0 -0.0018412878934726754 -0.006696415506343284 0 -0.0021208852345777937 -0.0068952082195898844 0 -0.0019707502850836297 -0.0067639037944945213 0 -0.0019751105765339642 -0.006738199237640693 0 -0.0021208852345777937 -0.0068952082195898844 0 -0.0022172032981906888 -0.0070096125127374611 0 -0.0019751105765339642 -0.006738199237640693 0 -0.0020607331165598316 -0.0070194305780489543 0 -0.0022172032981906888 -0.0070096125127374611 0 -0.0019751105765339642 -0.006738199237640693 0 -0.0020607331165598316 -0.0070194305780489543 0 -0.0018580340554876723 -0.0067741852585811949 0 -0.0019751105765339642 -0.006738199237640693 0 -0.0019751105765339642 -0.006738199237640693 0 -0.0019542112607210337 -0.0066212055866525102 0 -0.0018412878934726754 -0.006696415506343284 0 -0.0018580340554876723 -0.0067741852585811949 0 -0.0019751105765339642 -0.006738199237640693 0 -0.0019542112607210337 -0.0066212055866525102 0 -0.0019692370349292014 -0.006678770829882605 0 -0.0019542112607210337 -0.0066212055866525102 0 -0.0018412878934726754 -0.006696415506343284 0 -0.0018412878934726754 -0.006696415506343284 0 -0.0016550238989184176 -0.0068055638325400783 0 -0.001793591297121218 -0.0067246418239094588 0 -0.0018412878934726754 -0.006696415506343284 0 -0.0017608005584391448 -0.0068857110648627195 0 -0.0016550238989184176 -0.0068055638325400783 0 -0.0017608005584391448 -0.0068857110648627195 0 -0.0016550238989184176 -0.0068055638325400783 0 -0.0012805823342651817 -0.007062139404566882 0 -0.0019692370349292014 -0.006678770829882605 0 -0.0018412878934726754 -0.006696415506343284 0 -0.0017608005584391448 -0.0068857110648627195 0 -0.0019692370349292014 -0.006678770829882605 0 -0.0020631564994188336 -0.0068893356004111408 0 -0.0017608005584391448 -0.0068857110648627195 0 0.0011699292348080824 -0.0053970045462832343 0 0.00032324489519191884 -0.0047790198251907228 0 -0.0004422852911593121 -0.0061052194050625012 0 0.0013004835344883822 -0.0064678520969383814 0 0.0011699292348080824 -0.0053970045462832343 0 -0.0004422852911593121 -0.0061052194050625012 0 0.002441574436966638 -0.0092804159804366262 0 0.001022695989872226 -0.0078545448476981753 0 -0.001965343927118772 -0.006776826853610818 0 -0.0018412878934726754 -0.006696415506343284 0 -0.001793591297121218 -0.0067246418239094588 0 0.001022695989872226 -0.0078545448476981753 0 0.00049966582335664268 -0.0077616371496183889 0 -0.0016550238989184176 -0.0068055638325400783 0 -0.001793591297121218 -0.0067246418239094588 0 -0.0012805823342651817 -0.007062139404566882 0 -0.0004422852911593121 -0.0061052194050625012 0 -5.083345620749266e-05 -0.0071812810535854333 0 -0.0012805823342651817 -0.007062139404566882 0 0.0010995469059693853 -0.0068718590829213687 0 0.00081444631722872921 -0.0072520403783774235 0 0.0013004835344883822 -0.0064678520969383814 0 -0.0004422852911593121 -0.0061052194050625012 0 -5.083345620749266e-05 -0.0071812810535854333 0 0.0012257421683086651 -0.0077068955936695415 0 0.0014411091759159588 -0.0082392363829840894 0 0.0014857601709351758 -0.0082590589630193913 0 0.001663157490738225 -0.0079979785545212529 0 0.0012257421683086651 -0.0077068955936695415 0 0.0014857601709351758 -0.0082590589630193913 0 0.00081444631722872921 -0.0072520403783774235 0 0.00036063582439038375 -0.0078924610651425978 0 -0.0012805823342651817 -0.007062139404566882 0 -0.001104492156728857 -0.0075757438514157047 0 -0.001558909228111139 -0.0071756538404921348 0 -5.083345620749266e-05 -0.0071812810535854333 0 -0.0012805823342651817 -0.007062139404566882 0 -0.001104492156728857 -0.0075757438514157047 0 0.00036063582439038375 -0.0078924610651425978 0 -0.00012031935834845216 -0.0086757385457296148 0 0.0014411091759159588 -0.0082392363829840894 0 0.0015221095577986935 -0.0084090523013510884 0 0.0015758243818176892 -0.0086368709783888557 0 0.0014411091759159588 -0.0082392363829840894 0 0.0015221095577986935 -0.0084090523013510884 0 0.0014857601709351758 -0.0082590589630193913 0 0.0016583030380721512 -0.0085077704585020016 0 0.001663157490738225 -0.0079979785545212529 0 0.0014857601709351758 -0.0082590589630193913 0 0.0015221095577986935 -0.0084090523013510884 0 0.0014857601709351758 -0.0082590589630193913 0 0.0015718756361078412 -0.0085065873447166904 0 0.0016583030380721512 -0.0085077704585020016 0 0.0014857601709351758 -0.0082590589630193913 0 0.0015718756361078412 -0.0085065873447166904 0 -0.0020631564994188336 -0.0068893356004111408 0 -0.0017608005584391448 -0.0068857110648627195 0 -0.0017774429476964564 -0.0072235642243219074 0 -0.0017608005584391448 -0.0068857110648627195 0 -0.0012805823342651817 -0.007062139404566882 0 -0.001558909228111139 -0.0071756538404921348 0 -0.0017608005584391448 -0.0068857110648627195 0 -0.0017774429476964564 -0.0072235642243219074 0 -0.001558909228111139 -0.0071756538404921348 0 -0.001104492156728857 -0.0075757438514157047 0 -0.001558909228111139 -0.0071756538404921348 0 -0.0015080081533727196 -0.0074801197488619121 0 -0.0017774429476964564 -0.0072235642243219074 0 -0.001558909228111139 -0.0071756538404921348 0 -0.0015080081533727196 -0.0074801197488619121 0 -0.001104492156728857 -0.0075757438514157047 0 -0.0015080081533727196 -0.0074801197488619121 0 -0.0014809896857464872 -0.0077353236310525311 0 -0.0019970881602686566 -0.007304982956453954 0 -0.0017774429476964564 -0.0072235642243219074 0 -0.0017526405849888937 -0.0075822784750494178 0 -0.0019970881602686566 -0.007304982956453954 0 -0.0017526405849888937 -0.0075822784750494178 0 -0.0020493286515067448 -0.0076752184689125981 0 -0.0017774429476964564 -0.0072235642243219074 0 -0.0015080081533727196 -0.0074801197488619121 0 -0.0017526405849888937 -0.0075822784750494178 0 -0.0017526405849888937 -0.0075822784750494178 0 -0.0014809896857464872 -0.0077353236310525311 0 -0.0017541836807362736 -0.0080624174735729644 0 -0.0017526405849888937 -0.0075822784750494178 0 -0.0017541836807362736 -0.0080624174735729644 0 -0.0020493286515067448 -0.0076752184689125981 0 -0.0015080081533727196 -0.0074801197488619121 0 -0.0017526405849888937 -0.0075822784750494178 0 -0.0014809896857464872 -0.0077353236310525311 0 0.00099579856224158011 -0.008813017401845662 0 0.0011500581660693139 -0.010296681878963819 0 0.0017266186671966955 -0.0095349508342858855 0 0.0011500581660693139 -0.010296681878963819 0 -0.00033000421159421736 -0.010396363298454779 0 0.00059874439489887208 -0.011555596998754898 0 0.00099579856224158011 -0.008813017401845662 0 0.0011500581660693139 -0.010296681878963819 0 -0.00033000421159421736 -0.010396363298454779 0 -0.00012031935834845216 -0.0086757385457296148 0 -0.00069616286198657972 -0.0098230087661642321 0 -0.00069616286198657972 -0.0098230087661642321 0 -0.0015689059436151138 -0.0084196015932526316 0 0.0018748555543962211 -0.012838260293230094 0 0.0014217380516084769 -0.011629786387905995 0 0.0016583030380721512 -0.0085077704585020016 0 0.0016052769065306278 -0.0085363518039564754 0 0.0015718756361078412 -0.0085065873447166904 0 0.0016052769065306278 -0.0085363518039564754 0 0.0015718756361078412 -0.0085065873447166904 0 0.0015758243818176892 -0.0086368709783888557 0 0.0042977777857304529 -0.0094109982682750292 0 0.0015758243818176892 -0.0086368709783888557 0 0.0026765604308072884 -0.0096397875248820514 0 0.0014411091759159588 -0.0082392363829840894 0 0.00099579856224158011 -0.008813017401845662 0 0.0015758243818176892 -0.0086368709783888557 0 0.0015221095577986935 -0.0084090523013510884 0 0.0015718756361078412 -0.0085065873447166904 0 0.0015758243818176892 -0.0086368709783888557 0 0.0015758243818176892 -0.0086368709783888557 0 0.0017266186671966955 -0.0095349508342858855 0 0.0026765604308072884 -0.0096397875248820514 0 0.00099579856224158011 -0.008813017401845662 0 0.0015758243818176892 -0.0086368709783888557 0 0.0017266186671966955 -0.0095349508342858855 0 0.0011500581660693139 -0.010296681878963819 0 0.0017266186671966955 -0.0095349508342858855 0 0.0022554558073899097 -0.010452167009626387 0 0.0011500581660693139 -0.010296681878963819 0 0.0022554558073899097 -0.010452167009626387 0 0.0020342123668189282 -0.011560625265209061 0 0.0017266186671966955 -0.0095349508342858855 0 0.0022554558073899097 -0.010452167009626387 0 0.0026765604308072884 -0.0096397875248820514 0 0.0022554558073899097 -0.010452167009626387 0 0.0026765604308072884 -0.0096397875248820514 0 0.0035809298793997406 -0.010105558483271821 0 0.0042977777857304529 -0.0094109982682750292 0 0.0026765604308072884 -0.0096397875248820514 0 0.0035809298793997406 -0.010105558483271821 0 0.0042977777857304529 -0.0094109982682750292 0 0.0035809298793997406 -0.010105558483271821 0 0.0040567554338312682 -0.010899241432917336 0 0.0018748555543962211 -0.012838260293230094 0 0.0024501023799500957 -0.014345660440456981 0 0.0035809298793997406 -0.010105558483271821 0 0.0040567554338312682 -0.010899241432917336 0 0.0029871494077573003 -0.011082565414384673 0 0.0022554558073899097 -0.010452167009626387 0 0.0035809298793997406 -0.010105558483271821 0 0.0029871494077573003 -0.011082565414384673 0 0.0040567554338312682 -0.010899241432917336 0 0.0029871494077573003 -0.011082565414384673 0 0.003017875073216852 -0.012350920131439269 0 0.0024501023799500957 -0.014345660440456981 0 0.0027052951179840109 -0.017388240164960107 0 0.0031366474783069663 -0.017126811551936402 0 0.0032655814869208002 -0.016167811979626349 0 0.0026158981445583759 -0.01728233306947749 0 0.003375567889826985 -0.013977339110821833 0 0.0025535868934867291 -0.014976733780575414 0 0.0032447696723559593 -0.01502380748640641 0 0.0024501023799500957 -0.014345660440456981 0 0.0024712384249799186 -0.014292455898372919 0 0.0020342123668189282 -0.011560625265209061 0 0.003017875073216852 -0.012350920131439269 0 0.0017443619768369176 -0.012750679693828183 0 0.0029871494077573003 -0.011082565414384673 0 0.0020342123668189282 -0.011560625265209061 0 0.003017875073216852 -0.012350920131439269 0 0.0022554558073899097 -0.010452167009626387 0 0.0029871494077573003 -0.011082565414384673 0 0.0020342123668189282 -0.011560625265209061 0 0.0022406563604114951 -0.015903954798046523 0 0.0025535868934867291 -0.014976733780575414 0 0.0016756284792071149 -0.015991884016414746 0 0.0024712384249799186 -0.014292455898372919 0 0.001796654223391145 -0.015164616864238692 0 0.003017875073216852 -0.012350920131439269 0 0.0017443619768369176 -0.012750679693828183 0 0.0021649856821655501 -0.014169145684380147 0 0.0030042374606439859 -0.015175994313818083 0 0.0050089135915781079 -0.013446917028841644 0 0.0046530825519445415 -0.016370319165490387 0 0.0027052951179840109 -0.017388240164960107 0 0.0032391970249446476 -0.018759023899445441 0 0.0028390605512655124 -0.016548762841937816 0 0.0027052951179840109 -0.017388240164960107 0 0.0022406563604114951 -0.015903954798046523 0 0.0025535868934867291 -0.014976733780575414 0 0.0032447696723559593 -0.01502380748640641 0 0.0035066020625868321 -0.023271190633530212 0 0.0037224164636917496 -0.022092240568104118 0 0.0030900342978609201 -0.022662601837477009 0 -0.00030222093103262319 -0.011493186292836282 0 0.00075632894857687559 -0.011304417991644295 0 0.00051354786261109014 -0.012771778214241797 0 -0.00030222093103262319 -0.011493186292836282 0 -0.0010108988545532334 -0.012012960536057932 0 -0.0012482821712347632 -0.01136876531656745 0 -0.00069616286198657972 -0.0098230087661642321 0 -0.00089414089606551159 -0.010181320670717588 0 -0.00023174846220844685 -0.010124758155883972 0 -0.00030222093103262319 -0.011493186292836282 0 -0.0012482821712347632 -0.01136876531656745 0 -0.00023174846220844685 -0.010124758155883972 0 -0.00030222093103262319 -0.011493186292836282 0 0.00075632894857687559 -0.011304417991644295 0 -0.00069616286198657972 -0.0098230087661642321 0 0.00015389862308515137 -0.010856730833968091 0 0.0011500581660693139 -0.010296681878963819 0 0.0020342123668189282 -0.011560625265209061 0 0.00059874439489887208 -0.011555596998754898 0 0.00015389862308515137 -0.010856730833968091 0 0.00052909253369688854 -0.011315706324339382 0 0.0020342123668189282 -0.011560625265209061 0 0.00059874439489887208 -0.011555596998754898 0 0.0017443619768369176 -0.012750679693828183 0 0.00075632894857687559 -0.011304417991644295 0 0.00051354786261109014 -0.012771778214241797 0 0.0017443619768369176 -0.012750679693828183 0 0.0017443619768369176 -0.012750679693828183 0 0.0011171607644542389 -0.014001630879334124 0 0.0021649856821655501 -0.014169145684380147 0 0.00051354786261109014 -0.012771778214241797 0 0.0011171607644542389 -0.014001630879334124 0 0.00017770294505561082 -0.014391383833386506 0 0.00051354786261109014 -0.012771778214241797 0 0.0017443619768369176 -0.012750679693828183 0 0.0011171607644542389 -0.014001630879334124 0 -0.00058567641313645878 -0.013103695606605134 0 -0.0012394797197971194 -0.015985373920825236 0 -0.0018628663277569669 -0.012140970518202177 0 0.00051354786261109014 -0.012771778214241797 0 -0.00058567641313645878 -0.013103695606605134 0 0.00017770294505561082 -0.014391383833386506 0 -0.00030222093103262319 -0.011493186292836282 0 0.00051354786261109014 -0.012771778214241797 0 -0.00058567641313645878 -0.013103695606605134 0 -0.0010108988545532334 -0.012012960536057932 0 -0.00058567641313645878 -0.013103695606605134 0 -0.0018628663277569669 -0.012140970518202177 0 -0.00030222093103262319 -0.011493186292836282 0 -0.0010108988545532334 -0.012012960536057932 0 -0.00058567641313645878 -0.013103695606605134 0 -0.0012394797197971194 -0.015985373920825236 0 0.00017770294505561082 -0.014391383833386506 0 0.00058857974663822313 -0.016924422840513584 0 -0.00058567641313645878 -0.013103695606605134 0 -0.0012394797197971194 -0.015985373920825236 0 0.00017770294505561082 -0.014391383833386506 0 -0.00088691765960005175 -0.014843208581025029 0 2.2767104081844699e-05 -0.016484915967002557 0 -0.0013159950278008555 -0.013407225656139901 0 -0.00073955129638039827 -0.014726767951720834 0 -0.0018419988033740269 -0.014576312417879649 0 -0.0012394797197971194 -0.015985373920825236 0 0.00058857974663822313 -0.016924422840513584 0 0.00031226449882734269 -0.019676381192294413 0 0.001556050380545569 -0.018091606960093608 0 0.00058857974663822313 -0.016924422840513584 0 0.00031226449882734269 -0.019676381192294413 0 0.001556050380545569 -0.018091606960093608 0 0.00058857974663822313 -0.016924422840513584 0 0.0010746069849020027 -0.016743930507231285 0 0.001556050380545569 -0.018091606960093608 0 0.0010746069849020027 -0.016743930507231285 0 0.0020435667267460693 -0.017525600396101328 0 0.00058857974663822313 -0.016924422840513584 0 0.0010746069849020027 -0.016743930507231285 0 0.0016756284792071149 -0.015991884016414746 0 0.0011171607644542389 -0.014001630879334124 0 0.00017770294505561082 -0.014391383833386506 0 0.00058857974663822313 -0.016924422840513584 0 0.0013054477786542192 -0.015797071970620174 0 0.001796654223391145 -0.015164616864238692 0 0.0011171607644542389 -0.014001630879334124 0 0.00058857974663822313 -0.016924422840513584 0 0.0021649856821655501 -0.014169145684380147 0 0.0028390605512655124 -0.016548762841937816 0 0.0024239722652843712 -0.016688101773360824 0 0.0030042374606439859 -0.015175994313818083 0 0.0010746069849020027 -0.016743930507231285 0 0.0027095164632721077 -0.016838767615053145 0 0.0022406563604114951 -0.015903954798046523 0 0.0010746069849020027 -0.016743930507231285 0 0.0016756284792071149 -0.015991884016414746 0 0.0030042374606439859 -0.015175994313818083 0 0.0027095164632721077 -0.016838767615053145 0 0.0046530825519445415 -0.016370319165490387 0 0.0046530825519445415 -0.016370319165490387 0 0.0028556285783807602 -0.018395764647731079 0 0.0039815365746658721 -0.019922734613696782 0 0.0032391970249446476 -0.018759023899445441 0 0.0033714031165198379 -0.019236286288918887 0 0.0037224164636917496 -0.022092240568104118 0 0.0039815365746658721 -0.019922734613696782 0 0.0027989930090882111 -0.020996628392501243 0 0.0027095164632721077 -0.016838767615053145 0 0.0046530825519445415 -0.016370319165490387 0 0.0028556285783807602 -0.018395764647731079 0 0.0027095164632721077 -0.016838767615053145 0 0.0020435667267460693 -0.017525600396101328 0 0.0028556285783807602 -0.018395764647731079 0 0.0010746069849020027 -0.016743930507231285 0 0.0027095164632721077 -0.016838767615053145 0 0.0020435667267460693 -0.017525600396101328 0 0.001556050380545569 -0.018091606960093608 0 0.0028556285783807602 -0.018395764647731079 0 0.0021158342248037867 -0.019403965711827873 0 0.001556050380545569 -0.018091606960093608 0 0.0020435667267460693 -0.017525600396101328 0 0.0028556285783807602 -0.018395764647731079 0 0.0021158342248037867 -0.019403965711827873 0 0.0030787728614429634 -0.019642088026834342 0 0.0027846307030155565 -0.020214466593490566 0 0.0028556285783807602 -0.018395764647731079 0 0.0021158342248037867 -0.019403965711827873 0 0.0030787728614429634 -0.019642088026834342 0 0.0028556285783807602 -0.018395764647731079 0 0.0030787728614429634 -0.019642088026834342 0 0.0039815365746658721 -0.019922734613696782 0 0.0030787728614429634 -0.019642088026834342 0 0.003507356300298632 -0.020043287189397629 0 0.0039815365746658721 -0.019922734613696782 0 0.003507356300298632 -0.020043287189397629 0 0.0033830943210686874 -0.02037167566880916 0 0.0027846307030155565 -0.020214466593490566 0 0.0030787728614429634 -0.019642088026834342 0 0.003507356300298632 -0.020043287189397629 0 0.0027846307030155565 -0.020214466593490566 0 0.0021158342248037867 -0.019403965711827873 0 0.0027846307030155565 -0.020214466593490566 0 0.0017767242490978454 -0.020374258768393411 0 0.0027846307030155565 -0.020214466593490566 0 0.0025437354171230727 -0.020900181692664489 0 0.0017767242490978454 -0.020374258768393411 0 0.0036750358833679336 -0.020070977988097136 0 0.0035950066443393232 -0.019852499768780629 0 0.0027989930090882111 -0.020996628392501243 0 0.0036750358833679336 -0.020070977988097136 0 0.0039815365746658721 -0.019922734613696782 0 0.0027989930090882111 -0.020996628392501243 0 0.0036750358833679336 -0.020070977988097136 0 0.0039815365746658721 -0.019922734613696782 0 0.0037621542233663473 -0.020025401662845232 0 0.003507356300298632 -0.020043287189397629 0 0.0039815365746658721 -0.019922734613696782 0 0.0037621542233663473 -0.020025401662845232 0 0.003507356300298632 -0.020043287189397629 0 0.0035915462404879379 -0.020206849580231324 0 0.0037621542233663473 -0.020025401662845232 0 0.003507356300298632 -0.020043287189397629 0 0.0033830943210686874 -0.02037167566880916 0 0.0035915462404879379 -0.020206849580231324 0 0.0035915462404879379 -0.020206849580231324 0 0.0037621542233663473 -0.020025401662845232 0 0.0037805877987044253 -0.01993810811924436 0 0.0036750358833679336 -0.020070977988097136 0 0.0037621542233663473 -0.020025401662845232 0 0.0037805877987044253 -0.01993810811924436 0 0.0036750358833679336 -0.020070977988097136 0 0.0037805877987044253 -0.01993810811924436 0 0.0035950066443393232 -0.019852499768780629 0 0.0019624726766724328 -0.019917790838756999 0 0.0016827527633121095 -0.019062138306936521 0 0.0037805877987044253 -0.01993810811924436 0 0.0035950066443393232 -0.019852499768780629 0 0.003876199949684603 -0.019345064799021074 0 0.0024826843707932878 -0.021045058325933914 0 0.0024555826660411714 -0.021002319681067059 0 0.0024600635965868808 -0.020980714706996934 0 0.0037805877987044253 -0.01993810811924436 0 0.0041102716080209534 -0.019713572738355098 0 0.003876199949684603 -0.019345064799021074 0 0.0012564163040776316 -0.018206213619142163 0 0.00098881055691489822 -0.018167100282402857 0 0.0035915462404879379 -0.020206849580231324 0 0.0037805877987044253 -0.01993810811924436 0 0.0033727715253881437 -0.02089750646992999 0 0.00098881055691489822 -0.018167100282402857 0 0.0016827527633121095 -0.019062138306936521 0 0.0010299558416035327 -0.016322274143202888 0 0.00025770219351466892 -0.016837201214801954 0 0.00083017749071276684 -0.017003946607883048 0 0.0025437354171230727 -0.020900181692664489 0 0.003367275213468481 -0.021029023171083502 0 0.0016799402811734029 -0.022263856200825504 0 0.0025437354171230727 -0.020900181692664489 0 0.0017767242490978454 -0.020374258768393411 0 0.0016799402811734029 -0.022263856200825504 0 0.00098881055691489822 -0.018167100282402857 0 0.00041807216590256259 -0.016187242777568195 0 0.0033830943210686874 -0.02037167566880916 0 0.0027846307030155565 -0.020214466593490566 0 0.0032156135747915338 -0.020757570645930767 0 0.0025437354171230727 -0.020900181692664489 0 0.0032156135747915338 -0.020757570645930767 0 0.003367275213468481 -0.021029023171083502 0 0.0027846307030155565 -0.020214466593490566 0 0.0025437354171230727 -0.020900181692664489 0 0.0032156135747915338 -0.020757570645930767 0 0.0033830943210686874 -0.02037167566880916 0 0.0035915462404879379 -0.020206849580231324 0 0.0033727715253881437 -0.02089750646992999 0 0.0033830943210686874 -0.02037167566880916 0 0.0032156135747915338 -0.020757570645930767 0 0.0033727715253881437 -0.02089750646992999 0 0.0010109320280523976 -0.018198860167287431 0 0.00098881055691489822 -0.018167100282402857 0 0.0010299558416035327 -0.016322274143202888 0 0.00083017749071276684 -0.017003946607883048 0 0.0013731723121745223 -0.016851403071786668 0 -0.0012252478175866315 -0.015601156596921687 0 -0.00073955129638039827 -0.014726767951720834 0 -0.00017847358832698715 -0.01597941357759548 0 2.2767104081844699e-05 -0.016484915967002557 0 0.00041807216590256259 -0.016187242777568195 0 0.00031226449882734269 -0.019676381192294413 0 0.0017767242490978454 -0.020374258768393411 0 0.0016799402811734029 -0.022263856200825504 0 -0.0012252478175866315 -0.015601156596921687 0 -0.00073955129638039827 -0.014726767951720834 0 -0.0018419988033740269 -0.014576312417879649 0 0.001556050380545569 -0.018091606960093608 0 0.0021158342248037867 -0.019403965711827873 0 0.00031226449882734269 -0.019676381192294413 0 0.0021158342248037867 -0.019403965711827873 0 0.00031226449882734269 -0.019676381192294413 0 0.0017767242490978454 -0.020374258768393411 0 0.0017727562077788882 -0.021285181160699263 0 0.0019969356619998053 -0.021145272841523868 0 0.0019799177787603837 -0.021266203412057396 0 0.0022549905032735996 -0.023599781793110321 0 0.0014016918816883266 -0.024165055700150966 0 0.00070354410902402935 -0.022449997443069167 0 0.001516725084433091 -0.021421238994255336 0 0.00070354410902402935 -0.022449997443069167 0 0.0011914707273067368 -0.020614095270887069 0 0.0022549905032735996 -0.023599781793110321 0 0.001516725084433091 -0.021421238994255336 0 0.00070354410902402935 -0.022449997443069167 0 0.0017707956376497482 -0.022526883866429377 0 0.0016190687232396923 -0.022074816748434593 0 0.0017727562077788882 -0.021285181160699263 0 0.001516725084433091 -0.021421238994255336 0 0.0019969356619998053 -0.021145272841523868 0 0.0019969356619998053 -0.021145272841523868 0 0.0022774573835323561 -0.021108225235101509 0 0.0024110158026602966 -0.02096424096870559 0 0.0024639846899762712 -0.021039366306663483 0 0.0022774573835323561 -0.021108225235101509 0 0.0024110158026602966 -0.02096424096870559 0 0.0024555826660411714 -0.021002319681067059 0 0.0024639846899762712 -0.021039366306663483 0 0.0024110158026602966 -0.02096424096870559 0 0.0024826843707932878 -0.021045058325933914 0 0.0024555826660411714 -0.021002319681067059 0 0.0024639846899762712 -0.021039366306663483 0 0.0019624726766724328 -0.019917790838756999 0 0.0020099743733805182 -0.020259107215492553 0 0.0025549395921671174 -0.021048477952975372 0 0.0022774573835323561 -0.021108225235101509 0 0.0022915009540566003 -0.021272570782364726 0 0.0024826843707932878 -0.021045058325933914 0 0.0025549395921671174 -0.021048477952975372 0 0.0027989930090882111 -0.020996628392501243 0 0.0024826843707932878 -0.021045058325933914 0 0.0024639846899762712 -0.021039366306663483 0 0.0025549395921671174 -0.021048477952975372 0 0.0024639846899762712 -0.021039366306663483 0 0.0025549395921671174 -0.021048477952975372 0 0.0022774573835323561 -0.021108225235101509 0 0.0019969356619998053 -0.021145272841523868 0 0.0019799177787603837 -0.021266203412057396 0 0.0022774573835323561 -0.021108225235101509 0 0.0019799177787603837 -0.021266203412057396 0 0.0022774573835323561 -0.021108225235101509 0 0.0022915009540566003 -0.021272570782364726 0 0.0019799177787603837 -0.021266203412057396 0 0.0022915009540566003 -0.021272570782364726 0 0.0016327455230651178 -0.021668313470234582 0 0.0022915009540566003 -0.021272570782364726 0 0.0025830038782839754 -0.022110853044533352 0 0.0016327455230651178 -0.021668313470234582 0 0.0022915009540566003 -0.021272570782364726 0 0.0027989930090882111 -0.020996628392501243 0 0.0025830038782839754 -0.022110853044533352 0 0.0025549395921671174 -0.021048477952975372 0 0.0022915009540566003 -0.021272570782364726 0 0.0027989930090882111 -0.020996628392501243 0 0.0037224164636917496 -0.022092240568104118 0 0.0027989930090882111 -0.020996628392501243 0 0.0025830038782839754 -0.022110853044533352 0 0.0037224164636917496 -0.022092240568104118 0 0.0025830038782839754 -0.022110853044533352 0 0.0030900342978609201 -0.022662601837477009 0 0.0025830038782839754 -0.022110853044533352 0 0.0016327455230651178 -0.021668313470234582 0 0.0017686045973060193 -0.023050687728634552 0 0.0019123039371628718 -0.025289102883658054 0 0.0019737293268118797 -0.025429365645433626 0 0.0022086179313252252 -0.025440924266888657 0 0.0019798018995622825 -0.023317785625537473 0 0.0021923411299987513 -0.02409731216157247 0 0.0019123039371628718 -0.025289102883658054 0 0.0022749163111963296 -0.024996930335321094 0 0.0015940840139241209 -0.025025175590558797 0 0.0019123039371628718 -0.025289102883658054 0 0.0022749163111963296 -0.024996930335321094 0 0.0022086179313252252 -0.025440924266888657 0 0.0019123039371628718 -0.025289102883658054 0 0.0017783776736740109 -0.02540945443563725 0 0.0019737293268118797 -0.025429365645433626 0 0.0022549905032735996 -0.023599781793110321 0 0.0022749163111963296 -0.024996930335321094 0 0.0015940840139241209 -0.025025175590558797 0 0.0017707956376497482 -0.022526883866429377 0 0.0019798018995622825 -0.023317785625537473 0 0.0017727562077788882 -0.021285181160699263 0 0.0019799177787603837 -0.021266203412057396 0 0.0016327455230651178 -0.021668313470234582 0 0.0022549905032735996 -0.023599781793110321 0 0.0014016918816883266 -0.024165055700150966 0 0.0015940840139241209 -0.025025175590558797 0 0.0014016918816883266 -0.024165055700150966 0 0.0015940840139241209 -0.025025175590558797 0 0.00082715775184637945 -0.025281527984926468 0 0.0015940840139241209 -0.025025175590558797 0 0.0012952206035296214 -0.02528211972964799 0 0.00082715775184637945 -0.025281527984926468 0 0.0015940840139241209 -0.025025175590558797 0 0.0012952206035296214 -0.02528211972964799 0 0.001604139821828738 -0.025337890472521499 0 0.0019123039371628718 -0.025289102883658054 0 0.0015940840139241209 -0.025025175590558797 0 0.001604139821828738 -0.025337890472521499 0 0.001604139821828738 -0.025337890472521499 0 0.0017783776736740109 -0.02540945443563725 0 0.0015895350092410918 -0.025558421416957848 0 0.0019123039371628718 -0.025289102883658054 0 0.001604139821828738 -0.025337890472521499 0 0.0017783776736740109 -0.02540945443563725 0 0.0012952206035296214 -0.02528211972964799 0 0.001604139821828738 -0.025337890472521499 0 0.0015895350092410918 -0.025558421416957848 0 0.0027901613773884549 -0.025835590799137845 0 0.0024210186831314017 -0.025458490708246264 0 0.0026196366326167609 -0.025476120626956623 0 0.002567769976391787 -0.025611518774366016 0 0.0024754955168173362 -0.025642834261467122 0 0.0022599344611615372 -0.025383813053663915 0 0.0027901613773884549 -0.025835590799137845 0 0.0028411527143394934 -0.025572122647350929 0 0.0026196366326167609 -0.025476120626956623 0 0.0028252678546276636 -0.025769788721055186 0 0.0025327402626619949 -0.025634845656636842 0 0.0027901613773884549 -0.025835590799137845 0 0.0022599344611615372 -0.025383813053663915 0 0.0024210186831314017 -0.025458490708246264 0 0.0015895350092410918 -0.025558421416957848 0 0.0019737293268118797 -0.025429365645433626 0 0.002241282360532333 -0.025383752800199794 0 0.0017783776736740109 -0.02540945443563725 0 0.0015895350092410918 -0.025558421416957848 0 0.0019737293268118797 -0.025429365645433626 0 0.0024754955168173362 -0.025642834261467122 0 0.0022599344611615372 -0.025383813053663915 0 0.002241282360532333 -0.025383752800199794 0 0.0021332791473179856 -0.025566943638345455 0 0.0020931488137456329 -0.025518569055941923 0 0.0019737293268118797 -0.025429365645433626 0 0.0022086179313252252 -0.025440924266888657 0 0.002241282360532333 -0.025383752800199794 0 0.0024210186831314017 -0.025458490708246264 0 0.002389468984463254 -0.025210038776225734 0 0.0026196366326167609 -0.025476120626956623 0 0.0024210186831314017 -0.025458490708246264 0 0.0023194435185710412 -0.025314329280001931 0 0.002389468984463254 -0.025210038776225734 0 0.0022599344611615372 -0.025383813053663915 0 0.0024210186831314017 -0.025458490708246264 0 0.0023191418029602988 -0.02536817278099544 0 0.0022840049250147988 -0.025328420374128687 0 0.0023194435185710412 -0.025314329280001931 0 0.0022704324147309702 -0.025276243711209064 0 0.0022599344611615372 -0.025383813053663915 0 0.0022840049250147988 -0.025328420374128687 0 0.0022736069743005557 -0.025286312428091352 0 0.0022599344611615372 -0.025383813053663915 0 0.0022840049250147988 -0.025328420374128687 0 0.0023191418029602988 -0.02536817278099544 0 0.0024210186831314017 -0.025458490708246264 0 0.0023191418029602988 -0.02536817278099544 0 0.0023194435185710412 -0.025314329280001931 0 0.0022840049250147988 -0.025328420374128687 0 0.0023191418029602988 -0.02536817278099544 0 0.0023194435185710412 -0.025314329280001931 0 0.0023194435185710412 -0.025314329280001931 0 0.0022704324147309702 -0.025276243711209064 0 0.0022875336653941573 -0.025317640746735565 0 0.0023194435185710412 -0.025314329280001931 0 0.002389468984463254 -0.025210038776225734 0 0.0022875336653941573 -0.025317640746735565 0 0.002389468984463254 -0.025210038776225734 0 0.0026196366326167609 -0.025476120626956623 0 0.0029816150131722376 -0.025339312644565629 0 0.00265992878052014 -0.025183086601884785 0 0.0029920759039298258 -0.025075375166208575 0 0.0032083876859498438 -0.025417993950257855 0 0.003516174393470409 -0.022026365890970151 0 0.0037012733018975063 -0.023465882166344577 0 0.0028411527143394934 -0.025572122647350929 0 0.0026196366326167609 -0.025476120626956623 0 0.0029816150131722376 -0.025339312644565629 0 0.0025830038782839754 -0.022110853044533352 0 0.0025559337518509359 -0.023143158889660734 0 0.0030900342978609201 -0.022662601837477009 0 0.0024929647178341249 -0.02236542968563085 0 0.0024885622395662125 -0.022111276840075921 0 0.0035066020625868321 -0.023271190633530212 0 0.0025559337518509359 -0.023143158889660734 0 0.0030900342978609201 -0.022662601837477009 0 0.0022086179313252252 -0.025440924266888657 0 0.002241282360532333 -0.025383752800199794 0 0.0024046434639782193 -0.024995125424462365 0 0.0026815915267518649 -0.023920586466384043 0 0.0017686045973060193 -0.023050687728634552 0 0.0024046434639782193 -0.024995125424462365 0 0.0021923411299987513 -0.02409731216157247 0 0.0023290535646952226 -0.024499403118092958 0 0.0025830038782839754 -0.022110853044533352 0 0.0026815915267518649 -0.023920586466384043 0 0.0017686045973060193 -0.023050687728634552 0 0.0026815915267518649 -0.023920586466384043 0 0.0024046434639782193 -0.024995125424462365 0 0.0024653278947794738 -0.02564430669222471 0 0.0022736069743005557 -0.025286312428091352 0 0.0022704324147309702 -0.025276243711209064 0 0.0024046434639782193 -0.024995125424462365 0 0.002241282360532333 -0.025383752800199794 0 0.0022736069743005557 -0.025286312428091352 0 0.0024046434639782193 -0.024995125424462365 0 0.0022599344611615372 -0.025383813053663915 0 0.002241282360532333 -0.025383752800199794 0 0.0022736069743005557 -0.025286312428091352 0 0.0022840049250147988 -0.025328420374128687 0 0.0022736069743005557 -0.025286312428091352 0 0.0022704324147309702 -0.025276243711209064 0 0.0022704324147309702 -0.025276243711209064 0 0.0022875336653941573 -0.025317640746735565 0 0.0022825267096296337 -0.025256048629726215 0 0.0022875336653941573 -0.025317640746735565 0 0.0022825267096296337 -0.025256048629726215 0 0.0022966197018919519 -0.02542237440932426 0 0.0022704324147309702 -0.025276243711209064 0 0.0022825267096296337 -0.025256048629726215 0 0.0024046434639782193 -0.024995125424462365 0 0.0022825267096296337 -0.025256048629726215 0 0.0024046434639782193 -0.024995125424462365 0 0.0024653278947794738 -0.02564430669222471 0 0.0022825267096296337 -0.025256048629726215 0 0.0024653278947794738 -0.02564430669222471 0 0.0022966197018919519 -0.02542237440932426 0 0.0032655814869208002 -0.016167811979626349 0 0.0026158981445583759 -0.01728233306947749 0 0.0020810881878199072 -0.017185924553732277 0 0.0035066020625868321 -0.023271190633530212 0 0.0025559337518509359 -0.023143158889660734 0 0.0024839564250494378 -0.024124864773395673 0 0.0024885622395662125 -0.022111276840075921 0 0.0026012076519572316 -0.019154935601365657 0 0.0027052951179840109 -0.017388240164960107 0 0.0026012076519572316 -0.019154935601365657 0 0.0028164573866769414 -0.01476596493856187 0 0.0029426277944518704 -0.013812573937400825 0 0.002314839146901651 -0.01457212492776737 0 0.0018748555543962211 -0.012838260293230094 0 0.0022119314078278434 -0.014336957721043934 0 0.0024501023799500957 -0.014345660440456981 0 0.0022119314078278434 -0.014336957721043934 0 0.0031366474783069663 -0.017126811551936402 0 0.0025616183423981076 -0.017820809427804882 0 0.0026158981445583759 -0.01728233306947749 0 0.0026158981445583759 -0.01728233306947749 0 0.0020484510208572736 -0.017623874857516427 0 0.0020810881878199072 -0.017185924553732277 0 0.0025616183423981076 -0.017820809427804882 0 0.0026158981445583759 -0.01728233306947749 0 0.0020484510208572736 -0.017623874857516427 0 0.0022119314078278434 -0.014336957721043934 0 0.0025407940413258363 -0.016778179818878979 0 0.0031638805808858902 -0.018918181597234331 0 0.0039255328181326656 -0.020249433947841153 0 0.0017888408046810532 -0.010839129935599795 0 0.0022099542030422441 -0.011003438090132647 0 0.0022404236246489485 -0.010286767636980849 0 0.0025407940413258363 -0.016778179818878979 0 0.0031638805808858902 -0.018918181597234331 0 0.0047500829645214272 -0.021051686218574964 0 0.0050468388087457055 -0.016945316135923583 0 0.0016788568257692872 -0.019862137631631291 0 0.0025407940413258363 -0.016778179818878979 0 0.0026012076519572316 -0.019154935601365657 0 0.0024653278947794738 -0.02564430669222471 0 0.0022966197018919519 -0.02542237440932426 0 0.002282583834286507 -0.025470095028337206 0 0.0026012076519572316 -0.019154935601365657 0 0.0031638805808858902 -0.018918181597234331 0 0.0022875336653941573 -0.025317640746735565 0 0.0022966197018919519 -0.02542237440932426 0 0.002282583834286507 -0.025470095028337206 0 0.0022099542030422441 -0.011003438090132647 0 0.0022404236246489485 -0.010286767636980849 0 0.0033734721238821582 -0.0099623620281876039 0 0.0018744920488480297 -0.0096809239591190629 0 0.0022404236246489485 -0.010286767636980849 0 0.0033734721238821582 -0.0099623620281876039 0 0.0025407940413258363 -0.016778179818878979 0 0.0028737985497183233 -0.012274871157688693 0 0.0017888408046810532 -0.010839129935599795 0 0.0018744920488480297 -0.0096809239591190629 0 0.0022404236246489485 -0.010286767636980849 0 0.0019746587095903624 -0.011498955234027939 0 0.0018748555543962211 -0.012838260293230094 0 0.0016583030380721512 -0.0085077704585020016 0 0.0015785823373383764 -0.0090500608428316434 0 0.0018264981505755275 -0.0088313902986565142 0 0.0022785072339113191 -0.013715913514692568 0 0.0014307198065627014 -0.01338842766018287 0 0.0013235242057002307 -0.014869616974052358 0 0.0016583030380721512 -0.0085077704585020016 0 0.0021842035406042151 -0.008747249323612493 0 0.0018264981505755275 -0.0088313902986565142 0 0.0018545901337751185 -0.0091503054451192879 0 0.0021842035406042151 -0.008747249323612493 0 0.0018264981505755275 -0.0088313902986565142 0 0.0022119314078278434 -0.014336957721043934 0 0.0028737985497183233 -0.012274871157688693 0 0.0015785823373383764 -0.0090500608428316434 0 0.0018545901337751185 -0.0091503054451192879 0 0.0018264981505755275 -0.0088313902986565142 0 0.0027662701680331468 -0.024862095320008933 0 0.0030184540617042717 -0.024812211736093572 0 0.0029920759039298258 -0.025075375166208575 0 0.0030184540617042717 -0.024812211736093572 0 0.0029920759039298258 -0.025075375166208575 0 0.0033450520468537503 -0.025105947179596331 0 0.00265992878052014 -0.025183086601884785 0 0.0027662701680331468 -0.024862095320008933 0 0.0029920759039298258 -0.025075375166208575 0 0.002389468984463254 -0.025210038776225734 0 0.0022875336653941573 -0.025317640746735565 0 0.002282583834286507 -0.025470095028337206 0 0.0021189563122111228 -0.024955752625549946 0 0.0025127848725149927 -0.024897560277152991 0 0.0025426994864999695 -0.0245938363920668 0 0.003516174393470409 -0.022026365890970151 0 0.0031638805808858902 -0.018918181597234331 0 0.00265992878052014 -0.025183086601884785 0 0.0021189563122111228 -0.024955752625549946 0 0.0025127848725149927 -0.024897560277152991 0 0.00265992878052014 -0.025183086601884785 0 0.0027662701680331468 -0.024862095320008933 0 0.0025127848725149927 -0.024897560277152991 0 0.0027662701680331468 -0.024862095320008933 0 0.0025127848725149927 -0.024897560277152991 0 0.0025426994864999695 -0.0245938363920668 0 0.0035795313284883927 -0.0090258190914822428 0 0.0018744920488480297 -0.0096809239591190629 0 0.0033734721238821582 -0.0099623620281876039 0 0.0027662701680331468 -0.024862095320008933 0 0.0025426994864999695 -0.0245938363920668 0 0.0028770044329358233 -0.024610178028818885 0 0.0035566858393273979 -0.024155453608515891 0 0.0039255328181326656 -0.020249433947841153 0 0.0029723589703584291 -0.024218683619156474 0 0.0025426994864999695 -0.0245938363920668 0 0.0028770044329358233 -0.024610178028818885 0 0.0027662701680331468 -0.024862095320008933 0 0.0030184540617042717 -0.024812211736093572 0 0.0028770044329358233 -0.024610178028818885 0 0.0033296508691411882 -0.025775708940855426 0 0.0032969772599442792 -0.025919341026706864 0 0.0030184540617042717 -0.024812211736093572 0 0.0028770044329358233 -0.024610178028818885 0 0.0031245351590948604 -0.024568791883217329 0 0.0029723589703584291 -0.024218683619156474 0 0.0028770044329358233 -0.024610178028818885 0 0.0031245351590948604 -0.024568791883217329 0 0.0035566858393273979 -0.024155453608515891 0 0.0032969772599442792 -0.025919341026706864 0 0.0033852153841736248 -0.024019700802816353 0 0.003129519992616168 -0.024605038985823564 0 0.0035579345096534566 -0.024693501558738236 0 0.0030184540617042717 -0.024812211736093572 0 0.0031257445892814112 -0.024569311258908776 0 0.0033450520468537503 -0.025105947179596331 0 0.0032969772599442792 -0.025919341026706864 0 0.0031702530370014601 -0.025469820380054957 0 0.003129519992616168 -0.024605038985823564 0 0.0033450520468537503 -0.025105947179596331 0 0.0035579345096534566 -0.024693501558738236 0 0.0033450520468537503 -0.025105947179596331 0 0.0038619609500851549 -0.025073444549518237 0 0.0035366100373421016 -0.025316468608200769 0 0.0033450520468537503 -0.025105947179596331 0 0.0038619609500851549 -0.025073444549518237 0 0.0035579345096534566 -0.024693501558738236 0 0.0038619609500851549 -0.025073444549518237 0 0.0039342755502093669 -0.024433898247758462 0 0.0035579345096534566 -0.024693501558738236 0 -0.014602142482705284 -0.055933191484429941 0 -0.012956875461899765 -0.055904407427524207 0 -0.013086835739280357 -0.057401730032954026 0 -0.0030641170476060822 -0.038164334328894899 0 -0.003462851556292286 -0.040388867590723403 0 -0.012956875461899765 -0.055904407427524207 0 -0.013086835739280357 -0.057401730032954026 0 -0.01163318469565797 -0.057380527747094325 0 -0.003462851556292286 -0.040388867590723403 0 -0.0031895117161972 -0.042242813564101186 0 0.0038619609500851549 -0.025073444549518237 0 0.0039342755502093669 -0.024433898247758462 0 0.0045553929076879666 -0.024862714389944928 0 0.0038619609500851549 -0.025073444549518237 0 0.0045553929076879666 -0.024862714389944928 0 0.0044264938848353665 -0.025402601302363329 0 0.0038619609500851549 -0.025073444549518237 0 0.0044264938848353665 -0.025402601302363329 0 0.0037408372812650181 -0.025662401162026408 0 0.0045553929076879666 -0.024862714389944928 0 0.0044264938848353665 -0.025402601302363329 0 0.0052718579943960035 -0.025348277175733278 0 0.0044264938848353665 -0.025402601302363329 0 0.0047739580910788086 -0.025889145941492012 0 0.0052718579943960035 -0.025348277175733278 0 0.0047739580910788086 -0.025889145941492012 0 0.0042621159657336661 -0.025950144088043522 0 0.0045753950445272867 -0.0265940986035503 0 0.0044264938848353665 -0.025402601302363329 0 0.0047739580910788086 -0.025889145941492012 0 0.0042621159657336661 -0.025950144088043522 0 0.0044264938848353665 -0.025402601302363329 0 0.0042621159657336661 -0.025950144088043522 0 0.0037408372812650181 -0.025662401162026408 0 0.0037408372812650181 -0.025662401162026408 0 0.003321421007774722 -0.025853344636348058 0 0.0037144019233473716 -0.026247107343476607 0 0.0042621159657336661 -0.025950144088043522 0 0.0037408372812650181 -0.025662401162026408 0 0.0037144019233473716 -0.026247107343476607 0 0.0037408372812650181 -0.025662401162026408 0 0.003321421007774722 -0.025853344636348058 0 0.0030743555861903644 -0.025657526339657261 0 0.002567769976391787 -0.025611518774366016 0 0.0024754955168173362 -0.025642834261467122 0 0.0028545878683689111 -0.025932997439512061 0 0.0027901613773884549 -0.025835590799137845 0 0.003321421007774722 -0.025853344636348058 0 0.0037144019233473716 -0.026247107343476607 0 0.0028252678546276636 -0.025769788721055186 0 0.0034806913906184479 -0.026043544462908092 0 0.0027901613773884549 -0.025835590799137845 0 0.0028411527143394934 -0.025572122647350929 0 0.0030743555861903644 -0.025657526339657261 0 0.0027901613773884549 -0.025835590799137845 0 0.003321421007774722 -0.025853344636348058 0 0.0030743555861903644 -0.025657526339657261 0 0.0038664529736107552 -0.023927795070666096 0 0.0037012733018975063 -0.023465882166344577 0 0.0037408372812650181 -0.025662401162026408 0 0.0032083876859498438 -0.025417993950257855 0 0.0035366100373421016 -0.025316468608200769 0 0.0037408372812650181 -0.025662401162026408 0 0.0030743555861903644 -0.025657526339657261 0 0.0029816150131722376 -0.025339312644565629 0 0.0028411527143394934 -0.025572122647350929 0 0.0030743555861903644 -0.025657526339657261 0 0.0029816150131722376 -0.025339312644565629 0 0.0029920759039298258 -0.025075375166208575 0 0.0033450520468537503 -0.025105947179596331 0 0.0032083876859498438 -0.025417993950257855 0 0.0033450520468537503 -0.025105947179596331 0 0.0032083876859498438 -0.025417993950257855 0 0.0035366100373421016 -0.025316468608200769 0 0.0038619609500851549 -0.025073444549518237 0 0.0037408372812650181 -0.025662401162026408 0 0.0035366100373421016 -0.025316468608200769 0 0.0013377108082251057 -0.046467900645687808 0 0.002266946344764262 -0.048759769538392665 0 0.004866315363613532 -0.049176008161142995 0 0.0056115279738917978 -0.046839137928138583 0 0.0022683060160446074 -0.04712657851035236 0 0.0071431129012948956 -0.048650580732370399 0 0.0022683060160446074 -0.04712657851035236 0 0.0071431129012948956 -0.048650580732370399 0 0.0072369878464312084 -0.050737315026523164 0 0.0017955430736558476 -0.04764424322014453 0 0.0052284615858826386 -0.051005635649014544 0 0.0056115279738917978 -0.046839137928138583 0 0.0037874895098903879 -0.044594522781111312 0 0.0022683060160446074 -0.04712657851035236 0 0.0056115279738917978 -0.046839137928138583 0 0.0060995955606854921 -0.04560682697295098 0 0.0037874895098903879 -0.044594522781111312 0 0.0060995955606854921 -0.04560682697295098 0 0.0064032450568351712 -0.043186529027901044 0 0.0037874895098903879 -0.044594522781111312 0 0.0028899552145625882 -0.041273850233473797 0 0.0064032450568351712 -0.043186529027901044 0 0.0037874895098903879 -0.044594522781111312 0 0.0037874895098903879 -0.044594522781111312 0 0.0011836411354946381 -0.043643065426250467 0 0.0022683060160446074 -0.04712657851035236 0 0.0011836411354946381 -0.043643065426250467 0 0.0022683060160446074 -0.04712657851035236 0 -0.0022589637336066074 -0.043563057947597066 0 0.0028899552145625882 -0.041273850233473797 0 0.0037874895098903879 -0.044594522781111312 0 0.0011836411354946381 -0.043643065426250467 0 -0.010270715913480742 -0.057370943414306437 0 -0.0103031193518839 -0.058872956389792203 0 -0.0090406721550747825 -0.058917922830503136 0 0.0013377108082251057 -0.046467900645687808 0 -0.00082587519086072534 -0.045776116022743854 0 0.002266946344764262 -0.048759769538392665 0 -0.00507065063247303 -0.051016627470808179 0 -0.0033272992991810785 -0.053632276200695307 0 -0.01163318469565797 -0.057380527747094325 0 -0.011625506935943043 -0.058886509981478527 0 -0.0103031193518839 -0.058872956389792203 0 -0.010270715913480742 -0.057370943414306437 0 -0.01163318469565797 -0.057380527747094325 0 -0.0103031193518839 -0.058872956389792203 0 0.0017955430736558476 -0.04764424322014453 0 -0.00025570553212143573 -0.04589431777750462 0 -0.00054985364325600228 -0.041994021008538905 0 0.0011836411354946381 -0.043643065426250467 0 -0.0022589637336066074 -0.043563057947597066 0 -0.006467911442528655 -0.048112131602366569 0 -0.00507065063247303 -0.051016627470808179 0 -0.0039417978178299838 -0.042594073347669001 0 -0.00082587519086072534 -0.045776116022743854 0 -0.0022589637336066074 -0.043563057947597066 0 0.0013377108082251057 -0.046467900645687808 0 -0.00082587519086072534 -0.045776116022743854 0 -0.0022589637336066074 -0.043563057947597066 0 -0.011603559849357768 -0.055835025325423088 0 -0.010270715913480742 -0.057370943414306437 0 -0.01163318469565797 -0.057380527747094325 0 -0.011603559849357768 -0.055835025325423088 0 -0.012956875461899765 -0.055904407427524207 0 -0.01163318469565797 -0.057380527747094325 0 -0.013086835739280357 -0.057401730032954026 0 -0.01163318469565797 -0.057380527747094325 0 -0.011625506935943043 -0.058886509981478527 0 0.0047739580910788086 -0.025889145941492012 0 0.0052718579943960035 -0.025348277175733278 0 0.00534612842127176 -0.026188963496733397 0 0.0052718579943960035 -0.025348277175733278 0 0.006059613089765172 -0.025899979899425347 0 0.00534612842127176 -0.026188963496733397 0 -0.0031895117161972 -0.042242813564101186 0 -0.0029437658116535175 -0.044163067097733245 0 -0.011625506935943043 -0.058886509981478527 0 -0.010219750419345851 -0.060319201501204581 0 -0.0103031193518839 -0.058872956389792203 0 -0.010219750419345851 -0.060319201501204581 0 -0.0103031193518839 -0.058872956389792203 0 -0.0090406721550747825 -0.058917922830503136 0 -0.010219750419345851 -0.060319201501204581 0 -0.0088751773207379446 -0.060485285381803588 0 -0.0090406721550747825 -0.058917922830503136 0 -0.010219750419345851 -0.060319201501204581 0 -0.0088751773207379446 -0.060485285381803588 0 -0.0089112278987636406 -0.061600364544173919 0 -0.0088751773207379446 -0.060485285381803588 0 -0.0090406721550747825 -0.058917922830503136 0 -0.0080480444030495164 -0.060387925831848058 0 -0.0088751773207379446 -0.060485285381803588 0 -0.0080480444030495164 -0.060387925831848058 0 -0.0082824358089695679 -0.061116911711438661 0 0.002266946344764262 -0.048759769538392665 0 0.004866315363613532 -0.049176008161142995 0 0.005305529282237674 -0.051577206316015554 0 -0.0033272992991810785 -0.053632276200695307 0 -0.0014956343563533455 -0.056167244752665789 0 0.0069181374679066227 -0.026488328957736115 0 0.0065453251917909376 -0.027311884722985343 0 0.0078973938961767014 -0.027222900380517605 0 -0.003373126999596215 -0.046692393909541524 0 -0.005632230959128892 -0.050755030158637408 0 -0.0088751773207379446 -0.060485285381803588 0 -0.0089112278987636406 -0.061600364544173919 0 -0.0082824358089695679 -0.061116911711438661 0 -0.0089112278987636406 -0.061600364544173919 0 -0.0082824358089695679 -0.061116911711438661 0 -0.0082151461064453452 -0.061735688943707338 0 -0.0029437658116535175 -0.044163067097733245 0 -0.003373126999596215 -0.046692393909541524 0 0.006059613089765172 -0.025899979899425347 0 0.0069181374679066227 -0.026488328957736115 0 0.0061778705884775742 -0.026684527800330475 0 0.0069181374679066227 -0.026488328957736115 0 0.0061778705884775742 -0.026684527800330475 0 0.0065453251917909376 -0.027311884722985343 0 0.005138228149738501 -0.026554314838201309 0 0.0058256538475677452 -0.027571344091577014 0 0.0065453251917909376 -0.027311884722985343 0 0.0052514120754082383 -0.026731022184915281 0 0.0058421053924777111 -0.026959751552047578 0 0.0061778705884775742 -0.026684527800330475 0 0.0055113087222089553 -0.026960544397635389 0 0.0065453251917909376 -0.027311884722985343 0 0.0061778705884775742 -0.026684527800330475 0 0.00534612842127176 -0.026188963496733397 0 0.0055113087222089553 -0.026960544397635389 0 0.006059613089765172 -0.025899979899425347 0 0.0061778705884775742 -0.026684527800330475 0 0.00534612842127176 -0.026188963496733397 0 0.00534612842127176 -0.026188963496733397 0 0.0055113087222089553 -0.026960544397635389 0 0.0045753950445272867 -0.0265940986035503 0 0.0052514120754082383 -0.026731022184915281 0 0.0043172071086226326 -0.026371048170934826 0 0.005138228149738501 -0.026554314838201309 0 0.0046543638391615171 -0.027417941258944138 0 0.0042038520686335122 -0.026841496253787598 0 0.005138228149738501 -0.026554314838201309 0 0.0046543638391615171 -0.027417941258944138 0 0.0052198200637009117 -0.027560054754357372 0 0.0046543638391615171 -0.027417941258944138 0 0.0049957465260382378 -0.02798401292032103 0 0.0052198200637009117 -0.027560054754357372 0 0.0046543638391615171 -0.027417941258944138 0 0.0045204599625016054 -0.02807436937714107 0 0.0049957465260382378 -0.02798401292032103 0 0.0046543638391615171 -0.027417941258944138 0 0.0045204599625016054 -0.02807436937714107 0 0.0039935271110989826 -0.027544740954073013 0 0.0021336811835368365 -0.03755808185795733 0 0.0023921583961671157 -0.038497104109464927 0 0.0045204599625016054 -0.02807436937714107 0 0.0048210678080471232 -0.028547382579937199 0 0.0041160357591909008 -0.028440400459438114 0 0.0046872633329734939 -0.028601431782544037 0 0.0051195080015242382 -0.028531411007442699 0 0.0049681004195031818 -0.029302825340849624 0 0.0045204599625016054 -0.02807436937714107 0 0.0046872633329734939 -0.028601431782544037 0 0.0051195080015242382 -0.028531411007442699 0 0.0045204599625016054 -0.02807436937714107 0 0.0051195080015242382 -0.028531411007442699 0 0.0049957465260382378 -0.02798401292032103 0 0.0051195080015242382 -0.028531411007442699 0 0.0049957465260382378 -0.02798401292032103 0 0.0055447796081426496 -0.028277386045266497 0 0.0051195080015242382 -0.028531411007442699 0 0.0055447796081426496 -0.028277386045266497 0 0.0055966472880317605 -0.029001352301180332 0 0.0055447796081426496 -0.028277386045266497 0 0.0062919390285617691 -0.029116011140496972 0 0.0055966472880317605 -0.029001352301180332 0 0.0055447796081426496 -0.028277386045266497 0 0.0058256538475677452 -0.027571344091577014 0 0.006458010586694006 -0.028189969596712623 0 0.005138228149738501 -0.026554314838201309 0 0.0052198200637009117 -0.027560054754357372 0 0.0058256538475677452 -0.027571344091577014 0 0.0049957465260382378 -0.02798401292032103 0 0.0055447796081426496 -0.028277386045266497 0 0.0052198200637009117 -0.027560054754357372 0 0.0055447796081426496 -0.028277386045266497 0 0.0052198200637009117 -0.027560054754357372 0 0.0058256538475677452 -0.027571344091577014 0 0.0058256538475677452 -0.027571344091577014 0 0.0065453251917909376 -0.027311884722985343 0 0.006458010586694006 -0.028189969596712623 0 0.0055447796081426496 -0.028277386045266497 0 0.006458010586694006 -0.028189969596712623 0 0.0062919390285617691 -0.029116011140496972 0 0.006458010586694006 -0.028189969596712623 0 0.0062919390285617691 -0.029116011140496972 0 0.0076332127448927199 -0.028449281872790059 0 0.0065453251917909376 -0.027311884722985343 0 0.0078973938961767014 -0.027222900380517605 0 0.0076332127448927199 -0.028449281872790059 0 0.0065453251917909376 -0.027311884722985343 0 0.006458010586694006 -0.028189969596712623 0 0.0076332127448927199 -0.028449281872790059 0 0.0016387216132612184 -0.02579216424876575 0 0.0011585304847579114 -0.025101616063550502 0 0.0026759672630597372 -0.025667436829297303 0 0.0016387216132612184 -0.02579216424876575 0 0.0026759672630597372 -0.025667436829297303 0 0.0021818908083772108 -0.026753573382048219 0 0.0016387216132612184 -0.02579216424876575 0 0.00082715775184637945 -0.025281527984926468 0 0.0014446673404180637 -0.02661650099626435 0 0.0016387216132612184 -0.02579216424876575 0 0.00082715775184637945 -0.025281527984926468 0 0.0011585304847579114 -0.025101616063550502 0 0.0012952206035296214 -0.02528211972964799 0 0.0015895350092410918 -0.025558421416957848 0 0.0011585304847579114 -0.025101616063550502 0 0.0021332791473179856 -0.025566943638345455 0 0.0023759855376802759 -0.025706305285221581 0 0.002567769976391787 -0.025611518774366016 0 0.0028545878683689111 -0.025932997439512061 0 0.0030981511602654896 -0.025829566777693314 0 0.0012952206035296214 -0.02528211972964799 0 0.00082715775184637945 -0.025281527984926468 0 0.0011585304847579114 -0.025101616063550502 0 0.0023759855376802759 -0.025706305285221581 0 0.0030111820527881517 -0.026041920210250098 0 0.0028545878683689111 -0.025932997439512061 0 0.0030981511602654896 -0.025829566777693314 0 0.0034184535896008015 -0.026323531365700096 0 0.0042621159657336661 -0.025950144088043522 0 0.0037144019233473716 -0.026247107343476607 0 0.0045753950445272867 -0.0265940986035503 0 0.0030981511602654896 -0.025829566777693314 0 0.0039233265068733614 -0.026096964977601091 0 0.0034184535896008015 -0.026323531365700096 0 0.0034806913906184479 -0.026043544462908092 0 0.0043172071086226326 -0.026371048170934826 0 0.0047739580910788086 -0.025889145941492012 0 0.00534612842127176 -0.026188963496733397 0 0.0045753950445272867 -0.0265940986035503 0 0.0039233265068733614 -0.026096964977601091 0 0.0042038520686335122 -0.026841496253787598 0 0.0034184535896008015 -0.026323531365700096 0 0.005138228149738501 -0.026554314838201309 0 0.0039233265068733614 -0.026096964977601091 0 0.0042038520686335122 -0.026841496253787598 0 0.0042038520686335122 -0.026841496253787598 0 0.0026759672630597372 -0.025667436829297303 0 0.0032075107587804614 -0.027193705734759377 0 0.0034836618716931815 -0.026303179106896189 0 0.0030111820527881517 -0.026041920210250098 0 0.0026759672630597372 -0.025667436829297303 0 0.0032075107587804614 -0.027193705734759377 0 0.0021818908083772108 -0.026753573382048219 0 0.0032075107587804614 -0.027193705734759377 0 0.0024860934131401067 -0.027636987329968617 0 0.0021818908083772108 -0.026753573382048219 0 0.0046543638391615171 -0.027417941258944138 0 0.0042038520686335122 -0.026841496253787598 0 0.0039935271110989826 -0.027544740954073013 0 0.0042038520686335122 -0.026841496253787598 0 0.0032075107587804614 -0.027193705734759377 0 0.0039935271110989826 -0.027544740954073013 0 0.0032075107587804614 -0.027193705734759377 0 0.0039935271110989826 -0.027544740954073013 0 0.0036478690611153599 -0.02807605893705975 0 0.0045204599625016054 -0.02807436937714107 0 0.0040771435350032839 -0.028043419656722808 0 0.0041160357591909008 -0.028440400459438114 0 0.0045204599625016054 -0.02807436937714107 0 0.0039935271110989826 -0.027544740954073013 0 0.0040771435350032839 -0.028043419656722808 0 0.0039935271110989826 -0.027544740954073013 0 0.0040771435350032839 -0.028043419656722808 0 0.0036478690611153599 -0.02807605893705975 0 0.0040771435350032839 -0.028043419656722808 0 0.0036478690611153599 -0.02807605893705975 0 0.0041160357591909008 -0.028440400459438114 0 0.0036478690611153599 -0.02807605893705975 0 0.0035821038971801931 -0.028637874649372459 0 0.0041160357591909008 -0.028440400459438114 0 0.0035821038971801931 -0.028637874649372459 0 0.0041160357591909008 -0.028440400459438114 0 0.003946642597283753 -0.029218826740515937 0 0.0048210678080471232 -0.028547382579937199 0 0.0041160357591909008 -0.028440400459438114 0 0.003946642597283753 -0.029218826740515937 0 0.0032075107587804614 -0.027193705734759377 0 0.0036478690611153599 -0.02807605893705975 0 0.0029473945880854331 -0.028289932655311958 0 0.0032075107587804614 -0.027193705734759377 0 0.0024860934131401067 -0.027636987329968617 0 0.0029473945880854331 -0.028289932655311958 0 0.0024860934131401067 -0.027636987329968617 0 0.0029473945880854331 -0.028289932655311958 0 0.0023257739039879979 -0.028467387947560881 0 0.0036478690611153599 -0.02807605893705975 0 0.0035821038971801931 -0.028637874649372459 0 0.0029473945880854331 -0.028289932655311958 0 0.0035821038971801931 -0.028637874649372459 0 0.0029473945880854331 -0.028289932655311958 0 0.0030657388313627279 -0.029017476786513036 0 0.0029473945880854331 -0.028289932655311958 0 0.0023257739039879979 -0.028467387947560881 0 0.0030657388313627279 -0.029017476786513036 0 0.0023257739039879979 -0.028467387947560881 0 0.0014927867877701311 -0.028623852391143342 0 0.001723507984171985 -0.02766323653109674 0 0.0024860934131401067 -0.027636987329968617 0 0.0023257739039879979 -0.028467387947560881 0 0.001723507984171985 -0.02766323653109674 0 0.0024860934131401067 -0.027636987329968617 0 0.001723507984171985 -0.02766323653109674 0 0.0021818908083772108 -0.026753573382048219 0 0.001723507984171985 -0.02766323653109674 0 0.0014446673404180637 -0.02661650099626435 0 0.0021818908083772108 -0.026753573382048219 0 0.0016387216132612184 -0.02579216424876575 0 0.0014446673404180637 -0.02661650099626435 0 0.0021818908083772108 -0.026753573382048219 0 0.0012337220423307069 -0.025365592714695646 0 0.0013958625448917126 -0.025610603004886944 0 0.0014016918816883266 -0.024165055700150966 0 0.00082715775184637945 -0.025281527984926468 0 0.00070354410902402935 -0.022449997443069167 0 0.00082715775184637945 -0.025281527984926468 0 0.0014446673404180637 -0.02661650099626435 0 0.00030342457265477202 -0.027731851601681467 0 0.001723507984171985 -0.02766323653109674 0 0.0014446673404180637 -0.02661650099626435 0 0.00030342457265477202 -0.027731851601681467 0 0.0014927867877701311 -0.028623852391143342 0 0.001723507984171985 -0.02766323653109674 0 0.00030342457265477202 -0.027731851601681467 0 0.0014927867877701311 -0.028623852391143342 0 0.00030342457265477202 -0.027731851601681467 0 0.001051538265025396 -0.029374082904145983 0 0.00030342457265477202 -0.027731851601681467 0 0.001051538265025396 -0.029374082904145983 0 0.00016096454787817147 -0.029784752529882698 0 0.0013958625448917126 -0.025610603004886944 0 0.0020163281212526637 -0.027454427634010271 0 0.001051538265025396 -0.029374082904145983 0 0.0012688209414141035 -0.030376709827707127 0 0.00016096454787817147 -0.029784752529882698 0 0.0012688209414141035 -0.030376709827707127 0 0.00016096454787817147 -0.029784752529882698 0 2.0289894142382685e-05 -0.031780243359028092 0 0.0012688209414141035 -0.030376709827707127 0 0.0023646280667956238 -0.030482658250081028 0 0.0017079718917593224 -0.031473332202832265 0 0.0012688209414141035 -0.030376709827707127 0 0.0023646280667956238 -0.030482658250081028 0 0.0021969860295738318 -0.029557991364569092 0 0.0014927867877701311 -0.028623852391143342 0 0.001051538265025396 -0.029374082904145983 0 0.0021969860295738318 -0.029557991364569092 0 0.001051538265025396 -0.029374082904145983 0 0.0012688209414141035 -0.030376709827707127 0 0.0021969860295738318 -0.029557991364569092 0 0.0023257739039879979 -0.028467387947560881 0 0.0014927867877701311 -0.028623852391143342 0 0.0021969860295738318 -0.029557991364569092 0 0.0023257739039879979 -0.028467387947560881 0 0.0021969860295738318 -0.029557991364569092 0 0.0030657388313627279 -0.029017476786513036 0 0.0021969860295738318 -0.029557991364569092 0 0.0030657388313627279 -0.029017476786513036 0 0.0032685550240596504 -0.029837000908323221 0 0.0030657388313627279 -0.029017476786513036 0 0.0032685550240596504 -0.029837000908323221 0 0.003946642597283753 -0.029218826740515937 0 0.0048210678080471232 -0.028547382579937199 0 0.003946642597283753 -0.029218826740515937 0 0.0040601853285414744 -0.029865139827432347 0 0.0035821038971801931 -0.028637874649372459 0 0.0030657388313627279 -0.029017476786513036 0 0.003946642597283753 -0.029218826740515937 0 0.0032685550240596504 -0.029837000908323221 0 0.003946642597283753 -0.029218826740515937 0 0.0040978707109596071 -0.029948696371635664 0 0.0028905382016398192 -0.04231365576172242 0 0.0031336767900857422 -0.044568902045877247 0 0.0020164365217511158 -0.051703088000154281 0 0.0028232317542766293 -0.050449442062202213 0 0.0018301076045721719 -0.050617170754431118 0 0.0031336767900857422 -0.044568902045877247 0 0.0040019588945784121 -0.051683519813703373 0 0.0032685550240596504 -0.029837000908323221 0 0.0040978707109596071 -0.029948696371635664 0 0.003363893836494498 -0.031173835971838478 0 0.002032151491995295 -0.047960307952147015 0 0.0021297460078887136 -0.048544253304083483 0 0.0024165110581357268 -0.048182396750811728 0 0.0031336767900857422 -0.044568902045877247 0 0.0028610430049908421 -0.053553016142584883 0 0.0023646280667956238 -0.030482658250081028 0 0.0032685550240596504 -0.029837000908323221 0 0.003363893836494498 -0.031173835971838478 0 0.0023646280667956238 -0.030482658250081028 0 0.0021969860295738318 -0.029557991364569092 0 0.0032685550240596504 -0.029837000908323221 0 0.0023646280667956238 -0.030482658250081028 0 0.003363893836494498 -0.031173835971838478 0 0.0017079718917593224 -0.031473332202832265 0 0.0063081740092953871 -0.064774117822835167 0 0.0070274042284678056 -0.063668748671150174 0 0.0074483689458741493 -0.064620024299109138 0 0.0040019588945784121 -0.051683519813703373 0 0.0039128458425138398 -0.04535807606362792 0 0.0040019588945784121 -0.051683519813703373 0 0.0036367327378987362 -0.060622565597569546 0 0.0043744648917727093 -0.067584611932243965 0 0.0030106021831086765 -0.067809915928331577 0 0.0040141601777208963 -0.066109414841668504 0 0.0028610430049908421 -0.053553016142584883 0 0.0032582058063688559 -0.062187239035660195 0 0.0030106021831086765 -0.067809915928331577 0 0.0040141601777208963 -0.066109414841668504 0 0.0026275188866889125 -0.065669317413564646 0 0.0040019588945784121 -0.051683519813703373 0 0.0028610430049908421 -0.053553016142584883 0 0.0040141601777208963 -0.066109414841668504 0 0.0026275188866889125 -0.065669317413564646 0 0.0041028122949328351 -0.064300211453136732 0 0.0043744648917727093 -0.067584611932243965 0 0.0040141601777208963 -0.066109414841668504 0 0.0059838988689109029 -0.065156214986466579 0 0.0040141601777208963 -0.066109414841668504 0 0.0059838988689109029 -0.065156214986466579 0 0.0041028122949328351 -0.064300211453136732 0 0.0070274042284678056 -0.063668748671150174 0 0.0079923140500642205 -0.063771822961887728 0 0.0074483689458741493 -0.064620024299109138 0 0.0079923140500642205 -0.063771822961887728 0 0.0088781560865137023 -0.063189163040051982 0 0.0086369392880325316 -0.064444971540898829 0 0.0039128458425138398 -0.04535807606362792 0 0.0030347093685054944 -0.03774680075259549 0 0.0012688209414141035 -0.030376709827707127 0 0.0017079718917593224 -0.031473332202832265 0 2.0289894142382685e-05 -0.031780243359028092 0 0.0079923140500642205 -0.063771822961887728 0 0.0074483689458741493 -0.064620024299109138 0 0.0086369392880325316 -0.064444971540898829 0 0.00079518366267560751 -0.049112730162448805 0 0.0020990286503454777 -0.055810976851146527 0 0.00079518366267560751 -0.049112730162448805 0 -0.0012990833421990279 -0.047579720223255281 0 0.0073109977661570862 -0.029933055856161336 0 0.0062919390285617691 -0.029116011140496972 0 0.0076332127448927199 -0.028449281872790059 0 0.0073109977661570862 -0.029933055856161336 0 0.0062919390285617691 -0.029116011140496972 0 0.0061769192831047474 -0.029903339588644245 0 0.0062919390285617691 -0.029116011140496972 0 0.0061769192831047474 -0.029903339588644245 0 0.0055720492737137582 -0.029709229808680966 0 0.0073109977661570862 -0.029933055856161336 0 0.0061769192831047474 -0.029903339588644245 0 0.0068707767905652568 -0.031523102142244477 0 0.0061769192831047474 -0.029903339588644245 0 0.005699146378939997 -0.030453042346581281 0 0.0068707767905652568 -0.031523102142244477 0 0.0015502621055728319 -0.051561160749493094 0 0.0017949050920328627 -0.041787793914710603 0 0.0055020024973907664 -0.030482525640919567 0 0.0055720492737137582 -0.029709229808680966 0 0.0049681004195031818 -0.029302825340849624 0 0.005699146378939997 -0.030453042346581281 0 0.0055020024973907664 -0.030482525640919567 0 0.0057678087667092813 -0.030085172713115751 0 0.001673100047054303 -0.051442292246051673 0 0.0015502621055728319 -0.051561160749493094 0 0.0055020024973907664 -0.030482525640919567 0 0.0057678087667092813 -0.030085172713115751 0 0.0055720492737137582 -0.029709229808680966 0 0.0061769192831047474 -0.029903339588644245 0 0.005699146378939997 -0.030453042346581281 0 0.0057678087667092813 -0.030085172713115751 0 0.0061769192831047474 -0.029903339588644245 0 0.0057678087667092813 -0.030085172713115751 0 0.0055720492737137582 -0.029709229808680966 0 0.0062919390285617691 -0.029116011140496972 0 0.0055720492737137582 -0.029709229808680966 0 0.0055966472880317605 -0.029001352301180332 0 0.0051195080015242382 -0.028531411007442699 0 0.0055966472880317605 -0.029001352301180332 0 0.0049681004195031818 -0.029302825340849624 0 0.0055720492737137582 -0.029709229808680966 0 0.0055966472880317605 -0.029001352301180332 0 0.0049681004195031818 -0.029302825340849624 0 0.0025358645936024164 -0.047155111462510134 0 0.0027653614781711321 -0.047600548570146645 0 0.0024354111532934571 -0.047818449666104414 0 0.0025358645936024164 -0.047155111462510134 0 0.002032151491995295 -0.047960307952147015 0 0.0024354111532934571 -0.047818449666104414 0 0.0023921583961671157 -0.038497104109464927 0 0.0031336767900857422 -0.044568902045877247 0 0.0023921583961671157 -0.038497104109464927 0 0.0017949050920328627 -0.041787793914710603 0 0.0021297460078887136 -0.048544253304083483 0 0.0031876676618000184 -0.048365604071286379 0 0.0024165110581357268 -0.048182396750811728 0 0.002032151491995295 -0.047960307952147015 0 0.0024354111532934571 -0.047818449666104414 0 0.0024165110581357268 -0.048182396750811728 0 0.0031876676618000184 -0.048365604071286379 0 0.0024354111532934571 -0.047818449666104414 0 0.0024165110581357268 -0.048182396750811728 0 0.0028610430049908421 -0.053553016142584883 0 0.0015502621055728319 -0.051561160749493094 0 0.0031420474315216463 -0.048346393443241896 0 0.0027653614781711321 -0.047600548570146645 0 0.0024354111532934571 -0.047818449666104414 0 0.0015502621055728319 -0.051561160749493094 0 0.0014302958761493838 -0.050620210810524688 0 0.0028902210923910129 -0.069404384084344711 0 0.0024644306239138872 -0.066851477600463158 0 0.00032835891132588189 -0.067734802033951894 0 0.0028902210923910129 -0.069404384084344711 0 -0.00042391009619566412 -0.069991332174395834 0 0.00032835891132588189 -0.067734802033951894 0 0.0024644306239138872 -0.066851477600463158 0 0.00019503158455933073 -0.065781405240600332 0 0.00032835891132588189 -0.067734802033951894 0 0.00019503158455933073 -0.065781405240600332 0 -0.0010992946652330024 -0.066463169653396853 0 0.00032835891132588189 -0.067734802033951894 0 -0.0010992946652330024 -0.066463169653396853 0 0.00032835891132588189 -0.067734802033951894 0 -0.0015994759231036824 -0.067875816170983108 0 0.0015502621055728319 -0.051561160749493094 0 0.0014956438521411789 -0.060658406134696752 0 -0.00042391009619566412 -0.069991332174395834 0 0.00032835891132588189 -0.067734802033951894 0 -0.0015994759231036824 -0.067875816170983108 0 0.0015502621055728319 -0.051561160749493094 0 0.0020990286503454777 -0.055810976851146527 0 -0.0019793001403655107 -0.068166476244993862 0 -0.0027844660037693852 -0.066784219346480503 0 -0.0040043265813656257 -0.066867792466786216 0 0.005699146378939997 -0.030453042346581281 0 0.005498840804213331 -0.030484438904093251 0 0.0068707767905652568 -0.031523102142244477 0 -0.0027844660037693852 -0.066784219346480503 0 -0.0039119889139266235 -0.066531752189452079 0 -0.0040043265813656257 -0.066867792466786216 0 -0.0010992946652330024 -0.066463169653396853 0 -0.0015994759231036824 -0.067875816170983108 0 -0.0028433510851742362 -0.065777774730644833 0 -0.0027844660037693852 -0.066784219346480503 0 -0.0035815081182277364 -0.065216168683014733 0 -0.0039119889139266235 -0.066531752189452079 0 0.0014956438521411789 -0.060658406134696752 0 0.00014408997635677415 -0.062628885378418486 0 0.0020990286503454777 -0.055810976851146527 0 -0.00062567284755997248 -0.058168398290044034 0 -0.0046983678309349564 -0.065662993639023254 0 -0.0040331060203045808 -0.066971720616784303 0 -0.0065504584972739003 -0.065263412710357988 0 -0.0039119889139266235 -0.066531752189452079 0 -0.0046983678309349564 -0.065662993639023254 0 -0.0040331060203045808 -0.066971720616784303 0 -0.0035815081182277364 -0.065216168683014733 0 -0.0039119889139266235 -0.066531752189452079 0 -0.0046983678309349564 -0.065662993639023254 0 -0.0071650685699708823 -0.065344991945090733 0 -0.0069471323169921616 -0.06537072614931605 0 -0.0069480658800608044 -0.065392502430669922 0 0.0019709106278089235 -0.056155845396029497 0 0.0020990286503454777 -0.055810976851146527 0 -0.0042741544223742984 -0.063572806857609979 0 -0.0029208300251256291 -0.061098651421279175 0 -0.0055521919243463813 -0.062465202987273039 0 -0.0042741544223742984 -0.063572806857609979 0 -0.0054122872650736739 -0.063639495634432497 0 -0.0055521919243463813 -0.062465202987273039 0 -0.0042741544223742984 -0.063572806857609979 0 -0.0054122872650736739 -0.063639495634432497 0 -0.0053722947565221875 -0.064486317157209275 0 -0.0035815081182277364 -0.065216168683014733 0 -0.0046983678309349564 -0.065662993639023254 0 -0.0053722947565221875 -0.064486317157209275 0 0.00014408997635677415 -0.062628885378418486 0 -0.00055718780968504948 -0.062670143239942369 0 -0.0046983678309349564 -0.065662993639023254 0 -0.0053722947565221875 -0.064486317157209275 0 -0.0065504584972739003 -0.065263412710357988 0 -0.0035815081182277364 -0.065216168683014733 0 -0.0042741544223742984 -0.063572806857609979 0 -0.0053722947565221875 -0.064486317157209275 0 -0.0028433510851742362 -0.065777774730644833 0 -0.0042741544223742984 -0.063572806857609979 0 -0.0025000776359945468 -0.06406769084735639 0 -0.0010992946652330024 -0.066463169653396853 0 -0.0028433510851742362 -0.065777774730644833 0 -0.0011853417373277981 -0.064908745171225593 0 -0.0028433510851742362 -0.065777774730644833 0 -0.0025000776359945468 -0.06406769084735639 0 -0.0011853417373277981 -0.064908745171225593 0 -0.0025000776359945468 -0.06406769084735639 0 -0.0012547073544878335 -0.063084307743938001 0 -0.0011853417373277981 -0.064908745171225593 0 -0.0042741544223742984 -0.063572806857609979 0 -0.0025888877157738679 -0.062738071505615597 0 -0.0029208300251256291 -0.061098651421279175 0 -0.0025000776359945468 -0.06406769084735639 0 -0.0025888877157738679 -0.062738071505615597 0 -0.0012547073544878335 -0.063084307743938001 0 -0.0042741544223742984 -0.063572806857609979 0 -0.0025000776359945468 -0.06406769084735639 0 -0.0025888877157738679 -0.062738071505615597 0 -0.0025888877157738679 -0.062738071505615597 0 -0.0012547073544878335 -0.063084307743938001 0 -0.0019703322595941426 -0.061476199425314536 0 0.00037626266513488422 -0.062714639913964421 0 -0.0012547073544878335 -0.063084307743938001 0 -0.00065938726833607189 -0.061151480032999722 0 -0.0012547073544878335 -0.063084307743938001 0 -0.00065938726833607189 -0.061151480032999722 0 -0.0019703322595941426 -0.061476199425314536 0 0.00037626266513488422 -0.062714639913964421 0 -0.0012547073544878335 -0.063084307743938001 0 0.00024651726555197627 -0.06417343099596784 0 -0.0012547073544878335 -0.063084307743938001 0 -0.0011853417373277981 -0.064908745171225593 0 0.00024651726555197627 -0.06417343099596784 0 0.00019503158455933073 -0.065781405240600332 0 -0.0010992946652330024 -0.066463169653396853 0 -0.0011853417373277981 -0.064908745171225593 0 0.00019503158455933073 -0.065781405240600332 0 -0.0011853417373277981 -0.064908745171225593 0 0.00024651726555197627 -0.06417343099596784 0 0.00019503158455933073 -0.065781405240600332 0 0.00024651726555197627 -0.06417343099596784 0 0.0020773574880726775 -0.064243244834669144 0 0.0032582058063688559 -0.062187239035660195 0 0.0028897280530690659 -0.063045804800162655 0 0.0024644306239138872 -0.066851477600463158 0 0.00019503158455933073 -0.065781405240600332 0 0.0020773574880726775 -0.064243244834669144 0 0.00037626266513488422 -0.062714639913964421 0 0.0020773574880726775 -0.064243244834669144 0 0.0016869642817014857 -0.061458083959540125 0 0.0028897280530690659 -0.063045804800162655 0 0.0026544189169116958 -0.062569854481545187 0 0.00037626266513488422 -0.062714639913964421 0 0.00024651726555197627 -0.06417343099596784 0 0.0020773574880726775 -0.064243244834669144 0 0.0016869642817014857 -0.061458083959540125 0 0.0018945162641737729 -0.059030755750709471 0 0.00038888044204260367 -0.060208709543797624 0 0.0016869642817014857 -0.061458083959540125 0 0.0018945162641737729 -0.059030755750709471 0 0.0034408524149351903 -0.06039323818816892 0 0.0020380074919720196 -0.059215991724874524 0 0.00058729357237344575 -0.059238622042484174 0 0.0016012758386855627 -0.059392753001411148 0 -0.0013408554463191548 -0.059234668481172058 0 0.00057615398287272064 -0.057951107401029947 0 0.0018945162641737729 -0.059030755750709471 0 -0.0013408554463191548 -0.059234668481172058 0 0.00038888044204260367 -0.060208709543797624 0 -0.0013408554463191548 -0.059234668481172058 0 -0.0010103779095520327 -0.057980083156492765 0 0.00057615398287272064 -0.057951107401029947 0 -0.0013408554463191548 -0.059234668481172058 0 -0.00065938726833607189 -0.061151480032999722 0 -0.0017681067200702859 -0.060447331724313831 0 0.00037626266513488422 -0.062714639913964421 0 0.0016869642817014857 -0.061458083959540125 0 -0.00065938726833607189 -0.061151480032999722 0 0.0016869642817014857 -0.061458083959540125 0 0.00038888044204260367 -0.060208709543797624 0 -0.00065938726833607189 -0.061151480032999722 0 -0.0013408554463191548 -0.059234668481172058 0 0.00038888044204260367 -0.060208709543797624 0 -0.00065938726833607189 -0.061151480032999722 0 -0.00065938726833607189 -0.061151480032999722 0 -0.0019703322595941426 -0.061476199425314536 0 -0.0017681067200702859 -0.060447331724313831 0 -0.0019703322595941426 -0.061476199425314536 0 -0.0029208300251256291 -0.061098651421279175 0 -0.0026242177509108308 -0.060451990349027318 0 -0.0025888877157738679 -0.062738071505615597 0 -0.0019703322595941426 -0.061476199425314536 0 -0.0029208300251256291 -0.061098651421279175 0 -0.0026242177509108308 -0.060451990349027318 0 -0.0031479326280482883 -0.059980742559713467 0 -0.0019800708755158573 -0.059596681655949169 0 -0.0026242177509108308 -0.060451990349027318 0 -0.0031479326280482883 -0.059980742559713467 0 -0.003476234561583367 -0.060949457853509505 0 -0.0029208300251256291 -0.061098651421279175 0 -0.0026242177509108308 -0.060451990349027318 0 -0.003476234561583367 -0.060949457853509505 0 -0.0026242177509108308 -0.060451990349027318 0 -0.0017681067200702859 -0.060447331724313831 0 -0.0019800708755158573 -0.059596681655949169 0 -0.0019703322595941426 -0.061476199425314536 0 -0.0026242177509108308 -0.060451990349027318 0 -0.0017681067200702859 -0.060447331724313831 0 -0.0013408554463191548 -0.059234668481172058 0 -0.0017681067200702859 -0.060447331724313831 0 -0.0019800708755158573 -0.059596681655949169 0 -0.0013408554463191548 -0.059234668481172058 0 -0.0019800708755158573 -0.059596681655949169 0 -0.0010103779095520327 -0.057980083156492765 0 -0.0026666897203993581 -0.061200986086521338 0 -0.0024009350766900448 -0.059647982038713632 0 -0.00099311618759472496 -0.059042509214503325 0 -0.0031479326280482883 -0.059980742559713467 0 -0.0019800708755158573 -0.059596681655949169 0 -0.0010103779095520327 -0.057980083156492765 0 -0.0029858758468330753 -0.060571805603888598 0 -0.0013700742750395306 -0.058775770146715797 0 -0.0024009350766900448 -0.059647982038713632 0 -0.0028513376243879027 -0.060675116669447152 0 -0.0029087438156892033 -0.059855666938106532 0 -0.0026666897203993581 -0.061200986086521338 0 -0.0024009350766900448 -0.059647982038713632 0 -0.0028513376243879027 -0.060675116669447152 0 -0.0026666897203993581 -0.061200986086521338 0 -0.0028518943348040436 -0.061040551568446989 0 -0.0028369584367997267 -0.061225560792586939 0 -0.0028518943348040436 -0.061040551568446989 0 -0.003302022394670309 -0.060986547923726785 0 -0.0028369584367997267 -0.061225560792586939 0 -0.003302022394670309 -0.060986547923726785 0 -0.0028513376243879027 -0.060675116669447152 0 -0.0034491737954607466 -0.060105745308515784 0 -0.0028518943348040436 -0.061040551568446989 0 -0.003302022394670309 -0.060986547923726785 0 -0.0028513376243879027 -0.060675116669447152 0 -0.0026666897203993581 -0.061200986086521338 0 -0.0028518943348040436 -0.061040551568446989 0 -0.0028513376243879027 -0.060675116669447152 0 -0.0034491737954607466 -0.060105745308515784 0 -0.0029087438156892033 -0.059855666938106532 0 -0.0031320548823025396 -0.059063772504472367 0 -0.0028513376243879027 -0.060675116669447152 0 -0.0034491737954607466 -0.060105745308515784 0 -0.0029087438156892033 -0.059855666938106532 0 -0.0034491737954607466 -0.060105745308515784 0 -0.0040975326839612887 -0.060717817005866079 0 -0.0043809923296307734 -0.059284232186287603 0 -0.003302022394670309 -0.060986547923726785 0 -0.0034491737954607466 -0.060105745308515784 0 -0.0040975326839612887 -0.060717817005866079 0 -0.003302022394670309 -0.060986547923726785 0 -0.0043202449629540906 -0.061536665904761471 0 -0.0040975326839612887 -0.060717817005866079 0 -0.0028369584367997267 -0.061225560792586939 0 -0.0046970512888728022 -0.062501198650708106 0 -0.0039897947277363569 -0.062687344518639346 0 -0.0026666897203993581 -0.061200986086521338 0 -0.0028369584367997267 -0.061225560792586939 0 -0.0039897947277363569 -0.062687344518639346 0 -0.0029858758468330753 -0.060571805603888598 0 -0.0047012756248871919 -0.06241165249195596 0 -0.0041612424569838768 -0.062067623009027455 0 -0.0047012756248871919 -0.06241165249195596 0 -0.0031479326280482883 -0.059980742559713467 0 -0.003476234561583367 -0.060949457853509505 0 -0.0051838915309837053 -0.062270499271270895 0 -0.0028369584367997267 -0.061225560792586939 0 -0.0046779860540166899 -0.062888369704786493 0 -0.0043202449629540906 -0.061536665904761471 0 -0.003302022394670309 -0.060986547923726785 0 -0.0028369584367997267 -0.061225560792586939 0 -0.0043202449629540906 -0.061536665904761471 0 -0.0038473744433337588 -0.062094313554544311 0 -0.0048088087647412238 -0.062799599164606049 0 -0.0029208300251256291 -0.061098651421279175 0 -0.003476234561583367 -0.060949457853509505 0 -0.0051838915309837053 -0.062270499271270895 0 0.0076604558207963294 -0.062453325900518504 0 0.0057278310389075188 -0.062992558052919367 0 0.0063090464790637934 -0.060555164666359254 0 0.0076604558207963294 -0.062453325900518504 0 0.0082234180982197255 -0.060575810642790266 0 0.0093527456787912602 -0.061324707749918897 0 0.0076604558207963294 -0.062453325900518504 0 0.0093527456787912602 -0.061324707749918897 0 0.0088781560865137023 -0.063189163040051982 0 0.0079923140500642205 -0.063771822961887728 0 0.0076604558207963294 -0.062453325900518504 0 0.0088781560865137023 -0.063189163040051982 0 0.0036367327378987362 -0.060622565597569546 0 0.0045909440369797539 -0.061338508192327827 0 0.0070274042284678056 -0.063668748671150174 0 0.0079923140500642205 -0.063771822961887728 0 0.0076604558207963294 -0.062453325900518504 0 0.0059838988689109029 -0.065156214986466579 0 0.0076604558207963294 -0.062453325900518504 0 0.0057278310389075188 -0.062992558052919367 0 0.0059838988689109029 -0.065156214986466579 0 0.0041028122949328351 -0.064300211453136732 0 0.0057278310389075188 -0.062992558052919367 0 0.0041028122949328351 -0.064300211453136732 0 0.0043103104411508584 -0.06211000262431491 0 0.0057278310389075188 -0.062992558052919367 0 0.0022048100036042486 -0.063535996266093284 0 0.0041028122949328351 -0.064300211453136732 0 0.0043103104411508584 -0.06211000262431491 0 0.0026275188866889125 -0.065669317413564646 0 0.0022048100036042486 -0.063535996266093284 0 0.0041028122949328351 -0.064300211453136732 0 0.0022048100036042486 -0.063535996266093284 0 0.0016869642817014857 -0.061458083959540125 0 0.0043103104411508584 -0.06211000262431491 0 0.0043103104411508584 -0.06211000262431491 0 0.0057278310389075188 -0.062992558052919367 0 0.0063090464790637934 -0.060555164666359254 0 0.0034408524149351903 -0.06039323818816892 0 0.0048748379014976681 -0.059033525059512489 0 0.0063090464790637934 -0.060555164666359254 0 0.0043103104411508584 -0.06211000262431491 0 0.0034408524149351903 -0.06039323818816892 0 0.0063090464790637934 -0.060555164666359254 0 0.0016869642817014857 -0.061458083959540125 0 0.0043103104411508584 -0.06211000262431491 0 0.0034408524149351903 -0.06039323818816892 0 0.0020380074919720196 -0.059215991724874524 0 0.0044279682227479043 -0.059179082996725259 0 0.0016012758386855627 -0.059392753001411148 0 0.0046796955441630577 -0.059345152469194667 0 0.0025927886077588931 -0.057369902668659364 0 0.0018945162641737729 -0.059030755750709471 0 0.0034408524149351903 -0.06039323818816892 0 0.0048748379014976681 -0.059033525059512489 0 0.0044279682227479043 -0.059179082996725259 0 0.0058253757666229238 -0.059155591181757804 0 0.0046796955441630577 -0.059345152469194667 0 0.0076351506662353224 -0.059147507905441626 0 0.0062560081117730999 -0.05788502679555603 0 0.0063090464790637934 -0.060555164666359254 0 0.0080540224678147445 -0.059774974677315393 0 0.0076351506662353224 -0.059147507905441626 0 0.0048748379014976681 -0.059033525059512489 0 0.0063090464790637934 -0.060555164666359254 0 0.0076351506662353224 -0.059147507905441626 0 0.0076604558207963294 -0.062453325900518504 0 0.0063090464790637934 -0.060555164666359254 0 0.0082234180982197255 -0.060575810642790266 0 0.0082234180982197255 -0.060575810642790266 0 0.0086579412877208599 -0.059036337153452342 0 0.0093527456787912602 -0.061324707749918897 0 0.0063090464790637934 -0.060555164666359254 0 0.0082234180982197255 -0.060575810642790266 0 0.0080540224678147445 -0.059774974677315393 0 0.0082234180982197255 -0.060575810642790266 0 0.0080540224678147445 -0.059774974677315393 0 0.0086579412877208599 -0.059036337153452342 0 0.0080540224678147445 -0.059774974677315393 0 0.0076351506662353224 -0.059147507905441626 0 0.0086579412877208599 -0.059036337153452342 0 0.0072552218902944988 -0.042207855241044527 0 0.0073364792491477735 -0.042076261472046246 0 0.0073303610740939112 -0.042343370572811317 0 0.0090641934395547692 -0.05834939772487989 0 0.0098961582685009805 -0.058744553429334642 0 0.010045910054761201 -0.057484452577888728 0 0.0084387803930306947 -0.048651236934001363 0 0.0094475094620308526 -0.045374433482151311 0 0.0073364792491477735 -0.042076261472046246 0 0.0072312021002474587 -0.042116707904241914 0 0.007189076093250096 -0.042035812359189205 0 0.0072552218902944988 -0.042207855241044527 0 0.0073364792491477735 -0.042076261472046246 0 0.0072312021002474587 -0.042116707904241914 0 0.0054151568675027822 -0.035372731892852512 0 0.0060038845170009882 -0.036855005728764607 0 0.0068479601073562005 -0.034756396392839756 0 0.0057607206850202241 -0.035006738350468018 0 0.0059965130824590658 -0.032842087238737099 0 0.0054151568675027822 -0.035372731892852512 0 0.0068479601073562005 -0.034756396392839756 0 0.0062090077761090198 -0.033967299026619116 0 0.0070508476483329427 -0.038460994748746327 0 0.0072922440370886462 -0.036886228627238546 0 0.0072552218902944988 -0.042207855241044527 0 0.0071386384177655592 -0.042132823069200499 0 0.0072354272879311893 -0.042363266334820467 0 0.0070508476483329427 -0.038460994748746327 0 0.0089497905436799214 -0.04357187286444103 0 0.0072552218902944988 -0.042207855241044527 0 0.0072312021002474587 -0.042116707904241914 0 0.0071386384177655592 -0.042132823069200499 0 0.007189076093250096 -0.042035812359189205 0 0.0071429756389778725 -0.042117458700026589 0 0.0070615522472710019 -0.041931562916016109 0 0.0072312021002474587 -0.042116707904241914 0 0.007189076093250096 -0.042035812359189205 0 0.0071386384177655592 -0.042132823069200499 0 0.0069636524788828941 -0.038696507806076981 0 0.0070508476483329427 -0.038460994748746327 0 0.0070508476483329427 -0.038460994748746327 0 0.0057607206850202241 -0.035006738350468018 0 0.007189076093250096 -0.042035812359189205 0 0.0070615522472710019 -0.041931562916016109 0 0.0072220531578920735 -0.04188413150186146 0 0.0084387803930306947 -0.048651236934001363 0 0.0075072223431638142 -0.049898852709537901 0 0.0073364792491477735 -0.042076261472046246 0 0.0073359642292048178 -0.041831120362917418 0 0.0072220531578920735 -0.04188413150186146 0 0.0090641934395547692 -0.05834939772487989 0 0.0098961582685009805 -0.058744553429334642 0 0.0098085160080624168 -0.059828973163721856 0 0.0092094430739864189 -0.056288747288402705 0 0.0075072223431638142 -0.049898852709537901 0 0.0073364792491477735 -0.042076261472046246 0 0.007189076093250096 -0.042035812359189205 0 0.0072220531578920735 -0.04188413150186146 0 0.0051364618952965731 -0.046306767499181951 0 0.0039497850688148982 -0.043779317538545144 0 0.0053615723973757497 -0.042942846903024239 0 0.0075072223431638142 -0.049898852709537901 0 0.00486369347518584 -0.03836014823728788 0 0.0075072223431638142 -0.049898852709537901 0 0.0054309522819167245 -0.049641894524510399 0 0.0073359642292048178 -0.041831120362917418 0 0.0072220531578920735 -0.04188413150186146 0 0.0071921719678956463 -0.041548443100698461 0 0.0070615522472710019 -0.041931562916016109 0 0.0072220531578920735 -0.04188413150186146 0 0.0071921719678956463 -0.041548443100698461 0 0.0048482810624472282 -0.035492114524489984 0 0.0063646488798239738 -0.031659194092749164 0 0.0033727954980054048 -0.031827189380847096 0 0.0057607206850202241 -0.035006738350468018 0 0.00486369347518584 -0.03836014823728788 0 0.0047420926247465451 -0.034722076491930584 0 0.0048013841222380458 -0.034551064763437521 0 0.0046703591261554383 -0.034566328045215818 0 0.0063646488798239738 -0.031659194092749164 0 0.0033727954980054048 -0.031827189380847096 0 0.0054521040833814902 -0.029680695150256623 0 0.00486369347518584 -0.03836014823728788 0 0.0037486515690378619 -0.033170364211635078 0 0.0039497850688148982 -0.043779317538545144 0 0.0053615723973757497 -0.042942846903024239 0 0.0047391180840694993 -0.041742124248242529 0 0.00486369347518584 -0.03836014823728788 0 0.0040950734536767848 -0.038011442842711587 0 0.003384560522821321 -0.023939848726332546 0 0.0056741474904207622 -0.025157126440524518 0 0.0037849579750598283 -0.028230441094516119 0 0.003384560522821321 -0.023939848726332546 0 0.0037849579750598283 -0.028230441094516119 0 0.0015140373880462032 -0.02541074043939678 0 0.003384560522821321 -0.023939848726332546 0 0.0056741474904207622 -0.025157126440524518 0 0.0043059944525210576 -0.021745862441400608 0 0.0040473821098073667 -0.028941841328607727 0 0.0023343033256360349 -0.024081955689512251 0 0.0033727954980054048 -0.031827189380847096 0 0.0054521040833814902 -0.029680695150256623 0 0.0031796808376459897 -0.028772221371384119 0 0.0070468449170378901 -0.028581580446405602 0 0.0056741474904207622 -0.025157126440524518 0 0.0037849579750598283 -0.028230441094516119 0 0.0057607206850202241 -0.035006738350468018 0 0.0040473821098073667 -0.028941841328607727 0 0.0038327933474250307 -0.026148316490131902 0 0.0025956017236284604 -0.021678211487761133 0 0.0070468449170378901 -0.028581580446405602 0 0.0037849579750598283 -0.028230441094516119 0 0.0060673315768931448 -0.031053791417974486 0 0.0038327933474250307 -0.026148316490131902 0 0.0059965130824590658 -0.032842087238737099 0 0.0047131196330716454 -0.022030725309569774 0 0.0067725760884625001 -0.024589627198077453 0 0.004613143373243824 -0.024737943558518254 0 0.0047131196330716454 -0.022030725309569774 0 0.004613143373243824 -0.024737943558518254 0 0.0024118723899840115 -0.024442858931562873 0 0.0031810218309043219 -0.018528152137779252 0 0.0023368921722688356 -0.016690667206117258 0 0.0031926970558383071 -0.011272317191800822 0 0.003038160989228315 -0.011297070267388876 0 0.0030438253607028643 -0.011049654047153452 0 0.001466711897674596 -0.013495050419357054 0 0.001779089215521475 -0.011939415944422396 0 0.003038160989228315 -0.011297070267388876 0 0.0030438253607028643 -0.011049654047153452 0 0.0029416019423203713 -0.011013074723815939 0 0.0030438253607028643 -0.011049654047153452 0 0.0029416019423203713 -0.011013074723815939 0 0.0029977527412170155 -0.011072885647175665 0 0.0047131196330716454 -0.022030725309569774 0 0.0024118723899840115 -0.024442858931562873 0 0.0014030118838566524 -0.021999111234880075 0 0.0034486855449507264 -0.0095198646077536853 0 0.0037822111936042365 -0.00857564105599928 0 0.0047419117079722873 -0.008980891586185662 0 0.0034486855449507264 -0.0095198646077536853 0 0.002980201312578637 -0.0085102477603837753 0 0.0037822111936042365 -0.00857564105599928 0 0.0014719384499317046 -0.0088341747050576028 0 0.0023776909575466943 -0.0088959382531823387 0 0.0024354557275942917 -0.0099767140454495081 0 0.0034486855449507264 -0.0095198646077536853 0 0.0023776909575466943 -0.0088959382531823387 0 0.002980201312578637 -0.0085102477603837753 0 0.0034486855449507264 -0.0095198646077536853 0 0.0023776909575466943 -0.0088959382531823387 0 0.0024354557275942917 -0.0099767140454495081 0 0.0029416019423203713 -0.011013074723815939 0 0.0030138205521645831 -0.011140196867295544 0 0.0029977527412170155 -0.011072885647175665 0 0.001779089215521475 -0.011939415944422396 0 0.0021533851841525685 -0.011807053303652882 0 0.0024354557275942917 -0.0099767140454495081 0 0.0035905277961717566 -0.010306436533536047 0 0.0035160644583944194 -0.011128172456306302 0 0.0034486855449507264 -0.0095198646077536853 0 0.0035905277961717566 -0.010306436533536047 0 0.0044388878556570754 -0.0099894843133086532 0 0.0034486855449507264 -0.0095198646077536853 0 0.0024354557275942917 -0.0099767140454495081 0 0.0035905277961717566 -0.010306436533536047 0 0.0035160644583944194 -0.011128172456306302 0 0.0030138205521645831 -0.011140196867295544 0 0.0042907795104097637 -0.011411085092344347 0 0.0030138205521645831 -0.011140196867295544 0 0.0028736575055242596 -0.01101663680315749 0 0.0026883866354191848 -0.011073403274864746 0 0.0036994616893842626 -0.0080108859247409077 0 0.0036358411121221548 -0.0067922936423486227 0 0.0035905277961717566 -0.010306436533536047 0 0.0035160644583944194 -0.011128172456306302 0 0.0042142583020672551 -0.010693989966323217 0 0.0029416019423203713 -0.011013074723815939 0 0.0035160644583944194 -0.011128172456306302 0 0.0030138205521645831 -0.011140196867295544 0 0.0030138205521645831 -0.011140196867295544 0 0.0029940503530701793 -0.011034673999289625 0 0.0028736575055242596 -0.01101663680315749 0 0.0030138205521645831 -0.011140196867295544 0 0.0029977527412170155 -0.011072885647175665 0 0.0030345057309017417 -0.011075712492663189 0 0.0030138205521645831 -0.011140196867295544 0 0.0029940503530701793 -0.011034673999289625 0 0.0030345057309017417 -0.011075712492663189 0 0.0029940503530701793 -0.011034673999289625 0 0.0030345057309017417 -0.011075712492663189 0 0.0030234846997225021 -0.01090105028605886 0 0.0029940503530701793 -0.011034673999289625 0 0.0028736575055242596 -0.01101663680315749 0 0.0030234846997225021 -0.01090105028605886 0 0.0028736575055242596 -0.01101663680315749 0 0.0026883866354191848 -0.011073403274864746 0 0.0027415242551751887 -0.01088399185735151 0 0.0028736575055242596 -0.01101663680315749 0 0.0030234846997225021 -0.01090105028605886 0 0.0027415242551751887 -0.01088399185735151 0 0.0047131196330716454 -0.022030725309569774 0 0.0014030118838566524 -0.021999111234880075 0 0.0026447141730887684 -0.019461483421233557 0 0.0023368921722688356 -0.016690667206117258 0 0.0016487892379151992 -0.015188004413372178 0 0.0030438253607028643 -0.011049654047153452 0 0.0029977527412170155 -0.011072885647175665 0 0.0030345057309017417 -0.011075712492663189 0 0.0014030118838566524 -0.021999111234880075 0 0.0026447141730887684 -0.019461483421233557 0 0.00039386438706803003 -0.019547320003730974 0 0.00039386438706803003 -0.019547320003730974 0 0.00057104225845726775 -0.016890737705324867 0 -0.00061296160129991879 -0.017091959485609012 0 0.0026447141730887684 -0.019461483421233557 0 0.00039386438706803003 -0.019547320003730974 0 0.00057104225845726775 -0.016890737705324867 0 0.0025956017236284604 -0.021678211487761133 0 0.0011119462840826493 -0.015919570956161842 0 0.0016487892379151992 -0.015188004413372178 0 0.00085142524229081464 -0.013442819841278587 0 0.0015140373880462032 -0.02541074043939678 0 0.001778781178719904 -0.022174991710441894 0 -0.00074744283689237763 -0.022599264102184304 0 0.003384560522821321 -0.023939848726332546 0 0.0015140373880462032 -0.02541074043939678 0 0.001778781178719904 -0.022174991710441894 0 0.0016478332691870796 -0.020115457669894643 0 0.0011119462840826493 -0.015919570956161842 0 0.0014967528332428444 -0.019254231553679082 0 0.00066208030297142009 -0.019400081079689085 0 0.00064995710881911642 -0.018603366450509369 0 0.0011119462840826493 -0.015919570956161842 0 0.00085142524229081464 -0.013442819841278587 0 0.00066208030297142009 -0.019400081079689085 0 0.00064995710881911642 -0.018603366450509369 0 -8.1037178382957064e-05 -0.018516098551980539 0 0.0014967528332428444 -0.019254231553679082 0 0.00064995710881911642 -0.018603366450509369 0 0.0013324742210725313 -0.01845768526222993 0 0.0014967528332428444 -0.019254231553679082 0 0.0013324742210725313 -0.01845768526222993 0 0.0018545401535118335 -0.018754807205246905 0 0.0013324742210725313 -0.01845768526222993 0 0.0019152668415611043 -0.01808554825476727 0 0.0018545401535118335 -0.018754807205246905 0 -0.00023272205973672553 -0.0056803170093139505 0 -0.00095667397810479909 -0.0058345375198904153 0 -0.00094594152575314225 -0.0065416350235318046 0 0.00085142524229081464 -0.013442819841278587 0 0.00060532803826581503 -0.0079456455292058296 0 0.00057256735025761865 -0.0063281000855912742 0 -0.00023272205973672553 -0.0056803170093139505 0 -0.00094594152575314225 -0.0065416350235318046 0 0.0011566058693247201 -0.0062870361728940552 0 0.00034657469191897496 -0.0057765122503727886 0 0.00025356172758948727 -0.0051698620279560636 0 0.0011119462840826493 -0.015919570956161842 0 -0.00011876677191065011 -0.012640727425667632 0 0.00034657469191897496 -0.0057765122503727886 0 0.00057256735025761865 -0.0063281000855912742 0 -0.00023272205973672553 -0.0056803170093139505 0 0.00047200027043492118 -0.012195441528302394 0 0.00085142524229081464 -0.013442819841278587 0 0.0011566058693247201 -0.0062870361728940552 0 0.00034657469191897496 -0.0057765122503727886 0 0.00058809553365123015 -0.0063860939627196868 0 0.00064995710881911642 -0.018603366450509369 0 -8.1037178382957064e-05 -0.018516098551980539 0 0.00039052453863581515 -0.017958843206151029 0 0.00034657469191897496 -0.0057765122503727886 0 0.00025356172758948727 -0.0051698620279560636 0 -0.00023272205973672553 -0.0056803170093139505 0 0.00025356172758948727 -0.0051698620279560636 0 -0.00023272205973672553 -0.0056803170093139505 0 -0.00030408455956014815 -0.0049950146202157077 0 -0.00023272205973672553 -0.0056803170093139505 0 -0.00030408455956014815 -0.0049950146202157077 0 -0.00076840333167641991 -0.0052013303326266707 0 -0.00030408455956014815 -0.0049950146202157077 0 -0.00076840333167641991 -0.0052013303326266707 0 -0.00068123549128412133 -0.0047750885354432438 0 -0.00023272205973672553 -0.0056803170093139505 0 -0.00076840333167641991 -0.0052013303326266707 0 -0.00095667397810479909 -0.0058345375198904153 0 -0.00011876677191065011 -0.012640727425667632 0 -0.00065069486036971075 -0.01082598615270644 0 -0.00030408455956014815 -0.0049950146202157077 0 -0.00059426947927225754 -0.0041417706066318415 0 -0.00068123549128412133 -0.0047750885354432438 0 -0.00059426947927225754 -0.0041417706066318415 0 -0.00068123549128412133 -0.0047750885354432438 0 -0.0011634136175017534 -0.004971167922371322 0 0.00025356172758948727 -0.0051698620279560636 0 -0.00030408455956014815 -0.0049950146202157077 0 -0.00059426947927225754 -0.0041417706066318415 0 -8.1037178382957064e-05 -0.018516098551980539 0 -0.00086338311218898446 -0.017553428223320341 0 -2.330516668067785e-05 -0.017614708461094118 0 -8.1037178382957064e-05 -0.018516098551980539 0 -2.330516668067785e-05 -0.017614708461094118 0 0.00039052453863581515 -0.017958843206151029 0 -2.330516668067785e-05 -0.017614708461094118 0 0.00039052453863581515 -0.017958843206151029 0 0.00047183345680190631 -0.017303427403374823 0 -2.330516668067785e-05 -0.017614708461094118 0 0.00024953955769187761 -0.016816356830953273 0 0.00047183345680190631 -0.017303427403374823 0 -0.00086338311218898446 -0.017553428223320341 0 -2.330516668067785e-05 -0.017614708461094118 0 0.00024953955769187761 -0.016816356830953273 0 -0.0012958489036198069 -0.016705060054429243 0 -0.00017847358832698715 -0.01597941357759548 0 -0.00081584944430514682 -0.016247186273055138 0 -0.00065069486036971075 -0.01082598615270644 0 0.00041807216590256259 -0.016187242777568195 0 -0.0012252478175866315 -0.015601156596921687 0 -0.00017847358832698715 -0.01597941357759548 0 -0.00081584944430514682 -0.016247186273055138 0 0.00041807216590256259 -0.016187242777568195 0 0.00046266133683370449 -0.016331016890949405 0 -0.0012252478175866315 -0.015601156596921687 0 -0.00081584944430514682 -0.016247186273055138 0 -0.0014995304767098643 -0.016499283195852095 0 -0.001578800814055646 -0.010387811849290711 0 -0.0011919450463978695 -0.0096985467287063216 0 -0.0012958489036198069 -0.016705060054429243 0 -0.00081584944430514682 -0.016247186273055138 0 -0.0014814333248836103 -0.016472349172409518 0 -0.00065069486036971075 -0.01082598615270644 0 -0.0011919450463978695 -0.0096985467287063216 0 0.0013324742210725313 -0.01845768526222993 0 0.00097566367443563786 -0.017869961107097185 0 0.0019152668415611043 -0.01808554825476727 0 0.00097566367443563786 -0.017869961107097185 0 0.0012875552084799034 -0.017122819746486544 0 0.0019152668415611043 -0.01808554825476727 0 0.00064995710881911642 -0.018603366450509369 0 0.00039052453863581515 -0.017958843206151029 0 0.0010229619949041412 -0.017714372048159982 0 0.00064995710881911642 -0.018603366450509369 0 0.0013324742210725313 -0.01845768526222993 0 0.00097566367443563786 -0.017869961107097185 0 0.0014114654620827334 -0.018481765843989757 0 0.0015475930485711524 -0.018438905358490482 0 0.00039052453863581515 -0.017958843206151029 0 0.0010229619949041412 -0.017714372048159982 0 0.00047183345680190631 -0.017303427403374823 0 0.0010229619949041412 -0.017714372048159982 0 0.00083017749071276684 -0.017003946607883048 0 0.0013731723121745223 -0.016851403071786668 0 0.0010229619949041412 -0.017714372048159982 0 0.00047183345680190631 -0.017303427403374823 0 0.00083017749071276684 -0.017003946607883048 0 0.00025770219351466892 -0.016837201214801954 0 0.00047183345680190631 -0.017303427403374823 0 0.00083017749071276684 -0.017003946607883048 0 0.0024600635965868808 -0.020980714706996934 0 0.0024363074413260143 -0.020982331203272565 0 0.0024143702036505893 -0.021007117812865139 0 0.0015475930485711524 -0.018438905358490482 0 0.0016827527633121095 -0.019062138306936521 0 0.0016827527633121095 -0.019062138306936521 0 0.0017083475889054114 -0.020602176320337978 0 0.0024555826660411714 -0.021002319681067059 0 0.0024600635965868808 -0.020980714706996934 0 0.0024363074413260143 -0.020982331203272565 0 0.0024363074413260143 -0.020982331203272565 0 0.0024110158026602966 -0.02096424096870559 0 0.0024143702036505893 -0.021007117812865139 0 0.0024555826660411714 -0.021002319681067059 0 0.0024363074413260143 -0.020982331203272565 0 0.0024110158026602966 -0.02096424096870559 0 0.0024110158026602966 -0.02096424096870559 0 0.0024143702036505893 -0.021007117812865139 0 0.0024647032673783113 -0.021015925644924407 0 0.0019969356619998053 -0.021145272841523868 0 0.0024110158026602966 -0.02096424096870559 0 0.0021162385713249091 -0.020844674893359588 0 0.0022263293942083322 -0.020497346518614436 0 0.0021162385713249091 -0.020844674893359588 0 0.0018357361803789602 -0.020759602137956534 0 0.0013716468767860474 -0.022007189767657698 0 0.0013910411650329209 -0.022935168398386902 0 0.0024110158026602966 -0.02096424096870559 0 0.0022263293942083322 -0.020497346518614436 0 0.0021162385713249091 -0.020844674893359588 0 0.001516725084433091 -0.021421238994255336 0 0.0019969356619998053 -0.021145272841523868 0 0.0018357361803789602 -0.020759602137956534 0 0.0019969356619998053 -0.021145272841523868 0 0.0021162385713249091 -0.020844674893359588 0 0.0018357361803789602 -0.020759602137956534 0 0.001516725084433091 -0.021421238994255336 0 0.0018357361803789602 -0.020759602137956534 0 0.0011914707273067368 -0.020614095270887069 0 0.0011914707273067368 -0.020614095270887069 0 0.0015447557140887721 -0.020419518009309356 0 0.0013350058892600204 -0.020057113038879235 0 0.0020163281212526637 -0.027454427634010271 0 0.0030347093685054944 -0.03774680075259549 0 0.0018357361803789602 -0.020759602137956534 0 0.0011914707273067368 -0.020614095270887069 0 0.0015447557140887721 -0.020419518009309356 0 0.0022263293942083322 -0.020497346518614436 0 0.0018357361803789602 -0.020759602137956534 0 0.0018567610185372153 -0.020319765218265628 0 0.0018357361803789602 -0.020759602137956534 0 0.0015447557140887721 -0.020419518009309356 0 0.0018567610185372153 -0.020319765218265628 0 0.0018567610185372153 -0.020319765218265628 0 0.0019821067833087529 -0.019948045578660461 0 0.0013350058892600204 -0.020057113038879235 0 0.0024833164216779306 -0.028451856474319338 0 0.0030347093685054944 -0.03774680075259549 0 0.0022263293942083322 -0.020497346518614436 0 0.0018567610185372153 -0.020319765218265628 0 0.0019821067833087529 -0.019948045578660461 0 0.0015447557140887721 -0.020419518009309356 0 0.0018567610185372153 -0.020319765218265628 0 0.0013350058892600204 -0.020057113038879235 0 0.0030347093685054944 -0.03774680075259549 0 0.0040950734536767848 -0.038011442842711587 0 0.0046022720630663518 -0.034415532682601079 0 0.0048656895563995292 -0.034381992269388179 0 0.0048013841222380458 -0.034551064763437521 0 0.0054309522819167245 -0.049641894524510399 0 0.0030347093685054944 -0.03774680075259549 0 0.0053615723973757497 -0.042942846903024239 0 0.0055758086435033485 -0.039585737291078761 0 0.0047391180840694993 -0.041742124248242529 0 0.0046022720630663518 -0.034415532682601079 0 0.0048013841222380458 -0.034551064763437521 0 0.0046703591261554383 -0.034566328045215818 0 0.0045390105279829503 -0.027702132873830766 0 0.0054521040833814902 -0.029680695150256623 0 0.0031796808376459897 -0.028772221371384119 0 0.0024833164216779306 -0.028451856474319338 0 0.0037486515690378619 -0.033170364211635078 0 0.0033727954980054048 -0.031827189380847096 0 0.0031796808376459897 -0.028772221371384119 0 0.0018978026184590774 -0.028147987270157025 0 0.0024833164216779306 -0.028451856474319338 0 0.0026208726021439283 -0.024766660352883572 0 0.0045390105279829503 -0.027702132873830766 0 0.0031796808376459897 -0.028772221371384119 0 0.002693455254725979 -0.028016450975669814 0 0.0031796808376459897 -0.028772221371384119 0 0.0026929560933183021 -0.028011247364669284 0 0.0018978026184590774 -0.028147987270157025 0 0.0026208726021439283 -0.024766660352883572 0 0.0023343033256360349 -0.024081955689512251 0 0.0027151029347956914 -0.02496551611400873 0 0.0026208726021439283 -0.024766660352883572 0 0.0016478332691870796 -0.020115457669894643 0 0.0023343033256360349 -0.024081955689512251 0 0.003384560522821321 -0.023939848726332546 0 0.001778781178719904 -0.022174991710441894 0 0.0043059944525210576 -0.021745862441400608 0 0.0014967528332428444 -0.019254231553679082 0 0.0023174372762446958 -0.019124491499565181 0 0.0018545401535118335 -0.018754807205246905 0 0.0025630401046050598 -0.019090602274518708 0 0.0023183893762970618 -0.019133992814065099 0 0.0022071128835543523 -0.018848357071712979 0 0.0019152668415611043 -0.01808554825476727 0 0.0022071128835543523 -0.018848357071712979 0 0.0018545401535118335 -0.018754807205246905 0 0.0023174372762446958 -0.019124491499565181 0 0.0022071128835543523 -0.018848357071712979 0 0.0018545401535118335 -0.018754807205246905 0 0.0019152668415611043 -0.01808554825476727 0 0.0025630401046050598 -0.019090602274518708 0 0.0022071128835543523 -0.018848357071712979 0 0.0023343033256360349 -0.024081955689512251 0 0.0022310920321108115 -0.02372585996937317 0 0.0017083475889054114 -0.020602176320337978 0 0.0026208726021439283 -0.024766660352883572 0 0.0013910411650329209 -0.022935168398386902 0 0.0024833164216779306 -0.028451856474319338 0 0.0024647032673783113 -0.021015925644924407 0 0.0025130264504892729 -0.021126689404031042 0 0.0024559101303810384 -0.02112887882285024 0 0.0024143702036505893 -0.021007117812865139 0 0.0024647032673783113 -0.021015925644924407 0 0.0024559101303810384 -0.02112887882285024 0 2.4196294952888611e-05 -0.074939566302839392 0 1.4222872814499297e-08 -0.074999945501320553 0 1.7497117229024341e-05 -0.074967735941709482 0 1.4222872814499297e-08 -0.074999945501320553 0 1.7497117229024341e-05 -0.074967735941709482 0 6.6822760061028668e-09 -0.074999963411684092 0 0.00031646457835437716 -0.073538928362225128 0 0.00054617084040338448 -0.072163494959437857 0 2.4196294952888611e-05 -0.074939566302839392 0 1.7497117229024341e-05 -0.074967735941709482 0 9.6826311934424022e-06 -0.074941672883056254 0 0.00031646457835437716 -0.073538928362225128 0 0.00015737788252166357 -0.071510505154133153 0 0.001170032669595744 -0.070810844473127466 0 0.00063365428318624701 -0.070559090877189576 0 0.00046973727566590831 -0.070683449303388421 0 0.00054617084040338448 -0.072163494959437857 0 0.00083182378441969942 -0.070487366256936509 0 0.00063365428318624701 -0.070559090877189576 0 0.00046973727566590831 -0.070683449303388421 0 9.5421778859361561e-05 -0.070312121537636815 0 9.6826311934424022e-06 -0.074941672883056254 0 6.4168139064223522e-06 -0.074906738171483314 0 -2.5527636888170899e-05 -0.074909407518360727 0 2.4196294952888611e-05 -0.074939566302839392 0 9.6826311934424022e-06 -0.074941672883056254 0 6.4168139064223522e-06 -0.074906738171483314 0 2.4196294952888611e-05 -0.074939566302839392 0 2.1214549831467316e-05 -0.074849656311508542 0 2.7998690739770298e-05 -0.074886802449709605 0 2.4196294952888611e-05 -0.074939566302839392 0 6.4168139064223522e-06 -0.074906738171483314 0 2.1214549831467316e-05 -0.074849656311508542 0 6.4168139064223522e-06 -0.074906738171483314 0 2.1214549831467316e-05 -0.074849656311508542 0 -3.8242398126766971e-05 -0.074861518621277226 0 -0.00038717688150115119 -0.072307412253744416 0 -1.563242351161472e-05 -0.071433945012487718 0 2.1214549831467316e-05 -0.074849656311508542 0 2.5366408508188161e-05 -0.074729132054672298 0 -1.2402735290197487e-05 -0.07473822467693518 0 2.1214549831467316e-05 -0.074849656311508542 0 2.7998690739770298e-05 -0.074886802449709605 0 3.5016907638660998e-05 -0.074781712413507895 0 2.4196294952888611e-05 -0.074939566302839392 0 2.7998690739770298e-05 -0.074886802449709605 0 4.6221303467741931e-08 -0.074999879105150172 0 2.4196294952888611e-05 -0.074939566302839392 0 1.4222872814499297e-08 -0.074999945501320553 0 4.6221303467741931e-08 -0.074999879105150172 0 4.6221303467741931e-08 -0.074999879105150172 0 2.7026135997733754e-05 -0.074866418692893802 0 1.4152383665383542e-08 -0.074999843694680199 0 2.7998690739770298e-05 -0.074886802449709605 0 4.6221303467741931e-08 -0.074999879105150172 0 2.7026135997733754e-05 -0.074866418692893802 0 1.4152383665383542e-08 -0.074999843694680199 0 3.3377022061669019e-06 -0.07486377445866664 0 1.0072947872817131e-08 -0.074999791082986822 0 2.7026135997733754e-05 -0.074866418692893802 0 1.4152383665383542e-08 -0.074999843694680199 0 3.3377022061669019e-06 -0.07486377445866664 0 2.7026135997733754e-05 -0.074866418692893802 0 3.3377022061669019e-06 -0.07486377445866664 0 3.2093153322052753e-05 -0.074716289310902254 0 1.1331775809379882e-05 -0.074522568521697682 0 1.2903039048626227e-05 -0.074657309852417975 0 2.3190771276770945e-05 -0.07444510097871343 0 1.2903039048626227e-05 -0.074657309852417975 0 3.3834421434783909e-05 -0.074574600803702915 0 2.3190771276770945e-05 -0.07444510097871343 0 -6.7350935822920679e-06 -0.074799399514339088 0 3.3377022061669019e-06 -0.07486377445866664 0 1.2903039048626227e-05 -0.074657309852417975 0 3.3377022061669019e-06 -0.07486377445866664 0 1.2903039048626227e-05 -0.074657309852417975 0 3.2093153322052753e-05 -0.074716289310902254 0 3.2093153322052753e-05 -0.074716289310902254 0 3.3834421434783909e-05 -0.074574600803702915 0 3.7463990640360193e-05 -0.074649910583932957 0 1.2903039048626227e-05 -0.074657309852417975 0 3.2093153322052753e-05 -0.074716289310902254 0 3.3834421434783909e-05 -0.074574600803702915 0 3.2093153322052753e-05 -0.074716289310902254 0 3.7463990640360193e-05 -0.074649910583932957 0 3.5016907638660998e-05 -0.074781712413507895 0 2.7026135997733754e-05 -0.074866418692893802 0 3.2093153322052753e-05 -0.074716289310902254 0 3.5016907638660998e-05 -0.074781712413507895 0 2.7998690739770298e-05 -0.074886802449709605 0 2.7026135997733754e-05 -0.074866418692893802 0 3.5016907638660998e-05 -0.074781712413507895 0 3.7463990640360193e-05 -0.074649910583932957 0 3.5016907638660998e-05 -0.074781712413507895 0 2.5366408508188161e-05 -0.074729132054672298 0 2.1214549831467316e-05 -0.074849656311508542 0 3.5016907638660998e-05 -0.074781712413507895 0 2.5366408508188161e-05 -0.074729132054672298 0 2.5366408508188161e-05 -0.074729132054672298 0 1.3446574781447389e-05 -0.074594918275172339 0 -1.2402735290197487e-05 -0.07473822467693518 0 -5.5131433870557013e-05 -0.074634907218183097 0 -0.00010392614301522994 -0.074707493226856894 0 -1.2402735290197487e-05 -0.07473822467693518 0 -5.5131433870557013e-05 -0.074634907218183097 0 1.3446574781447389e-05 -0.074594918275172339 0 -7.2352558100959789e-05 -0.074510283498802676 0 -5.5131433870557013e-05 -0.074634907218183097 0 1.3446574781447389e-05 -0.074594918275172339 0 -1.2402735290197487e-05 -0.07473822467693518 0 -5.5131433870557013e-05 -0.074634907218183097 0 -0.00012285432028740588 -0.074605931716429985 0 -0.00010392614301522994 -0.074707493226856894 0 -5.5131433870557013e-05 -0.074634907218183097 0 -7.2352558100959789e-05 -0.074510283498802676 0 -0.00012285432028740588 -0.074605931716429985 0 4.1027740907367194e-06 -0.074389245678104551 0 1.3446574781447389e-05 -0.074594918275172339 0 -7.2352558100959789e-05 -0.074510283498802676 0 4.1027740907367194e-06 -0.074389245678104551 0 1.3446574781447389e-05 -0.074594918275172339 0 2.7326918022130511e-05 -0.074484806458129341 0 3.7463990640360193e-05 -0.074649910583932957 0 2.5366408508188161e-05 -0.074729132054672298 0 1.3446574781447389e-05 -0.074594918275172339 0 3.7463990640360193e-05 -0.074649910583932957 0 1.3446574781447389e-05 -0.074594918275172339 0 2.7326918022130511e-05 -0.074484806458129341 0 3.3834421434783909e-05 -0.074574600803702915 0 3.7463990640360193e-05 -0.074649910583932957 0 2.7326918022130511e-05 -0.074484806458129341 0 3.3834421434783909e-05 -0.074574600803702915 0 2.7326918022130511e-05 -0.074484806458129341 0 2.3190771276770945e-05 -0.07444510097871343 0 2.7326918022130511e-05 -0.074484806458129341 0 3.4478605440615785e-06 -0.074309838938637046 0 2.3190771276770945e-05 -0.07444510097871343 0 4.1027740907367194e-06 -0.074389245678104551 0 2.7326918022130511e-05 -0.074484806458129341 0 3.4478605440615785e-06 -0.074309838938637046 0 4.1027740907367194e-06 -0.074389245678104551 0 3.4478605440615785e-06 -0.074309838938637046 0 1.3729257279557513e-05 -0.074127236972539534 0 3.4478605440615785e-06 -0.074309838938637046 0 -5.0323035609538185e-05 -0.074132896324223346 0 1.3729257279557513e-05 -0.074127236972539534 0 3.4478605440615785e-06 -0.074309838938637046 0 -5.0323035609538185e-05 -0.074132896324223346 0 2.3190771276770945e-05 -0.07444510097871343 0 1.1331775809379882e-05 -0.074522568521697682 0 -5.0323035609538185e-05 -0.074132896324223346 0 2.3190771276770945e-05 -0.07444510097871343 0 0.00025407281246933063 -0.074253907446813913 0 0.0015818702906257595 -0.073121891489932311 0 5.5855766358701026e-05 -0.073531303692799532 0 0.0015818702906257595 -0.073121891489932311 0 5.5855766358701026e-05 -0.073531303692799532 0 0.001477928804597334 -0.071950230689742212 0 0.0015818702906257595 -0.073121891489932311 0 0.001477928804597334 -0.071950230689742212 0 0.0024091176376028287 -0.071958341990698532 0 0.00025407281246933063 -0.074253907446813913 0 -5.0323035609538185e-05 -0.074132896324223346 0 5.5855766358701026e-05 -0.073531303692799532 0 -5.0323035609538185e-05 -0.074132896324223346 0 5.5855766358701026e-05 -0.073531303692799532 0 1.3729257279557513e-05 -0.074127236972539534 0 5.5855766358701026e-05 -0.073531303692799532 0 1.3729257279557513e-05 -0.074127236972539534 0 -0.00015347973420199912 -0.074211868286755023 0 4.1027740907367194e-06 -0.074389245678104551 0 1.3729257279557513e-05 -0.074127236972539534 0 -0.00012512195614662461 -0.074389478470431203 0 1.3729257279557513e-05 -0.074127236972539534 0 -0.00015347973420199912 -0.074211868286755023 0 -0.00012512195614662461 -0.074389478470431203 0 5.5855766358701026e-05 -0.073531303692799532 0 -0.00015347973420199912 -0.074211868286755023 0 -0.0004482830741051915 -0.074406416555608687 0 0.001477928804597334 -0.071950230689742212 0 0.00065466290998750384 -0.069839724570787715 0 0.0023287491521384878 -0.071003239428988701 0 5.5855766358701026e-05 -0.073531303692799532 0 0.001477928804597334 -0.071950230689742212 0 0.00065466290998750384 -0.069839724570787715 0 0.001971461992353546 -0.072897914911672287 0 0.0030913076922977956 -0.071746107959997724 0 -0.00015347973420199912 -0.074211868286755023 0 -0.00035437206313350259 -0.074385293189383458 0 -0.0004482830741051915 -0.074406416555608687 0 -0.00015347973420199912 -0.074211868286755023 0 -0.00035437206313350259 -0.074385293189383458 0 -0.00021530055927920024 -0.074357385984757468 0 -0.00035446586770852058 -0.074392888567994392 0 -0.00027251763994291784 -0.074474433980981553 0 -0.00035255285090951641 -0.074610145143702664 0 0.0030913076922977956 -0.071746107959997724 0 0.0043187862037842046 -0.070763182044517536 0 0.0030499984697288187 -0.071760346263708946 0 0.0030913076922977956 -0.071746107959997724 0 -0.00035437206313350259 -0.074385293189383458 0 -0.00027251763994291784 -0.074474433980981553 0 -0.00021530055927920024 -0.074357385984757468 0 -0.00035437206313350259 -0.074385293189383458 0 -0.00035446586770852058 -0.074392888567994392 0 -0.00027251763994291784 -0.074474433980981553 0 4.1027740907367194e-06 -0.074389245678104551 0 -0.00012512195614662461 -0.074389478470431203 0 -7.2352558100959789e-05 -0.074510283498802676 0 -0.00027251763994291784 -0.074474433980981553 0 -0.00012512195614662461 -0.074389478470431203 0 -0.00021530055927920024 -0.074357385984757468 0 -0.00015347973420199912 -0.074211868286755023 0 -0.00012512195614662461 -0.074389478470431203 0 -0.00021530055927920024 -0.074357385984757468 0 -0.00027251763994291784 -0.074474433980981553 0 -0.00012512195614662461 -0.074389478470431203 0 -0.0001613119603815097 -0.074520998452384954 0 -0.00027251763994291784 -0.074474433980981553 0 -0.0001613119603815097 -0.074520998452384954 0 -0.00023219623924054794 -0.074584459565851455 0 -0.0001613119603815097 -0.074520998452384954 0 -7.2352558100959789e-05 -0.074510283498802676 0 -0.00012285432028740588 -0.074605931716429985 0 -0.00012512195614662461 -0.074389478470431203 0 -0.0001613119603815097 -0.074520998452384954 0 -7.2352558100959789e-05 -0.074510283498802676 0 -0.00012285432028740588 -0.074605931716429985 0 -0.00023288833905464869 -0.074694348262321797 0 -0.00010392614301522994 -0.074707493226856894 0 -0.0001613119603815097 -0.074520998452384954 0 -0.00012285432028740588 -0.074605931716429985 0 -0.00023219623924054794 -0.074584459565851455 0 -0.00012285432028740588 -0.074605931716429985 0 -0.00023219623924054794 -0.074584459565851455 0 -0.00023288833905464869 -0.074694348262321797 0 -0.00023219623924054794 -0.074584459565851455 0 -0.00023288833905464869 -0.074694348262321797 0 -0.00035255285090951641 -0.074610145143702664 0 -0.00027251763994291784 -0.074474433980981553 0 -0.00023219623924054794 -0.074584459565851455 0 -0.00035255285090951641 -0.074610145143702664 0 -0.00023288833905464869 -0.074694348262321797 0 -0.00030784031342879407 -0.074718801012633049 0 -0.00035255285090951641 -0.074610145143702664 0 -0.00023288833905464869 -0.074694348262321797 0 -0.00030784031342879407 -0.074718801012633049 0 -0.00026054759369917649 -0.07481385521646268 0 -0.00023288833905464869 -0.074694348262321797 0 -0.00026054759369917649 -0.07481385521646268 0 -0.00016373888469351498 -0.074776728136151549 0 0.0082276079069339234 -0.061171559535789378 0 0.0061954552147822041 -0.060309416585870475 0 0.009158251732287636 -0.059345687853683646 0 0.0082276079069339234 -0.061171559535789378 0 0.009158251732287636 -0.059345687853683646 0 0.0096509544192867353 -0.060605363074027786 0 0.0047394931650006078 -0.06737178275107035 0 0.0029662429909534517 -0.067794546002659092 0 -0.00026054759369917649 -0.07481385521646268 0 -0.00012923253296253439 -0.074860729566234088 0 -0.00016373888469351498 -0.074776728136151549 0 -0.00012923253296253439 -0.074860729566234088 0 -0.00016373888469351498 -0.074776728136151549 0 -8.0198151810254953e-05 -0.074779911143202635 0 -0.00023288833905464869 -0.074694348262321797 0 -0.00016373888469351498 -0.074776728136151549 0 -0.00010392614301522994 -0.074707493226856894 0 -0.00016373888469351498 -0.074776728136151549 0 -0.00010392614301522994 -0.074707493226856894 0 -8.0198151810254953e-05 -0.074779911143202635 0 -0.00010392614301522994 -0.074707493226856894 0 -8.0198151810254953e-05 -0.074779911143202635 0 -1.2402735290197487e-05 -0.07473822467693518 0 -8.0198151810254953e-05 -0.074779911143202635 0 -1.2402735290197487e-05 -0.07473822467693518 0 -1.1161770819699775e-05 -0.074813911178094564 0 2.1214549831467316e-05 -0.074849656311508542 0 -1.2402735290197487e-05 -0.07473822467693518 0 -1.1161770819699775e-05 -0.074813911178094564 0 0.0029662429909534517 -0.067794546002659092 0 -1.563242351161472e-05 -0.071433945012487718 0 -0.00012923253296253439 -0.074860729566234088 0 -8.0198151810254953e-05 -0.074779911143202635 0 -1.1161770819699775e-05 -0.074813911178094564 0 -7.3181954682496241e-05 -0.074855962784283317 0 -3.8242398126766971e-05 -0.074861518621277226 0 -6.1724383139980619e-05 -0.074869299444152632 0 0.0012366659012019265 -0.067695182509476148 0 0.00083182378441969942 -0.070487366256936509 0 0.00031520621773551582 -0.06646010523002055 0 0.0001197790246757075 -0.066007488095241831 0 0.0006085377683655302 -0.06607826602272851 0 -0.0004421489825666479 -0.070066392326132099 0 9.5421778859361561e-05 -0.070312121537636815 0 -0.00023417927086738575 -0.070563856041236009 0 0.0012366659012019265 -0.067695182509476148 0 -0.0007823516337998026 -0.068571417875007271 0 -3.8242398126766971e-05 -0.074861518621277226 0 -6.1724383139980619e-05 -0.074869299444152632 0 -2.5527636888170899e-05 -0.074909407518360727 0 6.4168139064223522e-06 -0.074906738171483314 0 -3.8242398126766971e-05 -0.074861518621277226 0 -2.5527636888170899e-05 -0.074909407518360727 0 0.00015737788252166357 -0.071510505154133153 0 -0.0007823516337998026 -0.068571417875007271 0 0.00046973727566590831 -0.070683449303388421 0 9.5421778859361561e-05 -0.070312121537636815 0 -0.00023417927086738575 -0.070563856041236009 0 -0.0007823516337998026 -0.068571417875007271 0 -0.0016801459696907228 -0.066515693854209523 0 -0.0053878060411879248 -0.064041214114839276 0 -0.0064110714244207199 -0.064825498932270811 0 -0.0054964590888359355 -0.06487199850465096 0 -0.0038732663752675282 -0.064018117059214744 0 -0.0053878060411879248 -0.064041214114839276 0 -0.0054964590888359355 -0.06487199850465096 0 -0.0016801459696907228 -0.066515693854209523 0 -0.0011619707420793266 -0.065190750768778505 0 -0.0053878060411879248 -0.064041214114839276 0 -0.0065928787190957516 -0.064307445157787121 0 -0.0064110714244207199 -0.064825498932270811 0 0.0061334268846529724 -0.060319623931671951 0 0.0082403985358424532 -0.059350182063418917 0 0.009158251732287636 -0.059345687853683646 0 0.0006085377683655302 -0.06607826602272851 0 0.0011016608669690787 -0.066151609807722944 0 0.00095648646313666074 -0.066342420358380658 0 0.0029662429909534517 -0.067794546002659092 0 0.007400272715081509 -0.064639677285452224 0 0.0061334268846529724 -0.060319623931671951 0 0.0051676418073743806 -0.059922737589917514 0 0.0082403985358424532 -0.059350182063418917 0 0.0012366659012019265 -0.067695182509476148 0 0.0038204017344227494 -0.06487318259915717 0 0.00031520621773551582 -0.06646010523002055 0 0.0006085377683655302 -0.06607826602272851 0 0.00095648646313666074 -0.066342420358380658 0 0.0029662429909534517 -0.067794546002659092 0 0.0012366659012019265 -0.067695182509476148 0 0.0020050165150198225 -0.064163913112209009 0 0.0034903239756877923 -0.063827843629903708 0 0.011230190113804684 -0.058879038766859106 0 0.011857565598962951 -0.059896304888493464 0 0.010971066429601061 -0.060453679287135006 0 0.0019152060797620796 -0.063813948295977238 0 0.0021076468401029333 -0.06378235706989295 0 0.0022784365142594358 -0.063875784205041308 0 0.011230190113804684 -0.058879038766859106 0 0.011857565598962951 -0.059896304888493464 0 0.012680843595066228 -0.059234041175626438 0 0.0020050165150198225 -0.064163913112209009 0 0.0013763421964231417 -0.06376877471795582 0 0.0013763421964231417 -0.06376877471795582 0 0.0010812496082358361 -0.063674290420005275 0 -0.0073432388006211607 -0.064626731746859789 0 -0.0076169220272954792 -0.064746740125353808 0 -0.0074591791859399273 -0.064827296676829196 0 0.011230190113804684 -0.058879038766859106 0 0.010260590780287874 -0.059813097770036565 0 0.010971066429601061 -0.060453679287135006 0 -0.0011619707420793266 -0.065190750768778505 0 0.0020050165150198225 -0.064163913112209009 0 0.0011016608669690787 -0.066151609807722944 0 0.00095648646313666074 -0.066342420358380658 0 0.0015981757422676344 -0.066229992505873192 0 0.011230190113804684 -0.058879038766859106 0 0.010260590780287874 -0.059813097770036565 0 0.009158251732287636 -0.059345687853683646 0 0.0038204017344227494 -0.06487318259915717 0 0.0020050165150198225 -0.064163913112209009 0 0.0082403985358424532 -0.059350182063418917 0 0.011230190113804684 -0.058879038766859106 0 0.009158251732287636 -0.059345687853683646 0 0.010260590780287874 -0.059813097770036565 0 0.009158251732287636 -0.059345687853683646 0 0.0096509544192867353 -0.060605363074027786 0 -0.0064110714244207199 -0.064825498932270811 0 -0.007138541924614686 -0.064841095392058221 0 -0.0071319053855714663 -0.065329763058827248 0 -0.0065928787190957516 -0.064307445157787121 0 -0.0073432388006211607 -0.064626731746859789 0 -0.007138541924614686 -0.064841095392058221 0 -0.0065928787190957516 -0.064307445157787121 0 -0.0064110714244207199 -0.064825498932270811 0 -0.007138541924614686 -0.064841095392058221 0 -0.007138541924614686 -0.064841095392058221 0 -0.0074456992241503954 -0.06513417941460134 0 -0.0071319053855714663 -0.065329763058827248 0 -0.0073432388006211607 -0.064626731746859789 0 -0.007138541924614686 -0.064841095392058221 0 -0.0074591791859399273 -0.064827296676829196 0 -0.007138541924614686 -0.064841095392058221 0 -0.0074456992241503954 -0.06513417941460134 0 -0.0074591791859399273 -0.064827296676829196 0 -0.0075313412826595446 -0.064914656922986688 0 -0.0074591791859399273 -0.064827296676829196 0 -0.0075496797999379042 -0.065074711868870719 0 -0.0074456992241503954 -0.06513417941460134 0 -0.0074591791859399273 -0.064827296676829196 0 -0.0075496797999379042 -0.065074711868870719 0 -0.0074456992241503954 -0.06513417941460134 0 -0.0075496797999379042 -0.065074711868870719 0 -0.0076229280028556794 -0.065296751881947071 0 -0.0075313412826595446 -0.064914656922986688 0 -0.0076084243569522281 -0.065202380458092984 0 -0.0076252876980573781 -0.065322851327924383 0 0.0013763421964231417 -0.06376877471795582 0 -0.0007267182847170041 -0.064161905479496115 0 -0.0075496797999379042 -0.065074711868870719 0 -0.0076084243569522281 -0.065202380458092984 0 -0.0076229280028556794 -0.065296751881947071 0 -0.0076084243569522281 -0.065202380458092984 0 -0.0076094839519663593 -0.065340894448530848 0 -0.0076229280028556794 -0.065296751881947071 0 -0.0076084243569522281 -0.065202380458092984 0 -0.0076094839519663593 -0.065340894448530848 0 -0.0076252876980573781 -0.065322851327924383 0 -0.0075313412826595446 -0.064914656922986688 0 -0.0075496797999379042 -0.065074711868870719 0 -0.0076084243569522281 -0.065202380458092984 0 -0.0007267182847170041 -0.064161905479496115 0 -0.00046759855548635521 -0.064344127807994339 0 0.002862195413489913 -0.062345784390825769 0 0.0028225347485820668 -0.062339676015055336 0 0.0027521036079855179 -0.062378260113900928 0 -0.0074195662837924755 -0.065380076123909267 0 -0.0076252876980573781 -0.065322851327924383 0 -0.0072628622337626951 -0.065493536791792872 0 -0.0074195662837924755 -0.065380076123909267 0 -0.0076094839519663593 -0.065340894448530848 0 -0.0074933535974386093 -0.065393859551744787 0 -0.0074195662837924755 -0.065380076123909267 0 -0.0076094839519663593 -0.065340894448530848 0 -0.0076252876980573781 -0.065322851327924383 0 0.0034903239756877923 -0.063827843629903708 0 0.0069094581291149846 -0.062712843642120666 0 0.0028831630145718175 -0.062325783453376478 0 0.0028621383527822689 -0.062325362043725491 0 0.0028292276327305105 -0.062307554529950814 0 0.0028393229149418224 -0.062324556254854974 0 0.0028621383527822689 -0.062325362043725491 0 0.0028292276327305105 -0.062307554529950814 0 0.0028225347485820668 -0.062339676015055336 0 0.0028393229149418224 -0.062324556254854974 0 0.0028298398709161753 -0.062319619679279993 0 0.0028225347485820668 -0.062339676015055336 0 0.0028298398709161753 -0.062319619679279993 0 0.0028270053565576814 -0.06231068505963025 0 0.002862195413489913 -0.062345784390825769 0 0.0028225347485820668 -0.062339676015055336 0 0.0028393229149418224 -0.062324556254854974 0 0.002862195413489913 -0.062345784390825769 0 0.0028393229149418224 -0.062324556254854974 0 0.0028621383527822689 -0.062325362043725491 0 0.0028393229149418224 -0.062324556254854974 0 0.0028298398709161753 -0.062319619679279993 0 0.0028292276327305105 -0.062307554529950814 0 0.011857565598962951 -0.059896304888493464 0 0.012680843595066228 -0.059234041175626438 0 0.012563077056033572 -0.060770689692996302 0 0.0028851290203387035 -0.062331342209018967 0 0.002862195413489913 -0.062345784390825769 0 0.0028772825410456355 -0.062329068879747859 0 0.0013763421964231417 -0.06376877471795582 0 0.0034903239756877923 -0.063827843629903708 0 0.002862195413489913 -0.062345784390825769 0 0.0028772825410456355 -0.062329068879747859 0 0.0028621383527822689 -0.062325362043725491 0 0.0034903239756877923 -0.063827843629903708 0 0.0033777832393195369 -0.063755807485024976 0 0.012680843595066228 -0.059234041175626438 0 0.012563077056033572 -0.060770689692996302 0 0.014825575982790079 -0.06052194449130191 0 0.012563077056033572 -0.060770689692996302 0 0.014825575982790079 -0.06052194449130191 0 0.013764041401765612 -0.061662153636712035 0 0.013764041401765612 -0.061662153636712035 0 0.013908505801892472 -0.06276466936126561 0 0.015145800936724588 -0.062077198119014382 0 0.014825575982790079 -0.06052194449130191 0 0.013764041401765612 -0.061662153636712035 0 0.015145800936724588 -0.062077198119014382 0 0.0094884633427504417 -0.066444992497603689 0 0.011302261670166618 -0.066569919523191343 0 0.012563077056033572 -0.060770689692996302 0 0.013764041401765612 -0.061662153636712035 0 0.012261067305582605 -0.062220962829226269 0 0.013764041401765612 -0.061662153636712035 0 0.012261067305582605 -0.062220962829226269 0 0.013908505801892472 -0.06276466936126561 0 0.012261067305582605 -0.062220962829226269 0 0.011609893954633771 -0.061152854890642566 0 0.010543747719810224 -0.061576232765573079 0 0.0094884633427504417 -0.066444992497603689 0 0.0073297017317193779 -0.066971567951180991 0 0.008282398215170449 -0.067430314236994832 0 0.0066799407249583109 -0.066735390796796953 0 0.0072302136160520905 -0.068162486585445797 0 0.012563077056033572 -0.060770689692996302 0 0.012261067305582605 -0.062220962829226269 0 0.011609893954633771 -0.061152854890642566 0 0.011609893954633771 -0.061152854890642566 0 0.010971066429601061 -0.060453679287135006 0 0.010543747719810224 -0.061576232765573079 0 0.011857565598962951 -0.059896304888493464 0 0.011609893954633771 -0.061152854890642566 0 0.010971066429601061 -0.060453679287135006 0 0.011857565598962951 -0.059896304888493464 0 0.012563077056033572 -0.060770689692996302 0 0.011609893954633771 -0.061152854890642566 0 0.0082276079069339234 -0.061171559535789378 0 0.0096509544192867353 -0.060605363074027786 0 0.0102877632024108 -0.06206949245215973 0 0.0047394931650006078 -0.06737178275107035 0 0.0073297017317193779 -0.066971567951180991 0 0.010260590780287874 -0.059813097770036565 0 0.010971066429601061 -0.060453679287135006 0 0.0096509544192867353 -0.060605363074027786 0 0.010971066429601061 -0.060453679287135006 0 0.0096509544192867353 -0.060605363074027786 0 0.0102877632024108 -0.06206949245215973 0 0.0082029701603401981 -0.065110379383980177 0 0.0073297017317193779 -0.066971567951180991 0 0.0066799407249583109 -0.066735390796796953 0 0.0059288476460172476 -0.068469928998564508 0 0.0072302136160520905 -0.068162486585445797 0 -0.00030784031342879407 -0.074718801012633049 0 -0.00026054759369917649 -0.07481385521646268 0 -0.00038506371890838529 -0.074750721974909284 0 -0.00030784031342879407 -0.074718801012633049 0 -0.00038506371890838529 -0.074750721974909284 0 -0.00035255285090951641 -0.074610145143702664 0 0.0073297017317193779 -0.066971567951180991 0 0.0043187862037842046 -0.070763182044517536 0 0.0059288476460172476 -0.068469928998564508 0 0.0072302136160520905 -0.068162486585445797 0 0.0072854237655741415 -0.069745778275546205 0 0.008282398215170449 -0.067430314236994832 0 0.0072302136160520905 -0.068162486585445797 0 0.0081732281804266539 -0.068752420502096928 0 0.0072302136160520905 -0.068162486585445797 0 0.0081732281804266539 -0.068752420502096928 0 0.0072854237655741415 -0.069745778275546205 0 0.0044106551222915236 -0.068401198060449295 0 0.0032729143422363955 -0.069935891354907687 0 0.0082760499877955127 -0.070032568304202694 0 0.0081732281804266539 -0.068752420502096928 0 0.0072854237655741415 -0.069745778275546205 0 0.0093921000105579369 -0.069281719883174997 0 0.00065466290998750384 -0.069839724570787715 0 0.0044106551222915236 -0.068401198060449295 0 0.0032729143422363955 -0.069935891354907687 0 0.0051749952950369106 -0.070210041305158455 0 0.0059288476460172476 -0.068469928998564508 0 0.0072854237655741415 -0.069745778275546205 0 0.0030913076922977956 -0.071746107959997724 0 0.006275365243129368 -0.069757899827859876 0 0.00065466290998750384 -0.069839724570787715 0 0.0032729143422363955 -0.069935891354907687 0 0.0023287491521384878 -0.071003239428988701 0 0.001477928804597334 -0.071950230689742212 0 0.0023287491521384878 -0.071003239428988701 0 0.0024091176376028287 -0.071958341990698532 0 0.0023287491521384878 -0.071003239428988701 0 0.0031396930440667015 -0.071405455196623044 0 0.0024091176376028287 -0.071958341990698532 0 0.0032729143422363955 -0.069935891354907687 0 0.0031396930440667015 -0.071405455196623044 0 0.0038901120471803922 -0.07137631214704411 0 0.0032729143422363955 -0.069935891354907687 0 0.0023287491521384878 -0.071003239428988701 0 0.0031396930440667015 -0.071405455196623044 0 0.0048645109950944598 -0.069383024483930342 0 0.0069260805719161449 -0.069442734492967381 0 0.0032729143422363955 -0.069935891354907687 0 0.0038901120471803922 -0.07137631214704411 0 0.004588147536186863 -0.071291450382288499 0 0.0031396930440667015 -0.071405455196623044 0 0.0038901120471803922 -0.07137631214704411 0 0.0037064144071218543 -0.071961130744713997 0 0.0037064144071218543 -0.071961130744713997 0 0.0037649807576559465 -0.072429239217302321 0 0.0032099557442770879 -0.072468117406451218 0 0.0041412495445761338 -0.072275376112484635 0 0.0041675497863034542 -0.072033897728198765 0 0.0037649807576559465 -0.072429239217302321 0 0.0037064144071218543 -0.071961130744713997 0 0.0041675497863034542 -0.072033897728198765 0 0.0037649807576559465 -0.072429239217302321 0 0.0038901120471803922 -0.07137631214704411 0 0.0037064144071218543 -0.071961130744713997 0 0.0041675497863034542 -0.072033897728198765 0 0.0031806155020337248 -0.072939000634486661 0 0.0037649807576559465 -0.072429239217302321 0 0.0032099557442770879 -0.072468117406451218 0 0.0014729061106037494 -0.074403327004467598 0 0.0015818702906257595 -0.073121891489932311 0 0.0032099557442770879 -0.072468117406451218 0 0.0015818702906257595 -0.073121891489932311 0 0.0032099557442770879 -0.072468117406451218 0 0.0024091176376028287 -0.071958341990698532 0 0.0031396930440667015 -0.071405455196623044 0 0.0032099557442770879 -0.072468117406451218 0 0.0024091176376028287 -0.071958341990698532 0 0.0031396930440667015 -0.071405455196623044 0 0.0037064144071218543 -0.071961130744713997 0 0.0032099557442770879 -0.072468117406451218 0 0.0052823545731386845 -0.072457753892723048 0 0.0047468201912425822 -0.071829323809195586 0 0.0053009820791605567 -0.071500043183104184 0 0.0041414087257280532 -0.072306957648581652 0 0.0041675497863034542 -0.072033897728198765 0 0.0047468201912425822 -0.071829323809195586 0 0.0041675497863034542 -0.072033897728198765 0 0.0047468201912425822 -0.071829323809195586 0 0.004588147536186863 -0.071291450382288499 0 0.0038901120471803922 -0.07137631214704411 0 0.0041675497863034542 -0.072033897728198765 0 0.004588147536186863 -0.071291450382288499 0 0.0069260805719161449 -0.069442734492967381 0 0.011770697163849 -0.069063769035200312 0 0.0082760499877955127 -0.070032568304202694 0 0.012021283341401684 -0.067942297849543379 0 0.013915935461242968 -0.070719636633553115 0 0.0047468201912425822 -0.071829323809195586 0 0.004588147536186863 -0.071291450382288499 0 0.0053009820791605567 -0.071500043183104184 0 0.012021283341401684 -0.067942297849543379 0 0.0091462573049812639 -0.066340130686379867 0 0.014236578042812989 -0.064621629662524369 0 0.0082760499877955127 -0.070032568304202694 0 0.012021283341401684 -0.067942297849543379 0 0.0091462573049812639 -0.066340130686379867 0 0.0044106551222915236 -0.068401198060449295 0 0.0082760499877955127 -0.070032568304202694 0 0.0091462573049812639 -0.066340130686379867 0 0.006275365243129368 -0.069757899827859876 0 0.0095479094018642487 -0.068267682929074758 0 0.008282398215170449 -0.067430314236994832 0 0.0081732281804266539 -0.068752420502096928 0 0.009890446038051795 -0.068123507661447424 0 0.0081732281804266539 -0.068752420502096928 0 0.0093921000105579369 -0.069281719883174997 0 0.009890446038051795 -0.068123507661447424 0 0.0095479094018642487 -0.068267682929074758 0 0.012762723359541657 -0.067097488377410613 0 0.0093921000105579369 -0.069281719883174997 0 0.009890446038051795 -0.068123507661447424 0 0.011500802511781979 -0.068817415565804077 0 0.011302261670166618 -0.066569919523191343 0 0.012762723359541657 -0.067097488377410613 0 0.013908505801892472 -0.06276466936126561 0 0.015390919618446386 -0.063483857185081261 0 0.015145800936724588 -0.062077198119014382 0 0.015640851434954802 -0.062624218567059159 0 0.015390919618446386 -0.063483857185081261 0 0.015145800936724588 -0.062077198119014382 0 0.015524445244577885 -0.065020150797726217 0 0.013900349465086675 -0.064316150154566681 0 0.016166941331935657 -0.063801517995979967 0 0.015640851434954802 -0.062624218567059159 0 0.015390919618446386 -0.063483857185081261 0 0.016166941331935657 -0.063801517995979967 0 0.012762723359541657 -0.067097488377410613 0 0.013241108385463572 -0.066900157637843974 0 0.012881459116280882 -0.067082695653456384 0 0.012762723359541657 -0.067097488377410613 0 0.016166941331935657 -0.063801517995979967 0 0.018335320114427265 -0.067255225351037284 0 0.016492228509035034 -0.061714518486282399 0 0.016174822738617717 -0.054811061444543556 0 0.014906510886700126 -0.057962084320952741 0 0.016492228509035034 -0.061714518486282399 0 0.015379136848737188 -0.06044336549409899 0 0.015819173554168311 -0.0609451461409765 0 0.014906510886700126 -0.057962084320952741 0 0.014303395319614394 -0.059831569180411714 0 0.016492228509035034 -0.061714518486282399 0 0.015640851434954802 -0.062624218567059159 0 0.016166941331935657 -0.063801517995979967 0 0.016492228509035034 -0.061714518486282399 0 0.015524445244577885 -0.065020150797726217 0 0.015863753414732756 -0.067407254538582331 0 0.018335320114427265 -0.067255225351037284 0 0.015524445244577885 -0.065020150797726217 0 0.016166941331935657 -0.063801517995979967 0 0.018335320114427265 -0.067255225351037284 0 0.015863753414732756 -0.067407254538582331 0 0.018335320114427265 -0.067255225351037284 0 0.015783340282797573 -0.068964243552673152 0 0.012021283341401684 -0.067942297849543379 0 0.014236578042812989 -0.064621629662524369 0 0.014262339794042598 -0.066780659322720953 0 0.015524445244577885 -0.065020150797726217 0 0.014236578042812989 -0.064621629662524369 0 0.014262339794042598 -0.066780659322720953 0 0.015524445244577885 -0.065020150797726217 0 0.015863753414732756 -0.067407254538582331 0 0.014262339794042598 -0.066780659322720953 0 0.015863753414732756 -0.067407254538582331 0 0.014262339794042598 -0.066780659322720953 0 0.014058160370452676 -0.068947282532260179 0 0.012021283341401684 -0.067942297849543379 0 0.014262339794042598 -0.066780659322720953 0 0.014058160370452676 -0.068947282532260179 0 0.012021283341401684 -0.067942297849543379 0 0.014058160370452676 -0.068947282532260179 0 0.013915935461242968 -0.070719636633553115 0 0.011838177609002316 -0.069092938720736657 0 0.011770697163849 -0.069063769035200312 0 0.0140166000294667 -0.070389640602879444 0 0.015783340282797573 -0.068964243552673152 0 0.016722135098478273 -0.070745331642605269 0 0.011770697163849 -0.069063769035200312 0 0.014871946013250564 -0.069815628405426489 0 0.015863753414732756 -0.067407254538582331 0 0.014058160370452676 -0.068947282532260179 0 0.015783340282797573 -0.068964243552673152 0 0.014058160370452676 -0.068947282532260179 0 0.0140166000294667 -0.070389640602879444 0 0.015783340282797573 -0.068964243552673152 0 0.018335320114427265 -0.067255225351037284 0 0.016722135098478273 -0.070745331642605269 0 0.019147346582463334 -0.07103883103688223 0 0.018335320114427265 -0.067255225351037284 0 0.015783340282797573 -0.068964243552673152 0 0.016722135098478273 -0.070745331642605269 0 0.017693606344448061 -0.070787676663120663 0 0.018812425934808162 -0.071733799749603006 0 0.019147346582463334 -0.07103883103688223 0 0.014871946013250564 -0.069815628405426489 0 0.015966886699251594 -0.070071389579918084 0 0.017693606344448061 -0.070787676663120663 0 0.018211628555299363 -0.072197567423442216 0 0.018812425934808162 -0.071733799749603006 0 0.017693606344448061 -0.070787676663120663 0 0.018211628555299363 -0.072197567423442216 0 0.017157213532702564 -0.072044012082067885 0 0.016247188328411641 -0.07049301393799827 0 0.017693606344448061 -0.070787676663120663 0 0.017157213532702564 -0.072044012082067885 0 0.010337629059242612 -0.063708758915243635 0 0.011770697163849 -0.069063769035200312 0 0.016071515621847731 -0.07328150725683602 0 0.016247188328411641 -0.07049301393799827 0 0.017157213532702564 -0.072044012082067885 0 0.0060995955606854921 -0.04560682697295098 0 0.0064032450568351712 -0.043186529027901044 0 0.0092120108941293223 -0.048758253075345107 0 0.0064032450568351712 -0.043186529027901044 0 0.0099864449247902554 -0.046402092849656858 0 0.0094347004433079622 -0.051214711575637048 0 0.0068355723933017825 -0.047624255587082033 0 0.0079697529643251008 -0.050955470027446367 0 0.0099864449247902554 -0.046402092849656858 0 0.010845220742759783 -0.044605819679144787 0 0.011652038377048386 -0.046652935770676307 0 0.0064032450568351712 -0.043186529027901044 0 0.0099864449247902554 -0.046402092849656858 0 0.0092274348612250735 -0.043308322845623727 0 0.0099864449247902554 -0.046402092849656858 0 0.0092274348612250735 -0.043308322845623727 0 0.010845220742759783 -0.044605819679144787 0 0.010296824229966669 -0.042631256369693123 0 0.0092274348612250735 -0.043308322845623727 0 0.010845220742759783 -0.044605819679144787 0 0.010296824229966669 -0.042631256369693123 0 0.010845220742759783 -0.044605819679144787 0 0.013374056337473038 -0.045773311289703723 0 0.019021912978520177 -0.072552745183073739 0 0.018812425934808162 -0.071733799749603006 0 0.019524503725475123 -0.071493363043238348 0 0.019021912978520177 -0.072552745183073739 0 0.018211628555299363 -0.072197567423442216 0 0.018812425934808162 -0.071733799749603006 0 0.018812425934808162 -0.071733799749603006 0 0.019147346582463334 -0.07103883103688223 0 0.019524503725475123 -0.071493363043238348 0 0.013374056337473038 -0.045773311289703723 0 0.011652038377048386 -0.046652935770676307 0 0.012143705988252141 -0.049651858135989151 0 0.010845220742759783 -0.044605819679144787 0 0.013374056337473038 -0.045773311289703723 0 0.011652038377048386 -0.046652935770676307 0 0.016174822738617717 -0.054811061444543556 0 0.013374056337473038 -0.045773311289703723 0 0.012143705988252141 -0.049651858135989151 0 0.0099864449247902554 -0.046402092849656858 0 0.011652038377048386 -0.046652935770676307 0 0.012143705988252141 -0.049651858135989151 0 0.018335320114427265 -0.067255225351037284 0 0.019147346582463334 -0.07103883103688223 0 0.019524503725475123 -0.071493363043238348 0 0.015379136848737188 -0.06044336549409899 0 0.013319216886159549 -0.05840667934236482 0 0.016174822738617717 -0.054811061444543556 0 0.012143705988252141 -0.049651858135989151 0 0.012845334249422333 -0.053010869935733028 0 0.012143705988252141 -0.049651858135989151 0 0.0094347004433079622 -0.051214711575637048 0 0.012845334249422333 -0.053010869935733028 0 0.0056115279738917978 -0.046839137928138583 0 0.0060995955606854921 -0.04560682697295098 0 0.0092120108941293223 -0.048758253075345107 0 0.0056115279738917978 -0.046839137928138583 0 0.0092120108941293223 -0.048758253075345107 0 0.0071431129012948956 -0.048650580732370399 0 0.0099864449247902554 -0.046402092849656858 0 0.012143705988252141 -0.049651858135989151 0 0.0094347004433079622 -0.051214711575637048 0 0.0092120108941293223 -0.048758253075345107 0 0.0071431129012948956 -0.048650580732370399 0 0.0072369878464312084 -0.050737315026523164 0 0.0092120108941293223 -0.048758253075345107 0 0.0072369878464312084 -0.050737315026523164 0 0.012094397166596592 -0.054242737244994461 0 0.0052284615858826386 -0.051005635649014544 0 0.0080711791553470403 -0.055089784161357576 0 0.0094347004433079622 -0.051214711575637048 0 0.013387204013904296 -0.055290104869814435 0 0.013443840362712102 -0.05936728723740517 0 0.0079697529643251008 -0.050955470027446367 0 0.0080711791553470403 -0.055089784161357576 0 0.016174822738617717 -0.054811061444543556 0 0.012845334249422333 -0.053010869935733028 0 0.013387204013904296 -0.055290104869814435 0 0.0094347004433079622 -0.051214711575637048 0 0.012845334249422333 -0.053010869935733028 0 0.013387204013904296 -0.055290104869814435 0 0.013387204013904296 -0.055290104869814435 0 0.014906510886700126 -0.057962084320952741 0 0.013443840362712102 -0.05936728723740517 0 0.016174822738617717 -0.054811061444543556 0 0.013387204013904296 -0.055290104869814435 0 0.014906510886700126 -0.057962084320952741 0 0.0083338814232225538 -0.051751155625201564 0 0.005305529282237674 -0.051577206316015554 0 0.0082976771590786494 -0.054316097065792254 0 0.013860035890068951 -0.059651986372245641 0 0.014303395319614394 -0.059831569180411714 0 0.01639262861119601 -0.061917223836190104 0 0.014906510886700126 -0.057962084320952741 0 0.013443840362712102 -0.05936728723740517 0 0.014303395319614394 -0.059831569180411714 0 0.0080711791553470403 -0.055089784161357576 0 0.0081811989292029774 -0.055170376929820152 0 -0.0014956343563533455 -0.056167244752665789 0 0.00061422431140333055 -0.059141103778662496 0 0.004866315363613532 -0.049176008161142995 0 0.0083338814232225538 -0.051751155625201564 0 0.005305529282237674 -0.051577206316015554 0 -0.0080480444030495164 -0.060387925831848058 0 -0.0078264774481826387 -0.061148084291778884 0 -0.0071762107272844147 -0.061679616459057243 0 -0.0080480444030495164 -0.060387925831848058 0 -0.0078264774481826387 -0.061148084291778884 0 -0.0082824358089695679 -0.061116911711438661 0 -0.0079387464025208292 -0.061649243608876303 0 -0.0078807728511470169 -0.062367515500848236 0 -0.0076164112254253199 -0.061621558254950089 0 -0.0082824358089695679 -0.061116911711438661 0 -0.0079387464025208292 -0.061649243608876303 0 -0.0082151461064453452 -0.061735688943707338 0 -0.0078264774481826387 -0.061148084291778884 0 -0.0082824358089695679 -0.061116911711438661 0 -0.0079387464025208292 -0.061649243608876303 0 -0.0078264774481826387 -0.061148084291778884 0 -0.0079387464025208292 -0.061649243608876303 0 -0.0076164112254253199 -0.061621558254950089 0 -0.0079387464025208292 -0.061649243608876303 0 -0.0082151461064453452 -0.061735688943707338 0 -0.0078807728511470169 -0.062367515500848236 0 -0.0089112278987636406 -0.061600364544173919 0 -0.0082151461064453452 -0.061735688943707338 0 -0.0078807728511470169 -0.062367515500848236 0 -0.005632230959128892 -0.050755030158637408 0 -0.0073416274458720822 -0.057091212586067912 0 -0.0085531932765671639 -0.063796679060318245 0 -0.0073437491054301725 -0.063401749863758461 0 -0.0076164112254253199 -0.061621558254950089 0 -0.0073437491054301725 -0.063401749863758461 0 -0.0072453889239474482 -0.062010469489464592 0 -0.0064112110966022063 -0.063640187646499258 0 -0.0073437491054301725 -0.063401749863758461 0 -0.0068901353176731338 -0.064324749915552884 0 -0.0074391520722446322 -0.064636444427416437 0 -0.0085531932765671639 -0.063796679060318245 0 -0.0073437491054301725 -0.063401749863758461 0 -0.0074391520722446322 -0.064636444427416437 0 -0.0073437491054301725 -0.063401749863758461 0 -0.0076164112254253199 -0.061621558254950089 0 -0.0072453889239474482 -0.062010469489464592 0 0.0083338814232225538 -0.051751155625201564 0 0.0082976771590786494 -0.054316097065792254 0 0.010207675393580249 -0.055345954145612435 0 0.0080711791553470403 -0.055089784161357576 0 0.0048795070430561393 -0.060537989079908476 0 0.00061422431140333055 -0.059141103778662496 0 0.0048795070430561393 -0.060537989079908476 0 -0.0012269680159720615 -0.058716738304798115 0 0.00061422431140333055 -0.059141103778662496 0 -0.0078264774481826387 -0.061148084291778884 0 -0.0076164112254253199 -0.061621558254950089 0 -0.0072453889239474482 -0.062010469489464592 0 0.00061422431140333055 -0.059141103778662496 0 0.0025125805095639543 -0.060862919294572077 0 0.0016329736637595452 -0.060196886386624099 0 0.0025324294836766084 -0.06066606910885327 0 0.0028755949424662465 -0.06129971742804418 0 0.016492228509035034 -0.061714518486282399 0 0.01639262861119601 -0.061917223836190104 0 0.015145800936724588 -0.062077198119014382 0 0.014303395319614394 -0.059831569180411714 0 0.016492228509035034 -0.061714518486282399 0 0.01639262861119601 -0.061917223836190104 0 0.014825575982790079 -0.06052194449130191 0 0.01639262861119601 -0.061917223836190104 0 0.015145800936724588 -0.062077198119014382 0 0.015640851434954802 -0.062624218567059159 0 0.016492228509035034 -0.061714518486282399 0 0.015145800936724588 -0.062077198119014382 0 0.0028292276327305105 -0.062307554529950814 0 0.0028335463600492453 -0.062310857994721011 0 0.0028318235842811294 -0.062308701113709876 0 0.0069094581291149846 -0.062712843642120666 0 0.0048795070430561393 -0.060537989079908476 0 0.0028292276327305105 -0.062307554529950814 0 0.0028318235842811294 -0.062308701113709876 0 0.0028270053565576814 -0.06231068505963025 0 0.0025125805095639543 -0.060862919294572077 0 0.0028832460163190948 -0.061535913134755094 0 -0.0073437491054301725 -0.063401749863758461 0 -0.0064112110966022063 -0.063640187646499258 0 -0.0068901353176731338 -0.064324749915552884 0 0.0048795070430561393 -0.060537989079908476 0 0.0025125805095639543 -0.060862919294572077 0 -0.0064112110966022063 -0.063640187646499258 0 -0.0068901353176731338 -0.064324749915552884 0 -0.0065184166989400221 -0.064600449243764194 0 0.0025125805095639543 -0.060862919294572077 0 0.00059602963578968455 -0.06248803463731057 0 -0.0068901353176731338 -0.064324749915552884 0 -0.0070267030702540105 -0.064912574997200573 0 -0.0065184166989400221 -0.064600449243764194 0 -0.0070267030702540105 -0.064912574997200573 0 -0.0065184166989400221 -0.064600449243764194 0 -0.0067815797054694574 -0.06498906079046908 0 0.0028298398709161753 -0.062319619679279993 0 0.0028292276327305105 -0.062307554529950814 0 0.0028270053565576814 -0.06231068505963025 0 0.002594497474240785 -0.062110280357094573 0 0.00272793133918235 -0.062236605927912435 0 0.0026757835279051238 -0.062262781503932663 0 0.00272793133918235 -0.062236605927912435 0 0.0026757835279051238 -0.062262781503932663 0 0.0027465311249826878 -0.062304821572401879 0 -0.0065184166989400221 -0.064600449243764194 0 -0.0066186307334784754 -0.065243502311526161 0 -0.0067815797054694574 -0.06498906079046908 0 0.00059602963578968455 -0.06248803463731057 0 -0.00046759855548635521 -0.064344127807994339 0 0.0028225347485820668 -0.062339676015055336 0 0.00272793133918235 -0.062236605927912435 0 0.0027465311249826878 -0.062304821572401879 0 0.0026757835279051238 -0.062262781503932663 0 0.0027465311249826878 -0.062304821572401879 0 0.0027521036079855179 -0.062378260113900928 0 0.0029692623096743316 -0.061717873195032032 0 0.0028832460163190948 -0.061535913134755094 0 0.0028225347485820668 -0.062339676015055336 0 0.0027465311249826878 -0.062304821572401879 0 0.0027521036079855179 -0.062378260113900928 0 -0.0072628622337626951 -0.065493536791792872 0 -0.0068799115855326743 -0.065302494542789385 0 -0.007177669143197651 -0.06538235546751324 0 -0.0066186307334784754 -0.065243502311526161 0 -0.0067815797054694574 -0.06498906079046908 0 -0.0068799115855326743 -0.065302494542789385 0 -0.0067815797054694574 -0.06498906079046908 0 -0.0068799115855326743 -0.065302494542789385 0 -0.006993731540575282 -0.065191414673175616 0 -0.00046759855548635521 -0.064344127807994339 0 -0.00084044858286447808 -0.064409014254548397 0 -0.0068799115855326743 -0.065302494542789385 0 -0.0070455532839634582 -0.065329488186963755 0 -0.006993731540575282 -0.065191414673175616 0 -0.0070455532839634582 -0.065329488186963755 0 -0.0070962591395170036 -0.065334458289315528 0 -0.0071939396605542969 -0.065353638398182909 0 -0.0068799115855326743 -0.065302494542789385 0 -0.0070455532839634582 -0.065329488186963755 0 -0.0070962591395170036 -0.065334458289315528 0 -0.0068799115855326743 -0.065302494542789385 0 -0.0070962591395170036 -0.065334458289315528 0 -0.007177669143197651 -0.06538235546751324 0 -0.0070962591395170036 -0.065334458289315528 0 -0.007177669143197651 -0.06538235546751324 0 -0.0072527389325973569 -0.06536958633878015 0 -0.0072628622337626951 -0.065493536791792872 0 -0.007177669143197651 -0.06538235546751324 0 -0.0072869969270684147 -0.065400414149646535 0 -0.007177669143197651 -0.06538235546751324 0 -0.0072527389325973569 -0.06536958633878015 0 -0.0072869969270684147 -0.065400414149646535 0 -0.0071939396605542969 -0.065353638398182909 0 -0.0072527389325973569 -0.06536958633878015 0 -0.0073039810347356477 -0.065371751044736845 0 -0.0070962591395170036 -0.065334458289315528 0 -0.0071939396605542969 -0.065353638398182909 0 -0.0072527389325973569 -0.06536958633878015 0 -0.0074195662837924755 -0.065380076123909267 0 -0.0073039810347356477 -0.065371751044736845 0 -0.0073518888352842055 -0.065383613711992652 0 -0.0074195662837924755 -0.065380076123909267 0 -0.0072527389325973569 -0.06536958633878015 0 -0.0073039810347356477 -0.065371751044736845 0 -0.0074195662837924755 -0.065380076123909267 0 -0.0072628622337626951 -0.065493536791792872 0 -0.0072869969270684147 -0.065400414149646535 0 -0.0074195662837924755 -0.065380076123909267 0 -0.0072527389325973569 -0.06536958633878015 0 -0.0072869969270684147 -0.065400414149646535 0 -0.0070267030702540105 -0.064912574997200573 0 -0.006993731540575282 -0.065191414673175616 0 -0.0071744873473005618 -0.065220079281406607 0 -0.0070267030702540105 -0.064912574997200573 0 -0.0067815797054694574 -0.06498906079046908 0 -0.006993731540575282 -0.065191414673175616 0 -0.0070455532839634582 -0.065329488186963755 0 -0.006993731540575282 -0.065191414673175616 0 -0.0071234616937140092 -0.065329917712274768 0 -0.006993731540575282 -0.065191414673175616 0 -0.0071744873473005618 -0.065220079281406607 0 -0.0071234616937140092 -0.065329917712274768 0 -0.0070267030702540105 -0.064912574997200573 0 -0.0071744873473005618 -0.065220079281406607 0 -0.0073288822199411687 -0.065045665587716531 0 -0.0071744873473005618 -0.065220079281406607 0 -0.0073288822199411687 -0.065045665587716531 0 -0.0072889021133203001 -0.065266194165652477 0 -0.0073288822199411687 -0.065045665587716531 0 -0.0074998514459097042 -0.065062510050989592 0 -0.0074391520722446322 -0.064636444427416437 0 -0.0073288822199411687 -0.065045665587716531 0 -0.0074998514459097042 -0.065062510050989592 0 -0.0072889021133203001 -0.065266194165652477 0 -0.005632230959128892 -0.050755030158637408 0 -0.0012990833421990279 -0.047579720223255281 0 -0.0075742694565148067 -0.06449972399837596 0 -0.0074998514459097042 -0.065062510050989592 0 -0.0074391520722446322 -0.064636444427416437 0 -0.005632230959128892 -0.050755030158637408 0 -0.0045937675840531655 -0.053070183864190219 0 -0.0068901353176731338 -0.064324749915552884 0 -0.0070267030702540105 -0.064912574997200573 0 -0.0074391520722446322 -0.064636444427416437 0 -0.0070267030702540105 -0.064912574997200573 0 -0.0073288822199411687 -0.065045665587716531 0 -0.0074391520722446322 -0.064636444427416437 0 -0.0071590497092318371 -0.065418863691684676 0 -0.0072044427971474714 -0.06543132420870422 0 -0.0071999136256647193 -0.065367534226099325 0 -0.0071590497092318371 -0.065418863691684676 0 -0.0072044427971474714 -0.06543132420870422 0 -0.0071967640161572028 -0.065461374452642856 0 -0.0071590497092318371 -0.065418863691684676 0 -0.0071967640161572028 -0.065461374452642856 0 -0.0070947855160542143 -0.065426243088559793 0 -0.0071650685699708823 -0.065344991945090733 0 -0.0071590497092318371 -0.065418863691684676 0 -0.0069480658800608044 -0.065392502430669922 0 -0.0071650685699708823 -0.065344991945090733 0 -0.0074998514459097042 -0.065062510050989592 0 -0.0072889021133203001 -0.065266194165652477 0 -0.0071650685699708823 -0.065344991945090733 0 -0.0071590497092318371 -0.065418863691684676 0 -0.0072889021133203001 -0.065266194165652477 0 -0.0071590497092318371 -0.065418863691684676 0 -0.0072889021133203001 -0.065266194165652477 0 -0.0071999136256647193 -0.065367534226099325 0 -0.0071744873473005618 -0.065220079281406607 0 -0.0072889021133203001 -0.065266194165652477 0 -0.0071999136256647193 -0.065367534226099325 0 -0.0071999136256647193 -0.065367534226099325 0 -0.0071234616937140092 -0.065329917712274768 0 -0.0071936940034714883 -0.065407859056940215 0 -0.0071744873473005618 -0.065220079281406607 0 -0.0071999136256647193 -0.065367534226099325 0 -0.0071234616937140092 -0.065329917712274768 0 -0.0070455532839634582 -0.065329488186963755 0 -0.0071234616937140092 -0.065329917712274768 0 -0.0071576406878971757 -0.065376273573617805 0 -0.0071234616937140092 -0.065329917712274768 0 -0.0071576406878971757 -0.065376273573617805 0 -0.0071936940034714883 -0.065407859056940215 0 -0.0071936940034714883 -0.065407859056940215 0 -0.0072505477140481943 -0.065421645041397719 0 -0.007279908379613371 -0.065458213662836592 0 -0.0071576406878971757 -0.065376273573617805 0 -0.0071936940034714883 -0.065407859056940215 0 -0.0072505477140481943 -0.065421645041397719 0 -0.0072044427971474714 -0.06543132420870422 0 -0.0071999136256647193 -0.065367534226099325 0 -0.0071936940034714883 -0.065407859056940215 0 -0.0071939396605542969 -0.065353638398182909 0 -0.0073039810347356477 -0.065371751044736845 0 -0.0073518888352842055 -0.065383613711992652 0 -0.0071939396605542969 -0.065353638398182909 0 -0.0073518888352842055 -0.065383613711992652 0 -0.0072119719890008554 -0.065377161326944475 0 -0.0073518888352842055 -0.065383613711992652 0 -0.0072119719890008554 -0.065377161326944475 0 -0.0073119729200247646 -0.065415678803265681 0 -0.0070455532839634582 -0.065329488186963755 0 -0.0071939396605542969 -0.065353638398182909 0 -0.0072119719890008554 -0.065377161326944475 0 -0.0070455532839634582 -0.065329488186963755 0 -0.0071576406878971757 -0.065376273573617805 0 -0.0072119719890008554 -0.065377161326944475 0 -0.0071576406878971757 -0.065376273573617805 0 -0.0072119719890008554 -0.065377161326944475 0 -0.0072505477140481943 -0.065421645041397719 0 -0.0072505477140481943 -0.065421645041397719 0 -0.0073696385552223945 -0.065475129583010619 0 -0.007279908379613371 -0.065458213662836592 0 -0.0072505477140481943 -0.065421645041397719 0 -0.0073119729200247646 -0.065415678803265681 0 -0.0073696385552223945 -0.065475129583010619 0 -0.0072119719890008554 -0.065377161326944475 0 -0.0072505477140481943 -0.065421645041397719 0 -0.0073119729200247646 -0.065415678803265681 0 -0.0074104317320750363 -0.065440428011780793 0 -0.0074734353473785414 -0.065494268886369153 0 -0.0073696385552223945 -0.065475129583010619 0 -0.0073518888352842055 -0.065383613711992652 0 -0.0073119729200247646 -0.065415678803265681 0 -0.0074104317320750363 -0.065440428011780793 0 -0.0073119729200247646 -0.065415678803265681 0 -0.0074104317320750363 -0.065440428011780793 0 -0.0073696385552223945 -0.065475129583010619 0 -0.0074104317320750363 -0.065440428011780793 0 -0.0074734353473785414 -0.065494268886369153 0 -0.0074976315606279844 -0.065444848733685806 0 -0.0073518888352842055 -0.065383613711992652 0 -0.0074104317320750363 -0.065440428011780793 0 -0.0074976315606279844 -0.065444848733685806 0 -0.0075155789534579864 -0.065554900054632145 0 -0.0074734353473785414 -0.065494268886369153 0 -0.0073696385552223945 -0.065475129583010619 0 -0.0075155789534579864 -0.065554900054632145 0 -0.0073696385552223945 -0.065475129583010619 0 -0.0074427110029616269 -0.065539144995062151 0 -0.0073696385552223945 -0.065475129583010619 0 -0.0073466693544786688 -0.065502159036267243 0 -0.0074427110029616269 -0.065539144995062151 0 -0.0073696385552223945 -0.065475129583010619 0 -0.0073466693544786688 -0.065502159036267243 0 -0.007279908379613371 -0.065458213662836592 0 -0.0074427110029616269 -0.065539144995062151 0 -0.0075394855071039589 -0.065603400980712476 0 -0.0074198921874979503 -0.065536668725230035 0 -0.0073466693544786688 -0.065502159036267243 0 -0.0074427110029616269 -0.065539144995062151 0 -0.0074198921874979503 -0.065536668725230035 0 -0.0075155789534579864 -0.065554900054632145 0 -0.0074427110029616269 -0.065539144995062151 0 -0.0075394855071039589 -0.065603400980712476 0 -0.0075155789534579864 -0.065554900054632145 0 -0.0075394855071039589 -0.065603400980712476 0 -0.0076188736528857159 -0.065633686541060096 0 -0.0072044427971474714 -0.06543132420870422 0 -0.0071967640161572028 -0.065461374452642856 0 -0.0072600601788818343 -0.06547294423380029 0 -0.0072044427971474714 -0.06543132420870422 0 -0.0071936940034714883 -0.065407859056940215 0 -0.0072600601788818343 -0.06547294423380029 0 -0.0073466693544786688 -0.065502159036267243 0 -0.0072600601788818343 -0.06547294423380029 0 -0.007279908379613371 -0.065458213662836592 0 -0.0071936940034714883 -0.065407859056940215 0 -0.0072600601788818343 -0.06547294423380029 0 -0.007279908379613371 -0.065458213662836592 0 -0.0073466693544786688 -0.065502159036267243 0 -0.0073192217841123444 -0.06549557808574677 0 -0.0074198921874979503 -0.065536668725230035 0 -0.0073466693544786688 -0.065502159036267243 0 -0.0072600601788818343 -0.06547294423380029 0 -0.0073192217841123444 -0.06549557808574677 0 -0.0071967640161572028 -0.065461374452642856 0 -0.0072600601788818343 -0.06547294423380029 0 -0.0073192217841123444 -0.06549557808574677 0 -0.0071967640161572028 -0.065461374452642856 0 -0.0073192217841123444 -0.06549557808574677 0 -0.0072022752389253085 -0.065436630757165243 0 -0.0073192217841123444 -0.06549557808574677 0 -0.0073299173189038868 -0.065436937163121198 0 -0.0072022752389253085 -0.065436630757165243 0 -0.0073192217841123444 -0.06549557808574677 0 -0.0073299173189038868 -0.065436937163121198 0 -0.0074516515458184166 -0.06551397654312055 0 -0.0073299173189038868 -0.065436937163121198 0 -0.0074516515458184166 -0.06551397654312055 0 -0.0074024671163571186 -0.06533401850960309 0 -0.0073299173189038868 -0.065436937163121198 0 -0.0072483409863121203 -0.065346803159163427 0 -0.0072022752389253085 -0.065436630757165243 0 -0.0073192217841123444 -0.06549557808574677 0 -0.0074198921874979503 -0.065536668725230035 0 -0.0074516515458184166 -0.06551397654312055 0 -0.0075394855071039589 -0.065603400980712476 0 -0.0074198921874979503 -0.065536668725230035 0 -0.0074516515458184166 -0.06551397654312055 0 -0.0074516515458184166 -0.06551397654312055 0 -0.0074869789043391366 -0.065447532819850357 0 -0.0076141294313634474 -0.065642668699546575 0 -0.0075394855071039589 -0.065603400980712476 0 -0.0074516515458184166 -0.06551397654312055 0 -0.0076141294313634474 -0.065642668699546575 0 -0.0074869789043391366 -0.065447532819850357 0 -0.0074953351357939452 -0.065468023572047146 0 -0.0076141294313634474 -0.065642668699546575 0 -0.0074516515458184166 -0.06551397654312055 0 -0.0074869789043391366 -0.065447532819850357 0 -0.0074024671163571186 -0.06533401850960309 0 -0.0074869789043391366 -0.065447532819850357 0 -0.0074953351357939452 -0.065468023572047146 0 -0.0075486907958753407 -0.065215518792433619 0 -0.0069743803160453883 -0.064354071774467031 0 -0.0068600264682130707 -0.064240888043223837 0 -0.0074869789043391366 -0.065447532819850357 0 -0.0074024671163571186 -0.06533401850960309 0 -0.0075486907958753407 -0.065215518792433619 0 -0.0072483409863121203 -0.065346803159163427 0 -0.0074024671163571186 -0.06533401850960309 0 -0.0072365801721898815 -0.065119426394965416 0 -0.0073299173189038868 -0.065436937163121198 0 -0.0072483409863121203 -0.065346803159163427 0 -0.0074024671163571186 -0.06533401850960309 0 -0.0074024671163571186 -0.06533401850960309 0 -0.0073614613924048115 -0.065122424245974309 0 -0.0075486907958753407 -0.065215518792433619 0 -0.0074024671163571186 -0.06533401850960309 0 -0.0073614613924048115 -0.065122424245974309 0 -0.0072365801721898815 -0.065119426394965416 0 -0.0072365801721898815 -0.065119426394965416 0 -0.0070118325208445229 -0.06535364520727964 0 -0.007000333778940309 -0.064915641264710014 0 -0.0070118325208445229 -0.06535364520727964 0 -0.0065504584972739003 -0.065263412710357988 0 -0.007000333778940309 -0.064915641264710014 0 -0.0072483409863121203 -0.065346803159163427 0 -0.0072365801721898815 -0.065119426394965416 0 -0.0070118325208445229 -0.06535364520727964 0 -0.0070118325208445229 -0.06535364520727964 0 -0.0072022752389253085 -0.065436630757165243 0 -0.0070947855160542143 -0.065426243088559793 0 -0.0072483409863121203 -0.065346803159163427 0 -0.0070118325208445229 -0.06535364520727964 0 -0.0072022752389253085 -0.065436630757165243 0 -0.0070118325208445229 -0.06535364520727964 0 -0.0070947855160542143 -0.065426243088559793 0 -0.0069480658800608044 -0.065392502430669922 0 -0.0071967640161572028 -0.065461374452642856 0 -0.0072022752389253085 -0.065436630757165243 0 -0.0070947855160542143 -0.065426243088559793 0 -0.0071590497092318371 -0.065418863691684676 0 -0.0070947855160542143 -0.065426243088559793 0 -0.0069480658800608044 -0.065392502430669922 0 -0.0069471323169921616 -0.06537072614931605 0 -0.0069480658800608044 -0.065392502430669922 0 -0.0065504584972739003 -0.065263412710357988 0 -0.0070118325208445229 -0.06535364520727964 0 -0.0069480658800608044 -0.065392502430669922 0 -0.0065504584972739003 -0.065263412710357988 0 -0.0053722947565221875 -0.064486317157209275 0 -0.0065504584972739003 -0.065263412710357988 0 -0.0063754430824315474 -0.063873451271394405 0 -0.0065504584972739003 -0.065263412710357988 0 -0.007000333778940309 -0.064915641264710014 0 -0.0063754430824315474 -0.063873451271394405 0 -0.0054122872650736739 -0.063639495634432497 0 -0.0053722947565221875 -0.064486317157209275 0 -0.0063754430824315474 -0.063873451271394405 0 -0.007000333778940309 -0.064915641264710014 0 -0.007183708240412639 -0.064326723267093794 0 -0.0072687626076316037 -0.064885766000864736 0 -0.0072365801721898815 -0.065119426394965416 0 -0.007000333778940309 -0.064915641264710014 0 -0.0072687626076316037 -0.064885766000864736 0 -0.007000333778940309 -0.064915641264710014 0 -0.007183708240412639 -0.064326723267093794 0 -0.0063754430824315474 -0.063873451271394405 0 -0.0057594069250019621 -0.063166399991308075 0 -0.0046779860540166899 -0.062888369704786493 0 -0.0052959384736733454 -0.062519786567417468 0 -0.0058217874599032649 -0.063623369308579328 0 -0.0046970512888728022 -0.062501198650708106 0 -0.0065115807946974687 -0.063755135414495234 0 -0.0048088087647412238 -0.062799599164606049 0 -0.0062471484045222205 -0.063842109934331509 0 -0.0057594069250019621 -0.063166399991308075 0 -0.0046779860540166899 -0.062888369704786493 0 -0.0061555584207600104 -0.064419138704939011 0 -0.007183708240412639 -0.064326723267093794 0 -0.0063754430824315474 -0.063873451271394405 0 -0.0059303031117509822 -0.063124721261231725 0 -0.0058217874599032649 -0.063623369308579328 0 -0.0046970512888728022 -0.062501198650708106 0 -0.0039897947277363569 -0.062687344518639346 0 -0.0061797973704008219 -0.063604559833345051 0 -0.0047012756248871919 -0.06241165249195596 0 -0.0054122872650736739 -0.063639495634432497 0 -0.0063754430824315474 -0.063873451271394405 0 -0.0055521919243463813 -0.062465202987273039 0 -0.0049844331703605155 -0.0626990152930713 0 -0.0047012756248871919 -0.06241165249195596 0 -0.0043202449629540906 -0.061536665904761471 0 -0.0052678433061567487 -0.061890055960146594 0 -0.0050550249904675075 -0.060765955162909453 0 -0.0043202449629540906 -0.061536665904761471 0 -0.0048832946431105256 -0.062230266537095992 0 -0.0052678433061567487 -0.061890055960146594 0 -0.0046779860540166899 -0.062888369704786493 0 -0.0048832946431105256 -0.062230266537095992 0 -0.0052959384736733454 -0.062519786567417468 0 -0.0046779860540166899 -0.062888369704786493 0 -0.0043202449629540906 -0.061536665904761471 0 -0.0048832946431105256 -0.062230266537095992 0 -0.0052959384736733454 -0.062519786567417468 0 -0.0058891050332678637 -0.062366774410220621 0 -0.0052678433061567487 -0.061890055960146594 0 -0.0048832946431105256 -0.062230266537095992 0 -0.0052959384736733454 -0.062519786567417468 0 -0.0052678433061567487 -0.061890055960146594 0 -0.0057594069250019621 -0.063166399991308075 0 -0.0058891050332678637 -0.062366774410220621 0 -0.0065436291664109055 -0.063014395455433303 0 -0.0057594069250019621 -0.063166399991308075 0 -0.0052959384736733454 -0.062519786567417468 0 -0.0058891050332678637 -0.062366774410220621 0 -0.0058891050332678637 -0.062366774410220621 0 -0.0059822852398049332 -0.061420255193790574 0 -0.0065326650633958537 -0.062070018049294344 0 -0.0058891050332678637 -0.062366774410220621 0 -0.0052678433061567487 -0.061890055960146594 0 -0.0059822852398049332 -0.061420255193790574 0 -0.0059822852398049332 -0.061420255193790574 0 -0.0059790272950913251 -0.060234334766627928 0 -0.0050550249904675075 -0.060765955162909453 0 -0.0052678433061567487 -0.061890055960146594 0 -0.0059822852398049332 -0.061420255193790574 0 -0.0050550249904675075 -0.060765955162909453 0 -0.0059790272950913251 -0.060234334766627928 0 -0.0050550249904675075 -0.060765955162909453 0 -0.0054858577876704673 -0.059348855465681923 0 -0.0040975326839612887 -0.060717817005866079 0 -0.0050550249904675075 -0.060765955162909453 0 -0.0043809923296307734 -0.059284232186287603 0 -0.0043202449629540906 -0.061536665904761471 0 -0.0040975326839612887 -0.060717817005866079 0 -0.0050550249904675075 -0.060765955162909453 0 -0.0076490385704970736 -0.061993249117589626 0 -0.0069768907284845257 -0.060881573427768135 0 -0.007803359604986339 -0.060877085920873229 0 -0.0076490385704970736 -0.061993249117589626 0 -0.0069768907284845257 -0.060881573427768135 0 -0.0072054493846134401 -0.062571880249417372 0 -0.0069768907284845257 -0.060881573427768135 0 -0.0065326650633958537 -0.062070018049294344 0 -0.0072054493846134401 -0.062571880249417372 0 -0.0059822852398049332 -0.061420255193790574 0 -0.0059790272950913251 -0.060234334766627928 0 -0.0069768907284845257 -0.060881573427768135 0 -0.0059822852398049332 -0.061420255193790574 0 -0.0069768907284845257 -0.060881573427768135 0 -0.0065326650633958537 -0.062070018049294344 0 -0.0058891050332678637 -0.062366774410220621 0 -0.0065326650633958537 -0.062070018049294344 0 -0.0065436291664109055 -0.063014395455433303 0 -0.0065326650633958537 -0.062070018049294344 0 -0.0065436291664109055 -0.063014395455433303 0 -0.0072054493846134401 -0.062571880249417372 0 -0.0072054493846134401 -0.062571880249417372 0 -0.0075259350057957633 -0.063605019929249496 0 -0.0079091618249140412 -0.063036577064222971 0 -0.0065436291664109055 -0.063014395455433303 0 -0.0072054493846134401 -0.062571880249417372 0 -0.0071301019678645496 -0.063497261549556872 0 -0.0076490385704970736 -0.061993249117589626 0 -0.0072054493846134401 -0.062571880249417372 0 -0.0079091618249140412 -0.063036577064222971 0 -0.0072054493846134401 -0.062571880249417372 0 -0.0075259350057957633 -0.063605019929249496 0 -0.0071301019678645496 -0.063497261549556872 0 -0.0075259350057957633 -0.063605019929249496 0 -0.0071301019678645496 -0.063497261549556872 0 -0.0073007115785034349 -0.064320448918044143 0 -0.0071301019678645496 -0.063497261549556872 0 -0.0073007115785034349 -0.064320448918044143 0 -0.0067396795146694782 -0.063739994135731864 0 -0.0073007115785034349 -0.064320448918044143 0 -0.0067396795146694782 -0.063739994135731864 0 -0.0066854996617764732 -0.064237261540484272 0 -0.0057594069250019621 -0.063166399991308075 0 -0.0065436291664109055 -0.063014395455433303 0 -0.0063387232554818129 -0.063699374622606691 0 -0.0065436291664109055 -0.063014395455433303 0 -0.0067396795146694782 -0.063739994135731864 0 -0.0063387232554818129 -0.063699374622606691 0 -0.0065436291664109055 -0.063014395455433303 0 -0.0071301019678645496 -0.063497261549556872 0 -0.0067396795146694782 -0.063739994135731864 0 -0.0067396795146694782 -0.063739994135731864 0 -0.0066854996617764732 -0.064237261540484272 0 -0.0063387232554818129 -0.063699374622606691 0 -0.0066854996617764732 -0.064237261540484272 0 -0.0063387232554818129 -0.063699374622606691 0 -0.0061555584207600104 -0.064419138704939011 0 -0.0057594069250019621 -0.063166399991308075 0 -0.0063387232554818129 -0.063699374622606691 0 -0.0061555584207600104 -0.064419138704939011 0 -0.0058217874599032649 -0.063623369308579328 0 -0.0065115807946974687 -0.063755135414495234 0 -0.0076499079962885873 -0.064541779594624316 0 -0.0073614613924048115 -0.065122424245974309 0 -0.0072687626076316037 -0.064885766000864736 0 -0.0075486907958753407 -0.065215518792433619 0 -0.0061555584207600104 -0.064419138704939011 0 -0.0070250696542718928 -0.064750516696035529 0 -0.0069853292180511416 -0.06516490574549326 0 -0.0066854996617764732 -0.064237261540484272 0 -0.0061555584207600104 -0.064419138704939011 0 -0.0070250696542718928 -0.064750516696035529 0 -0.0061797973704008219 -0.063604559833345051 0 -0.0068600264682130707 -0.064240888043223837 0 -0.007183708240412639 -0.064326723267093794 0 -0.0072687626076316037 -0.064885766000864736 0 -0.0075486907958753407 -0.065215518792433619 0 -0.0062471484045222205 -0.063842109934331509 0 -0.0068600264682130707 -0.064240888043223837 0 -0.0073614613924048115 -0.065122424245974309 0 -0.0072365801721898815 -0.065119426394965416 0 -0.0072687626076316037 -0.064885766000864736 0 -0.0073007115785034349 -0.064320448918044143 0 -0.0074224284077066003 -0.065060195627481957 0 -0.0077295169790524724 -0.065192004714570789 0 -0.0073007115785034349 -0.064320448918044143 0 -0.0070250696542718928 -0.064750516696035529 0 -0.0074224284077066003 -0.065060195627481957 0 -0.0073007115785034349 -0.064320448918044143 0 -0.0066854996617764732 -0.064237261540484272 0 -0.0070250696542718928 -0.064750516696035529 0 -0.0074953351357939452 -0.065468023572047146 0 -0.0070250696542718928 -0.064750516696035529 0 -0.0069853292180511416 -0.06516490574549326 0 -0.0074953351357939452 -0.065468023572047146 0 -0.0074224284077066003 -0.065060195627481957 0 -0.0077295169790524724 -0.065192004714570789 0 -0.0074953351357939452 -0.065468023572047146 0 -0.0070250696542718928 -0.064750516696035529 0 -0.0074224284077066003 -0.065060195627481957 0 -0.0077295169790524724 -0.065192004714570789 0 -0.0080976691949612226 -0.065767112002510772 0 -0.0079334403023042493 -0.064504154588998372 0 -0.0077295169790524724 -0.065192004714570789 0 -0.0080976691949612226 -0.065767112002510772 0 -0.00782055874519718 -0.065739772680454597 0 -0.0080976691949612226 -0.065767112002510772 0 -0.0084711137142411599 -0.065578734233804739 0 -0.0084200290435155305 -0.066709709015355445 0 -0.0080976691949612226 -0.065767112002510772 0 -0.0079334403023042493 -0.064504154588998372 0 -0.0084711137142411599 -0.065578734233804739 0 -0.0079334403023042493 -0.064504154588998372 0 -0.0084925842983487685 -0.063531843866443075 0 -0.0084711137142411599 -0.065578734233804739 0 -0.0073007115785034349 -0.064320448918044143 0 -0.0077295169790524724 -0.065192004714570789 0 -0.0079334403023042493 -0.064504154588998372 0 -0.0075259350057957633 -0.063605019929249496 0 -0.0073007115785034349 -0.064320448918044143 0 -0.0079334403023042493 -0.064504154588998372 0 -0.0079334403023042493 -0.064504154588998372 0 -0.0079091618249140412 -0.063036577064222971 0 -0.0084925842983487685 -0.063531843866443075 0 -0.0075259350057957633 -0.063605019929249496 0 -0.0079334403023042493 -0.064504154588998372 0 -0.0079091618249140412 -0.063036577064222971 0 -0.0079091618249140412 -0.063036577064222971 0 -0.0084925842983487685 -0.063531843866443075 0 -0.0083559201604752695 -0.061800372616029935 0 -0.0084925842983487685 -0.063531843866443075 0 -0.0083559201604752695 -0.061800372616029935 0 -0.0093405623323788399 -0.062091157254926213 0 -0.0076490385704970736 -0.061993249117589626 0 -0.0079091618249140412 -0.063036577064222971 0 -0.0083559201604752695 -0.061800372616029935 0 -0.0076490385704970736 -0.061993249117589626 0 -0.0083559201604752695 -0.061800372616029935 0 -0.007803359604986339 -0.060877085920873229 0 -0.010558976410225965 -0.062359023787925114 0 -0.0093405623323788399 -0.062091157254926213 0 -0.0093727021061318586 -0.064042127143943126 0 -0.0084925842983487685 -0.063531843866443075 0 -0.0093405623323788399 -0.062091157254926213 0 -0.0093727021061318586 -0.064042127143943126 0 -0.0084925842983487685 -0.063531843866443075 0 -0.0093727021061318586 -0.064042127143943126 0 -0.0084711137142411599 -0.065578734233804739 0 -0.0093727021061318586 -0.064042127143943126 0 -0.008954938185939388 -0.067572113335358744 0 -0.011717091898491315 -0.063795437750887377 0 -0.010558976410225965 -0.062359023787925114 0 -0.0093727021061318586 -0.064042127143943126 0 -0.011717091898491315 -0.063795437750887377 0 -0.0081889713265984321 -0.067499972334002525 0 -0.0076939223304058925 -0.067614313483202418 0 -0.0093727021061318586 -0.064042127143943126 0 -0.0084711137142411599 -0.065578734233804739 0 -0.008954938185939388 -0.067572113335358744 0 -0.0084711137142411599 -0.065578734233804739 0 -0.0084200290435155305 -0.066709709015355445 0 -0.008954938185939388 -0.067572113335358744 0 -0.0084200290435155305 -0.066709709015355445 0 -0.008954938185939388 -0.067572113335358744 0 -0.0073002506031212867 -0.067121758916822816 0 -0.0084200290435155305 -0.066709709015355445 0 -0.0073002506031212867 -0.067121758916822816 0 -0.0078785486869698135 -0.066397674522808217 0 -0.0072237536993871804 -0.06634767127177324 0 -0.0078785486869698135 -0.066397674522808217 0 -0.0074142844406756064 -0.065910576662358347 0 -0.0073002506031212867 -0.067121758916822816 0 -0.0072237536993871804 -0.06634767127177324 0 -0.0078785486869698135 -0.066397674522808217 0 -0.0078785486869698135 -0.066397674522808217 0 -0.0080728365536359026 -0.066167986417486599 0 -0.0078697343021612316 -0.066007303628602743 0 -0.0078785486869698135 -0.066397674522808217 0 -0.0074142844406756064 -0.065910576662358347 0 -0.0077166515673021399 -0.065939190748168452 0 -0.0078785486869698135 -0.066397674522808217 0 -0.0078697343021612316 -0.066007303628602743 0 -0.0077166515673021399 -0.065939190748168452 0 -0.0084200290435155305 -0.066709709015355445 0 -0.0078785486869698135 -0.066397674522808217 0 -0.0080728365536359026 -0.066167986417486599 0 -0.0080976691949612226 -0.065767112002510772 0 -0.0080728365536359026 -0.066167986417486599 0 -0.00782055874519718 -0.065739772680454597 0 -0.0080976691949612226 -0.065767112002510772 0 -0.0084200290435155305 -0.066709709015355445 0 -0.0080728365536359026 -0.066167986417486599 0 -0.0080728365536359026 -0.066167986417486599 0 -0.00782055874519718 -0.065739772680454597 0 -0.0078110666674206372 -0.065850629099541855 0 -0.00782055874519718 -0.065739772680454597 0 -0.0076141294313634474 -0.065642668699546575 0 -0.0078110666674206372 -0.065850629099541855 0 -0.0074953351357939452 -0.065468023572047146 0 -0.0077295169790524724 -0.065192004714570789 0 -0.00782055874519718 -0.065739772680454597 0 -0.0074953351357939452 -0.065468023572047146 0 -0.00782055874519718 -0.065739772680454597 0 -0.0076141294313634474 -0.065642668699546575 0 -0.0076141294313634474 -0.065642668699546575 0 -0.0078110666674206372 -0.065850629099541855 0 -0.0076655775018758905 -0.065700519515748554 0 -0.0078110666674206372 -0.065850629099541855 0 -0.007710183412193111 -0.065718350834008996 0 -0.0076655775018758905 -0.065700519515748554 0 -0.0078110666674206372 -0.065850629099541855 0 -0.007710183412193111 -0.065718350834008996 0 -0.0077616199585009487 -0.065762248342311619 0 -0.0075394855071039589 -0.065603400980712476 0 -0.0076141294313634474 -0.065642668699546575 0 -0.0076655775018758905 -0.065700519515748554 0 -0.0075394855071039589 -0.065603400980712476 0 -0.0076655775018758905 -0.065700519515748554 0 -0.0076188736528857159 -0.065633686541060096 0 -0.007710183412193111 -0.065718350834008996 0 -0.0076655775018758905 -0.065700519515748554 0 -0.0076188736528857159 -0.065633686541060096 0 -0.0080728365536359026 -0.066167986417486599 0 -0.0078110666674206372 -0.065850629099541855 0 -0.0078697343021612316 -0.066007303628602743 0 -0.0078110666674206372 -0.065850629099541855 0 -0.0078697343021612316 -0.066007303628602743 0 -0.0077616199585009487 -0.065762248342311619 0 -0.0078697343021612316 -0.066007303628602743 0 -0.0077071371883754977 -0.065684120784903169 0 -0.0077166515673021399 -0.065939190748168452 0 -0.0078697343021612316 -0.066007303628602743 0 -0.0077616199585009487 -0.065762248342311619 0 -0.0077071371883754977 -0.065684120784903169 0 -0.0077616199585009487 -0.065762248342311619 0 -0.0076902033345203884 -0.06558915553325384 0 -0.0076708019221451646 -0.065632268826924176 0 -0.0077616199585009487 -0.065762248342311619 0 -0.0076902033345203884 -0.06558915553325384 0 -0.0077071371883754977 -0.065684120784903169 0 -0.0076902033345203884 -0.06558915553325384 0 -0.0077071371883754977 -0.065684120784903169 0 -0.0076590303978986089 -0.0654968836794977 0 -0.0075155789534579864 -0.065554900054632145 0 -0.0076188736528857159 -0.065633686541060096 0 -0.0075701566501857939 -0.065551154392642627 0 -0.0076188736528857159 -0.065633686541060096 0 -0.0076708019221451646 -0.065632268826924176 0 -0.0075701566501857939 -0.065551154392642627 0 -0.007710183412193111 -0.065718350834008996 0 -0.0077616199585009487 -0.065762248342311619 0 -0.0076708019221451646 -0.065632268826924176 0 -0.007710183412193111 -0.065718350834008996 0 -0.0076188736528857159 -0.065633686541060096 0 -0.0076708019221451646 -0.065632268826924176 0 -0.0076902033345203884 -0.06558915553325384 0 -0.0076708019221451646 -0.065632268826924176 0 -0.007615025959338613 -0.065521168857682097 0 -0.0076708019221451646 -0.065632268826924176 0 -0.0075701566501857939 -0.065551154392642627 0 -0.007615025959338613 -0.065521168857682097 0 -0.0075155789534579864 -0.065554900054632145 0 -0.0074734353473785414 -0.065494268886369153 0 -0.0075701566501857939 -0.065551154392642627 0 -0.0074734353473785414 -0.065494268886369153 0 -0.0075701566501857939 -0.065551154392642627 0 -0.0074976315606279844 -0.065444848733685806 0 -0.0075701566501857939 -0.065551154392642627 0 -0.0074976315606279844 -0.065444848733685806 0 -0.007615025959338613 -0.065521168857682097 0 -0.0074976315606279844 -0.065444848733685806 0 -0.0075790657360764154 -0.065435356402273465 0 -0.007615025959338613 -0.065521168857682097 0 -0.0075790657360764154 -0.065435356402273465 0 -0.007615025959338613 -0.065521168857682097 0 -0.0076456299086088853 -0.065440121720804642 0 -0.0076094839519663593 -0.065340894448530848 0 -0.0075790657360764154 -0.065435356402273465 0 -0.0076456299086088853 -0.065440121720804642 0 -0.0076094839519663593 -0.065340894448530848 0 -0.0075790657360764154 -0.065435356402273465 0 -0.0074933535974386093 -0.065393859551744787 0 -0.0074976315606279844 -0.065444848733685806 0 -0.0075790657360764154 -0.065435356402273465 0 -0.0074933535974386093 -0.065393859551744787 0 -0.0074195662837924755 -0.065380076123909267 0 -0.0073518888352842055 -0.065383613711992652 0 -0.0074933535974386093 -0.065393859551744787 0 -0.0073518888352842055 -0.065383613711992652 0 -0.0074976315606279844 -0.065444848733685806 0 -0.0074933535974386093 -0.065393859551744787 0 -0.0077071371883754977 -0.065684120784903169 0 -0.0076590303978986089 -0.0654968836794977 0 -0.0075591993615461775 -0.065497297169379604 0 -0.0076590303978986089 -0.0654968836794977 0 -0.0076229280028556794 -0.065296751881947071 0 -0.0075591993615461775 -0.065497297169379604 0 -0.0076902033345203884 -0.06558915553325384 0 -0.0076590303978986089 -0.0654968836794977 0 -0.0076456299086088853 -0.065440121720804642 0 -0.0076902033345203884 -0.06558915553325384 0 -0.007615025959338613 -0.065521168857682097 0 -0.0076456299086088853 -0.065440121720804642 0 -0.0076094839519663593 -0.065340894448530848 0 -0.0076456299086088853 -0.065440121720804642 0 -0.0076229280028556794 -0.065296751881947071 0 -0.0076590303978986089 -0.0654968836794977 0 -0.0076456299086088853 -0.065440121720804642 0 -0.0076229280028556794 -0.065296751881947071 0 -0.0074456992241503954 -0.06513417941460134 0 -0.0075591993615461775 -0.065497297169379604 0 -0.0071319053855714663 -0.065329763058827248 0 -0.0074456992241503954 -0.06513417941460134 0 -0.0076229280028556794 -0.065296751881947071 0 -0.0075591993615461775 -0.065497297169379604 0 -0.0075591993615461775 -0.065497297169379604 0 -0.0071319053855714663 -0.065329763058827248 0 -0.0074142844406756064 -0.065910576662358347 0 -0.0071319053855714663 -0.065329763058827248 0 -0.0068886933235079145 -0.065881228052513882 0 -0.0062200734231400148 -0.065503433022419025 0 -0.0071319053855714663 -0.065329763058827248 0 -0.0068886933235079145 -0.065881228052513882 0 -0.0074142844406756064 -0.065910576662358347 0 -0.0072237536993871804 -0.06634767127177324 0 -0.0068886933235079145 -0.065881228052513882 0 -0.0074142844406756064 -0.065910576662358347 0 -0.0077071371883754977 -0.065684120784903169 0 -0.0075591993615461775 -0.065497297169379604 0 -0.0077166515673021399 -0.065939190748168452 0 -0.0075591993615461775 -0.065497297169379604 0 -0.0074142844406756064 -0.065910576662358347 0 -0.0077166515673021399 -0.065939190748168452 0 -0.0054993507030752058 -0.06631714335512201 0 -0.0047435558451289616 -0.065618478121881818 0 -0.0046640563705999854 -0.067111941302388553 0 -0.0054993507030752058 -0.06631714335512201 0 -0.0062200734231400148 -0.065503433022419025 0 -0.0047435558451289616 -0.065618478121881818 0 -0.0054993507030752058 -0.06631714335512201 0 -0.0063778102402486485 -0.066390923447271349 0 -0.0062200734231400148 -0.065503433022419025 0 -0.0068886933235079145 -0.065881228052513882 0 -0.0063778102402486485 -0.066390923447271349 0 -0.0062200734231400148 -0.065503433022419025 0 -0.0072237536993871804 -0.06634767127177324 0 -0.0068886933235079145 -0.065881228052513882 0 -0.0063778102402486485 -0.066390923447271349 0 -0.0064110714244207199 -0.064825498932270811 0 -0.0071319053855714663 -0.065329763058827248 0 -0.0062200734231400148 -0.065503433022419025 0 -0.0064110714244207199 -0.064825498932270811 0 -0.0062200734231400148 -0.065503433022419025 0 -0.0054964590888359355 -0.06487199850465096 0 -0.0062200734231400148 -0.065503433022419025 0 -0.0054964590888359355 -0.06487199850465096 0 -0.0047435558451289616 -0.065618478121881818 0 -0.0038732663752675282 -0.064018117059214744 0 -0.0054964590888359355 -0.06487199850465096 0 -0.0047435558451289616 -0.065618478121881818 0 -0.0038732663752675282 -0.064018117059214744 0 -0.0047435558451289616 -0.065618478121881818 0 -0.0026516316345571449 -0.065857793767462147 0 -0.0007823516337998026 -0.068571417875007271 0 -0.00090457175334479763 -0.070243839883624051 0 -8.8539465529814893e-05 -0.074543152145364361 0 -0.0005407763525005372 -0.074471235851826523 0 -0.00027430385347129699 -0.07484862101886762 0 -0.0005407763525005372 -0.074471235851826523 0 -0.00027430385347129699 -0.07484862101886762 0 -0.00032520731355914939 -0.074905235962366187 0 -0.0047435558451289616 -0.065618478121881818 0 -0.0046640563705999854 -0.067111941302388553 0 -0.0032821768915674747 -0.067102963135085819 0 -0.0047435558451289616 -0.065618478121881818 0 -0.0026516316345571449 -0.065857793767462147 0 -0.0032821768915674747 -0.067102963135085819 0 -0.0046640563705999854 -0.067111941302388553 0 -0.0028810323152475489 -0.068950297991520276 0 -0.0045577726805973977 -0.068383825481204918 0 -0.0046640563705999854 -0.067111941302388553 0 -0.0032821768915674747 -0.067102963135085819 0 -0.0028810323152475489 -0.068950297991520276 0 -0.0032821768915674747 -0.067102963135085819 0 -0.0028810323152475489 -0.068950297991520276 0 -0.0011615444870064116 -0.06847255614596183 0 -0.00090457175334479763 -0.070243839883624051 0 -0.00058652301709970862 -0.071701497126756025 0 -0.0026516316345571449 -0.065857793767462147 0 -0.0032821768915674747 -0.067102963135085819 0 -0.0011615444870064116 -0.06847255614596183 0 -0.0028810323152475489 -0.068950297991520276 0 -0.0014797853292747559 -0.070749745516892934 0 -0.00083427610330719744 -0.069537143992196723 0 -0.0012197938226296673 -0.071460819214220678 0 -0.00058652301709970862 -0.071701497126756025 0 -0.0028810323152475489 -0.068950297991520276 0 -0.0037403496505150195 -0.069852958699629181 0 -0.0021414238248202715 -0.07091792306175701 0 -0.0028810323152475489 -0.068950297991520276 0 -0.0014797853292747559 -0.070749745516892934 0 -0.0021414238248202715 -0.07091792306175701 0 -0.0028810323152475489 -0.068950297991520276 0 -0.0045577726805973977 -0.068383825481204918 0 -0.0037403496505150195 -0.069852958699629181 0 -0.0045577726805973977 -0.068383825481204918 0 -0.005750854569876473 -0.067366101169543571 0 -0.0055990941422629321 -0.068663498780370008 0 -0.0045577726805973977 -0.068383825481204918 0 -0.0055990941422629321 -0.068663498780370008 0 -0.0037403496505150195 -0.069852958699629181 0 -0.0054993507030752058 -0.06631714335512201 0 -0.0063778102402486485 -0.066390923447271349 0 -0.005750854569876473 -0.067366101169543571 0 -0.0054993507030752058 -0.06631714335512201 0 -0.0046640563705999854 -0.067111941302388553 0 -0.005750854569876473 -0.067366101169543571 0 -0.0046640563705999854 -0.067111941302388553 0 -0.0045577726805973977 -0.068383825481204918 0 -0.005750854569876473 -0.067366101169543571 0 -0.0073002506031212867 -0.067121758916822816 0 -0.0072237536993871804 -0.06634767127177324 0 -0.0063778102402486485 -0.066390923447271349 0 -0.0073002506031212867 -0.067121758916822816 0 -0.0063778102402486485 -0.066390923447271349 0 -0.005750854569876473 -0.067366101169543571 0 -0.0073002506031212867 -0.067121758916822816 0 -0.005750854569876473 -0.067366101169543571 0 -0.0055990941422629321 -0.068663498780370008 0 -0.008954938185939388 -0.067572113335358744 0 -0.0055990941422629321 -0.068663498780370008 0 -0.0057190930881969599 -0.070487938163997219 0 -0.008954938185939388 -0.067572113335358744 0 -0.0073002506031212867 -0.067121758916822816 0 -0.0055990941422629321 -0.068663498780370008 0 -0.0055990941422629321 -0.068663498780370008 0 -0.0057190930881969599 -0.070487938163997219 0 -0.0041231153885485892 -0.070829567517742914 0 -0.0055990941422629321 -0.068663498780370008 0 -0.0041231153885485892 -0.070829567517742914 0 -0.0037403496505150195 -0.069852958699629181 0 -0.0057190930881969599 -0.070487938163997219 0 -0.0038920578418390889 -0.072681892750675728 0 -0.0041231153885485892 -0.070829567517742914 0 -0.008954938185939388 -0.067572113335358744 0 -0.0057190930881969599 -0.070487938163997219 0 -0.0071215883389783409 -0.072899092137024932 0 -0.0057190930881969599 -0.070487938163997219 0 -0.0071215883389783409 -0.072899092137024932 0 -0.0038920578418390889 -0.072681892750675728 0 -0.0038920578418390889 -0.072681892750675728 0 -0.0024329083915173911 -0.074802295990080286 0 -0.0052247419422946943 -0.075743543672922103 0 -0.0071215883389783409 -0.072899092137024932 0 -0.0038920578418390889 -0.072681892750675728 0 -0.0052247419422946943 -0.075743543672922103 0 -0.0076939223304058925 -0.067614313483202418 0 -0.0055496021677271566 -0.067963806087880066 0 -0.010558976410225965 -0.062359023787925114 0 -0.011717091898491315 -0.063795437750887377 0 -0.012828556632429501 -0.06132528014909671 0 -0.0024329083915173911 -0.074802295990080286 0 -0.002106374782564422 -0.073550553864161969 0 -0.0012562861409914654 -0.074444522808088762 0 -0.0038920578418390889 -0.072681892750675728 0 -0.0024329083915173911 -0.074802295990080286 0 -0.002106374782564422 -0.073550553864161969 0 -0.0038920578418390889 -0.072681892750675728 0 -0.002106374782564422 -0.073550553864161969 0 -0.0021833968798642025 -0.072064433257507374 0 -0.002106374782564422 -0.073550553864161969 0 -0.0021833968798642025 -0.072064433257507374 0 -0.0012916608968122447 -0.073430216162319345 0 -0.002106374782564422 -0.073550553864161969 0 -0.0012916608968122447 -0.073430216162319345 0 -0.0012562861409914654 -0.074444522808088762 0 -0.0038920578418390889 -0.072681892750675728 0 -0.0021833968798642025 -0.072064433257507374 0 -0.0041231153885485892 -0.070829567517742914 0 -0.0021833968798642025 -0.072064433257507374 0 -0.0041231153885485892 -0.070829567517742914 0 -0.0037403496505150195 -0.069852958699629181 0 -0.0021833968798642025 -0.072064433257507374 0 -0.0021414238248202715 -0.07091792306175701 0 -0.00099422713702502184 -0.072053955090137956 0 -0.0021833968798642025 -0.072064433257507374 0 -0.0037403496505150195 -0.069852958699629181 0 -0.0021414238248202715 -0.07091792306175701 0 -0.0014797853292747559 -0.070749745516892934 0 -0.0021414238248202715 -0.07091792306175701 0 -0.00099422713702502184 -0.072053955090137956 0 -0.00099422713702502184 -0.072053955090137956 0 -0.00044378618720968086 -0.072762741767945158 0 -0.00044072041638909418 -0.071846274600662438 0 -0.00099422713702502184 -0.072053955090137956 0 -0.00044378618720968086 -0.072762741767945158 0 -0.00075544928314845634 -0.073022778411360831 0 -0.00044378618720968086 -0.072762741767945158 0 -0.00075544928314845634 -0.073022778411360831 0 -0.00016803477538233821 -0.07379018684452375 0 -0.00044378618720968086 -0.072762741767945158 0 -0.00016803477538233821 -0.07379018684452375 0 -0.00027310930872951087 -0.073352345492098278 0 -0.00044378618720968086 -0.072762741767945158 0 -0.00027310930872951087 -0.073352345492098278 0 -0.00044072041638909418 -0.071846274600662438 0 -0.00075544928314845634 -0.073022778411360831 0 -0.00053821342038148359 -0.074035121107305868 0 -0.00016803477538233821 -0.07379018684452375 0 -0.0021833968798642025 -0.072064433257507374 0 -0.00099422713702502184 -0.072053955090137956 0 -0.00075544928314845634 -0.073022778411360831 0 -0.0021833968798642025 -0.072064433257507374 0 -0.00075544928314845634 -0.073022778411360831 0 -0.0012916608968122447 -0.073430216162319345 0 -0.0012916608968122447 -0.073430216162319345 0 -0.00053821342038148359 -0.074035121107305868 0 -0.0012562861409914654 -0.074444522808088762 0 -0.00075544928314845634 -0.073022778411360831 0 -0.0012916608968122447 -0.073430216162319345 0 -0.00053821342038148359 -0.074035121107305868 0 -0.00053821342038148359 -0.074035121107305868 0 -0.0007037063671184407 -0.074575803149804387 0 -0.00026835013019478908 -0.074740165227215813 0 -0.00053821342038148359 -0.074035121107305868 0 -0.0007037063671184407 -0.074575803149804387 0 -0.0012562861409914654 -0.074444522808088762 0 9.4392329162959568e-09 -0.074999688659707214 0 -0.00012912434243115263 -0.074483282937963885 0 -0.00026835013019478908 -0.074740165227215813 0 -0.00053821342038148359 -0.074035121107305868 0 -0.00012912434243115263 -0.074483282937963885 0 -0.00026835013019478908 -0.074740165227215813 0 -0.00053821342038148359 -0.074035121107305868 0 -0.00012912434243115263 -0.074483282937963885 0 -0.00016803477538233821 -0.07379018684452375 0 9.4392329162959568e-09 -0.074999688659707214 0 -0.00012912434243115263 -0.074483282937963885 0 6.8375080649650965e-08 -0.074999084747506606 0 -0.00016803477538233821 -0.07379018684452375 0 -1.2460542306167718e-07 -0.074998446356746143 0 -0.00027310930872951087 -0.073352345492098278 0 6.8375080649650965e-08 -0.074999084747506606 0 -0.00016803477538233821 -0.07379018684452375 0 -1.2460542306167718e-07 -0.074998446356746143 0 -0.00012912434243115263 -0.074483282937963885 0 6.8375080649650965e-08 -0.074999084747506606 0 -0.00016803477538233821 -0.07379018684452375 0 -1.2460542306167718e-07 -0.074998446356746143 0 -0.00034609882440144726 -0.073676717646782949 0 -0.00027310930872951087 -0.073352345492098278 0 -1.2460542306167718e-07 -0.074998446356746143 0 -1.4867334913158736e-07 -0.074998907483109639 0 -0.00034609882440144726 -0.073676717646782949 0 -9.1029450215075308e-07 -0.074997883841872948 0 -0.00049438129333220478 -0.073673828910886099 0 1.3540762663741991e-08 -0.075000099910428289 0 -6.8546935965198253e-05 -0.075032610442246586 0 -4.7275949519471666e-05 -0.074975537214856641 0 -0.00034609882440144726 -0.073676717646782949 0 -0.00027310930872951087 -0.073352345492098278 0 -0.00044072041638909418 -0.071846274600662438 0 -0.00034609882440144726 -0.073676717646782949 0 -0.00044072041638909418 -0.071846274600662438 0 -0.00019820665290411693 -0.072333191101202121 0 -0.0014797853292747559 -0.070749745516892934 0 -0.00099422713702502184 -0.072053955090137956 0 -0.00044072041638909418 -0.071846274600662438 0 -0.00060817091347050301 -0.071627046862134336 0 -0.00058652301709970862 -0.071701497126756025 0 -0.0014797853292747559 -0.070749745516892934 0 -0.00044072041638909418 -0.071846274600662438 0 -0.00083427610330719744 -0.069537143992196723 0 -0.00049438129333220478 -0.073673828910886099 0 -0.00058652301709970862 -0.071701497126756025 0 -6.8546935965198253e-05 -0.075032610442246586 0 -0.00022258996603373842 -0.075075457823352024 0 -0.00017040656872323667 -0.074959560126513558 0 -6.8546935965198253e-05 -0.075032610442246586 0 -9.6160570036422403e-05 -0.074968578759009363 0 -0.00017040656872323667 -0.074959560126513558 0 -9.6160570036422403e-05 -0.074968578759009363 0 -0.00017040656872323667 -0.074959560126513558 0 -0.00010435199052489087 -0.074903493362530951 0 -0.00027430385347129699 -0.07484862101886762 0 -0.00032520731355914939 -0.074905235962366187 0 -0.00017040656872323667 -0.074959560126513558 0 -0.00032520731355914939 -0.074905235962366187 0 -0.00022258996603373842 -0.075075457823352024 0 -0.00017040656872323667 -0.074959560126513558 0 -0.00027430385347129699 -0.07484862101886762 0 -0.00017040656872323667 -0.074959560126513558 0 -0.00010435199052489087 -0.074903493362530951 0 -0.00013285204577183086 -0.074806291021136562 0 -1.4826139513329649e-06 -0.074776437142415109 0 -8.8539465529814893e-05 -0.074543152145364361 0 -0.00027430385347129699 -0.07484862101886762 0 0.00016630717368245766 -0.074779987622302063 0 0.000354801724067202 -0.074612750656794985 0 -8.8539465529814893e-05 -0.074543152145364361 0 0.00016630717368245766 -0.074779987622302063 0 -1.4826139513329649e-06 -0.074776437142415109 0 0.00013037997014186839 -0.074698893063728428 0 0.000354801724067202 -0.074612750656794985 0 0.00016630717368245766 -0.074779987622302063 0 0.00059716770243416716 -0.074718077170100941 0 -0.00010435199052489087 -0.074903493362530951 0 -1.4887370550798421e-05 -0.074958237239958717 0 -4.7275949519471666e-05 -0.074975537214856641 0 0.00031646457835437716 -0.073538928362225128 0 0.00013037997014186839 -0.074698893063728428 0 0.00031646457835437716 -0.073538928362225128 0 4.7190772998297762e-07 -0.074997374501052566 0 1.5394444233628214e-05 -0.074990113834767919 0 5.8425484972369291e-06 -0.074994240614796176 0 -8.854929057377801e-10 -0.075000006855168153 0 0.00013037997014186839 -0.074698893063728428 0 2.1724530226538031e-07 -0.074998552086539466 0 3.2135383707436594e-07 -0.074999408147337743 0 1.3109952889385512e-10 -0.074999999669257356 0 -4.0897640173753933e-12 -0.074999999737486486 0 5.8425484972369291e-06 -0.074994240614796176 0 -8.854929057377801e-10 -0.075000006855168153 0 1.7891725326873835e-09 -0.07499998989992912 0 -1.4887370550798421e-05 -0.074958237239958717 0 -2.3869403773841263e-08 -0.074999836159523686 0 -1.5607836950732858e-05 -0.07498539549664289 0 0.00013037997014186839 -0.074698893063728428 0 5.9583516937748539e-07 -0.074998603885956389 0 1.3540762663741991e-08 -0.075000099910428289 0 -2.3869403773841263e-08 -0.074999836159523686 0 -1.5607836950732858e-05 -0.07498539549664289 0 1.3540762663741991e-08 -0.075000099910428289 0 -1.5607836950732858e-05 -0.07498539549664289 0 -4.7275949519471666e-05 -0.074975537214856641 0 -1.4887370550798421e-05 -0.074958237239958717 0 -1.5607836950732858e-05 -0.07498539549664289 0 -4.7275949519471666e-05 -0.074975537214856641 0 -6.8546935965198253e-05 -0.075032610442246586 0 -9.6160570036422403e-05 -0.074968578759009363 0 -4.7275949519471666e-05 -0.074975537214856641 0 -9.6160570036422403e-05 -0.074968578759009363 0 -0.00010435199052489087 -0.074903493362530951 0 -4.7275949519471666e-05 -0.074975537214856641 0 -5.3346287737799733e-05 -0.075005671099850429 0 -0.00011948387544006023 -0.074749698598024161 0 0.00013591341187028461 -0.074658246809993029 0 -5.3346287737799733e-05 -0.075005671099850429 0 -9.1923267076818093e-05 -0.074987543625979786 0 -0.00011948387544006023 -0.074749698598024161 0 -9.1923267076818093e-05 -0.074987543625979786 0 9.3092035667505974e-08 -0.075000119344893021 0 -0.00011948387544006023 -0.074749698598024161 0 -9.1923267076818093e-05 -0.074987543625979786 0 9.3092035667505974e-08 -0.075000119344893021 0 -2.1129835546137404e-07 -0.075000089557330063 0 9.3092035667505974e-08 -0.075000119344893021 0 -0.00011948387544006023 -0.074749698598024161 0 -0.0002034862764587758 -0.07453585630962431 0 -0.00011948387544006023 -0.074749698598024161 0 1.3480220686685024e-05 -0.074222158975506047 0 -0.0002034862764587758 -0.07453585630962431 0 -0.00011948387544006023 -0.074749698598024161 0 0.00013591341187028461 -0.074658246809993029 0 1.3480220686685024e-05 -0.074222158975506047 0 0.00013591341187028461 -0.074658246809993029 0 0.00065238307231268978 -0.073864657018306426 0 1.3480220686685024e-05 -0.074222158975506047 0 0.00013591341187028461 -0.074658246809993029 0 0.00061913348362798663 -0.074892564564603054 0 0.00065238307231268978 -0.073864657018306426 0 0.00061913348362798663 -0.074892564564603054 0 0.001413859818598578 -0.074409182849520694 0 0.00065238307231268978 -0.073864657018306426 0 0.00052699320146981871 -0.073734495542490716 0 0.00017358774767163389 -0.072861643450222696 0 0.00061913348362798663 -0.074892564564603054 0 0.00023573872463657217 -0.075185372049909771 0 0.00053097193153770817 -0.075227919244714059 0 0.00013591341187028461 -0.074658246809993029 0 0.00061913348362798663 -0.074892564564603054 0 0.00017776586147089815 -0.075003528915202844 0 0.00061913348362798663 -0.074892564564603054 0 0.00017776586147089815 -0.075003528915202844 0 0.00023573872463657217 -0.075185372049909771 0 -5.3346287737799733e-05 -0.075005671099850429 0 0.00013591341187028461 -0.074658246809993029 0 0.00017776586147089815 -0.075003528915202844 0 -5.3346287737799733e-05 -0.075005671099850429 0 0.00017776586147089815 -0.075003528915202844 0 -1.9471571578071969e-05 -0.075204521265021113 0 -1.9471571578071969e-05 -0.075204521265021113 0 -0.00017479432887851834 -0.075457284435654276 0 -0.00013048604799572599 -0.075228476692649621 0 -5.3346287737799733e-05 -0.075005671099850429 0 -1.9471571578071969e-05 -0.075204521265021113 0 -0.00013048604799572599 -0.075228476692649621 0 0.00023573872463657217 -0.075185372049909771 0 -0.00017479432887851834 -0.075457284435654276 0 0.00051894701016191912 -0.075296074529663456 0 -0.00032130227982337523 -0.073337155730307288 0 -3.0000827227460896e-06 -0.072829282850190205 0 0.00023573872463657217 -0.075185372049909771 0 0.00051894701016191912 -0.075296074529663456 0 0.00053097193153770817 -0.075227919244714059 0 0.00017776586147089815 -0.075003528915202844 0 -1.9471571578071969e-05 -0.075204521265021113 0 0.00023573872463657217 -0.075185372049909771 0 -1.9471571578071969e-05 -0.075204521265021113 0 0.00023573872463657217 -0.075185372049909771 0 -0.00017479432887851834 -0.075457284435654276 0 -0.00017479432887851834 -0.075457284435654276 0 -0.00074793237174271808 -0.075478620758430329 0 -0.0003731195026114036 -0.075569864613925786 0 -0.00017479432887851834 -0.075457284435654276 0 -0.00035578913309011723 -0.075378441510132593 0 -0.00074793237174271808 -0.075478620758430329 0 -0.00017479432887851834 -0.075457284435654276 0 -0.00013048604799572599 -0.075228476692649621 0 -0.00035578913309011723 -0.075378441510132593 0 -0.00013048604799572599 -0.075228476692649621 0 -0.00023641059907791978 -0.075220756752404319 0 -0.00010136786178545256 -0.075137192082892226 0 -5.3346287737799733e-05 -0.075005671099850429 0 -9.1923267076818093e-05 -0.074987543625979786 0 -0.00013048604799572599 -0.075228476692649621 0 -9.1923267076818093e-05 -0.074987543625979786 0 -0.00013048604799572599 -0.075228476692649621 0 -2.1129835546137404e-07 -0.075000089557330063 0 -0.00013048604799572599 -0.075228476692649621 0 -2.1129835546137404e-07 -0.075000089557330063 0 -0.00010136786178545256 -0.075137192082892226 0 -2.1129835546137404e-07 -0.075000089557330063 0 -5.1492044140590598e-08 -0.075000281198175131 0 -0.00010136786178545256 -0.075137192082892226 0 -5.1492044140590598e-08 -0.075000281198175131 0 -0.00010136786178545256 -0.075137192082892226 0 -9.9250099322957492e-05 -0.075077787405942245 0 -0.00023641059907791978 -0.075220756752404319 0 -0.00010136786178545256 -0.075137192082892226 0 -9.9250099322957492e-05 -0.075077787405942245 0 -0.00023641059907791978 -0.075220756752404319 0 -9.9250099322957492e-05 -0.075077787405942245 0 -0.00023858663436917239 -0.075041328064701582 0 -5.1492044140590598e-08 -0.075000281198175131 0 -9.9250099322957492e-05 -0.075077787405942245 0 -8.1894612891697843e-08 -0.075000033167198679 0 -8.1894612891697843e-08 -0.075000033167198679 0 -0.00023858663436917239 -0.075041328064701582 0 -9.8617805526385959e-05 -0.074940347690448536 0 -9.9250099322957492e-05 -0.075077787405942245 0 -8.1894612891697843e-08 -0.075000033167198679 0 -0.00023858663436917239 -0.075041328064701582 0 -0.00023858663436917239 -0.075041328064701582 0 -0.00026835013019478908 -0.074740165227215813 0 -9.8617805526385959e-05 -0.074940347690448536 0 9.4392329162959568e-09 -0.074999688659707214 0 -0.00026835013019478908 -0.074740165227215813 0 -9.8617805526385959e-05 -0.074940347690448536 0 9.4392329162959568e-09 -0.074999688659707214 0 -8.1894612891697843e-08 -0.075000033167198679 0 -9.8617805526385959e-05 -0.074940347690448536 0 -0.0007037063671184407 -0.074575803149804387 0 -0.0012562861409914654 -0.074444522808088762 0 -0.00077450951245638651 -0.074968592277527557 0 -0.0012562861409914654 -0.074444522808088762 0 -0.00077450951245638651 -0.074968592277527557 0 -0.0015919400197359317 -0.074994534597472573 0 -0.0007037063671184407 -0.074575803149804387 0 -0.00026835013019478908 -0.074740165227215813 0 -0.00077450951245638651 -0.074968592277527557 0 -0.00023858663436917239 -0.075041328064701582 0 -0.00026835013019478908 -0.074740165227215813 0 -0.00077450951245638651 -0.074968592277527557 0 -0.00023858663436917239 -0.075041328064701582 0 -0.00077450951245638651 -0.074968592277527557 0 -0.00059697767227010834 -0.075226446940059616 0 -0.00077450951245638651 -0.074968592277527557 0 -0.00059697767227010834 -0.075226446940059616 0 -0.0012101835094417588 -0.075221018797441946 0 -0.00059697767227010834 -0.075226446940059616 0 -0.00074793237174271808 -0.075478620758430329 0 -0.0012101835094417588 -0.075221018797441946 0 -0.00023641059907791978 -0.075220756752404319 0 -0.00023858663436917239 -0.075041328064701582 0 -0.00059697767227010834 -0.075226446940059616 0 -0.00013048604799572599 -0.075228476692649621 0 -0.00023641059907791978 -0.075220756752404319 0 -0.00035578913309011723 -0.075378441510132593 0 -0.00023641059907791978 -0.075220756752404319 0 -0.00059697767227010834 -0.075226446940059616 0 -0.00035578913309011723 -0.075378441510132593 0 -0.00059697767227010834 -0.075226446940059616 0 -0.00035578913309011723 -0.075378441510132593 0 -0.00074793237174271808 -0.075478620758430329 0 -0.00074793237174271808 -0.075478620758430329 0 -0.0014381819698759152 -0.075629503164341985 0 -0.0012101835094417588 -0.075221018797441946 0 -0.0032069301380314801 -0.064612808130232957 0 -0.002743797698476083 -0.064676797410728029 0 -0.0033303927660437694 -0.064399368497104537 0 -0.0030545184842225323 -0.06475791424381469 0 -0.0032069301380314801 -0.064612808130232957 0 -0.0034222186961481238 -0.064722609157217351 0 -0.0030545184842225323 -0.06475791424381469 0 -0.0032069301380314801 -0.064612808130232957 0 -0.002743797698476083 -0.064676797410728029 0 -0.002743797698476083 -0.064676797410728029 0 -0.0032998541217939574 -0.064130280415076166 0 -0.0033303927660437694 -0.064399368497104537 0 -0.0019564455893731928 -0.070329838310864021 0 -0.0033248493775253612 -0.069429195462407736 0 -0.002743797698476083 -0.064676797410728029 0 -0.0033059234382506134 -0.063512239961718744 0 -0.0032998541217939574 -0.064130280415076166 0 -0.0014381819698759152 -0.075629503164341985 0 -0.0012101835094417588 -0.075221018797441946 0 -0.0020462363508668537 -0.075168783373736364 0 -0.0024329083915173911 -0.074802295990080286 0 -0.0015919400197359317 -0.074994534597472573 0 -0.0020462363508668537 -0.075168783373736364 0 -0.00077450951245638651 -0.074968592277527557 0 -0.0012101835094417588 -0.075221018797441946 0 -0.0015919400197359317 -0.074994534597472573 0 -0.0012101835094417588 -0.075221018797441946 0 -0.0015919400197359317 -0.074994534597472573 0 -0.0020462363508668537 -0.075168783373736364 0 -0.0024329083915173911 -0.074802295990080286 0 -0.0012562861409914654 -0.074444522808088762 0 -0.0015919400197359317 -0.074994534597472573 0 -0.0024329083915173911 -0.074802295990080286 0 -0.0024514070059037073 -0.074876479078591601 0 -0.0020462363508668537 -0.075168783373736364 0 -0.0055496021677271566 -0.067963806087880066 0 -0.0069891256906105615 -0.064480248951558794 0 -0.0039399728569737454 -0.062251822919374013 0 -0.0042984156809936606 -0.063128619378623962 0 -0.0051005044429244884 -0.062545885752475439 0 -0.010558976410225965 -0.062359023787925114 0 -0.012828556632429501 -0.06132528014909671 0 -0.010654236651767924 -0.060809805950024894 0 -0.0048008649776994537 -0.069246357603377467 0 -0.0055496021677271566 -0.067963806087880066 0 -0.0042984156809936606 -0.063128619378623962 0 -0.0033059234382506134 -0.063512239961718744 0 -0.0039565395907643908 -0.063758526180334021 0 -0.0055496021677271566 -0.067963806087880066 0 -0.0033248493775253612 -0.069429195462407736 0 -0.0039399728569737454 -0.062251822919374013 0 -0.0042984156809936606 -0.063128619378623962 0 -0.0033059234382506134 -0.063512239961718744 0 -0.0042984156809936606 -0.063128619378623962 0 -0.0047091755717879958 -0.063590308835433165 0 -0.0048105266263734616 -0.063107837936252978 0 -0.0042984156809936606 -0.063128619378623962 0 -0.0047091755717879958 -0.063590308835433165 0 -0.0039565395907643908 -0.063758526180334021 0 -0.0045617422696556968 -0.064059320385407209 0 -0.0039565395907643908 -0.063758526180334021 0 -0.0036005266537109054 -0.064335746526949844 0 -0.0047091755717879958 -0.063590308835433165 0 -0.0045617422696556968 -0.064059320385407209 0 -0.0039565395907643908 -0.063758526180334021 0 -0.0033059234382506134 -0.063512239961718744 0 -0.0039565395907643908 -0.063758526180334021 0 -0.0035383961322100529 -0.064005835704277814 0 -0.0039565395907643908 -0.063758526180334021 0 -0.0035383961322100529 -0.064005835704277814 0 -0.0036005266537109054 -0.064335746526949844 0 -0.0033059234382506134 -0.063512239961718744 0 -0.0035383961322100529 -0.064005835704277814 0 -0.0032998541217939574 -0.064130280415076166 0 -0.0035383961322100529 -0.064005835704277814 0 -0.0032998541217939574 -0.064130280415076166 0 -0.003523055133907738 -0.064328056376747877 0 -0.0032998541217939574 -0.064130280415076166 0 -0.0033303927660437694 -0.064399368497104537 0 -0.003523055133907738 -0.064328056376747877 0 -0.0035383961322100529 -0.064005835704277814 0 -0.003523055133907738 -0.064328056376747877 0 -0.0036005266537109054 -0.064335746526949844 0 -0.0042838394342567471 -0.06280411180154219 0 -0.0042868428646234327 -0.062802534610754676 0 -0.0042233707343104134 -0.062841421775812048 0 -0.0042868428646234327 -0.062802534610754676 0 -0.0033303927660437694 -0.064399368497104537 0 -0.0035612746375561347 -0.064319108693811758 0 -0.0035025977281002052 -0.064477948873344237 0 -0.0033303927660437694 -0.064399368497104537 0 -0.003523055133907738 -0.064328056376747877 0 -0.003599946083338188 -0.064335981608935958 0 -0.0042868428646234327 -0.062802534610754676 0 -0.0045038993926959344 -0.062650663643905077 0 -0.0035612746375561347 -0.064319108693811758 0 -0.0035025977281002052 -0.064477948873344237 0 -0.0040075657948576218 -0.064336616599861715 0 -0.0037885703785231119 -0.064356867573664184 0 -0.0038795134500362915 -0.064360370862839869 0 -0.0034361340055448068 -0.064787103871574866 0 -0.0036100421526232898 -0.063565057889294049 0 -0.0045038993926959344 -0.062650663643905077 0 -0.0046450987335307399 -0.062465334413389764 0 -0.003715157131321365 -0.06363861670851631 0 -0.0035025977281002052 -0.064477948873344237 0 -0.0034222186961481238 -0.064722609157217351 0 -0.0040075657948576218 -0.064336616599861715 0 -0.0032901357292638351 -0.06470189968817773 0 -0.0037885703785231119 -0.064356867573664184 0 -0.0034361340055448068 -0.064787103871574866 0 -0.0032069301380314801 -0.064612808130232957 0 -0.0033303927660437694 -0.064399368497104537 0 -0.0035025977281002052 -0.064477948873344237 0 -0.0032069301380314801 -0.064612808130232957 0 -0.0035025977281002052 -0.064477948873344237 0 -0.0034222186961481238 -0.064722609157217351 0 -0.0048219720390911209 -0.062656471004573638 0 -0.0042868428646234327 -0.062802534610754676 0 -0.0046855204863541266 -0.062702157364767988 0 -0.0044256862819957131 -0.062784019803654348 0 -0.0045598532674057026 -0.062790035564544724 0 -0.0046450987335307399 -0.062465334413389764 0 -0.0061263423807791052 -0.06022317310059918 0 -0.0039077479406222767 -0.064257499803497001 0 -0.0039017499617538544 -0.064657262085535308 0 -0.0045406977126555958 -0.064277220169513247 0 -0.0056657370318516009 -0.061410990703152903 0 -0.0052511591787253453 -0.061803651679852654 0 -0.0060690321139918327 -0.061840993586906701 0 -0.0048219720390911209 -0.062656471004573638 0 -0.0046450987335307399 -0.062465334413389764 0 -0.0047696298497520015 -0.062717863532450138 0 -0.0048263918664393961 -0.062676710859401588 0 -0.0048120791413523668 -0.06267614430984686 0 -0.0048219720390911209 -0.062656471004573638 0 -0.0045038993926959344 -0.062650663643905077 0 -0.0045038993926959344 -0.062650663643905077 0 -0.0046450987335307399 -0.062465334413389764 0 -0.0039077479406222767 -0.064257499803497001 0 -0.0039017499617538544 -0.064657262085535308 0 -0.003413313723077036 -0.064752041280468797 0 -0.0044134421744471556 -0.060598029721559477 0 -0.0061263423807791052 -0.06022317310059918 0 -0.0017458269139191023 -0.054069989952582498 0 -0.0027258727311585068 -0.054502725787262139 0 -0.0027101550551077327 -0.053479620550798038 0 -0.0044134421744471556 -0.060598029721559477 0 -0.0023158748542080111 -0.061456699408875777 0 -0.0017458269139191023 -0.054069989952582498 0 -0.0023918830247184452 -0.055846189084068548 0 -0.0027258727311585068 -0.054502725787262139 0 -0.0037509560553391835 -0.064733970580676231 0 -0.0040145781170274923 -0.065560526806774072 0 -0.0033966644378965348 -0.065493240105432934 0 -0.0040145781170274923 -0.065560526806774072 0 -0.0033966644378965348 -0.065493240105432934 0 -0.0036743181407281602 -0.06589272359503269 0 -0.0033966644378965348 -0.065493240105432934 0 -0.0029756700583693325 -0.065547149613449596 0 -0.0030761274625945773 -0.065940626169442726 0 -0.0033966644378965348 -0.065493240105432934 0 -0.0030183900852737465 -0.065172065731680162 0 -0.0029756700583693325 -0.065547149613449596 0 -0.0033966644378965348 -0.065493240105432934 0 -0.0033206297158589219 -0.064994784765176658 0 -0.0030183900852737465 -0.065172065731680162 0 -0.0037509560553391835 -0.064733970580676231 0 -0.0033966644378965348 -0.065493240105432934 0 -0.0033206297158589219 -0.064994784765176658 0 -0.0044134421744471556 -0.060598029721559477 0 -0.0036875434012548082 -0.061426866797144056 0 -0.0039017499617538544 -0.064657262085535308 0 -0.003413313723077036 -0.064752041280468797 0 -0.0033206297158589219 -0.064994784765176658 0 -0.003715157131321365 -0.06363861670851631 0 -0.003421613973619553 -0.064007907007561066 0 -0.0032901357292638351 -0.06470189968817773 0 -0.0034361340055448068 -0.064787103871574866 0 -0.0030183900852737465 -0.065172065731680162 0 -0.003413313723077036 -0.064752041280468797 0 -0.0033206297158589219 -0.064994784765176658 0 -0.0030183900852737465 -0.065172065731680162 0 -0.0032901357292638351 -0.06470189968817773 0 -0.0028448099631183301 -0.065024325437014127 0 -0.0030183900852737465 -0.065172065731680162 0 -0.0030545184842225323 -0.06475791424381469 0 -0.0034222186961481238 -0.064722609157217351 0 -0.0028448099631183301 -0.065024325437014127 0 -0.002743797698476083 -0.064676797410728029 0 -0.0028448099631183301 -0.065024325437014127 0 -0.0027097125109709543 -0.065329439545906906 0 -0.0036100421526232898 -0.063565057889294049 0 -0.0033131000178300883 -0.06386073930020833 0 -0.0030545184842225323 -0.06475791424381469 0 -0.002743797698476083 -0.064676797410728029 0 -0.0028448099631183301 -0.065024325437014127 0 -0.0028448099631183301 -0.065024325437014127 0 -0.0030183900852737465 -0.065172065731680162 0 -0.0027097125109709543 -0.065329439545906906 0 -0.0014381819698759152 -0.075629503164341985 0 -0.00089601016967712785 -0.076496397959273446 0 -0.00094506471403651526 -0.076525100529414136 0 -0.0019564455893731928 -0.070329838310864021 0 0.00010756218544866902 -0.072492783160556074 0 -0.00074793237174271808 -0.075478620758430329 0 -0.0014381819698759152 -0.075629503164341985 0 -0.00089601016967712785 -0.076496397959273446 0 -0.002743797698476083 -0.064676797410728029 0 -0.0023306456747773704 -0.065536765287672813 0 -0.0027097125109709543 -0.065329439545906906 0 -0.00036904527389504963 -0.07478333504056045 0 -3.0000827227460896e-06 -0.072829282850190205 0 0.000617492683008925 -0.071839019432176299 0 0.00049686534169189622 -0.071911046544387083 0 0.00058257102185075996 -0.072080661851233865 0 -3.0000827227460896e-06 -0.072829282850190205 0 0.00010756218544866902 -0.072492783160556074 0 0.0017359381943883141 -0.073750057675991673 0 0.0017077599877729226 -0.073694117675452614 0 0.0019820859574347549 -0.07334861669375449 0 0.00010756218544866902 -0.072492783160556074 0 0.00017358774767163389 -0.072861643450222696 0 -3.0000827227460896e-06 -0.072829282850190205 0 0.00017358774767163389 -0.072861643450222696 0 -0.0023306456747773704 -0.065536765287672813 0 -0.0029756700583693325 -0.065547149613449596 0 -0.0030761274625945773 -0.065940626169442726 0 -0.0023306456747773704 -0.065536765287672813 0 -0.0027097125109709543 -0.065329439545906906 0 -0.0029756700583693325 -0.065547149613449596 0 0.00010756218544866902 -0.072492783160556074 0 4.8150716994586653e-05 -0.070111734217634142 0 -0.0030183900852737465 -0.065172065731680162 0 -0.0027097125109709543 -0.065329439545906906 0 -0.0029756700583693325 -0.065547149613449596 0 0.0017359381943883141 -0.073750057675991673 0 0.0024219345137962184 -0.073366694640117039 0 0.0019820859574347549 -0.07334861669375449 0 0.0024219345137962184 -0.073366694640117039 0 0.0022021183810030831 -0.073031957196062675 0 0.0027654674684905851 -0.072964704889329601 0 0.0024219345137962184 -0.073366694640117039 0 0.0019820859574347549 -0.07334861669375449 0 0.0022021183810030831 -0.073031957196062675 0 0.00061913348362798663 -0.074892564564603054 0 0.0010748936407268496 -0.075813332796819732 0 0.001413859818598578 -0.074409182849520694 0 0.0017077599877729226 -0.073694117675452614 0 0.0019820859574347549 -0.07334861669375449 0 0.0018511554553843853 -0.072915789875236309 0 0.00017358774767163389 -0.072861643450222696 0 0.00088226532291511199 -0.073334932428818361 0 0.0019820859574347549 -0.07334861669375449 0 0.0018511554553843853 -0.072915789875236309 0 0.0022021183810030831 -0.073031957196062675 0 0.0018511554553843853 -0.072915789875236309 0 0.0022021183810030831 -0.073031957196062675 0 0.0022256984489448101 -0.072627332939339609 0 0.0022021183810030831 -0.073031957196062675 0 0.0027654674684905851 -0.072964704889329601 0 0.0022256984489448101 -0.072627332939339609 0 0.0027654674684905851 -0.072964704889329601 0 0.0030665384955247876 -0.072265963589356219 0 0.0022256984489448101 -0.072627332939339609 0 0.0024219345137962184 -0.073366694640117039 0 0.0027654674684905851 -0.072964704889329601 0 0.0031555200359948497 -0.072956598615048121 0 0.0033609998944583177 -0.072949049119966414 0 0.0037849135117532838 -0.07225691190828995 0 0.0030665384955247876 -0.072265963589356219 0 0.0033609998944583177 -0.072949049119966414 0 0.0042852519419972167 -0.07294793460260382 0 0.0037849135117532838 -0.07225691190828995 0 0.0027654674684905851 -0.072964704889329601 0 0.0033609998944583177 -0.072949049119966414 0 0.0030665384955247876 -0.072265963589356219 0 0.00046504831135793295 -0.067931073470518549 0 -0.00014224426668277737 -0.064525416111271508 0 0.0010332506140105573 -0.068261597421842762 0 0.00046504831135793295 -0.067931073470518549 0 -0.0040145781170274923 -0.065560526806774072 0 -0.0036743181407281602 -0.06589272359503269 0 -0.004272419143708967 -0.06634899199158184 0 -0.0037812590204282623 -0.066340682766118292 0 -0.0036743181407281602 -0.06589272359503269 0 -0.004272419143708967 -0.06634899199158184 0 -0.0033966644378965348 -0.065493240105432934 0 -0.0030761274625945773 -0.065940626169442726 0 -0.0036743181407281602 -0.06589272359503269 0 4.8150716994586653e-05 -0.070111734217634142 0 0.00046504831135793295 -0.067931073470518549 0 -0.0030761274625945773 -0.065940626169442726 0 -0.0037812590204282623 -0.066340682766118292 0 -0.0036743181407281602 -0.06589272359503269 0 -0.003704884966293091 -0.056434381776385531 0 -0.0030117115967236291 -0.057530901778620386 0 -0.004300608005173341 -0.057525959602988057 0 -0.003704884966293091 -0.056434381776385531 0 -0.004300608005173341 -0.057525959602988057 0 -0.0045801119077977974 -0.056498915468477191 0 -0.0023918830247184452 -0.055846189084068548 0 -0.003704884966293091 -0.056434381776385531 0 -0.0030117115967236291 -0.057530901778620386 0 -0.0023158748542080111 -0.061456699408875777 0 -0.00014224426668277737 -0.064525416111271508 0 -0.00014224426668277737 -0.064525416111271508 0 -0.0010460330708831236 -0.06169372490828412 0 0.0085102772055974767 -0.057870097761308553 0 0.0031538071669567061 -0.057985682603119544 0 0.0067379463468009888 -0.063011949909019108 0 -0.0010460330708831236 -0.06169372490828412 0 -0.0031317777961203108 -0.060415644116134225 0 -0.004300608005173341 -0.057525959602988057 0 -0.0054001612358961833 -0.05762350208505617 0 -0.0045801119077977974 -0.056498915468477191 0 0.0031538071669567061 -0.057985682603119544 0 -0.00180430455513984 -0.058269987302683748 0 -0.00082543099363782018 -0.061782901489029991 0 -0.00180430455513984 -0.058269987302683748 0 -0.0062579385602986723 -0.058369462298827654 0 -0.0037564786006599161 -0.061838920143680552 0 -0.0031317777961203108 -0.060415644116134225 0 -0.0043260353457159704 -0.060074442729755373 0 -0.0054001612358961833 -0.05762350208505617 0 -0.0055544424831561554 -0.05609841983546849 0 -0.0060803360584539288 -0.056779833266219867 0 -0.0054001612358961833 -0.05762350208505617 0 -0.0045801119077977974 -0.056498915468477191 0 -0.0055544424831561554 -0.05609841983546849 0 -0.0045801119077977974 -0.056498915468477191 0 -0.0045806157706886862 -0.055406884864444485 0 -0.0055544424831561554 -0.05609841983546849 0 -0.0045806157706886862 -0.055406884864444485 0 -0.0055544424831561554 -0.05609841983546849 0 -0.0061917136002905045 -0.054728993139240227 0 -0.0055544424831561554 -0.05609841983546849 0 -0.0065185401886875844 -0.055459695677057684 0 -0.0060803360584539288 -0.056779833266219867 0 -0.0055544424831561554 -0.05609841983546849 0 -0.0061917136002905045 -0.054728993139240227 0 -0.0065185401886875844 -0.055459695677057684 0 -0.0061917136002905045 -0.054728993139240227 0 -0.0049340515990638073 -0.054289617703212868 0 -0.0057143212774377295 -0.053543314681685134 0 -0.0045806157706886862 -0.055406884864444485 0 -0.0061917136002905045 -0.054728993139240227 0 -0.0049340515990638073 -0.054289617703212868 0 -0.0045806157706886862 -0.055406884864444485 0 -0.0049340515990638073 -0.054289617703212868 0 -0.00407811892393296 -0.054407699200130367 0 -0.0045806157706886862 -0.055406884864444485 0 -0.00407811892393296 -0.054407699200130367 0 -0.00341956221699371 -0.054983686936507896 0 -0.00407811892393296 -0.054407699200130367 0 -0.00341956221699371 -0.054983686936507896 0 -0.0033740502900209703 -0.05411794453060674 0 -0.003704884966293091 -0.056434381776385531 0 -0.0045801119077977974 -0.056498915468477191 0 -0.0045806157706886862 -0.055406884864444485 0 -0.003704884966293091 -0.056434381776385531 0 -0.0045806157706886862 -0.055406884864444485 0 -0.00341956221699371 -0.054983686936507896 0 -0.0023918830247184452 -0.055846189084068548 0 -0.003704884966293091 -0.056434381776385531 0 -0.00341956221699371 -0.054983686936507896 0 -0.0023918830247184452 -0.055846189084068548 0 -0.00341956221699371 -0.054983686936507896 0 -0.0027258727311585068 -0.054502725787262139 0 -0.00341956221699371 -0.054983686936507896 0 -0.0027258727311585068 -0.054502725787262139 0 -0.0033740502900209703 -0.05411794453060674 0 -0.0061263423807791052 -0.06022317310059918 0 -0.0075170497318652945 -0.0576033633494 0 -0.0027258727311585068 -0.054502725787262139 0 -0.0033740502900209703 -0.05411794453060674 0 -0.0027101550551077327 -0.053479620550798038 0 -0.0033740502900209703 -0.05411794453060674 0 -0.0027101550551077327 -0.053479620550798038 0 -0.0041283641027558366 -0.053489592537901462 0 -0.014198898772448136 -0.054579883436432948 0 -0.012419164277424705 -0.054462973905168376 0 -0.012683717228781918 -0.055489882979140689 0 -0.0049340515990638073 -0.054289617703212868 0 -0.00407811892393296 -0.054407699200130367 0 -0.0041283641027558366 -0.053489592537901462 0 -0.00407811892393296 -0.054407699200130367 0 -0.0033740502900209703 -0.05411794453060674 0 -0.0041283641027558366 -0.053489592537901462 0 -0.0070838250938899932 -0.061247217591217686 0 -0.0069099067713344594 -0.061023434661056114 0 -0.0080976054640127162 -0.060661179889195629 0 -0.006292401007377252 -0.061822881645461528 0 -0.0079503616153107793 -0.060735208501979394 0 -0.0056462596132069234 -0.063616533079309298 0 -0.0062687888367564341 -0.063168124483475585 0 -0.0065763813565836186 -0.063337414651558427 0 -0.0084585558138775795 -0.059572565799046809 0 -0.0079503616153107793 -0.060735208501979394 0 -0.012419164277424705 -0.054462973905168376 0 -0.012683717228781918 -0.055489882979140689 0 -0.011444714049280809 -0.055255784156400811 0 -0.0056462596132069234 -0.063616533079309298 0 -0.0053346718159965794 -0.063511013216524762 0 -0.0059129899838115283 -0.06312514307529761 0 -0.0047243266992933394 -0.063888867650596676 0 -0.0056462596132069234 -0.063616533079309298 0 -0.0053346718159965794 -0.063511013216524762 0 -0.0048219720390911209 -0.062656471004573638 0 -0.006292401007377252 -0.061822881645461528 0 -0.0061263423807791052 -0.06022317310059918 0 -0.0084585558138775795 -0.059572565799046809 0 -0.0056657370318516009 -0.061410990703152903 0 -0.0060690321139918327 -0.061840993586906701 0 -0.0069099067713344594 -0.061023434661056114 0 -0.0060690321139918327 -0.061840993586906701 0 -0.0070838250938899932 -0.061247217591217686 0 -0.0069099067713344594 -0.061023434661056114 0 -0.0048219720390911209 -0.062656471004573638 0 -0.0050029947658102869 -0.062848222536826759 0 -0.0047091755717879958 -0.063590308835433165 0 -0.0051938931800667833 -0.063472182910571912 0 -0.0049434027820904683 -0.063352065452638828 0 -0.0048219720390911209 -0.062656471004573638 0 -0.0049415112276448578 -0.062872026380242529 0 -0.0047091755717879958 -0.063590308835433165 0 -0.0045617422696556968 -0.064059320385407209 0 -0.0051938931800667833 -0.063472182910571912 0 -0.0047637462211126257 -0.063857810303889387 0 -0.005344050223000287 -0.063492799218435689 0 -0.0052824399699718232 -0.063369608423139198 0 -0.0047091755717879958 -0.063590308835433165 0 -0.0049434027820904683 -0.063352065452638828 0 -0.0048105266263734616 -0.063107837936252978 0 -0.0050622938195943237 -0.063239814947792877 0 -0.0048105266263734616 -0.063107837936252978 0 -0.0053274630231370758 -0.062978557536055094 0 -0.0042984156809936606 -0.063128619378623962 0 -0.0048105266263734616 -0.063107837936252978 0 -0.0051005044429244884 -0.062545885752475439 0 -0.0051938931800667833 -0.063472182910571912 0 -0.0049434027820904683 -0.063352065452638828 0 -0.0050622938195943237 -0.063239814947792877 0 -0.0049434027820904683 -0.063352065452638828 0 -0.0050622938195943237 -0.063239814947792877 0 -0.0048105266263734616 -0.063107837936252978 0 -0.0048105266263734616 -0.063107837936252978 0 -0.0053274630231370758 -0.062978557536055094 0 -0.0051005044429244884 -0.062545885752475439 0 -0.0053274630231370758 -0.062978557536055094 0 -0.0058156959616479237 -0.062854587994537622 0 -0.0051005044429244884 -0.062545885752475439 0 -0.0051938931800667833 -0.063472182910571912 0 -0.0053274630231370758 -0.062978557536055094 0 -0.0058156959616479237 -0.062854587994537622 0 -0.0051938931800667833 -0.063472182910571912 0 -0.0050622938195943237 -0.063239814947792877 0 -0.0053274630231370758 -0.062978557536055094 0 -0.005344050223000287 -0.063492799218435689 0 -0.0052824399699718232 -0.063369608423139198 0 -0.0059129899838115283 -0.06312514307529761 0 -0.0049415112276448578 -0.062872026380242529 0 -0.0050968087978894277 -0.062824187752973118 0 -0.0050029947658102869 -0.062848222536826759 0 -0.0051508369138333985 -0.062839302891021853 0 -0.0058156959616479237 -0.062854587994537622 0 -0.0051005044429244884 -0.062545885752475439 0 -0.0062402368089215171 -0.062821261740660453 0 -0.0052824399699718232 -0.063369608423139198 0 -0.0059129899838115283 -0.06312514307529761 0 -0.0058156959616479237 -0.062854587994537622 0 -0.0056462596132069234 -0.063616533079309298 0 -0.0059129899838115283 -0.06312514307529761 0 -0.0062687888367564341 -0.063168124483475585 0 -0.0059129899838115283 -0.06312514307529761 0 -0.0062402368089215171 -0.062821261740660453 0 -0.0062687888367564341 -0.063168124483475585 0 -0.0059129899838115283 -0.06312514307529761 0 -0.0058156959616479237 -0.062854587994537622 0 -0.0062402368089215171 -0.062821261740660453 0 -0.0069891256906105615 -0.064480248951558794 0 -0.0074519099801749738 -0.062461447961142808 0 -0.0093405623323788399 -0.062091157254926213 0 -0.010654236651767924 -0.060809805950024894 0 -0.0090117371767082909 -0.060321997321057655 0 -0.010558976410225965 -0.062359023787925114 0 -0.0093405623323788399 -0.062091157254926213 0 -0.010654236651767924 -0.060809805950024894 0 -0.0083559201604752695 -0.061800372616029935 0 -0.0082074456300091966 -0.060545236880637045 0 -0.007803359604986339 -0.060877085920873229 0 -0.0082074456300091966 -0.060545236880637045 0 -0.007803359604986339 -0.060877085920873229 0 -0.0078638462412672552 -0.059957510578451688 0 -0.0083559201604752695 -0.061800372616029935 0 -0.0082074456300091966 -0.060545236880637045 0 -0.0090117371767082909 -0.060321997321057655 0 -0.0083559201604752695 -0.061800372616029935 0 -0.0093405623323788399 -0.062091157254926213 0 -0.0090117371767082909 -0.060321997321057655 0 -0.0082074456300091966 -0.060545236880637045 0 -0.0090117371767082909 -0.060321997321057655 0 -0.0080233542789384955 -0.059832826935373867 0 -0.0074519099801749738 -0.062461447961142808 0 -0.0079118157048808958 -0.060979611619921027 0 -0.0062402368089215171 -0.062821261740660453 0 -0.0067633080351695825 -0.063225600327123752 0 -0.0073104002880960504 -0.063100254407347275 0 -0.0062402368089215171 -0.062821261740660453 0 -0.0062687888367564341 -0.063168124483475585 0 -0.0067633080351695825 -0.063225600327123752 0 -0.0062687888367564341 -0.063168124483475585 0 -0.0065763813565836186 -0.063337414651558427 0 -0.0067633080351695825 -0.063225600327123752 0 -0.0079503616153107793 -0.060735208501979394 0 -0.0078820488062063612 -0.060792569559642483 0 -0.0065800962084275379 -0.063334858653887924 0 -0.0067633080351695825 -0.063225600327123752 0 -0.0073104002880960504 -0.063100254407347275 0 -0.0079503616153107793 -0.060735208501979394 0 -0.0079118157048808958 -0.060979611619921027 0 -0.0082074456300091966 -0.060545236880637045 0 -0.0080233542789384955 -0.059832826935373867 0 -0.0078638462412672552 -0.059957510578451688 0 -0.0093570016269537686 -0.056960203063268176 0 -0.0095593135885448152 -0.057030122941057394 0 -0.0090599221170424241 -0.056221732297128395 0 -0.0079234338162547692 -0.060967669922649639 0 -0.0079118157048808958 -0.060979611619921027 0 -0.011024633429749575 -0.056531185838664663 0 -0.0095593135885448152 -0.057030122941057394 0 -0.010025751975305846 -0.055765395121601967 0 -0.0095593135885448152 -0.057030122941057394 0 -0.0090599221170424241 -0.056221732297128395 0 -0.010025751975305846 -0.055765395121601967 0 -0.0090599221170424241 -0.056221732297128395 0 -0.010025751975305846 -0.055765395121601967 0 -0.0090431994061852018 -0.055218346484054742 0 -0.010025751975305846 -0.055765395121601967 0 -0.0090431994061852018 -0.055218346484054742 0 -0.010504319738239889 -0.054241396631924114 0 -0.012683717228781918 -0.055489882979140689 0 -0.011024633429749575 -0.056531185838664663 0 -0.011444714049280809 -0.055255784156400811 0 -0.011024633429749575 -0.056531185838664663 0 -0.010025751975305846 -0.055765395121601967 0 -0.011444714049280809 -0.055255784156400811 0 -0.010025751975305846 -0.055765395121601967 0 -0.011444714049280809 -0.055255784156400811 0 -0.010504319738239889 -0.054241396631924114 0 -0.012419164277424705 -0.054462973905168376 0 -0.011444714049280809 -0.055255784156400811 0 -0.010504319738239889 -0.054241396631924114 0 -0.0049340515990638073 -0.054289617703212868 0 -0.0041283641027558366 -0.053489592537901462 0 -0.0057143212774377295 -0.053543314681685134 0 -0.0075170497318652945 -0.0576033633494 0 -0.0077596113249693626 -0.056325555178524972 0 -0.0090431994061852018 -0.055218346484054742 0 -0.010504319738239889 -0.054241396631924114 0 -0.0077909195391745612 -0.054049927867547136 0 -0.0061917136002905045 -0.054728993139240227 0 -0.0057143212774377295 -0.053543314681685134 0 -0.0077909195391745612 -0.054049927867547136 0 -0.0077596113249693626 -0.056325555178524972 0 -0.0077231415061759122 -0.05595081713192341 0 -0.0077909195391745612 -0.054049927867547136 0 -0.0076505003266024718 -0.054645219449927507 0 -0.0076834008058054909 -0.05390917173265504 0 -0.0077909195391745612 -0.054049927867547136 0 -0.0076505003266024718 -0.054645219449927507 0 -0.0081862352412139239 -0.055493408183409129 0 -0.0076505003266024718 -0.054645219449927507 0 -0.0073017910078469672 -0.054600034946574137 0 -0.0076834008058054909 -0.05390917173265504 0 -0.0076505003266024718 -0.054645219449927507 0 -0.0073259381740496407 -0.056515477291164351 0 -0.0073017910078469672 -0.054600034946574137 0 -0.0076505003266024718 -0.054645219449927507 0 -0.0073259381740496407 -0.056515477291164351 0 -0.0081862352412139239 -0.055493408183409129 0 -0.0090431994061852018 -0.055218346484054742 0 -0.0077909195391745612 -0.054049927867547136 0 -0.0081862352412139239 -0.055493408183409129 0 -0.0090599221170424241 -0.056221732297128395 0 -0.0090431994061852018 -0.055218346484054742 0 -0.0081862352412139239 -0.055493408183409129 0 -0.0073259381740496407 -0.056515477291164351 0 -0.0081862352412139239 -0.055493408183409129 0 -0.0083000141349326359 -0.056690709868065708 0 -0.0090599221170424241 -0.056221732297128395 0 -0.0081862352412139239 -0.055493408183409129 0 -0.0083000141349326359 -0.056690709868065708 0 -0.0093570016269537686 -0.056960203063268176 0 -0.0090599221170424241 -0.056221732297128395 0 -0.0083000141349326359 -0.056690709868065708 0 -0.0093570016269537686 -0.056960203063268176 0 -0.0083000141349326359 -0.056690709868065708 0 -0.0073685824947549777 -0.058663697400532927 0 -0.0079118157048808958 -0.060979611619921027 0 -0.0078305934724692879 -0.060412358397328711 0 -0.0080233542789384955 -0.059832826935373867 0 -0.0073685824947549777 -0.058663697400532927 0 -0.0078638462412672552 -0.059957510578451688 0 -0.0093570016269537686 -0.056960203063268176 0 -0.0096099496036531843 -0.056959430458959313 0 -0.0073685824947549777 -0.058663697400532927 0 -0.0073259381740496407 -0.056515477291164351 0 -0.0073685824947549777 -0.058663697400532927 0 -0.0063880839084808618 -0.058892535855968889 0 -0.0073259381740496407 -0.056515477291164351 0 -0.0083000141349326359 -0.056690709868065708 0 -0.0073685824947549777 -0.058663697400532927 0 -0.0069768907284845257 -0.060881573427768135 0 -0.0073685824947549777 -0.058663697400532927 0 -0.0063880839084808618 -0.058892535855968889 0 -0.0059790272950913251 -0.060234334766627928 0 -0.0069768907284845257 -0.060881573427768135 0 -0.0063880839084808618 -0.058892535855968889 0 -0.0073685824947549777 -0.058663697400532927 0 -0.007803359604986339 -0.060877085920873229 0 -0.0078638462412672552 -0.059957510578451688 0 -0.0069768907284845257 -0.060881573427768135 0 -0.0073685824947549777 -0.058663697400532927 0 -0.007803359604986339 -0.060877085920873229 0 -0.0043809923296307734 -0.059284232186287603 0 -0.0054858577876704673 -0.059348855465681923 0 -0.0055994294825885381 -0.057541286830758473 0 -0.0050550249904675075 -0.060765955162909453 0 -0.0043809923296307734 -0.059284232186287603 0 -0.0054858577876704673 -0.059348855465681923 0 -0.0054858577876704673 -0.059348855465681923 0 -0.0063880839084808618 -0.058892535855968889 0 -0.0055994294825885381 -0.057541286830758473 0 -0.0059790272950913251 -0.060234334766627928 0 -0.0054858577876704673 -0.059348855465681923 0 -0.0063880839084808618 -0.058892535855968889 0 -0.0073259381740496407 -0.056515477291164351 0 -0.0063880839084808618 -0.058892535855968889 0 -0.0055994294825885381 -0.057541286830758473 0 -0.0043809923296307734 -0.059284232186287603 0 -0.0055994294825885381 -0.057541286830758473 0 -0.0039727064412584398 -0.057000034402861381 0 -0.0055994294825885381 -0.057541286830758473 0 -0.0056562603884355881 -0.054558331430584174 0 -0.0039727064412584398 -0.057000034402861381 0 -0.0055994294825885381 -0.057541286830758473 0 -0.0073017910078469672 -0.054600034946574137 0 -0.0056562603884355881 -0.054558331430584174 0 -0.0073259381740496407 -0.056515477291164351 0 -0.0055994294825885381 -0.057541286830758473 0 -0.0073017910078469672 -0.054600034946574137 0 -0.0073017910078469672 -0.054600034946574137 0 -0.0056562603884355881 -0.054558331430584174 0 -0.0083231146270155935 -0.052562960745272849 0 -0.0056562603884355881 -0.054558331430584174 0 -0.0083231146270155935 -0.052562960745272849 0 -0.0048265945942080777 -0.05078328961425066 0 -0.0083743439424692531 -0.046691596996829489 0 -0.0048265945942080777 -0.05078328961425066 0 -0.0050134250759170558 -0.046036259261717685 0 -0.0083231146270155935 -0.052562960745272849 0 -0.0083743439424692531 -0.046691596996829489 0 -0.0048265945942080777 -0.05078328961425066 0 -0.0083231146270155935 -0.052562960745272849 0 -0.007618495358381135 -0.055849649713355945 0 -0.010466171810836927 -0.056160515075762932 0 -0.0088736989847358165 -0.05218676600938426 0 -0.0088886827429229629 -0.05185863424328719 0 -0.0073017910078469672 -0.054600034946574137 0 -0.0083231146270155935 -0.052562960745272849 0 -0.0076834008058054909 -0.05390917173265504 0 -0.0061917136002905045 -0.054728993139240227 0 -0.0077909195391745612 -0.054049927867547136 0 -0.0076834008058054909 -0.05390917173265504 0 -0.0061917136002905045 -0.054728993139240227 0 -0.0076834008058054909 -0.05390917173265504 0 -0.0065185401886875844 -0.055459695677057684 0 -0.0076834008058054909 -0.05390917173265504 0 -0.0065185401886875844 -0.055459695677057684 0 -0.007618495358381135 -0.055849649713355945 0 -0.0083231146270155935 -0.052562960745272849 0 -0.0076834008058054909 -0.05390917173265504 0 -0.007618495358381135 -0.055849649713355945 0 -0.007618495358381135 -0.055849649713355945 0 -0.0060803360584539288 -0.056779833266219867 0 -0.0062579385602986723 -0.058369462298827654 0 -0.0065185401886875844 -0.055459695677057684 0 -0.007618495358381135 -0.055849649713355945 0 -0.0060803360584539288 -0.056779833266219867 0 -0.0054001612358961833 -0.05762350208505617 0 -0.0060803360584539288 -0.056779833266219867 0 -0.0062579385602986723 -0.058369462298827654 0 -0.0062579385602986723 -0.058369462298827654 0 -0.0087016317508788882 -0.059722969348839486 0 -0.0063832631403784425 -0.061691580321633216 0 -0.007618495358381135 -0.055849649713355945 0 -0.0062579385602986723 -0.058369462298827654 0 -0.0087016317508788882 -0.059722969348839486 0 -0.0087016317508788882 -0.059722969348839486 0 -0.011747563433585904 -0.060138275027943187 0 -0.010466171810836927 -0.056160515075762932 0 -0.0086480677196240363 -0.051606658048153342 0 -0.0088886827429229629 -0.05185863424328719 0 -0.0076618194071621081 -0.042299180486128213 0 -0.0083743439424692531 -0.046691596996829489 0 -0.0050134250759170558 -0.046036259261717685 0 -0.007618495358381135 -0.055849649713355945 0 -0.0087016317508788882 -0.059722969348839486 0 -0.010466171810836927 -0.056160515075762932 0 -0.0096569900971640952 -0.064821337989535571 0 -0.012352284649907241 -0.06458495840969658 0 -0.0099386956864350746 -0.062390276578455715 0 -0.0096569900971640952 -0.064821337989535571 0 -0.0099386956864350746 -0.062390276578455715 0 -0.0078894680975944223 -0.063253547233785873 0 -0.0086480677196240363 -0.051606658048153342 0 -0.0077917424839758324 -0.051493569971080143 0 -0.011747563433585904 -0.060138275027943187 0 -0.012352284649907241 -0.06458495840969658 0 -0.0099386956864350746 -0.062390276578455715 0 -0.0076618194071621081 -0.042299180486128213 0 -0.0068545590475210718 -0.038532545757223119 0 -0.0043581765144935876 -0.039628449178443027 0 -0.0087016317508788882 -0.059722969348839486 0 -0.011747563433585904 -0.060138275027943187 0 -0.0099386956864350746 -0.062390276578455715 0 -0.0087016317508788882 -0.059722969348839486 0 -0.0099386956864350746 -0.062390276578455715 0 -0.0078894680975944223 -0.063253547233785873 0 -0.0087016317508788882 -0.059722969348839486 0 -0.0063832631403784425 -0.061691580321633216 0 -0.0078894680975944223 -0.063253547233785873 0 -0.0063832631403784425 -0.061691580321633216 0 -0.004871096895113624 -0.065296036515112427 0 -0.0037564786006599161 -0.061838920143680552 0 -0.0062579385602986723 -0.058369462298827654 0 -0.0063832631403784425 -0.061691580321633216 0 -0.0037564786006599161 -0.061838920143680552 0 -0.0063832631403784425 -0.061691580321633216 0 -0.004871096895113624 -0.065296036515112427 0 -0.0078894680975944223 -0.063253547233785873 0 -0.004871096895113624 -0.065296036515112427 0 -0.0078894680975944223 -0.063253547233785873 0 -0.0073286558219291028 -0.065965550785192825 0 -0.0096569900971640952 -0.064821337989535571 0 -0.0078894680975944223 -0.063253547233785873 0 -0.0073286558219291028 -0.065965550785192825 0 -0.0073286558219291028 -0.065965550785192825 0 -0.0060067251462951029 -0.068273429525595813 0 -0.010153015379872687 -0.067126090864897639 0 -0.0061118435474887345 -0.067752268764156243 0 -0.0077844253438662378 -0.067540377989471795 0 -0.0060067251462951029 -0.068273429525595813 0 -0.0039502463944116302 -0.067335992520802579 0 -0.001849553614380462 -0.068933064512154266 0 -0.004871096895113624 -0.065296036515112427 0 -0.0054582243691837342 -0.0667750221082518 0 -0.0039502463944116302 -0.067335992520802579 0 -0.0073286558219291028 -0.065965550785192825 0 -0.0054582243691837342 -0.0667750221082518 0 -0.0060067251462951029 -0.068273429525595813 0 -0.004871096895113624 -0.065296036515112427 0 -0.0073286558219291028 -0.065965550785192825 0 -0.0054582243691837342 -0.0667750221082518 0 -0.0054582243691837342 -0.0667750221082518 0 -0.0060067251462951029 -0.068273429525595813 0 -0.0039502463944116302 -0.067335992520802579 0 -0.0061118435474887345 -0.067752268764156243 0 -0.0030720434879958828 -0.068063030318258874 0 -0.007231058481994344 -0.067406753108024089 0 -0.0070624173565586364 -0.068323641913906497 0 -0.0058485528420293446 -0.068434097955995241 0 -0.0031608162742164537 -0.060572066238197816 0 -0.0037231846867251442 -0.058387545172308507 0 -0.0070624173565586364 -0.068323641913906497 0 -0.0061533534668694236 -0.069518509182811092 0 -0.0058485528420293446 -0.068434097955995241 0 -0.007231058481994344 -0.067406753108024089 0 -0.008820630625760318 -0.068203618997133494 0 -0.010153015379872687 -0.067126090864897639 0 -0.0070624173565586364 -0.068323641913906497 0 -0.008820630625760318 -0.068203618997133494 0 -0.0093876648925285775 -0.070500543367492952 0 -0.007231058481994344 -0.067406753108024089 0 -0.0070624173565586364 -0.068323641913906497 0 -0.008820630625760318 -0.068203618997133494 0 -0.010709496339900702 -0.069030200322969137 0 -0.010153015379872687 -0.067126090864897639 0 -0.012442725257659923 -0.068157417102169909 0 -0.008820630625760318 -0.068203618997133494 0 -0.010709496339900702 -0.069030200322969137 0 -0.0093876648925285775 -0.070500543367492952 0 -0.008820630625760318 -0.068203618997133494 0 -0.010709496339900702 -0.069030200322969137 0 -0.010153015379872687 -0.067126090864897639 0 -0.0096569900971640952 -0.064821337989535571 0 -0.0073286558219291028 -0.065965550785192825 0 -0.010153015379872687 -0.067126090864897639 0 -0.0096569900971640952 -0.064821337989535571 0 -0.012352284649907241 -0.06458495840969658 0 -0.010153015379872687 -0.067126090864897639 0 -0.0077917424839758324 -0.051493569971080143 0 -0.0057635390106868679 -0.050535741901395988 0 -0.012352284649907241 -0.06458495840969658 0 -0.010153015379872687 -0.067126090864897639 0 -0.012442725257659923 -0.068157417102169909 0 -0.0068545590475210718 -0.038532545757223119 0 -0.0055425983315726532 -0.034449960694070192 0 -0.0049104730270100386 -0.036718951841382352 0 -0.0057635390106868679 -0.050535741901395988 0 -0.0012586298724613424 -0.045166403022958219 0 -0.0055425983315726532 -0.034449960694070192 0 -0.0038169252782197802 -0.030639895735333302 0 -0.0036924972648283011 -0.032173133621638199 0 -0.010709496339900702 -0.069030200322969137 0 -0.012442725257659923 -0.068157417102169909 0 -0.01270680847549679 -0.071099445887120721 0 -0.0042287229874859115 -0.052822772338826249 0 -0.0012586298724613424 -0.045166403022958219 0 -0.010709496339900702 -0.069030200322969137 0 -0.0093876648925285775 -0.070500543367492952 0 -0.01270680847549679 -0.071099445887120721 0 -0.00057813009780790245 -0.039140831210391809 0 -0.00045174054183300274 -0.038746321764352498 0 -0.00046027240727163668 -0.039627666663409569 0 -0.00057813009780790245 -0.039140831210391809 0 9.9029657215722033e-05 -0.03966687798499742 0 -0.00045174054183300274 -0.038746321764352498 0 9.9029657215722033e-05 -0.03966687798499742 0 -0.00045174054183300274 -0.038746321764352498 0 0.00018557642564846785 -0.036472612563389746 0 -0.0012586298724613424 -0.045166403022958219 0 -0.00033001244932441169 -0.038757239522813978 0 -0.00045174054183300274 -0.038746321764352498 0 -0.00028527166191439799 -0.038502227660981582 0 0.00018557642564846785 -0.036472612563389746 0 -0.00045174054183300274 -0.038746321764352498 0 -0.00028527166191439799 -0.038502227660981582 0 -0.00046027240727163668 -0.039627666663409569 0 -0.00028527166191439799 -0.038502227660981582 0 -0.00046027240727163668 -0.039627666663409569 0 -0.00028544519875473023 -0.040423800434124024 0 -0.00028544519875473023 -0.040423800434124024 0 -8.5134534451717831e-08 -0.038682408139562877 0 -2.8362349284721115e-07 -0.043174130613794014 0 -0.00028527166191439799 -0.038502227660981582 0 -8.5134534451717831e-08 -0.038682408139562877 0 0.00018557642564846785 -0.036472612563389746 0 -0.00028527166191439799 -0.038502227660981582 0 -0.00028544519875473023 -0.040423800434124024 0 -8.5134534451717831e-08 -0.038682408139562877 0 0.00024823150716249084 -0.045396996488599337 0 -2.8362349284721115e-07 -0.043174130613794014 0 1.0727546247093724e-06 -0.047670997811328157 0 0.0013120989391939698 -0.042554722739334333 0 0.00024823150716249084 -0.045396996488599337 0 -2.3910459561616582e-05 -0.04198044070557904 0 0.0013120989391939698 -0.042554722739334333 0 0.00024823150716249084 -0.045396996488599337 0 0.0031727354256429153 -0.043234254556690159 0 -0.00028544519875473023 -0.040423800434124024 0 -2.8362349284721115e-07 -0.043174130613794014 0 -2.3910459561616582e-05 -0.04198044070557904 0 0.00024823150716249084 -0.045396996488599337 0 -2.8362349284721115e-07 -0.043174130613794014 0 -2.3910459561616582e-05 -0.04198044070557904 0 -0.00046027240727163668 -0.039627666663409569 0 -0.00028544519875473023 -0.040423800434124024 0 -2.3910459561616582e-05 -0.04198044070557904 0 -0.00046027240727163668 -0.039627666663409569 0 -2.3910459561616582e-05 -0.04198044070557904 0 -2.3498450210222697e-05 -0.040018561538539173 0 -2.3910459561616582e-05 -0.04198044070557904 0 0.0011114976285645705 -0.040804185151985722 0 -2.3498450210222697e-05 -0.040018561538539173 0 0.0013120989391939698 -0.042554722739334333 0 -2.3910459561616582e-05 -0.04198044070557904 0 0.0011114976285645705 -0.040804185151985722 0 0.0013120989391939698 -0.042554722739334333 0 0.0011114976285645705 -0.040804185151985722 0 0.0027319374021788057 -0.041458243785814072 0 0.0011114976285645705 -0.040804185151985722 0 0.00080402897250786138 -0.039536353863236347 0 0.0030398005118552119 -0.039777768892018131 0 0.00080402897250786138 -0.039536353863236347 0 0.0015079646461870044 -0.038234660910063077 0 0.0030398005118552119 -0.039777768892018131 0 0.0011114976285645705 -0.040804185151985722 0 0.00080402897250786138 -0.039536353863236347 0 -2.3498450210222697e-05 -0.040018561538539173 0 -0.00057813009780790245 -0.039140831210391809 0 0.00080402897250786138 -0.039536353863236347 0 -2.3498450210222697e-05 -0.040018561538539173 0 -0.00057813009780790245 -0.039140831210391809 0 -0.00046027240727163668 -0.039627666663409569 0 -2.3498450210222697e-05 -0.040018561538539173 0 -0.0042287229874859115 -0.052822772338826249 0 -0.0037231846867251442 -0.058387545172308507 0 -0.0070624173565586364 -0.068323641913906497 0 -0.0093876648925285775 -0.070500543367492952 0 -0.0060316855003880046 -0.06982054640836835 0 -0.00057813009780790245 -0.039140831210391809 0 0.00080402897250786138 -0.039536353863236347 0 0.0015079646461870044 -0.038234660910063077 0 -0.0037231846867251442 -0.058387545172308507 0 -0.0022926492651741117 -0.053006904129861414 0 -0.0021068871342398701 -0.058374914224478193 0 -0.0024842946063876876 -0.058449717046389064 0 -0.0023555449481255613 -0.057993583799393393 0 -0.0037231846867251442 -0.058387545172308507 0 -0.003838407726907966 -0.060837592336452175 0 -0.0061533534668694236 -0.069518509182811092 0 -0.0042663404659900256 -0.069082693925426666 0 -0.0058485528420293446 -0.068434097955995241 0 -0.0024842946063876876 -0.058449717046389064 0 -0.0026113567241382945 -0.058194242778962825 0 -0.002869114665260446 -0.058529017453098145 0 -0.0024842946063876876 -0.058449717046389064 0 -0.0026113567241382945 -0.058194242778962825 0 -0.0023555449481255613 -0.057993583799393393 0 -0.0026113567241382945 -0.058194242778962825 0 -0.0026481784430638349 -0.057931662018973269 0 -0.002858474788780273 -0.058134439424342037 0 -0.0026113567241382945 -0.058194242778962825 0 -0.0026481784430638349 -0.057931662018973269 0 -0.0023555449481255613 -0.057993583799393393 0 0.0027319374021788057 -0.041458243785814072 0 0.0049456685020112436 -0.042077739639331799 0 0.0031727354256429153 -0.043234254556690159 0 0.0030398005118552119 -0.039777768892018131 0 0.0027319374021788057 -0.041458243785814072 0 0.0049456685020112436 -0.042077739639331799 0 0.0011114976285645705 -0.040804185151985722 0 0.0030398005118552119 -0.039777768892018131 0 0.0027319374021788057 -0.041458243785814072 0 0.0013120989391939698 -0.042554722739334333 0 0.0027319374021788057 -0.041458243785814072 0 0.0031727354256429153 -0.043234254556690159 0 -0.0022926492651741117 -0.053006904129861414 0 -0.00017995806132977844 -0.052341361480766582 0 -0.0026481784430638349 -0.057931662018973269 0 -0.0026033980284796867 -0.05760908224155864 0 -0.0028460992099377663 -0.057739852257610504 0 -0.0026481784430638349 -0.057931662018973269 0 -0.0023555449481255613 -0.057993583799393393 0 -0.0026033980284796867 -0.05760908224155864 0 -0.00017995806132977844 -0.052341361480766582 0 -0.00079129988365103459 -0.056965491221114141 0 -0.00017995806132977844 -0.052341361480766582 0 0.0010178756413537794 -0.050187991645976454 0 -0.00017995806132977844 -0.052341361480766582 0 -4.6607096194915385e-05 -0.052399517016840542 0 1.0727546247093724e-06 -0.047670997811328157 0 -0.00012687209257959331 -0.048639916499654441 0 5.972226460672019e-06 -0.05189083699546064 0 1.0727546247093724e-06 -0.047670997811328157 0 5.972226460672019e-06 -0.05189083699546064 0 -1.4985103213336096e-07 -0.052158159953680949 0 0.00010280494264846298 -0.049464240596560106 0 -0.00012687209257959331 -0.048639916499654441 0 5.972226460672019e-06 -0.05189083699546064 0 0.0010077070942418615 -0.049673065873398974 0 0.0010178756413537794 -0.050187991645976454 0 0.00024823150716249084 -0.045396996488599337 0 1.0727546247093724e-06 -0.047670997811328157 0 -0.00012687209257959331 -0.048639916499654441 0 -1.8040886824146432e-06 -0.055762917961514627 0 -0.00018987951908356788 -0.05517540257941244 0 3.0251837006767607e-06 -0.052169231960734218 0 -1.8040886824146432e-06 -0.055762917961514627 0 -0.00018987951908356788 -0.05517540257941244 0 -0.00045765329928459779 -0.05664656688255023 0 0.00032957209220741931 -0.053127226383355375 0 0.00064647668368854739 -0.053588258991257194 0 0.0006535166630877036 -0.052960351930862647 0 -0.00018987951908356788 -0.05517540257941244 0 0.00020456657661662483 -0.052585414769933204 0 0.00092423248484900728 -0.056265555990687666 0 -0.00018987951908356788 -0.05517540257941244 0 0.00020456657661662483 -0.052585414769933204 0 3.0251837006767607e-06 -0.052169231960734218 0 -4.6607096194915385e-05 -0.052399517016840542 0 -0.00079129988365103459 -0.056965491221114141 0 -4.6607096194915385e-05 -0.052399517016840542 0 -1.4338883209625546e-06 -0.052167013605918688 0 -0.00018987951908356788 -0.05517540257941244 0 0.00092423248484900728 -0.056265555990687666 0 -0.0003125582605515332 -0.056670247218824986 0 -0.00079129988365103459 -0.056965491221114141 0 -0.00071398985629192099 -0.061257368407082596 0 -0.0003125582605515332 -0.056670247218824986 0 -0.00036596745002415225 -0.056560655792128538 0 -0.00045765329928459779 -0.05664656688255023 0 -0.00018987951908356788 -0.05517540257941244 0 -0.0003125582605515332 -0.056670247218824986 0 -0.00045765329928459779 -0.05664656688255023 0 -0.00071398985629192099 -0.061257368407082596 0 0.00026214859268042191 -0.064862487634851265 0 -0.0024125042725652228 -0.068190544017726881 0 -0.0024054893287907917 -0.068238246218011694 0 -0.0024569068966148974 -0.068218621396468823 0 -0.0026481784430638349 -0.057931662018973269 0 -0.0028460992099377663 -0.057739852257610504 0 -0.002858474788780273 -0.058134439424342037 0 -0.00079129988365103459 -0.056965491221114141 0 -0.0024175054547035282 -0.061175064916513408 0 -0.0023628762047654662 -0.0681422086862183 0 -0.0024125042725652228 -0.068190544017726881 0 -0.0023817605518971397 -0.068234992154730514 0 -0.0024125042725652228 -0.068190544017726881 0 -0.0024054893287907917 -0.068238246218011694 0 -0.0023817605518971397 -0.068234992154730514 0 -0.0026113567241382945 -0.058194242778962825 0 -0.002858474788780273 -0.058134439424342037 0 -0.002869114665260446 -0.058529017453098145 0 -0.0023817605518971397 -0.068234992154730514 0 -0.0024159705461437404 -0.068257631179383202 0 -0.0024565631092693307 -0.068246520405227384 0 -0.0024175054547035282 -0.061175064916513408 0 -0.0039353706958441675 -0.062286058933350708 0 -0.0024054893287907917 -0.068238246218011694 0 -0.0023817605518971397 -0.068234992154730514 0 -0.0024159705461437404 -0.068257631179383202 0 -0.0024159705461437404 -0.068257631179383202 0 -0.0023930484847793404 -0.068283248077409528 0 -0.0024599246438157729 -0.068244188580004056 0 -0.0024159705461437404 -0.068257631179383202 0 -0.0024565631092693307 -0.068246520405227384 0 -0.0024599246438157729 -0.068244188580004056 0 -0.0024054893287907917 -0.068238246218011694 0 -0.0023930484847793404 -0.068283248077409528 0 -0.0024569068966148974 -0.068218621396468823 0 0.0010087333995819766 -0.067451391046975687 0 0.00026214859268042191 -0.064862487634851265 0 -0.0024054893287907917 -0.068238246218011694 0 -0.0024159705461437404 -0.068257631179383202 0 -0.0023930484847793404 -0.068283248077409528 0 0.0043866117179262865 -0.070305733038309212 0 0.004027964450384146 -0.070387298760919773 0 0.0038743058130123811 -0.069948432511968001 0 0.0044010840414669275 -0.069721940140851701 0 0.0043866117179262865 -0.070305733038309212 0 0.0038743058130123811 -0.069948432511968001 0 0.0044010840414669275 -0.069721940140851701 0 0.0043866117179262865 -0.070305733038309212 0 0.0049202744974017618 -0.070370531797386435 0 0.0043866117179262865 -0.070305733038309212 0 0.0044255490691642689 -0.070159174707169897 0 0.004027964450384146 -0.070387298760919773 0 0.0044255490691642689 -0.070159174707169897 0 0.0040127879353353841 -0.070570382070453963 0 0.004027964450384146 -0.070387298760919773 0 0.0044255490691642689 -0.070159174707169897 0 0.0040127879353353841 -0.070570382070453963 0 0.0042737765199259261 -0.070300164946385219 0 0.0045943096343087578 -0.069187668423111401 0 0.0038888852814157001 -0.070110038376156036 0 0.001805424940342547 -0.070027237672488724 0 0.0044255490691642689 -0.070159174707169897 0 0.0045943096343087578 -0.069187668423111401 0 0.0042737765199259261 -0.070300164946385219 0 0.0044255490691642689 -0.070159174707169897 0 0.0045943096343087578 -0.069187668423111401 0 0.0038888852814157001 -0.070110038376156036 0 0.0044255490691642689 -0.070159174707169897 0 0.0038888852814157001 -0.070110038376156036 0 0.0040538809406342156 -0.07085867936014921 0 0.00068690249501240366 -0.068300606410999776 0 0.00047845348870614011 -0.068083480785573275 0 0.0038888852814157001 -0.070110038376156036 0 0.0040538809406342156 -0.07085867936014921 0 0.001805424940342547 -0.070027237672488724 0 0.0043866117179262865 -0.070305733038309212 0 0.0044255490691642689 -0.070159174707169897 0 0.0040538809406342156 -0.07085867936014921 0 0.0015695470782758159 -0.068523025617846275 0 0.00068690249501240366 -0.068300606410999776 0 -0.0023930484847793404 -0.068283248077409528 0 -0.0024096297790681151 -0.068070250984677755 0 -0.0024599246438157729 -0.068244188580004056 0 0.0010087333995819766 -0.067451391046975687 0 0.00068690249501240366 -0.068300606410999776 0 -0.0039274926045811259 -0.06245118391298226 0 -0.0039353706958441675 -0.062286058933350708 0 -0.0024096297790681151 -0.068070250984677755 0 -0.0025330060805813155 -0.068274827477642852 0 -0.0024599246438157729 -0.068244188580004056 0 -0.0025330060805813155 -0.068274827477642852 0 -0.0024764116474370679 -0.068250314074654941 0 -0.0024599246438157729 -0.068244188580004056 0 -0.0039353706958441675 -0.062286058933350708 0 -0.0039302283450373112 -0.062297912485519108 0 0.00068690249501240366 -0.068300606410999776 0 -0.0030720434879958828 -0.068063030318258874 0 -0.003838407726907966 -0.060837592336452175 0 -0.0039353706958441675 -0.062286058933350708 0 -0.0042663404659900256 -0.069082693925426666 0 -0.0025330060805813155 -0.068274827477642852 0 -0.0025369014333810279 -0.068660926205582853 0 -0.0024096297790681151 -0.068070250984677755 0 -0.0025330060805813155 -0.068274827477642852 0 -0.0046331756049146685 -0.067724782488970001 0 -0.0042663404659900256 -0.069082693925426666 0 -0.0025330060805813155 -0.068274827477642852 0 -0.0046331756049146685 -0.067724782488970001 0 -0.0042663404659900256 -0.069082693925426666 0 -0.0058485528420293446 -0.068434097955995241 0 -0.0046331756049146685 -0.067724782488970001 0 -0.007231058481994344 -0.067406753108024089 0 -0.0058485528420293446 -0.068434097955995241 0 -0.0046331756049146685 -0.067724782488970001 0 -0.004871096895113624 -0.065296036515112427 0 -0.0039502463944116302 -0.067335992520802579 0 -0.0020457487935892373 -0.067079630296023721 0 -0.0039502463944116302 -0.067335992520802579 0 -0.001849553614380462 -0.068933064512154266 0 -0.0020457487935892373 -0.067079630296023721 0 0.0017030570318037526 -0.069321432029620308 0 -0.001849553614380462 -0.068933064512154266 0 -8.9413660420039774e-05 -0.067378767977080936 0 -0.001849553614380462 -0.068933064512154266 0 -0.0020457487935892373 -0.067079630296023721 0 -8.9413660420039774e-05 -0.067378767977080936 0 -0.0020457487935892373 -0.067079630296023721 0 -8.9413660420039774e-05 -0.067378767977080936 0 -0.0017259018178244383 -0.065606983909089076 0 0.00047845348870614011 -0.068083480785573275 0 -3.8909019175780853e-05 -0.06752361799790299 0 0.0045943096343087578 -0.069187668423111401 0 0.001805424940342547 -0.070027237672488724 0 0.0021912837864133789 -0.064334779310277188 0 0.001805424940342547 -0.070027237672488724 0 0.0021912837864133789 -0.064334779310277188 0 -0.0017259018178244383 -0.065606983909089076 0 -0.004871096895113624 -0.065296036515112427 0 -0.0020457487935892373 -0.067079630296023721 0 -0.0017259018178244383 -0.065606983909089076 0 -0.004871096895113624 -0.065296036515112427 0 -0.0017259018178244383 -0.065606983909089076 0 -0.0037564786006599161 -0.061838920143680552 0 -0.00180430455513984 -0.058269987302683748 0 -0.0037564786006599161 -0.061838920143680552 0 -0.00082543099363782018 -0.061782901489029991 0 -0.0017259018178244383 -0.065606983909089076 0 -0.0037564786006599161 -0.061838920143680552 0 -0.00082543099363782018 -0.061782901489029991 0 0.0021912837864133789 -0.064334779310277188 0 -0.0017259018178244383 -0.065606983909089076 0 -0.00082543099363782018 -0.061782901489029991 0 0.0031538071669567061 -0.057985682603119544 0 0.0021912837864133789 -0.064334779310277188 0 -0.00082543099363782018 -0.061782901489029991 0 0.0031538071669567061 -0.057985682603119544 0 0.0021912837864133789 -0.064334779310277188 0 0.0067379463468009888 -0.063011949909019108 0 -0.00014224426668277737 -0.064525416111271508 0 0.0017971386103473785 -0.066096483153505733 0 0.0047161661289225019 -0.071661036561482774 0 0.0037998627766276322 -0.071335218182776036 0 0.0037849135117532838 -0.07225691190828995 0 0.0042852519419972167 -0.07294793460260382 0 0.0047161661289225019 -0.071661036561482774 0 0.0037849135117532838 -0.07225691190828995 0 0.0040127879353353841 -0.070570382070453963 0 0.0037998627766276322 -0.071335218182776036 0 0.0042737765199259261 -0.070300164946385219 0 0.0047161661289225019 -0.071661036561482774 0 0.0037998627766276322 -0.071335218182776036 0 0.0042737765199259261 -0.070300164946385219 0 0.0045943096343087578 -0.069187668423111401 0 0.0021912837864133789 -0.064334779310277188 0 0.0067379463468009888 -0.063011949909019108 0 0.0021532352413507426 -0.0670682918136071 0 0.0017971386103473785 -0.066096483153505733 0 0.0045943096343087578 -0.069187668423111401 0 0.0047161661289225019 -0.071661036561482774 0 0.0042737765199259261 -0.070300164946385219 0 0.0025390323345359819 -0.072062944713581475 0 0.0032315748802520757 -0.071417377086789705 0 0.0025072400494640188 -0.071411219941771895 0 0.0040127879353353841 -0.070570382070453963 0 0.0037998627766276322 -0.071335218182776036 0 0.0032315748802520757 -0.071417377086789705 0 0.0037998627766276322 -0.071335218182776036 0 0.0032315748802520757 -0.071417377086789705 0 0.0030665384955247876 -0.072265963589356219 0 0.0037998627766276322 -0.071335218182776036 0 0.0037849135117532838 -0.07225691190828995 0 0.0030665384955247876 -0.072265963589356219 0 0.0025390323345359819 -0.072062944713581475 0 0.0032315748802520757 -0.071417377086789705 0 0.0030665384955247876 -0.072265963589356219 0 0.0025390323345359819 -0.072062944713581475 0 0.0030665384955247876 -0.072265963589356219 0 0.0022256984489448101 -0.072627332939339609 0 0.0025390323345359819 -0.072062944713581475 0 0.0022256984489448101 -0.072627332939339609 0 0.0018010392627157406 -0.072520278901378327 0 0.001413859818598578 -0.074409182849520694 0 0.0018010392627157406 -0.072520278901378327 0 0.00065238307231268978 -0.073864657018306426 0 0.0018511554553843853 -0.072915789875236309 0 0.0022256984489448101 -0.072627332939339609 0 0.0018010392627157406 -0.072520278901378327 0 0.00088226532291511199 -0.073334932428818361 0 0.0011502680810365348 -0.072952491814306852 0 0.0018010392627157406 -0.072520278901378327 0 0.001655575121224923 -0.071740764687071162 0 0.00097486048270072241 -0.072511826201783522 0 0.0018010392627157406 -0.072520278901378327 0 0.00097486048270072241 -0.072511826201783522 0 0.00065238307231268978 -0.073864657018306426 0 0.0018010392627157406 -0.072520278901378327 0 0.0025072400494640188 -0.071411219941771895 0 0.001655575121224923 -0.071740764687071162 0 0.0025390323345359819 -0.072062944713581475 0 0.0018010392627157406 -0.072520278901378327 0 0.0025072400494640188 -0.071411219941771895 0 0.0025072400494640188 -0.071411219941771895 0 0.001655575121224923 -0.071740764687071162 0 0.0017866956976200141 -0.070867472612070215 0 0.001655575121224923 -0.071740764687071162 0 0.0010414193358302272 -0.071342416220874491 0 0.0017866956976200141 -0.070867472612070215 0 0.001655575121224923 -0.071740764687071162 0 0.0010414193358302272 -0.071342416220874491 0 0.00097486048270072241 -0.072511826201783522 0 0.00091446322415929943 -0.070540052239463122 0 0.0017866956976200141 -0.070867472612070215 0 0.0014095049365687247 -0.069791300036380274 0 0.0010414193358302272 -0.071342416220874491 0 0.00091446322415929943 -0.070540052239463122 0 0.0017866956976200141 -0.070867472612070215 0 0.0010414193358302272 -0.071342416220874491 0 0.00091446322415929943 -0.070540052239463122 0 0.0005874776313341 -0.070949899722671919 0 0.0025072400494640188 -0.071411219941771895 0 0.0017866956976200141 -0.070867472612070215 0 0.0027601464827677943 -0.070225380601614484 0 0.0017866956976200141 -0.070867472612070215 0 0.0027601464827677943 -0.070225380601614484 0 0.0014095049365687247 -0.069791300036380274 0 0.0027601464827677943 -0.070225380601614484 0 0.0034929969563671018 -0.070621066053404846 0 0.0038743058130123811 -0.069948432511968001 0 0.0025072400494640188 -0.071411219941771895 0 0.0027601464827677943 -0.070225380601614484 0 0.0034929969563671018 -0.070621066053404846 0 0.0032315748802520757 -0.071417377086789705 0 0.0025072400494640188 -0.071411219941771895 0 0.0034929969563671018 -0.070621066053404846 0 0.0040127879353353841 -0.070570382070453963 0 0.0032315748802520757 -0.071417377086789705 0 0.0034929969563671018 -0.070621066053404846 0 0.0040127879353353841 -0.070570382070453963 0 0.0034929969563671018 -0.070621066053404846 0 0.004027964450384146 -0.070387298760919773 0 0.0034929969563671018 -0.070621066053404846 0 0.004027964450384146 -0.070387298760919773 0 0.0038743058130123811 -0.069948432511968001 0 0.0044010840414669275 -0.069721940140851701 0 0.0038743058130123811 -0.069948432511968001 0 0.003935598645831621 -0.069070406821876498 0 0.0038743058130123811 -0.069948432511968001 0 0.003359204370078184 -0.069277849799502023 0 0.003935598645831621 -0.069070406821876498 0 0.0027601464827677943 -0.070225380601614484 0 0.0038743058130123811 -0.069948432511968001 0 0.003359204370078184 -0.069277849799502023 0 0.0027601464827677943 -0.070225380601614484 0 0.003359204370078184 -0.069277849799502023 0 0.0017741738667308735 -0.068417563182877186 0 0.003359204370078184 -0.069277849799502023 0 0.0034832884310632725 -0.066035711925893553 0 0.0017741738667308735 -0.068417563182877186 0 0.003359204370078184 -0.069277849799502023 0 0.0053014150561892202 -0.068285818220766736 0 0.0034832884310632725 -0.066035711925893553 0 0.00026214859268042191 -0.064862487634851265 0 0.00025692184936408651 -0.06299559619899249 0 0.0010548914204456454 -0.065298348973056614 0 0.00026214859268042191 -0.064862487634851265 0 -0.00036596745002415225 -0.056560655792128538 0 -0.00045765329928459779 -0.05664656688255023 0 0.00019491692995017164 -0.057430278600147135 0 0.00019491692995017164 -0.057430278600147135 0 -8.2072531750714549e-07 -0.059207953832229689 0 2.2176502803423568e-06 -0.062646140705779438 0 -0.00045765329928459779 -0.05664656688255023 0 0.00019491692995017164 -0.057430278600147135 0 -8.2072531750714549e-07 -0.059207953832229689 0 -1.8040886824146432e-06 -0.055762917961514627 0 -0.00045765329928459779 -0.05664656688255023 0 -8.2072531750714549e-07 -0.059207953832229689 0 -0.00025724929402665369 -0.065196979542682526 0 4.5876735239452133e-06 -0.062660860054462628 0 0.00012139305329160643 -0.065978187443159322 0 -0.00025724929402665369 -0.065196979542682526 0 4.5876735239452133e-06 -0.062660860054462628 0 -3.2792843199322674e-06 -0.06630986822527421 0 4.5876735239452133e-06 -0.062660860054462628 0 0.0011621539697260095 -0.066303480170419163 0 0.00012139305329160643 -0.065978187443159322 0 0.0034832884310632725 -0.066035711925893553 0 4.5876735239452133e-06 -0.062660860054462628 0 0.0011621539697260095 -0.066303480170419163 0 0.00025692184936408651 -0.06299559619899249 0 -6.1812105296791922e-08 -0.062650823077539858 0 0.0034832884310632725 -0.066035711925893553 0 0.0011621539697260095 -0.066303480170419163 0 0.0017741738667308735 -0.068417563182877186 0 0.0011621539697260095 -0.066303480170419163 0 0.00045459216436853064 -0.067053517439025809 0 0.00012139305329160643 -0.065978187443159322 0 -0.00025724929402665369 -0.065196979542682526 0 0.00012139305329160643 -0.065978187443159322 0 -0.0006027863926384451 -0.065755525311516946 0 0.00045459216436853064 -0.067053517439025809 0 0.00012139305329160643 -0.065978187443159322 0 -0.0006027863926384451 -0.065755525311516946 0 0.00045459216436853064 -0.067053517439025809 0 0.00013472017216830637 -0.068611735491904996 0 0.0017741738667308735 -0.068417563182877186 0 0.00045459216436853064 -0.067053517439025809 0 0.00013472017216830637 -0.068611735491904996 0 -0.0006027863926384451 -0.065755525311516946 0 0.0011621539697260095 -0.066303480170419163 0 0.00045459216436853064 -0.067053517439025809 0 0.0017741738667308735 -0.068417563182877186 0 0.0027601464827677943 -0.070225380601614484 0 0.0017741738667308735 -0.068417563182877186 0 0.0014095049365687247 -0.069791300036380274 0 0.00013472017216830637 -0.068611735491904996 0 0.0017741738667308735 -0.068417563182877186 0 0.0014095049365687247 -0.069791300036380274 0 0.00013472017216830637 -0.068611735491904996 0 0.0014095049365687247 -0.069791300036380274 0 0.00051230299211113637 -0.069777414565701454 0 0.00091446322415929943 -0.070540052239463122 0 0.0014095049365687247 -0.069791300036380274 0 0.00051230299211113637 -0.069777414565701454 0 0.00051230299211113637 -0.069777414565701454 0 0.00020530050219699254 -0.070438410139558386 0 -0.00042156697972958691 -0.069780228338094968 0 0.00091446322415929943 -0.070540052239463122 0 0.00051230299211113637 -0.069777414565701454 0 0.00020530050219699254 -0.070438410139558386 0 0.00054245002628123683 -0.07094101637157478 0 0.00033782555285213309 -0.071147143459332832 0 0.00040523211622909021 -0.070879083564591203 0 0.00020530050219699254 -0.070438410139558386 0 0.00046531552554674805 -0.070806459826535578 0 0.00040523211622909021 -0.070879083564591203 0 0.00046531552554674805 -0.070806459826535578 0 0.00054245002628123683 -0.07094101637157478 0 0.00040523211622909021 -0.070879083564591203 0 -0.00015020043774051025 -0.070585190134860989 0 -0.00017482923605439997 -0.070572228095778816 0 0.00046531552554674805 -0.070806459826535578 0 0.000595061774674255 -0.070951141511253188 0 0.00054245002628123683 -0.07094101637157478 0 0.00020530050219699254 -0.070438410139558386 0 0.00046531552554674805 -0.070806459826535578 0 0.000595061774674255 -0.070951141511253188 0 0.00013472017216830637 -0.068611735491904996 0 0.00051230299211113637 -0.069777414565701454 0 -0.00042156697972958691 -0.069780228338094968 0 0.00054245002628123683 -0.07094101637157478 0 0.00011929373997140929 -0.071536205326964489 0 0.00016608324762010856 -0.070798806401854736 0 -0.00017482923605439997 -0.070572228095778816 0 -0.00027037056053064862 -0.071525551861996814 0 0.00054245002628123683 -0.07094101637157478 0 0.00011929373997140929 -0.071536205326964489 0 0.00038452290625173559 -0.073008093084106884 0 0.000595061774674255 -0.070951141511253188 0 0.00054245002628123683 -0.07094101637157478 0 0.00016608324762010856 -0.070798806401854736 0 0.00018006234971595383 -0.070744229908251938 0 -0.0001159229314633153 -0.070511650619811128 0 0.00029366588244324708 -0.070480633104610363 0 -0.00017482923605439997 -0.070572228095778816 0 -8.2064262421461411e-05 -0.069125547488082459 0 -4.4322056524125024e-07 -0.067361187787739335 0 -3.5844490387109268e-05 -0.066865165357633025 0 0.00013472017216830637 -0.068611735491904996 0 -0.00042156697972958691 -0.069780228338094968 0 -0.0004307536649746857 -0.067673037783545734 0 -0.0004307536649746857 -0.067673037783545734 0 -0.00013926203016216966 -0.067503281946406729 0 -2.3684626598591447e-06 -0.067725051259220334 0 0.00013472017216830637 -0.068611735491904996 0 -0.0004307536649746857 -0.067673037783545734 0 -0.00013926203016216966 -0.067503281946406729 0 0.00029366588244324708 -0.070480633104610363 0 -0.00041437509874141639 -0.070350785897866655 0 1.5468134655513431e-06 -0.067741618841357529 0 -0.0001159229314633153 -0.070511650619811128 0 0.00029366588244324708 -0.070480633104610363 0 -0.00041437509874141639 -0.070350785897866655 0 -0.00041437509874141639 -0.070350785897866655 0 -1.5459112462214193e-06 -0.070265257256624664 0 1.5468134655513431e-06 -0.067741618841357529 0 -3.5844490387109268e-05 -0.066865165357633025 0 -1.9666065859960236e-07 -0.06631887757480695 0 -0.00013926203016216966 -0.067503281946406729 0 -2.3684626598591447e-06 -0.067725051259220334 0 2.2008051960328487e-06 -0.066328847094969431 0 -8.2064262421461411e-05 -0.069125547488082459 0 -2.0931143638852208e-07 -0.06773690761990854 0 -0.00025724929402665369 -0.065196979542682526 0 -0.0006027863926384451 -0.065755525311516946 0 -3.2792843199322674e-06 -0.06630986822527421 0 1.9133223571384175e-05 -0.074470270787810516 0 1.9666039538913461e-06 -0.072802311296103539 0 0.0010387703851722247 -0.07618896458913596 0 1.9133223571384175e-05 -0.074470270787810516 0 -4.325095777318658e-07 -0.074997062114852853 0 -1.1080594609665115e-06 -0.074999968332061601 0 -1.6515146526629301e-07 -0.072796854851866058 0 -0.00018080430829493048 -0.073106517198039983 0 1.9133223571384175e-05 -0.074470270787810516 0 -4.325095777318658e-07 -0.074997062114852853 0 1.9666039538913461e-06 -0.072802311296103539 0 1.5373088038347901e-06 -0.072791773467362944 0 -0.00028394306088242398 -0.071048402030001734 0 0.00010084435192775645 -0.070009423366087523 0 -0.00041437509874141639 -0.070350785897866655 0 -1.5459112462214193e-06 -0.070265257256624664 0 -0.00028394306088242398 -0.071048402030001734 0 -1.5459112462214193e-06 -0.070265257256624664 0 1.5373088038347901e-06 -0.072791773467362944 0 -0.00028394306088242398 -0.071048402030001734 0 -0.0001159229314633153 -0.070511650619811128 0 -0.00041437509874141639 -0.070350785897866655 0 0.00010084435192775645 -0.070009423366087523 0 -0.00041437509874141639 -0.070350785897866655 0 -0.00028394306088242398 -0.071048402030001734 0 0.00010084435192775645 -0.070009423366087523 0 -1.3519909059880109e-05 -0.075004717373124918 0 3.9123730242812126e-08 -0.074999962260223665 0 -9.13659775357117e-08 -0.075000100456030491 0 1.9133223571384175e-05 -0.074470270787810516 0 0.0010387703851722247 -0.07618896458913596 0 -1.1080594609665115e-06 -0.074999968332061601 0 -0.00018080430829493048 -0.073106517198039983 0 1.201236370046931e-06 -0.074996738872902632 0 -1.3519909059880109e-05 -0.075004717373124918 0 -9.13659775357117e-08 -0.075000100456030491 0 -9.4663407994948154e-05 -0.075055188705499765 0 -0.00027037056053064862 -0.071525551861996814 0 -0.00018080430829493048 -0.073106517198039983 0 -0.00018080430829493048 -0.073106517198039983 0 -0.00029957763747254262 -0.073358396427726028 0 0.00016608324762010856 -0.070798806401854736 0 -0.00094027198203884565 -0.069982722812756151 0 -0.00090987636784152818 -0.071666375489620363 0 0.00011929373997140929 -0.071536205326964489 0 -0.00090987636784152818 -0.071666375489620363 0 0.00038452290625173559 -0.073008093084106884 0 0.00011929373997140929 -0.071536205326964489 0 0.00016608324762010856 -0.070798806401854736 0 -0.00090987636784152818 -0.071666375489620363 0 -9.13659775357117e-08 -0.075000100456030491 0 -9.4663407994948154e-05 -0.075055188705499765 0 8.3573383332840303e-08 -0.07499994261175591 0 -9.4663407994948154e-05 -0.075055188705499765 0 -8.3700546159191781e-05 -0.074855828181789069 0 -0.00024952352266832423 -0.074492468183878252 0 8.3573383332840303e-08 -0.07499994261175591 0 -8.3700546159191781e-05 -0.074855828181789069 0 -0.00011281555212350282 -0.074826979780871453 0 -9.4663407994948154e-05 -0.075055188705499765 0 8.3573383332840303e-08 -0.07499994261175591 0 -8.3700546159191781e-05 -0.074855828181789069 0 8.3573383332840303e-08 -0.07499994261175591 0 -3.4281360530260229e-07 -0.074999625152889618 0 -0.00011281555212350282 -0.074826979780871453 0 -3.4281360530260229e-07 -0.074999625152889618 0 -0.00011281555212350282 -0.074826979780871453 0 -0.000280465131079634 -0.074941424780148633 0 -8.3700546159191781e-05 -0.074855828181789069 0 -0.00011281555212350282 -0.074826979780871453 0 -0.00024952352266832423 -0.074492468183878252 0 -0.00011281555212350282 -0.074826979780871453 0 -0.000280465131079634 -0.074941424780148633 0 -0.00024952352266832423 -0.074492468183878252 0 -8.682832343140647e-05 -0.072785644188157361 0 -0.00061434077530798568 -0.073063865439544698 0 -0.0001034636118987293 -0.071416831266310279 0 8.2340300000702653e-05 -0.073924099227816523 0 0.0003123916499186949 -0.072921627604271885 0 -0.000280465131079634 -0.074941424780148633 0 -0.00024952352266832423 -0.074492468183878252 0 0.00038452290625173559 -0.073008093084106884 0 -8.682832343140647e-05 -0.072785644188157361 0 -0.00061434077530798568 -0.073063865439544698 0 -0.00027501268493537745 -0.073383537294159168 0 -0.00029957763747254262 -0.073358396427726028 0 -0.00029892532734119751 -0.07377548815509713 0 -0.00090987636784152818 -0.071666375489620363 0 -0.00024952352266832423 -0.074492468183878252 0 0.00038452290625173559 -0.073008093084106884 0 0.00049978324412424595 -0.072410870797387492 0 0.0003123916499186949 -0.072921627604271885 0 0.00054245002628123683 -0.07094101637157478 0 0.00033782555285213309 -0.071147143459332832 0 -0.0001034636118987293 -0.071416831266310279 0 0.00033782555285213309 -0.071147143459332832 0 -0.0001034636118987293 -0.071416831266310279 0 0.0002124046064489146 -0.072020446561641582 0 0.00020530050219699254 -0.070438410139558386 0 0.0005874776313341 -0.070949899722671919 0 0.00040523211622909021 -0.070879083564591203 0 0.00091446322415929943 -0.070540052239463122 0 0.00020530050219699254 -0.070438410139558386 0 0.0005874776313341 -0.070949899722671919 0 0.00033782555285213309 -0.071147143459332832 0 0.0005874776313341 -0.070949899722671919 0 0.00040523211622909021 -0.070879083564591203 0 0.00033782555285213309 -0.071147143459332832 0 0.0005874776313341 -0.070949899722671919 0 0.00057026855515284348 -0.071837441041020439 0 0.0010414193358302272 -0.071342416220874491 0 0.0005874776313341 -0.070949899722671919 0 0.00057026855515284348 -0.071837441041020439 0 0.00057026855515284348 -0.071837441041020439 0 0.00030894663799205143 -0.072822135926612006 0 0.00097486048270072241 -0.072511826201783522 0 0.0010414193358302272 -0.071342416220874491 0 0.00057026855515284348 -0.071837441041020439 0 0.00097486048270072241 -0.072511826201783522 0 -8.682832343140647e-05 -0.072785644188157361 0 -0.0001034636118987293 -0.071416831266310279 0 0.0002124046064489146 -0.072020446561641582 0 0.00033782555285213309 -0.071147143459332832 0 0.00057026855515284348 -0.071837441041020439 0 0.0002124046064489146 -0.072020446561641582 0 0.00057026855515284348 -0.071837441041020439 0 0.0002124046064489146 -0.072020446561641582 0 0.00030894663799205143 -0.072822135926612006 0 -8.682832343140647e-05 -0.072785644188157361 0 0.0002124046064489146 -0.072020446561641582 0 0.00030894663799205143 -0.072822135926612006 0 -8.682832343140647e-05 -0.072785644188157361 0 0.00030894663799205143 -0.072822135926612006 0 -0.00010906366566468598 -0.073710763354445388 0 0.00030894663799205143 -0.072822135926612006 0 0.00034987940891836026 -0.073501914604856042 0 -0.00010906366566468598 -0.073710763354445388 0 0.00030894663799205143 -0.072822135926612006 0 0.00097486048270072241 -0.072511826201783522 0 0.00034987940891836026 -0.073501914604856042 0 0.00097486048270072241 -0.072511826201783522 0 0.00065238307231268978 -0.073864657018306426 0 0.00034987940891836026 -0.073501914604856042 0 0.00065238307231268978 -0.073864657018306426 0 0.00034987940891836026 -0.073501914604856042 0 1.3480220686685024e-05 -0.074222158975506047 0 0.00034987940891836026 -0.073501914604856042 0 1.3480220686685024e-05 -0.074222158975506047 0 -0.00010906366566468598 -0.073710763354445388 0 1.3480220686685024e-05 -0.074222158975506047 0 -0.0002034862764587758 -0.07453585630962431 0 -0.00010906366566468598 -0.073710763354445388 0 -0.0002034862764587758 -0.07453585630962431 0 -0.00010906366566468598 -0.073710763354445388 0 -0.00027061136200326279 -0.074010099255409828 0 9.3092035667505974e-08 -0.075000119344893021 0 -0.0002034862764587758 -0.07453585630962431 0 -1.5654343236414074e-06 -0.074997349576791716 0 -0.0002034862764587758 -0.07453585630962431 0 -1.5654343236414074e-06 -0.074997349576791716 0 -0.00027061136200326279 -0.074010099255409828 0 8.2340300000702653e-05 -0.073924099227816523 0 -2.9565430729213514e-07 -0.074998245102852204 0 -0.00061434077530798568 -0.073063865439544698 0 -1.5654343236414074e-06 -0.074997349576791716 0 -0.00027061136200326279 -0.074010099255409828 0 -3.4281360530260229e-07 -0.074999625152889618 0 -0.000280465131079634 -0.074941424780148633 0 1.1047829860036318e-07 -0.074999950442966215 0 -0.00061434077530798568 -0.073063865439544698 0 -0.00027501268493537745 -0.073383537294159168 0 -0.00027061136200326279 -0.074010099255409828 0 -8.682832343140647e-05 -0.072785644188157361 0 -0.00027501268493537745 -0.073383537294159168 0 -0.00010906366566468598 -0.073710763354445388 0 -0.00027501268493537745 -0.073383537294159168 0 -0.00010906366566468598 -0.073710763354445388 0 -0.00027061136200326279 -0.074010099255409828 0 0.010751546495617268 -0.031782312653609306 0 0.0099632124637854223 -0.030280640545604569 0 0.015317828608130749 -0.04517165200612442 0 0.015276164422909659 -0.045473744631249015 0 0.015923883783457809 -0.047432096729574276 0 0.015276164422909659 -0.045473744631249015 0 0.015923883783457809 -0.047432096729574276 0 0.015009804784509305 -0.046283213145169665 0 0.0087632912983697936 -0.016415613509878024 0 0.0043381844354701844 -0.015018295348424474 0 0.006736922556736598 -0.011639922349666935 0 0.0043381844354701844 -0.015018295348424474 0 0.0043936428491956345 -0.019527344388176396 0 0.00023797478874067033 -0.01567386768627382 0 0.006736922556736598 -0.011639922349666935 0 0.0022098220237955534 -0.011397708480558533 0 0.0036814611187230184 -0.0089047949943908411 0 0.0043381844354701844 -0.015018295348424474 0 0.0018859233740686227 -0.013646279032488157 0 0.0022098220237955534 -0.011397708480558533 0 0.0043381844354701844 -0.015018295348424474 0 0.006736922556736598 -0.011639922349666935 0 0.0022098220237955534 -0.011397708480558533 0 0.015923883783457809 -0.047432096729574276 0 0.014689906184524013 -0.046785757922729529 0 0.015009804784509305 -0.046283213145169665 0 0.015923883783457809 -0.047432096729574276 0 0.014689906184524013 -0.046785757922729529 0 0.015025062465537253 -0.048013343375293359 0 0.014689906184524013 -0.046785757922729529 0 0.013039766416560114 -0.046277551315197854 0 0.015025062465537253 -0.048013343375293359 0 0.01362920908940296 -0.045500739289550722 0 0.014977993900381566 -0.044947203141503675 0 0.01280019814043476 -0.047493704588030525 0 0.012252635802752954 -0.050590263629549867 0 0.015172332563131594 -0.050641144224777605 0 0.01280019814043476 -0.047493704588030525 0 0.012252635802752954 -0.050590263629549867 0 0.010075779934722586 -0.048815109768046011 0 0.01280019814043476 -0.047493704588030525 0 0.010075779934722586 -0.048815109768046011 0 0.010125371526491411 -0.043865035402948768 0 0.01362920908940296 -0.045500739289550722 0 0.012295427442234887 -0.044541783964155521 0 0.013039766416560114 -0.046277551315197854 0 0.014116313766744102 -0.044943486052193352 0 0.012890148988331804 -0.043848265986558867 0 0.015276164422909659 -0.045473744631249015 0 0.015009804784509305 -0.046283213145169665 0 0.014697312743724999 -0.045680330388218095 0 0.014689906184524013 -0.046785757922729529 0 0.014324230144312878 -0.046015924161320589 0 0.015009804784509305 -0.046283213145169665 0 0.014324230144312878 -0.046015924161320589 0 0.015009804784509305 -0.046283213145169665 0 0.014697312743724999 -0.045680330388218095 0 0.014689906184524013 -0.046785757922729529 0 0.013039766416560114 -0.046277551315197854 0 0.014324230144312878 -0.046015924161320589 0 0.013039766416560114 -0.046277551315197854 0 0.014324230144312878 -0.046015924161320589 0 0.014116313766744102 -0.044943486052193352 0 0.014324230144312878 -0.046015924161320589 0 0.014116313766744102 -0.044943486052193352 0 0.014697312743724999 -0.045680330388218095 0 0.015276164422909659 -0.045473744631249015 0 0.014116313766744102 -0.044943486052193352 0 0.014697312743724999 -0.045680330388218095 0 0.014116313766744102 -0.044943486052193352 0 0.012890148988331804 -0.043848265986558867 0 0.014593328567612135 -0.041989325324093198 0 0.015276164422909659 -0.045473744631249015 0 0.014116313766744102 -0.044943486052193352 0 0.014593328567612135 -0.041989325324093198 0 0.015317828608130749 -0.04517165200612442 0 0.015276164422909659 -0.045473744631249015 0 0.014426627798027595 -0.042597558462073776 0 0.013652285555486482 -0.041228731254552856 0 0.011326055937421291 -0.034941079422493797 0 0.010751546495617268 -0.031782312653609306 0 0.011326055937421291 -0.034941079422493797 0 0.013039766416560114 -0.046277551315197854 0 0.012890148988331804 -0.043848265986558867 0 0.010125371526491411 -0.043865035402948768 0 0.012890148988331804 -0.043848265986558867 0 0.012102136538518462 -0.041586237786939706 0 0.010125371526491411 -0.043865035402948768 0 0.012890148988331804 -0.043848265986558867 0 0.012102136538518462 -0.041586237786939706 0 0.014593328567612135 -0.041989325324093198 0 0.012102136538518462 -0.041586237786939706 0 0.009561707526194162 -0.041101633790946841 0 0.011129224658098782 -0.038915883056382397 0 0.012102136538518462 -0.041586237786939706 0 0.014593328567612135 -0.041989325324093198 0 0.014016689317410276 -0.039303976332686369 0 0.011326055937421291 -0.034941079422493797 0 0.0087126977150556745 -0.030805815334837471 0 0.010782652660756887 -0.021273586093079434 0 0.0086330274165254753 -0.023382367818550298 0 0.011941614220231732 -0.024520627451349891 0 0.0086330274165254753 -0.023382367818550298 0 0.0079095211626713999 -0.019832380330842093 0 0.0043936428491956345 -0.019527344388176396 0 0.010782652660756887 -0.021273586093079434 0 0.0086330274165254753 -0.023382367818550298 0 0.0079095211626713999 -0.019832380330842093 0 0.0056885990645958572 -0.024892353815101676 0 0.00441910229037242 -0.021352034227412921 0 0.0087632912983697936 -0.016415613509878024 0 0.0079095211626713999 -0.019832380330842093 0 0.0043936428491956345 -0.019527344388176396 0 0.0087632912983697936 -0.016415613509878024 0 0.010782652660756887 -0.021273586093079434 0 0.0079095211626713999 -0.019832380330842093 0 0.0087632912983697936 -0.016415613509878024 0 0.0043381844354701844 -0.015018295348424474 0 0.0043936428491956345 -0.019527344388176396 0 0.0025337482069726922 -0.027155254820942557 0 0.0033826625083772689 -0.027697533911974912 0 0.0033769612687514429 -0.027038804540402979 0 0.0033826625083772689 -0.027697533911974912 0 0.0039412386035200401 -0.027315429241613856 0 0.0033769612687514429 -0.027038804540402979 0 0.004055645499056011 -0.026595859119532543 0 0.0042101981849727655 -0.026826170800312309 0 0.0041317077881400282 -0.024608539415739681 0 -0.00034801916878073643 -0.00025524185317815781 0 -0.00050714570182879937 -0.00058933905504938782 0 -0.00030171875632135578 -0.00073736775524058681 0 -0.00050714570182879937 -0.00058933905504938782 0 -0.00041510196033967727 -0.00025088086492449399 0 -0.00078890554730715707 -0.00089350065489577583 0 -0.00041510196033967727 -0.00025088086492449399 0 0.0011665135744090165 0.00081626381087518548 0 0.0008153898277304917 0.003475859273845975 0 -0.00041510196033967727 -0.00025088086492449399 0 0.00060017471587351474 0.00372787031263457 0 0.0008153898277304917 0.003475859273845975 0 -0.00031740952517727168 0.00084574220419089306 0 -0.00015642296900623387 0.0013331212338896599 0 -0.00050714570182879937 -0.00058933905504938782 0 -0.00043708104285370423 -0.00080689925581634828 0 -0.00030171875632135578 -0.00073736775524058681 0 -0.00050714570182879937 -0.00058933905504938782 0 -0.00057415763549305699 -0.00080313546939385827 0 -0.00043708104285370423 -0.00080689925581634828 0 -0.00034801916878073643 -0.00025524185317815781 0 -0.00050714570182879937 -0.00058933905504938782 0 -0.00041510196033967727 -0.00025088086492449399 0 -0.00041510196033967727 -0.00025088086492449399 0 0.0011665135744090165 0.00081626381087518548 0 0.00070599772785648947 -0.0015081029253660595 0 -0.00041510196033967727 -0.00025088086492449399 0 -0.00051953939433019443 -0.0010171297139968667 0 0.00070599772785648947 -0.0015081029253660595 0 0.0033826625083772689 -0.027697533911974912 0 0.0040335601640149434 -0.028168170832282218 0 0.00422343231576933 -0.028453508742525141 0 0.0042101981849727655 -0.026826170800312309 0 0.0040335601640149434 -0.028168170832282218 0 0.00422343231576933 -0.028453508742525141 0 0.0030387279792694752 -0.02387130975953327 0 0.0032954100853620125 -0.026041660510362299 0 0.00441910229037242 -0.021352034227412921 0 0.00084606034413687572 -0.013985617472821139 0 0.0033826625083772689 -0.027697533911974912 0 0.0039412386035200401 -0.027315429241613856 0 0.0040335601640149434 -0.028168170832282218 0 0.0015414147604450174 -0.013916077042173748 0 0.00084606034413687572 -0.013985617472821139 0 -0.00034801916878073643 -0.00025524185317815781 0 -0.00051953939433019443 -0.0010171297139968667 0 -0.00097451749599690538 -0.0014983538652785667 0 -0.00034801916878073643 -0.00025524185317815781 0 -0.00041510196033967727 -0.00025088086492449399 0 -0.00051953939433019443 -0.0010171297139968667 0 0.004055645499056011 -0.026595859119532543 0 0.0042101981849727655 -0.026826170800312309 0 0.0040335601640149434 -0.028168170832282218 0 0.0011399035102184539 0.0036334201089259768 0 0.0010266467531716507 0.003768770710750882 0 0.0013711779703544577 0.0038609197019757974 0 0.0023602723760267424 0.0021802229570348493 0 0.0016947617575232728 0.0028572471654712459 0 0.0011665135744090165 0.00081626381087518548 0 0.0031359662287565732 0.00016596886921179085 0 0.0008153898277304917 0.003475859273845975 0 0.0011399035102184539 0.0036334201089259768 0 0.0010266467531716507 0.003768770710750882 0 0.0008153898277304917 0.003475859273845975 0 0.0011665135744090165 0.00081626381087518548 0 0.0031359662287565732 0.00016596886921179085 0 0.0024461890661303704 -0.001493023379268623 0 0.0011665135744090165 0.00081626381087518548 0 0.0024461890661303704 -0.001493023379268623 0 0.00070599772785648947 -0.0015081029253660595 0 0.0031359662287565732 0.00016596886921179085 0 0.0024461890661303704 -0.001493023379268623 0 0.0045265410031854504 -0.0021683155002711679 0 0.0023602723760267424 0.0021802229570348493 0 0.0035147874168774537 0.0012887035772474243 0 0.0024461890661303704 -0.001493023379268623 0 0.0018862788414655341 -0.0031596308101444945 0 0.0045265410031854504 -0.0021683155002711679 0 0.0024461890661303704 -0.001493023379268623 0 0.0018862788414655341 -0.0031596308101444945 0 0.00070599772785648947 -0.0015081029253660595 0 0.0018862788414655341 -0.0031596308101444945 0 0.00070599772785648947 -0.0015081029253660595 0 0.00039821718765180113 -0.0027666686799746802 0 0.0018862788414655341 -0.0031596308101444945 0 0.00050300205858508492 -0.0041525766437260515 0 0.0014448233495049003 -0.0050372461674701458 0 0.0018862788414655341 -0.0031596308101444945 0 0.0032131039918468079 -0.0045397583808457842 0 0.0014448233495049003 -0.0050372461674701458 0 0.0018862788414655341 -0.0031596308101444945 0 0.00039821718765180113 -0.0027666686799746802 0 0.00050300205858508492 -0.0041525766437260515 0 0.0018862788414655341 -0.0031596308101444945 0 0.0032131039918468079 -0.0045397583808457842 0 0.0045265410031854504 -0.0021683155002711679 0 0.0043381844354701844 -0.015018295348424474 0 0.0018859233740686227 -0.013646279032488157 0 0.00023797478874067033 -0.01567386768627382 0 -0.0010838378109954137 -0.0015543235274579248 0 -0.00084214219466319685 -0.0017710045901948449 0 -0.000774808653679238 -0.0042037031879957809 0 -0.00051953939433019443 -0.0010171297139968667 0 -0.00097451749599690538 -0.0014983538652785667 0 -0.00084214219466319685 -0.0017710045901948449 0 0.00084606034413687572 -0.013985617472821139 0 0.00077009774012214475 -0.013880763212368315 0 -0.00051953939433019443 -0.0010171297139968667 0 -0.00013337933134856622 -0.0019041080501445839 0 0.00070599772785648947 -0.0015081029253660595 0 -0.00051953939433019443 -0.0010171297139968667 0 -0.00084214219466319685 -0.0017710045901948449 0 -0.00013337933134856622 -0.0019041080501445839 0 -0.00013337933134856622 -0.0019041080501445839 0 0.00070599772785648947 -0.0015081029253660595 0 0.00039821718765180113 -0.0027666686799746802 0 -0.00084214219466319685 -0.0017710045901948449 0 -0.00013337933134856622 -0.0019041080501445839 0 -0.00022910281497663638 -0.0024605229614763449 0 -0.00084214219466319685 -0.0017710045901948449 0 -0.00022910281497663638 -0.0024605229614763449 0 -0.00026578808023128487 -0.0032434087904043602 0 -0.00013337933134856622 -0.0019041080501445839 0 -0.00022910281497663638 -0.0024605229614763449 0 0.00039821718765180113 -0.0027666686799746802 0 -0.00084214219466319685 -0.0017710045901948449 0 -0.00026578808023128487 -0.0032434087904043602 0 -0.000774808653679238 -0.0042037031879957809 0 -0.00022910281497663638 -0.0024605229614763449 0 -0.00026578808023128487 -0.0032434087904043602 0 0.00039821718765180113 -0.0027666686799746802 0 -0.00026578808023128487 -0.0032434087904043602 0 0.00039821718765180113 -0.0027666686799746802 0 0.00050300205858508492 -0.0041525766437260515 0 -0.00026578808023128487 -0.0032434087904043602 0 0.00050300205858508492 -0.0041525766437260515 0 -0.000774808653679238 -0.0042037031879957809 0 0.00084606034413687572 -0.013985617472821139 0 8.4153533407920459e-05 -0.0090588420604932954 0 0.0018859233740686227 -0.013646279032488157 0 0.00023797478874067033 -0.01567386768627382 0 -0.00015370506668360871 -0.010797815693969877 0 0.0018859233740686227 -0.013646279032488157 0 -0.00015370506668360871 -0.010797815693969877 0 0.0022098220237955534 -0.011397708480558533 0 -0.00015370506668360871 -0.010797815693969877 0 0.0022098220237955534 -0.011397708480558533 0 0.0014397141822593172 -0.0089910062384244045 0 0.0022098220237955534 -0.011397708480558533 0 0.0014397141822593172 -0.0089910062384244045 0 0.0030027361126233787 -0.0091945338568090312 0 -0.00015370506668360871 -0.010797815693969877 0 0.0014397141822593172 -0.0089910062384244045 0 3.8275998553288899e-05 -0.0068128492373834828 0 0.0014397141822593172 -0.0089910062384244045 0 0.0014989400671024809 -0.0075110635604176404 0 0.0024011596222826702 -0.0080455495785141107 0 -0.000774808653679238 -0.0042037031879957809 0 0.00047070573060135928 -0.0054793407499105712 0 3.8275998553288899e-05 -0.0068128492373834828 0 8.4153533407920459e-05 -0.0090588420604932954 0 -5.0431905306868545e-05 -0.0079491659514671024 0 0.00047070573060135928 -0.0054793407499105712 0 0.00079665166295299795 -0.0066501843036979773 0 0.0014448233495049003 -0.0050372461674701458 0 0.00050300205858508492 -0.0041525766437260515 0 -0.000774808653679238 -0.0042037031879957809 0 0.00047070573060135928 -0.0054793407499105712 0 0.00050300205858508492 -0.0041525766437260515 0 0.00047070573060135928 -0.0054793407499105712 0 0.0014448233495049003 -0.0050372461674701458 0 0.00079665166295299795 -0.0066501843036979773 0 0.001753480278651373 -0.0069852965238144269 0 0.00023435839871750603 -0.0066841814106145337 0 0.00047070573060135928 -0.0054793407499105712 0 3.8275998553288899e-05 -0.0068128492373834828 0 0.00079665166295299795 -0.0066501843036979773 0 0.00079665166295299795 -0.0066501843036979773 0 0.00027291624858590354 -0.0067362777618904818 0 0.00023435839871750603 -0.0066841814106145337 0 3.8275998553288899e-05 -0.0068128492373834828 0 0.00079665166295299795 -0.0066501843036979773 0 0.00027291624858590354 -0.0067362777618904818 0 0.00027291624858590354 -0.0067362777618904818 0 0.0010471233762322555 -0.0065148569158539147 0 0.00023435839871750603 -0.0066841814106145337 0 3.8275998553288899e-05 -0.0068128492373834828 0 0.00027291624858590354 -0.0067362777618904818 0 0.0010471233762322555 -0.0065148569158539147 0 3.8275998553288899e-05 -0.0068128492373834828 0 0.0010471233762322555 -0.0065148569158539147 0 0.0014989400671024809 -0.0075110635604176404 0 0.0010471233762322555 -0.0065148569158539147 0 0.0019845394885176964 -0.0069511650177493632 0 0.0014989400671024809 -0.0075110635604176404 0 0.0010471233762322555 -0.0065148569158539147 0 0.0019845394885176964 -0.0069511650177493632 0 0.0017068170388620182 -0.0062743383520355725 0 0.0019845394885176964 -0.0069511650177493632 0 0.0014989400671024809 -0.0075110635604176404 0 0.0024011596222826702 -0.0080455495785141107 0 0.0014397141822593172 -0.0089910062384244045 0 3.8275998553288899e-05 -0.0068128492373834828 0 0.0014989400671024809 -0.0075110635604176404 0 0.0032131039918468079 -0.0045397583808457842 0 0.0023039752322974263 -0.0058082386777634915 0 0.0037612397580513201 -0.0063251610772210769 0 0.0032131039918468079 -0.0045397583808457842 0 0.0014448233495049003 -0.0050372461674701458 0 0.0023039752322974263 -0.0058082386777634915 0 0.00079665166295299795 -0.0066501843036979773 0 0.0023039752322974263 -0.0058082386777634915 0 0.001753480278651373 -0.0069852965238144269 0 0.00079665166295299795 -0.0066501843036979773 0 0.0014448233495049003 -0.0050372461674701458 0 0.0023039752322974263 -0.0058082386777634915 0 0.0023039752322974263 -0.0058082386777634915 0 0.001753480278651373 -0.0069852965238144269 0 0.0037612397580513201 -0.0063251610772210769 0 0.0026746782745284141 -0.0067716342436230231 0 0.0037612397580513201 -0.0063251610772210769 0 0.0033727794153665851 -0.0071776322173546809 0 0.0038491494794842289 -0.012357659531160217 0 0.004104350755003725 -0.011358741638061696 0 0.0037612397580513201 -0.0063251610772210769 0 0.0033727794153665851 -0.0071776322173546809 0 0.0041936683830042613 -0.0076740019455114232 0 0.0033727794153665851 -0.0071776322173546809 0 0.0034080400225116208 -0.0079100264809114536 0 0.0041936683830042613 -0.0076740019455114232 0 0.0033727794153665851 -0.0071776322173546809 0 0.0027387937916838502 -0.0076106791022000049 0 0.0034080400225116208 -0.0079100264809114536 0 0.0038491494794842289 -0.012357659531160217 0 0.003832707999342998 -0.015464669446633739 0 0.0026746782745284141 -0.0067716342436230231 0 0.0033727794153665851 -0.0071776322173546809 0 0.0027387937916838502 -0.0076106791022000049 0 0.0026746782745284141 -0.0067716342436230231 0 0.0027387937916838502 -0.0076106791022000049 0 0.0019410708565255838 -0.0074160027875232052 0 0.0027387937916838502 -0.0076106791022000049 0 0.0022188313369947074 -0.0077914400803093028 0 0.0019410708565255838 -0.0074160027875232052 0 0.0027387937916838502 -0.0076106791022000049 0 0.0022188313369947074 -0.0077914400803093028 0 0.0022946692053573314 -0.0081989000906110016 0 0.0022188313369947074 -0.0077914400803093028 0 0.0022946692053573314 -0.0081989000906110016 0 0.0019025658402094963 -0.0079451276367089093 0 0.0023776909575466943 -0.0088959382531823387 0 0.0022946692053573314 -0.0081989000906110016 0 0.002980201312578637 -0.0085102477603837753 0 0.0023776909575466943 -0.0088959382531823387 0 0.0022946692053573314 -0.0081989000906110016 0 0.0018155850932787816 -0.0083707818414206197 0 0.0027387937916838502 -0.0076106791022000049 0 0.0022946692053573314 -0.0081989000906110016 0 0.002980201312578637 -0.0085102477603837753 0 0.0027387937916838502 -0.0076106791022000049 0 0.002980201312578637 -0.0085102477603837753 0 0.0034080400225116208 -0.0079100264809114536 0 0.002980201312578637 -0.0085102477603837753 0 0.0034080400225116208 -0.0079100264809114536 0 0.0037822111936042365 -0.00857564105599928 0 0.0034080400225116208 -0.0079100264809114536 0 0.0037822111936042365 -0.00857564105599928 0 0.0041936683830042613 -0.0076740019455114232 0 0.0010471233762322555 -0.0065148569158539147 0 0.001605915505642269 -0.0056233992472393872 0 0.00023435839871750603 -0.0066841814106145337 0 0.00057675552568107764 -0.0078070601376897843 0 0.00040460689404925169 -0.0076092299943112292 0 0.0015346712323290373 -0.0071920555569282806 0 0.004535107519776929 -0.021747369674841841 0 0.003832707999342998 -0.015464669446633739 0 0.00771273758625387 -0.022731178143920307 0 0.0036375074633091553 -0.023636724031220198 0 0.004572042923442883 -0.019038382944857626 0 0.0038518857853246527 -0.020526896591610347 0 0.004702222200992803 -0.021897189299912818 0 0.004702222200992803 -0.021897189299912818 0 0.0050169271161791028 -0.022768668204233445 0 0.0036375074633091553 -0.023636724031220198 0 0.004572042923442883 -0.019038382944857626 0 0.0020599046715367567 -0.019802365245960213 0 0.004535107519776929 -0.021747369674841841 0 0.0050169271161791028 -0.022768668204233445 0 0.0038518857853246527 -0.020526896591610347 0 0.004535107519776929 -0.021747369674841841 0 0.001605915505642269 -0.0056233992472393872 0 0.0017068170388620182 -0.0062743383520355725 0 0.0022101675600792662 -0.0060710015826866276 0 0.0010471233762322555 -0.0065148569158539147 0 0.001605915505642269 -0.0056233992472393872 0 0.0017068170388620182 -0.0062743383520355725 0 0.0026746782745284141 -0.0067716342436230231 0 0.0015346712323290373 -0.0071920555569282806 0 0.0019410708565255838 -0.0074160027875232052 0 0.00057675552568107764 -0.0078070601376897843 0 0.0015346712323290373 -0.0071920555569282806 0 0.0019410708565255838 -0.0074160027875232052 0 0.00055132771637251199 -0.0077559607782891043 0 0.0019410708565255838 -0.0074160027875232052 0 0.0013378641769280595 -0.0080103368757423448 0 0.0038518857853246527 -0.020526896591610347 0 0.003541596107590608 -0.017820294975628898 0 0.0022188313369947074 -0.0077914400803093028 0 0.0019410708565255838 -0.0074160027875232052 0 0.0019025658402094963 -0.0079451276367089093 0 0.0019410708565255838 -0.0074160027875232052 0 0.0013378641769280595 -0.0080103368757423448 0 0.0019025658402094963 -0.0079451276367089093 0 0.0022946692053573314 -0.0081989000906110016 0 0.0019025658402094963 -0.0079451276367089093 0 0.0018155850932787816 -0.0083707818414206197 0 0.0013378641769280595 -0.0080103368757423448 0 0.0019025658402094963 -0.0079451276367089093 0 0.0018155850932787816 -0.0083707818414206197 0 0.0014719384499317046 -0.0088341747050576028 0 0.0023776909575466943 -0.0088959382531823387 0 0.0018155850932787816 -0.0083707818414206197 0 0.0014719384499317046 -0.0088341747050576028 0 0.0013378641769280595 -0.0080103368757423448 0 0.0018155850932787816 -0.0083707818414206197 0 0.0014719384499317046 -0.0088341747050576028 0 0.00055132771637251199 -0.0077559607782891043 0 0.0013378641769280595 -0.0080103368757423448 0 0.001466711897674596 -0.013495050419357054 0 0.0038518857853246527 -0.020526896591610347 0 0.0031926970558383071 -0.011272317191800822 0 0.003038160989228315 -0.011297070267388876 0 0.0032820777539834789 -0.011656815419341417 0 0.004613143373243824 -0.024737943558518254 0 0.0024118723899840115 -0.024442858931562873 0 0.0034180502395392606 -0.026875620113311727 0 0.0031810218309043219 -0.018528152137779252 0 0.004702222200992803 -0.021897189299912818 0 0.0031926970558383071 -0.011272317191800822 0 0.0032820777539834789 -0.011656815419341417 0 0.003350287410055019 -0.011644945735116872 0 0.004613143373243824 -0.024737943558518254 0 0.0034180502395392606 -0.026875620113311727 0 0.0060911613896802753 -0.026295156644197699 0 0.004702222200992803 -0.021897189299912818 0 0.0067331545011416879 -0.032085557025593431 0 0.0067551573269039426 -0.027030445221771254 0 0.0053113303497772458 -0.027220075648074712 0 0.0052454105118166592 -0.02738772390628956 0 0.0067725760884625001 -0.024589627198077453 0 0.004613143373243824 -0.024737943558518254 0 0.0060911613896802753 -0.026295156644197699 0 0.0059965130824590658 -0.032842087238737099 0 0.0067331545011416879 -0.032085557025593431 0 0.0052635351421525169 -0.036442501278874696 0 0.0047449300317692032 -0.034014814109842979 0 0.004151103188584495 -0.035071402161414765 0 0.0052635351421525169 -0.036442501278874696 0 0.006378295188920146 -0.033650363401913588 0 0.0047449300317692032 -0.034014814109842979 0 0.0059965130824590658 -0.032842087238737099 0 0.0072922440370886462 -0.036886228627238546 0 0.0068765644494698294 -0.031988602360707802 0 0.0067331545011416879 -0.032085557025593431 0 0.0067331545011416879 -0.032085557025593431 0 0.0073396712577709329 -0.036336184928888959 0 0.0068765644494698294 -0.031988602360707802 0 0.0073180183725041594 -0.036286464824718333 0 0.0072161003324158696 -0.034479936363994795 0 0.0070894179137527685 -0.034483721818663826 0 0.0070722721983334322 -0.034514606991604725 0 0.0072329502483503604 -0.034437330198414058 0 0.0072161003324158696 -0.034479936363994795 0 0.0070894179137527685 -0.034483721818663826 0 0.0073180183725041594 -0.036286464824718333 0 0.0073396712577709329 -0.036336184928888959 0 0.0068765644494698294 -0.031988602360707802 0 0.0079109204615774517 -0.030317509682673122 0 0.0083872750652611208 -0.035040661976478024 0 0.0082888564996562945 -0.033402843575053173 0 0.0097166021312451393 -0.031729656604616012 0 0.015341660412282122 -0.057237226249111289 0 0.016419538635805614 -0.055377404631430947 0 0.015118187936303517 -0.055397251085237888 0 0.0073180183725041594 -0.036286464824718333 0 0.0078731844609420763 -0.036848734875828855 0 0.0083872750652611208 -0.035040661976478024 0 0.0071529790165334025 -0.035415872297446145 0 0.0082888564996562945 -0.033402843575053173 0 0.016419538635805614 -0.055377404631430947 0 0.015170996640738319 -0.054157710994772873 0 0.015118187936303517 -0.055397251085237888 0 0.0068765644494698294 -0.031988602360707802 0 0.0050169271161791028 -0.022768668204233445 0 0.0067551573269039426 -0.027030445221771254 0 0.0053113303497772458 -0.027220075648074712 0 0.0066565057798319699 -0.026790914296275746 0 0.0069654038251574617 -0.028438961585902055 0 0.009215508435027572 -0.027745838291718519 0 0.0089079992287107498 -0.026995055975280478 0 0.0069654038251574617 -0.028438961585902055 0 0.0089079992287107498 -0.026995055975280478 0 0.0079789986144961078 -0.025903148965004282 0 0.0062540595124586486 -0.022462422426546821 0 0.0059795622062685351 -0.022546269987253915 0 0.0056574790726971642 -0.02176135596060795 0 0.0050169271161791028 -0.022768668204233445 0 0.0055144548748038719 -0.02397880950198715 0 0.004535107519776929 -0.021747369674841841 0 0.0055144548748038719 -0.02397880950198715 0 0.0055144548748038719 -0.02397880950198715 0 0.0079109204615774517 -0.030317509682673122 0 0.0055144548748038719 -0.02397880950198715 0 0.0081548026278030015 -0.027975524472812381 0 0.0019845394885176964 -0.0069511650177493632 0 0.0017068170388620182 -0.0062743383520355725 0 0.0022101675600792662 -0.0060710015826866276 0 0.0019845394885176964 -0.0069511650177493632 0 0.0022101675600792662 -0.0060710015826866276 0 0.0032182239946202057 -0.0075944731424510753 0 0.0019845394885176964 -0.0069511650177493632 0 0.0032182239946202057 -0.0075944731424510753 0 0.0024011596222826702 -0.0080455495785141107 0 0.0086713285067107418 -0.029749531124458301 0 0.0081548026278030015 -0.027975524472812381 0 0.0090904539799386199 -0.027682082679765008 0 0.010070776243158532 -0.030070028733202546 0 0.0061492521549937479 -0.032912857422438456 0 0.0081548026278030015 -0.027975524472812381 0 0.0079109204615774517 -0.030317509682673122 0 0.010070776243158532 -0.030070028733202546 0 0.0061492521549937479 -0.032912857422438456 0 0.0080448869417125684 -0.035143670080310406 0 0.0086713285067107418 -0.029749531124458301 0 0.0090651706001753287 -0.032949763442184601 0 0.0064699372164445691 -0.026126798244887936 0 0.0080906438777742107 -0.030033687369476623 0 0.008633487726248789 -0.028661469698911677 0 0.0090651706001753287 -0.032949763442184601 0 0.0079109204615774517 -0.030317509682673122 0 0.0078731844609420763 -0.036848734875828855 0 0.0090651706001753287 -0.032949763442184601 0 0.0082888564996562945 -0.033402843575053173 0 0.0094270415012458423 -0.031388376302063654 0 0.0097166021312451393 -0.031729656604616012 0 0.016419538635805614 -0.055377404631430947 0 0.017488471847699912 -0.053491826551621893 0 0.016159066056308818 -0.053681766847172657 0 0.016419538635805614 -0.055377404631430947 0 0.016159066056308818 -0.053681766847172657 0 0.015170996640738319 -0.054157710994772873 0 0.016159066056308818 -0.053681766847172657 0 0.015170996640738319 -0.054157710994772873 0 0.014887740207975847 -0.053194061349335672 0 0.016159066056308818 -0.053681766847172657 0 0.015691902964430744 -0.052565775852548312 0 0.014887740207975847 -0.053194061349335672 0 0.017488471847699912 -0.053491826551621893 0 0.016159066056308818 -0.053681766847172657 0 0.015691902964430744 -0.052565775852548312 0 0.01648660724815677 -0.048997985971511115 0 0.016270990769360255 -0.04936559083501376 0 0.015025062465537253 -0.048013343375293359 0 0.0090651706001753287 -0.032949763442184601 0 0.014977993900381566 -0.044947203141503675 0 0.017488471847699912 -0.053491826551621893 0 0.015691902964430744 -0.052565775852548312 0 0.015172332563131594 -0.050641144224777605 0 0.015923883783457809 -0.047432096729574276 0 0.01648660724815677 -0.048997985971511115 0 0.015025062465537253 -0.048013343375293359 0 0.0099632124637854223 -0.030280640545604569 0 0.0086713285067107418 -0.029749531124458301 0 0.006736922556736598 -0.011639922349666935 0 0.0047595446531557561 -0.0070066768527816646 0 0.0036814611187230184 -0.0089047949943908411 0 0.00956241976313363 -0.022374794994790784 0 0.0092382024362229458 -0.024977381238905385 0 0.0032182239946202057 -0.0075944731424510753 0 0.0030027361126233787 -0.0091945338568090312 0 0.0024011596222826702 -0.0080455495785141107 0 0.0014397141822593172 -0.0089910062384244045 0 0.0030027361126233787 -0.0091945338568090312 0 0.0024011596222826702 -0.0080455495785141107 0 0.0081548026278030015 -0.027975524472812381 0 0.0092382024362229458 -0.024977381238905385 0 0.0086713285067107418 -0.029749531124458301 0 0.0092382024362229458 -0.024977381238905385 0 0.0072116200517951378 -0.029324486559605352 0 0.0076255758559406897 -0.030335999555224251 0 0.0093285867129649178 -0.025571830450913238 0 0.012252635802752954 -0.050590263629549867 0 0.013348586029525785 -0.051845195089118612 0 0.011919472317634367 -0.053434899289551717 0 0.012252635802752954 -0.050590263629549867 0 0.010094044219791012 -0.052837895741546848 0 0.010075779934722586 -0.048815109768046011 0 0.012252635802752954 -0.050590263629549867 0 0.011919472317634367 -0.053434899289551717 0 0.010094044219791012 -0.052837895741546848 0 0.012252635802752954 -0.050590263629549867 0 0.015172332563131594 -0.050641144224777605 0 0.013348586029525785 -0.051845195089118612 0 0.015172332563131594 -0.050641144224777605 0 0.014592416665356794 -0.051995366021370865 0 0.013348586029525785 -0.051845195089118612 0 0.015691902964430744 -0.052565775852548312 0 0.014592416665356794 -0.051995366021370865 0 0.014887740207975847 -0.053194061349335672 0 0.015691902964430744 -0.052565775852548312 0 0.015172332563131594 -0.050641144224777605 0 0.014592416665356794 -0.051995366021370865 0 0.014592416665356794 -0.051995366021370865 0 0.013348586029525785 -0.051845195089118612 0 0.013576226252676894 -0.053203166843941697 0 0.013576226252676894 -0.053203166843941697 0 0.014887740207975847 -0.053194061349335672 0 0.014286041481462257 -0.053939596505619934 0 0.014592416665356794 -0.051995366021370865 0 0.013576226252676894 -0.053203166843941697 0 0.014887740207975847 -0.053194061349335672 0 0.015170996640738319 -0.054157710994772873 0 0.014887740207975847 -0.053194061349335672 0 0.014286041481462257 -0.053939596505619934 0 0.015170996640738319 -0.054157710994772873 0 0.014286041481462257 -0.053939596505619934 0 0.014308608667157987 -0.054733327745028856 0 0.013576226252676894 -0.053203166843941697 0 0.01347619412739145 -0.054422871319159211 0 0.012749969859646069 -0.054030396666310758 0 0.013576226252676894 -0.053203166843941697 0 0.014286041481462257 -0.053939596505619934 0 0.01347619412739145 -0.054422871319159211 0 0.014286041481462257 -0.053939596505619934 0 0.01347619412739145 -0.054422871319159211 0 0.014308608667157987 -0.054733327745028856 0 0.01347619412739145 -0.054422871319159211 0 0.01295115074187057 -0.054711234890690713 0 0.012749969859646069 -0.054030396666310758 0 0.012020792505430512 -0.049710307391826733 0 0.010991568861492433 -0.050898535289939963 0 0.012749969859646069 -0.054030396666310758 0 0.011919472317634367 -0.053434899289551717 0 0.01227189581360459 -0.055195530015197301 0 0.010549296959952333 -0.055139624514269819 0 0.0090632256934678954 -0.054959225198350822 0 0.0091968343766967078 -0.052965802789901026 0 0.011919472317634367 -0.053434899289551717 0 0.01227189581360459 -0.055195530015197301 0 0.010094044219791012 -0.052837895741546848 0 0.01295115074187057 -0.054711234890690713 0 0.012749969859646069 -0.054030396666310758 0 0.01227189581360459 -0.055195530015197301 0 0.013348586029525785 -0.051845195089118612 0 0.013576226252676894 -0.053203166843941697 0 0.011919472317634367 -0.053434899289551717 0 0.013576226252676894 -0.053203166843941697 0 0.012749969859646069 -0.054030396666310758 0 0.011919472317634367 -0.053434899289551717 0 0.01042984372214511 -0.055390716692642152 0 0.010696861487692976 -0.055659639177793041 0 0.01075207073142965 -0.056018498859767583 0 0.010549296959952333 -0.055139624514269819 0 0.01042984372214511 -0.055390716692642152 0 0.0090632256934678954 -0.054959225198350822 0 0.01042984372214511 -0.055390716692642152 0 0.0092128283834433319 -0.055671818762850434 0 0.0090632256934678954 -0.054959225198350822 0 0.01295115074187057 -0.054711234890690713 0 0.01227189581360459 -0.055195530015197301 0 0.013357679564296279 -0.055288031143021214 0 0.010549296959952333 -0.055139624514269819 0 0.01042984372214511 -0.055390716692642152 0 0.010696861487692976 -0.055659639177793041 0 0.01042984372214511 -0.055390716692642152 0 0.010041901621195106 -0.055996183487384221 0 0.010556343982538047 -0.056409951817124993 0 0.01042984372214511 -0.055390716692642152 0 0.010041901621195106 -0.055996183487384221 0 0.0092128283834433319 -0.055671818762850434 0 0.010041901621195106 -0.055996183487384221 0 0.010134117276776463 -0.056390827238528667 0 0.010556343982538047 -0.056409951817124993 0 0.010041901621195106 -0.055996183487384221 0 0.0094607495234366352 -0.056380516397777913 0 0.0092128283834433319 -0.055671818762850434 0 0.010041901621195106 -0.055996183487384221 0 0.010134117276776463 -0.056390827238528667 0 0.0094607495234366352 -0.056380516397777913 0 0.010549296959952333 -0.055139624514269819 0 0.010696861487692976 -0.055659639177793041 0 0.011112279833818135 -0.055968641467694029 0 0.012020792505430512 -0.049710307391826733 0 0.008175170691599367 -0.039179220253034254 0 0.01227189581360459 -0.055195530015197301 0 0.013733955450123733 -0.056004832444927641 0 0.014350349845973311 -0.057659926628084314 0 0.015170996640738319 -0.054157710994772873 0 0.015118187936303517 -0.055397251085237888 0 0.014308608667157987 -0.054733327745028856 0 0.015118187936303517 -0.055397251085237888 0 0.014308608667157987 -0.054733327745028856 0 0.014248349870726082 -0.055589374689047823 0 0.01227189581360459 -0.055195530015197301 0 0.013357679564296279 -0.055288031143021214 0 0.013733955450123733 -0.056004832444927641 0 0.014248349870726082 -0.055589374689047823 0 0.013357679564296279 -0.055288031143021214 0 0.013733955450123733 -0.056004832444927641 0 0.01347619412739145 -0.054422871319159211 0 0.014308608667157987 -0.054733327745028856 0 0.013357679564296279 -0.055288031143021214 0 0.014308608667157987 -0.054733327745028856 0 0.014248349870726082 -0.055589374689047823 0 0.013357679564296279 -0.055288031143021214 0 0.01347619412739145 -0.054422871319159211 0 0.01295115074187057 -0.054711234890690713 0 0.013357679564296279 -0.055288031143021214 0 0.015341660412282122 -0.057237226249111289 0 0.015118187936303517 -0.055397251085237888 0 0.014529919745219944 -0.056388612957074494 0 0.013733955450123733 -0.056004832444927641 0 0.014529919745219944 -0.056388612957074494 0 0.014350349845973311 -0.057659926628084314 0 0.014248349870726082 -0.055589374689047823 0 0.013733955450123733 -0.056004832444927641 0 0.014529919745219944 -0.056388612957074494 0 0.015118187936303517 -0.055397251085237888 0 0.014248349870726082 -0.055589374689047823 0 0.014529919745219944 -0.056388612957074494 0 0.015341660412282122 -0.057237226249111289 0 0.014529919745219944 -0.056388612957074494 0 0.014350349845973311 -0.057659926628084314 0 0.0081235174472019302 -0.038125704934293722 0 0.0080806656021169473 -0.038202919062208018 0 0.0078096874928054961 -0.038265695680642024 0 0.0073180183725041594 -0.036286464824718333 0 0.008175170691599367 -0.039179220253034254 0 0.0073396712577709329 -0.036336184928888959 0 0.008175170691599367 -0.039179220253034254 0 0.0075361641036356718 -0.03699476406313626 0 0.0037593693481571691 -0.037835015359970282 0 0.0057127590242456614 -0.040242498795987465 0 0.010696861487692976 -0.055659639177793041 0 0.011112279833818135 -0.055968641467694029 0 0.010832279722348796 -0.055879367445982576 0 0.010696861487692976 -0.055659639177793041 0 0.010832279722348796 -0.055879367445982576 0 0.01075207073142965 -0.056018498859767583 0 0.011112279833818135 -0.055968641467694029 0 0.010902503512520395 -0.055967630321626015 0 0.010832279722348796 -0.055879367445982576 0 0.008175170691599367 -0.039179220253034254 0 0.0082349976780842216 -0.039379109891607922 0 0.010902503512520395 -0.055967630321626015 0 0.010832279722348796 -0.055879367445982576 0 0.01075207073142965 -0.056018498859767583 0 0.008175170691599367 -0.039179220253034254 0 0.0089497905436799214 -0.04357187286444103 0 0.0068658901762315983 -0.038419039873019548 0 0.0053283179662485759 -0.038763794363974959 0 0.0073906273025002326 -0.039065776182691754 0 0.0062541333310369897 -0.041082463362982241 0 0.0053283179662485759 -0.038763794363974959 0 0.0073906273025002326 -0.039065776182691754 0 0.011092659990455802 -0.055940168344483433 0 0.010902503512520395 -0.055967630321626015 0 0.01075207073142965 -0.056018498859767583 0 0.008175170691599367 -0.039179220253034254 0 0.0072922440370886462 -0.036886228627238546 0 0.0073396712577709329 -0.036336184928888959 0 0.0072922440370886462 -0.036886228627238546 0 0.01042984372214511 -0.055390716692642152 0 0.011138280811439345 -0.057310554239318183 0 0.010556343982538047 -0.056409951817124993 0 0.0104301347326647 -0.048339798782241344 0 0.0089497905436799214 -0.04357187286444103 0 0.010023041437236879 -0.056793166959867851 0 0.010252607875564975 -0.057124012997494152 0 0.0094158874540604242 -0.057129923314625512 0 0.010023041437236879 -0.056793166959867851 0 0.010252607875564975 -0.057124012997494152 0 0.010370953589825859 -0.056869631398802516 0 0.010023041437236879 -0.056793166959867851 0 0.010347613434729053 -0.056614290301389841 0 0.010370953589825859 -0.056869631398802516 0 0.010023041437236879 -0.056793166959867851 0 0.0094158874540604242 -0.057129923314625512 0 0.0094607495234366352 -0.056380516397777913 0 0.010023041437236879 -0.056793166959867851 0 0.010134117276776463 -0.056390827238528667 0 0.0094607495234366352 -0.056380516397777913 0 0.010023041437236879 -0.056793166959867851 0 0.010134117276776463 -0.056390827238528667 0 0.010347613434729053 -0.056614290301389841 0 0.010556343982538047 -0.056409951817124993 0 0.010551747501791173 -0.056740956348233264 0 0.010825715830256164 -0.057049174556042741 0 0.011138280811439345 -0.057310554239318183 0 0.010556343982538047 -0.056409951817124993 0 0.010825715830256164 -0.057049174556042741 0 0.010134117276776463 -0.056390827238528667 0 0.010556343982538047 -0.056409951817124993 0 0.010347613434729053 -0.056614290301389841 0 0.010556343982538047 -0.056409951817124993 0 0.010551747501791173 -0.056740956348233264 0 0.010347613434729053 -0.056614290301389841 0 0.010551747501791173 -0.056740956348233264 0 0.010347613434729053 -0.056614290301389841 0 0.010370953589825859 -0.056869631398802516 0 0.010551747501791173 -0.056740956348233264 0 0.010370953589825859 -0.056869631398802516 0 0.010568496824882931 -0.056921508151701057 0 0.010551747501791173 -0.056740956348233264 0 0.010825715830256164 -0.057049174556042741 0 0.010568496824882931 -0.056921508151701057 0 0.010825715830256164 -0.057049174556042741 0 0.010568496824882931 -0.056921508151701057 0 0.010549344575176835 -0.057174549425824686 0 0.010252607875564975 -0.057124012997494152 0 0.010568496824882931 -0.056921508151701057 0 0.010549344575176835 -0.057174549425824686 0 0.010252607875564975 -0.057124012997494152 0 0.010370953589825859 -0.056869631398802516 0 0.010568496824882931 -0.056921508151701057 0 0.0072552218902944988 -0.042207855241044527 0 0.0072354272879311893 -0.042363266334820467 0 0.0073303610740939112 -0.042343370572811317 0 0.010252607875564975 -0.057124012997494152 0 0.010549344575176835 -0.057174549425824686 0 0.010474613577204231 -0.057448603354098612 0 0.010825715830256164 -0.057049174556042741 0 0.010549344575176835 -0.057174549425824686 0 0.010474613577204231 -0.057448603354098612 0 0.0089497905436799214 -0.04357187286444103 0 0.0094475094620308526 -0.045374433482151311 0 0.011138280811439345 -0.057310554239318183 0 0.010825715830256164 -0.057049174556042741 0 0.010474613577204231 -0.057448603354098612 0 0.0094475094620308526 -0.045374433482151311 0 0.0090441276253688981 -0.046246721644945726 0 0.0090641934395547692 -0.05834939772487989 0 0.010045910054761201 -0.057484452577888728 0 0.0091211527066134244 -0.05767333421348772 0 0.010474613577204231 -0.057448603354098612 0 0.0091211527066134244 -0.05767333421348772 0 0.0094158874540604242 -0.057129923314625512 0 0.010252607875564975 -0.057124012997494152 0 0.010474613577204231 -0.057448603354098612 0 0.0094158874540604242 -0.057129923314625512 0 0.0091211527066134244 -0.05767333421348772 0 0.0094158874540604242 -0.057129923314625512 0 0.0077869865208119718 -0.056285766293124505 0 0.0092094430739864189 -0.056288747288402705 0 0.0089647973384360379 -0.056489417749419304 0 0.0076351506662353224 -0.059147507905441626 0 0.0086579412877208599 -0.059036337153452342 0 0.0077869865208119718 -0.056285766293124505 0 0.0090641934395547692 -0.05834939772487989 0 0.0091211527066134244 -0.05767333421348772 0 0.0077869865208119718 -0.056285766293124505 0 0.0094158874540604242 -0.057129923314625512 0 0.0094607495234366352 -0.056380516397777913 0 0.0077869865208119718 -0.056285766293124505 0 0.0092128283834433319 -0.055671818762850434 0 0.0077869865208119718 -0.056285766293124505 0 0.0090632256934678954 -0.054959225198350822 0 0.0094607495234366352 -0.056380516397777913 0 0.0092128283834433319 -0.055671818762850434 0 0.0077869865208119718 -0.056285766293124505 0 0.0077869865208119718 -0.056285766293124505 0 0.0090632256934678954 -0.054959225198350822 0 0.0069189339721310644 -0.054431361057264566 0 0.0077869865208119718 -0.056285766293124505 0 0.0049423703896507073 -0.056683109513496588 0 0.0069189339721310644 -0.054431361057264566 0 0.0077869865208119718 -0.056285766293124505 0 0.0062560081117730999 -0.05788502679555603 0 0.0049423703896507073 -0.056683109513496588 0 0.0076351506662353224 -0.059147507905441626 0 0.0077869865208119718 -0.056285766293124505 0 0.0062560081117730999 -0.05788502679555603 0 0.0046796955441630577 -0.059345152469194667 0 0.0062560081117730999 -0.05788502679555603 0 0.0049423703896507073 -0.056683109513496588 0 0.0046796955441630577 -0.059345152469194667 0 0.0025927886077588931 -0.057369902668659364 0 0.0049423703896507073 -0.056683109513496588 0 0.0025927886077588931 -0.057369902668659364 0 0.0029039537731565899 -0.055500737498162526 0 0.0049423703896507073 -0.056683109513496588 0 0.0029039537731565899 -0.055500737498162526 0 0.0049423703896507073 -0.056683109513496588 0 0.0044610061202893913 -0.053861109192930801 0 0.0049423703896507073 -0.056683109513496588 0 0.0044610061202893913 -0.053861109192930801 0 0.0069189339721310644 -0.054431361057264566 0 0.0029039537731565899 -0.055500737498162526 0 0.0044610061202893913 -0.053861109192930801 0 0.0021991140791059144 -0.053388847260937157 0 0.0044610061202893913 -0.053861109192930801 0 0.0021991140791059144 -0.053388847260937157 0 0.0045184925263818346 -0.050747505540907567 0 0.0021991140791059144 -0.053388847260937157 0 0.0012625593048338488 -0.050335178189603327 0 0.0045184925263818346 -0.050747505540907567 0 0.0044610061202893913 -0.053861109192930801 0 0.0065958660015830121 -0.052505034272338727 0 0.0045184925263818346 -0.050747505540907567 0 0.0065958660015830121 -0.052505034272338727 0 0.0076734994713198064 -0.050323519198139245 0 0.0045184925263818346 -0.050747505540907567 0 0.0065958660015830121 -0.052505034272338727 0 0.0091968343766967078 -0.052965802789901026 0 0.0076734994713198064 -0.050323519198139245 0 0.010991568861492433 -0.050898535289939963 0 0.010066316898952208 -0.050451225852703986 0 0.010094044219791012 -0.052837895741546848 0 0.010075779934722586 -0.048815109768046011 0 0.0076734994713198064 -0.050323519198139245 0 0.0090632256934678954 -0.054959225198350822 0 0.0091968343766967078 -0.052965802789901026 0 0.0069189339721310644 -0.054431361057264566 0 0.0065958660015830121 -0.052505034272338727 0 0.0091968343766967078 -0.052965802789901026 0 0.0069189339721310644 -0.054431361057264566 0 0.0044610061202893913 -0.053861109192930801 0 0.0065958660015830121 -0.052505034272338727 0 0.0069189339721310644 -0.054431361057264566 0 -0.0039727064412584398 -0.057000034402861381 0 -0.0031320548823025396 -0.059063772504472367 0 -0.0019822779326348458 -0.057816449052800895 0 -0.0043809923296307734 -0.059284232186287603 0 -0.0039727064412584398 -0.057000034402861381 0 -0.0031320548823025396 -0.059063772504472367 0 -0.0034491737954607466 -0.060105745308515784 0 -0.0043809923296307734 -0.059284232186287603 0 -0.0031320548823025396 -0.059063772504472367 0 -0.0024009350766900448 -0.059647982038713632 0 -0.0029087438156892033 -0.059855666938106532 0 -0.0031320548823025396 -0.059063772504472367 0 -0.0024009350766900448 -0.059647982038713632 0 -0.0031320548823025396 -0.059063772504472367 0 -0.0019822779326348458 -0.057816449052800895 0 -0.0024009350766900448 -0.059647982038713632 0 -0.0019822779326348458 -0.057816449052800895 0 -0.00099311618759472496 -0.059042509214503325 0 -0.0039727064412584398 -0.057000034402861381 0 -0.0019822779326348458 -0.057816449052800895 0 -0.0017680684223839753 -0.055680174137017369 0 -0.0019822779326348458 -0.057816449052800895 0 -0.0017680684223839753 -0.055680174137017369 0 0.00079254035387255138 -0.056224857220527356 0 -0.0019822779326348458 -0.057816449052800895 0 -0.00099311618759472496 -0.059042509214503325 0 0.00079254035387255138 -0.056224857220527356 0 -0.0010103779095520327 -0.057980083156492765 0 0.00057615398287272064 -0.057951107401029947 0 0.00079254035387255138 -0.056224857220527356 0 -0.0013700742750395306 -0.058775770146715797 0 -0.00046711277465685342 -0.057739354909379363 0 0.0016012758386855627 -0.059392753001411148 0 0.0025927886077588931 -0.057369902668659364 0 0.00057615398287272064 -0.057951107401029947 0 0.0025927886077588931 -0.057369902668659364 0 0.00057615398287272064 -0.057951107401029947 0 0.00079254035387255138 -0.056224857220527356 0 0.0025927886077588931 -0.057369902668659364 0 0.0029039537731565899 -0.055500737498162526 0 0.00079254035387255138 -0.056224857220527356 0 0.0021991140791059144 -0.053388847260937157 0 0.00079254035387255138 -0.056224857220527356 0 -0.00035399967079309254 -0.05330752994305149 0 0.0029039537731565899 -0.055500737498162526 0 0.0021991140791059144 -0.053388847260937157 0 0.00079254035387255138 -0.056224857220527356 0 0.0021991140791059144 -0.053388847260937157 0 -0.00035399967079309254 -0.05330752994305149 0 0.0012625593048338488 -0.050335178189603327 0 -0.00035399967079309254 -0.05330752994305149 0 -0.001595709527602274 -0.050550169797319675 0 0.0012625593048338488 -0.050335178189603327 0 -0.0017680684223839753 -0.055680174137017369 0 0.00079254035387255138 -0.056224857220527356 0 -0.00035399967079309254 -0.05330752994305149 0 -0.0017680684223839753 -0.055680174137017369 0 -0.00035399967079309254 -0.05330752994305149 0 -0.0031517162406016264 -0.054007892400064955 0 -0.0039727064412584398 -0.057000034402861381 0 -0.0017680684223839753 -0.055680174137017369 0 -0.0031517162406016264 -0.054007892400064955 0 -0.00035399967079309254 -0.05330752994305149 0 -0.0031517162406016264 -0.054007892400064955 0 -0.001595709527602274 -0.050550169797319675 0 -0.0056562603884355881 -0.054558331430584174 0 -0.0031517162406016264 -0.054007892400064955 0 -0.0048265945942080777 -0.05078328961425066 0 -0.0056562603884355881 -0.054558331430584174 0 -0.0039727064412584398 -0.057000034402861381 0 -0.0031517162406016264 -0.054007892400064955 0 -0.0048265945942080777 -0.05078328961425066 0 -0.0029143630365900696 -0.047970145306303946 0 -0.0050134250759170558 -0.046036259261717685 0 -0.0048265945942080777 -0.05078328961425066 0 -0.0029143630365900696 -0.047970145306303946 0 -0.001595709527602274 -0.050550169797319675 0 -0.0031517162406016264 -0.054007892400064955 0 -0.0048265945942080777 -0.05078328961425066 0 -0.001595709527602274 -0.050550169797319675 0 -0.0029143630365900696 -0.047970145306303946 0 -0.001595709527602274 -0.050550169797319675 0 -0.00013229859371646709 -0.046851875051840332 0 -0.001595709527602274 -0.050550169797319675 0 0.0012625593048338488 -0.050335178189603327 0 -0.00013229859371646709 -0.046851875051840332 0 0.0012625593048338488 -0.050335178189603327 0 -0.00013229859371646709 -0.046851875051840332 0 0.0030973398873594673 -0.047637522639261597 0 -0.00013229859371646709 -0.046851875051840332 0 0.0030973398873594673 -0.047637522639261597 0 0.0018727298116635728 -0.044304817501502232 0 -0.00013229859371646709 -0.046851875051840332 0 -0.00063598974645101211 -0.041857797192527933 0 0.0018727298116635728 -0.044304817501502232 0 -0.00063598974645101211 -0.041857797192527933 0 -0.0021313520016712269 -0.04485844641382352 0 -0.003370472554849771 -0.04281756986303735 0 -0.00013229859371646709 -0.046851875051840332 0 -0.00063598974645101211 -0.041857797192527933 0 -0.0021313520016712269 -0.04485844641382352 0 -0.0029143630365900696 -0.047970145306303946 0 -0.00013229859371646709 -0.046851875051840332 0 -0.0021313520016712269 -0.04485844641382352 0 -0.0029143630365900696 -0.047970145306303946 0 -0.0021313520016712269 -0.04485844641382352 0 -0.0050134250759170558 -0.046036259261717685 0 -0.0021313520016712269 -0.04485844641382352 0 -0.003370472554849771 -0.04281756986303735 0 -0.0050134250759170558 -0.046036259261717685 0 -0.0076618194071621081 -0.042299180486128213 0 -0.003370472554849771 -0.04281756986303735 0 -0.0050134250759170558 -0.046036259261717685 0 0.0066138272635159713 -0.047137940229567375 0 0.010075779934722586 -0.048815109768046011 0 0.010125371526491411 -0.043865035402948768 0 0.0066138272635159713 -0.047137940229567375 0 0.0076734994713198064 -0.050323519198139245 0 0.0045184925263818346 -0.050747505540907567 0 0.0066138272635159713 -0.047137940229567375 0 0.010075779934722586 -0.048815109768046011 0 0.0076734994713198064 -0.050323519198139245 0 0.0066138272635159713 -0.047137940229567375 0 0.0045184925263818346 -0.050747505540907567 0 0.0030973398873594673 -0.047637522639261597 0 0.0012625593048338488 -0.050335178189603327 0 0.0045184925263818346 -0.050747505540907567 0 0.0030973398873594673 -0.047637522639261597 0 0.0066138272635159713 -0.047137940229567375 0 0.0030973398873594673 -0.047637522639261597 0 0.0045760732164816442 -0.044874502984554726 0 0.0045760732164816442 -0.044874502984554726 0 0.0018727298116635728 -0.044304817501502232 0 0.0028850207227080187 -0.040592643076176799 0 0.0030973398873594673 -0.047637522639261597 0 0.0045760732164816442 -0.044874502984554726 0 0.0018727298116635728 -0.044304817501502232 0 -0.00063598974645101211 -0.041857797192527933 0 0.0018727298116635728 -0.044304817501502232 0 0.0028850207227080187 -0.040592643076176799 0 0.0028850207227080187 -0.040592643076176799 0 0.0066696990215141866 -0.042316022032862805 0 0.0048298094350061995 -0.038262399025210322 0 0.0045760732164816442 -0.044874502984554726 0 0.0028850207227080187 -0.040592643076176799 0 0.0066696990215141866 -0.042316022032862805 0 0.0066696990215141866 -0.042316022032862805 0 0.009561707526194162 -0.041101633790946841 0 0.0078304464555522986 -0.038712859044995315 0 0.0066138272635159713 -0.047137940229567375 0 0.0066696990215141866 -0.042316022032862805 0 0.010125371526491411 -0.043865035402948768 0 0.0066138272635159713 -0.047137940229567375 0 0.0045760732164816442 -0.044874502984554726 0 0.0066696990215141866 -0.042316022032862805 0 0.012102136538518462 -0.041586237786939706 0 0.010125371526491411 -0.043865035402948768 0 0.009561707526194162 -0.041101633790946841 0 0.0066696990215141866 -0.042316022032862805 0 0.010125371526491411 -0.043865035402948768 0 0.009561707526194162 -0.041101633790946841 0 0.0094115403127937244 -0.036363993537222181 0 0.0078304464555522986 -0.038712859044995315 0 0.011129224658098782 -0.038915883056382397 0 0.009561707526194162 -0.041101633790946841 0 0.0078304464555522986 -0.038712859044995315 0 0.011129224658098782 -0.038915883056382397 0 0.0094115403127937244 -0.036363993537222181 0 0.0091530141313807389 -0.032456211666706085 0 0.013028974221787571 -0.036445919838213492 0 0.0094115403127937244 -0.036363993537222181 0 0.0054313710785540963 -0.034945091062012483 0 0.0091530141313807389 -0.032456211666706085 0 0.0094115403127937244 -0.036363993537222181 0 0.0054313710785540963 -0.034945091062012483 0 0.0078304464555522986 -0.038712859044995315 0 0.0066696990215141866 -0.042316022032862805 0 0.0078304464555522986 -0.038712859044995315 0 0.0048298094350061995 -0.038262399025210322 0 0.0054313710785540963 -0.034945091062012483 0 0.0078304464555522986 -0.038712859044995315 0 0.0048298094350061995 -0.038262399025210322 0 0.0028850207227080187 -0.040592643076176799 0 0.0048298094350061995 -0.038262399025210322 0 0.0014736150353547948 -0.035125536977772299 0 0.0028850207227080187 -0.040592643076176799 0 0.0014736150353547948 -0.035125536977772299 0 -0.00042364100516882001 -0.03697814197316706 0 0.0054313710785540963 -0.034945091062012483 0 0.0014736150353547948 -0.035125536977772299 0 0.0021986028061765539 -0.032027276569670221 0 0.0054313710785540963 -0.034945091062012483 0 0.0048298094350061995 -0.038262399025210322 0 0.0014736150353547948 -0.035125536977772299 0 0.0054313710785540963 -0.034945091062012483 0 0.0021986028061765539 -0.032027276569670221 0 0.0025130819397034569 -0.027882275193765259 0 0.0014736150353547948 -0.035125536977772299 0 0.0021986028061765539 -0.032027276569670221 0 8.7773523924839807e-05 -0.030650780873603425 0 8.7773523924839807e-05 -0.030650780873603425 0 0.0025130819397034569 -0.027882275193765259 0 5.8731264418992057e-05 -0.027516460204507039 0 0.0021986028061765539 -0.032027276569670221 0 8.7773523924839807e-05 -0.030650780873603425 0 0.0025130819397034569 -0.027882275193765259 0 0.0025130819397034569 -0.027882275193765259 0 0.0010562723904990854 -0.025431252348774969 0 0.001251413400213735 -0.025552645574129191 0 0.0025130819397034569 -0.027882275193765259 0 0.0010562723904990854 -0.025431252348774969 0 0.0013933937419586711 -0.025324626235872831 0 0.0010562723904990854 -0.025431252348774969 0 0.0013933937419586711 -0.025324626235872831 0 0.0012421413482505031 -0.025318025427785874 0 0.0054313710785540963 -0.034945091062012483 0 0.0025130819397034569 -0.027882275193765259 0 0.0091530141313807389 -0.032456211666706085 0 0.0045575816563034298 -0.027849489101421397 0 0.0056174506763455737 -0.028368375357207244 0 -0.0068545590475210718 -0.038532545757223119 0 -0.0043581765144935876 -0.039628449178443027 0 -0.0049104730270100386 -0.036718951841382352 0 -0.0076618194071621081 -0.042299180486128213 0 -0.003370472554849771 -0.04281756986303735 0 -0.0043581765144935876 -0.039628449178443027 0 -0.003370472554849771 -0.04281756986303735 0 -0.0043581765144935876 -0.039628449178443027 0 -0.0015087849240080899 -0.039762121907526905 0 -0.002004578809937394 -0.03773689582690018 0 -0.0032061020425225482 -0.03504307354699971 0 -0.0043581765144935876 -0.039628449178443027 0 -0.0015087849240080899 -0.039762121907526905 0 -0.0027917261014772854 -0.036200949487089004 0 -0.0034153564423749405 -0.035893345443082599 0 -0.00042364100516882001 -0.03697814197316706 0 -0.0017899915549567664 -0.032762882378688303 0 -0.0010978835869588815 -0.039545880883830917 0 -0.002004578809937394 -0.03773689582690018 0 -0.00063598974645101211 -0.041857797192527933 0 -0.0034153564423749405 -0.035893345443082599 0 -0.00042364100516882001 -0.03697814197316706 0 -0.00063598974645101211 -0.041857797192527933 0 -0.003370472554849771 -0.04281756986303735 0 -0.0015087849240080899 -0.039762121907526905 0 -0.00063598974645101211 -0.041857797192527933 0 0.0028850207227080187 -0.040592643076176799 0 -0.00042364100516882001 -0.03697814197316706 0 0.0014736150353547948 -0.035125536977772299 0 -0.00042364100516882001 -0.03697814197316706 0 -0.0017899915549567664 -0.032762882378688303 0 0.0014736150353547948 -0.035125536977772299 0 8.7773523924839807e-05 -0.030650780873603425 0 -0.0017899915549567664 -0.032762882378688303 0 8.7773523924839807e-05 -0.030650780873603425 0 -0.0013433698578911972 -0.030592431020220891 0 -0.00046537936754064639 -0.029436500007288403 0 8.7773523924839807e-05 -0.030650780873603425 0 -0.0017899915549567664 -0.032762882378688303 0 -0.0013433698578911972 -0.030592431020220891 0 -0.0017899915549567664 -0.032762882378688303 0 -0.0024033966511582488 -0.031587110038516407 0 -0.0013433698578911972 -0.030592431020220891 0 -0.0034153564423749405 -0.035893345443082599 0 -0.0017899915549567664 -0.032762882378688303 0 -0.0033280060229049437 -0.03283263654557908 0 -0.0017899915549567664 -0.032762882378688303 0 -0.0033280060229049437 -0.03283263654557908 0 -0.0024033966511582488 -0.031587110038516407 0 -0.0055425983315726532 -0.034449960694070192 0 -0.0027917261014772854 -0.036200949487089004 0 -0.0036924972648283011 -0.032173133621638199 0 -0.0032061020425225482 -0.03504307354699971 0 -0.0038531152101657943 -0.033614164565813003 0 -0.0033280060229049437 -0.03283263654557908 0 -0.0036924972648283011 -0.032173133621638199 0 -0.0024033966511582488 -0.031587110038516407 0 -0.0043581765144935876 -0.039628449178443027 0 -0.0027917261014772854 -0.036200949487089004 0 -0.0049104730270100386 -0.036718951841382352 0 -0.0055425983315726532 -0.034449960694070192 0 -0.0027917261014772854 -0.036200949487089004 0 -0.0049104730270100386 -0.036718951841382352 0 0.0011053889557529691 -0.030578202495414791 0 -0.0017815443360832911 -0.031096064383677399 0 0.00018557642564846785 -0.036472612563389746 0 -0.0012586298724613424 -0.045166403022958219 0 -0.00095864115692107226 -0.04397896314879586 0 -0.0036924972648283011 -0.032173133621638199 0 -0.0024107689639224247 -0.031501575640699594 0 -0.0024033966511582488 -0.031587110038516407 0 -0.0038169252782197802 -0.030639895735333302 0 -0.0036924972648283011 -0.032173133621638199 0 -0.0024107689639224247 -0.031501575640699594 0 -0.0038169252782197802 -0.030639895735333302 0 -0.0017815443360832911 -0.031096064383677399 0 -0.0024107689639224247 -0.031501575640699594 0 -0.0017815443360832911 -0.031096064383677399 0 -0.0024107689639224247 -0.031501575640699594 0 -0.0016970046003671787 -0.030950191119947651 0 -0.0024107689639224247 -0.031501575640699594 0 -0.0024033966511582488 -0.031587110038516407 0 -0.0016970046003671787 -0.030950191119947651 0 -0.0017815443360832911 -0.031096064383677399 0 -0.0016970046003671787 -0.030950191119947651 0 -0.001148779301865515 -0.032990491544749333 0 -0.0016970046003671787 -0.030950191119947651 0 -0.00058210219948148562 -0.029618111231415271 0 -0.00091810704529423465 -0.031104528934300973 0 -0.0016970046003671787 -0.030950191119947651 0 -0.0013433698578911972 -0.030592431020220891 0 -0.00058210219948148562 -0.029618111231415271 0 -0.0024033966511582488 -0.031587110038516407 0 -0.0016970046003671787 -0.030950191119947651 0 -0.0013433698578911972 -0.030592431020220891 0 -0.0013433698578911972 -0.030592431020220891 0 -0.00058210219948148562 -0.029618111231415271 0 -0.00046537936754064639 -0.029436500007288403 0 -0.00058210219948148562 -0.029618111231415271 0 -0.00052897312857548432 -0.029365625104502194 0 -0.00091810704529423465 -0.031104528934300973 0 -0.00052897312857548432 -0.029365625104502194 0 -2.4067641119652981e-06 -0.029695463080650946 0 -0.00091810704529423465 -0.031104528934300973 0 -2.4067641119652981e-06 -0.029695463080650946 0 -0.00091810704529423465 -0.031104528934300973 0 -1.1719698424812124e-06 -0.034190168838048096 0 -0.00091810704529423465 -0.031104528934300973 0 -0.001148779301865515 -0.032990491544749333 0 -1.1719698424812124e-06 -0.034190168838048096 0 -0.0016970046003671787 -0.030950191119947651 0 -0.00091810704529423465 -0.031104528934300973 0 -0.001148779301865515 -0.032990491544749333 0 -8.5134534451717831e-08 -0.038682408139562877 0 -1.1719698424812124e-06 -0.034190168838048096 0 0.00018557642564846785 -0.036472612563389746 0 -0.001148779301865515 -0.032990491544749333 0 -1.1719698424812124e-06 -0.034190168838048096 0 0.00018557642564846785 -0.036472612563389746 0 -0.0017815443360832911 -0.031096064383677399 0 -0.001148779301865515 -0.032990491544749333 0 0.00018557642564846785 -0.036472612563389746 0 0.00045405909963485216 -0.024608934942559581 0 0.001251413400213735 -0.025552645574129191 0 5.8731264418992057e-05 -0.027516460204507039 0 0.00045405909963485216 -0.024608934942559581 0 0.00054980326100013759 -0.023535255062222718 0 -2.7483005210105114e-05 -0.022617679057128248 0 0.00045405909963485216 -0.024608934942559581 0 0.00054980326100013759 -0.023535255062222718 0 0.001251413400213735 -0.025552645574129191 0 0.00054980326100013759 -0.023535255062222718 0 9.5087174636865495e-05 -0.021008267349684695 0 0.00070263201318884467 -0.023470033333473424 0 0.00054980326100013759 -0.023535255062222718 0 0.001251413400213735 -0.025552645574129191 0 0.00070263201318884467 -0.023470033333473424 0 0.0010562723904990854 -0.025431252348774969 0 0.001251413400213735 -0.025552645574129191 0 0.00070263201318884467 -0.023470033333473424 0 0.0025130819397034569 -0.027882275193765259 0 0.001251413400213735 -0.025552645574129191 0 5.8731264418992057e-05 -0.027516460204507039 0 8.7773523924839807e-05 -0.030650780873603425 0 5.8731264418992057e-05 -0.027516460204507039 0 -0.00046537936754064639 -0.029436500007288403 0 -0.00058210219948148562 -0.029618111231415271 0 5.8731264418992057e-05 -0.027516460204507039 0 -0.00046537936754064639 -0.029436500007288403 0 -0.00058210219948148562 -0.029618111231415271 0 5.8731264418992057e-05 -0.027516460204507039 0 0.00022081695284366325 -0.029014685871680129 0 0.00045405909963485216 -0.024608934942559581 0 5.8731264418992057e-05 -0.027516460204507039 0 -0.0002528770205902831 -0.023381553630274256 0 -1.7815478507567642e-06 -0.026592389489056782 0 -3.7084857469484392e-06 -0.026107616774681923 0 0.00045405909963485216 -0.024608934942559581 0 -0.0002528770205902831 -0.023381553630274256 0 -2.7483005210105114e-05 -0.022617679057128248 0 -0.00058210219948148562 -0.029618111231415271 0 -0.00052897312857548432 -0.029365625104502194 0 0.00022081695284366325 -0.029014685871680129 0 -0.00052897312857548432 -0.029365625104502194 0 0.00022081695284366325 -0.029014685871680129 0 2.4289951700522556e-06 -0.02521118083261609 0 -0.00052897312857548432 -0.029365625104502194 0 -2.4067641119652981e-06 -0.029695463080650946 0 2.4289951700522556e-06 -0.02521118083261609 0 -3.7084857469484392e-06 -0.026107616774681923 0 6.7388516922772001e-09 -0.025204649541312282 0 -0.0002528770205902831 -0.023381553630274256 0 -8.169265883681575e-08 -0.025196370517937071 0 -2.7483005210105114e-05 -0.022617679057128248 0 -8.169265883681575e-08 -0.025196370517937071 0 -6.9690682028340941e-07 -0.021609817733390772 0 -2.7483005210105114e-05 -0.022617679057128248 0 0.00054980326100013759 -0.023535255062222718 0 -2.7483005210105114e-05 -0.022617679057128248 0 9.5087174636865495e-05 -0.021008267349684695 0 -6.9690682028340941e-07 -0.021609817733390772 0 9.5087174636865495e-05 -0.021008267349684695 0 5.5728288153792807e-07 -0.018013889400319099 0 -6.9690682028340941e-07 -0.021609817733390772 0 -2.7483005210105114e-05 -0.022617679057128248 0 9.5087174636865495e-05 -0.021008267349684695 0 9.5087174636865495e-05 -0.021008267349684695 0 5.5728288153792807e-07 -0.018013889400319099 0 0.00014271255048164803 -0.018518884522837526 0 0.00014271255048164803 -0.018518884522837526 0 -2.011218671195903e-06 -0.014416770310206654 0 0.00087507240049642461 -0.017996297839934967 0 5.5728288153792807e-07 -0.018013889400319099 0 0.00014271255048164803 -0.018518884522837526 0 -2.011218671195903e-06 -0.014416770310206654 0 0.00014271255048164803 -0.018518884522837526 0 0.00087507240049642461 -0.017996297839934967 0 0.00064189821841011932 -0.02125097491898879 0 9.5087174636865495e-05 -0.021008267349684695 0 0.00014271255048164803 -0.018518884522837526 0 0.00064189821841011932 -0.02125097491898879 0 2.4825886836295385e-06 -0.010822187829362019 0 0.001304247883057674 -0.012111796427179683 0 -2.011218671195903e-06 -0.014416770310206654 0 1.0032454894817068e-05 -0.010829889168553838 0 0.00087507240049642461 -0.017996297839934967 0 1.0032454894817068e-05 -0.010829889168553838 0 0.00087507240049642461 -0.017996297839934967 0 0.0041556605756226279 -0.018889115284186065 0 0.001304247883057674 -0.012111796427179683 0 0.0019213674763969356 -0.012994812860405216 0 0.0041556605756226279 -0.018889115284186065 0 0.0020434819049207835 -0.022671678147702514 0 0.0045461484810413308 -0.022974141821941144 0 0.00087507240049642461 -0.017996297839934967 0 0.0041556605756226279 -0.018889115284186065 0 0.0020434819049207835 -0.022671678147702514 0 0.0020434819049207835 -0.022671678147702514 0 0.0045461484810413308 -0.022974141821941144 0 0.0029918949385686427 -0.024606434855148653 0 0.00070263201318884467 -0.023470033333473424 0 0.00064189821841011932 -0.02125097491898879 0 0.0011175485545865641 -0.023561509228978143 0 9.5087174636865495e-05 -0.021008267349684695 0 0.00070263201318884467 -0.023470033333473424 0 0.00064189821841011932 -0.02125097491898879 0 0.0020434819049207835 -0.022671678147702514 0 0.00064189821841011932 -0.02125097491898879 0 0.0011175485545865641 -0.023561509228978143 0 0.00087507240049642461 -0.017996297839934967 0 0.0020434819049207835 -0.022671678147702514 0 0.00064189821841011932 -0.02125097491898879 0 0.0020434819049207835 -0.022671678147702514 0 0.0011175485545865641 -0.023561509228978143 0 0.0016295568060886675 -0.024611840466162327 0 0.0010562723904990854 -0.025431252348774969 0 0.00070263201318884467 -0.023470033333473424 0 0.0011175485545865641 -0.023561509228978143 0 0.0010562723904990854 -0.025431252348774969 0 0.0011175485545865641 -0.023561509228978143 0 0.0016295568060886675 -0.024611840466162327 0 0.0010562723904990854 -0.025431252348774969 0 0.0014933495045820436 -0.025298034154614908 0 0.0016295568060886675 -0.024611840466162327 0 0.0010562723904990854 -0.025431252348774969 0 0.001234580207988976 -0.02549081556677478 0 0.0014933495045820436 -0.025298034154614908 0 0.00377601505056048 -0.025300030966893469 0 0.0044165620347523154 -0.025760993848164548 0 0.001234580207988976 -0.02549081556677478 0 0.0014933495045820436 -0.025298034154614908 0 0.0015155239080287277 -0.025734733991771338 0 0.0013933937419586711 -0.025324626235872831 0 0.0012556280180466839 -0.025318684643504605 0 0.0012421413482505031 -0.025318025427785874 0 0.0014933495045820436 -0.025298034154614908 0 0.0016295568060886675 -0.024611840466162327 0 0.0023349485845915673 -0.025556341355451751 0 0.0014933495045820436 -0.025298034154614908 0 0.0023349485845915673 -0.025556341355451751 0 0.0018222192770305241 -0.025832995379241094 0 0.0014933495045820436 -0.025298034154614908 0 0.0015155239080287277 -0.025734733991771338 0 0.0018222192770305241 -0.025832995379241094 0 0.0020434819049207835 -0.022671678147702514 0 0.0016295568060886675 -0.024611840466162327 0 0.0029918949385686427 -0.024606434855148653 0 0.0016295568060886675 -0.024611840466162327 0 0.0029918949385686427 -0.024606434855148653 0 0.0023349485845915673 -0.025556341355451751 0 0.0045461484810413308 -0.022974141821941144 0 0.0029918949385686427 -0.024606434855148653 0 0.0042145044535133545 -0.025152137581557134 0 0.0019213674763969356 -0.012994812860405216 0 0.0020682825097556238 -0.013696655227399143 0 0.0029918949385686427 -0.024606434855148653 0 0.003363506350225864 -0.025678979445409849 0 0.0042145044535133545 -0.025152137581557134 0 0.0029918949385686427 -0.024606434855148653 0 0.003363506350225864 -0.025678979445409849 0 0.0023349485845915673 -0.025556341355451751 0 0.0023349485845915673 -0.025556341355451751 0 0.0030707126888023643 -0.026358326767640376 0 0.002302816705326094 -0.026392474078245638 0 0.003363506350225864 -0.025678979445409849 0 0.0023349485845915673 -0.025556341355451751 0 0.0030707126888023643 -0.026358326767640376 0 0.003363506350225864 -0.025678979445409849 0 0.0040223550956525189 -0.026456834036615088 0 0.0042145044535133545 -0.025152137581557134 0 0.003363506350225864 -0.025678979445409849 0 0.0030707126888023643 -0.026358326767640376 0 0.0040223550956525189 -0.026456834036615088 0 0.0030707126888023643 -0.026358326767640376 0 0.0033769612687514429 -0.027038804540402979 0 0.0040223550956525189 -0.026456834036615088 0 0.0025337482069726922 -0.027155254820942557 0 0.0030707126888023643 -0.026358326767640376 0 0.002302816705326094 -0.026392474078245638 0 0.0025337482069726922 -0.027155254820942557 0 0.0030707126888023643 -0.026358326767640376 0 0.0033769612687514429 -0.027038804540402979 0 0.0025337482069726922 -0.027155254820942557 0 0.0014794216213249625 -0.026368803664872351 0 0.002302816705326094 -0.026392474078245638 0 0.0056885990645958572 -0.024892353815101676 0 0.0067647286966654391 -0.027963286723819938 0 0.0086330274165254753 -0.023382367818550298 0 0.011941614220231732 -0.024520627451349891 0 0.01289974272122728 -0.027210716381388191 0 0.0087126977150556745 -0.030805815334837471 0 0.0067647286966654391 -0.027963286723819938 0 0.014016689317410276 -0.039303976332686369 0 0.011129224658098782 -0.038915883056382397 0 0.013028974221787571 -0.036445919838213492 0 0.012102136538518462 -0.041586237786939706 0 0.014016689317410276 -0.039303976332686369 0 0.011129224658098782 -0.038915883056382397 0 0.0094115403127937244 -0.036363993537222181 0 0.011129224658098782 -0.038915883056382397 0 0.013028974221787571 -0.036445919838213492 0 0.0087126977150556745 -0.030805815334837471 0 0.0069601338517639201 -0.028439762993500532 0 0.0081774543172432532 -0.030572784301148844 0 0.0073750986058955196 -0.028307365676511553 0 0.0069540263513746909 -0.027927936890479298 0 0.001234580207988976 -0.02549081556677478 0 0.0014794216213249625 -0.026368803664872351 0 0.0015155239080287277 -0.025734733991771338 0 0.0012421413482505031 -0.025318025427785874 0 0.0013489070070775645 -0.025387022338104064 0 0.0013278812272743876 -0.025379298932657873 0 0.0044165620347523154 -0.025760993848164548 0 0.0067647286966654391 -0.027963286723819938 0 0.0013933937419586711 -0.025324626235872831 0 0.0012556280180466839 -0.025318684643504605 0 0.0012066389696396799 -0.025217909788281079 0 0.0056174506763455737 -0.028368375357207244 0 0.0069601338517639201 -0.028439762993500532 0 0.0012556280180466839 -0.025318684643504605 0 0.0012421413482505031 -0.025318025427785874 0 0.0013278812272743876 -0.025379298932657873 0 0.0067647286966654391 -0.027963286723819938 0 0.0069601338517639201 -0.028439762993500532 0 0.0060322507983891918 -0.027148013586878628 0 0.0069601338517639201 -0.028439762993500532 0 0.0014794216213249625 -0.026368803664872351 0 0.0018222192770305241 -0.025832995379241094 0 0.002302816705326094 -0.026392474078245638 0 0.0014794216213249625 -0.026368803664872351 0 0.0015155239080287277 -0.025734733991771338 0 0.0018222192770305241 -0.025832995379241094 0 0.0023349485845915673 -0.025556341355451751 0 0.0018222192770305241 -0.025832995379241094 0 0.002302816705326094 -0.026392474078245638 0 -0.0010229262492170074 -0.0019711905175437056 0 -0.00067693095717974471 -0.0015309836506868305 0 -0.00078890554730715707 -0.00089350065489577583 0 -0.0010229262492170074 -0.0019711905175437056 0 -0.00067693095717974471 -0.0015309836506868305 0 -0.00054239463719417771 -0.0020236333614077739 0 -0.00010353008658737244 0.001722666277353991 0 -0.00015642296900623387 0.0013331212338896599 0 0.00057197070021997433 0.004887414279750711 0 0.0011229912182619667 0.0044899111773257332 0 0.0008459374332229657 0.0041691808432191349 0 0.00057197070021997433 0.004887414279750711 0 0.0011229912182619667 0.0044899111773257332 0 0.0014051815996271636 0.004942480432390815 0 0.0011229912182619667 0.0044899111773257332 0 0.0012711597319892453 0.0041118069227415802 0 0.0008459374332229657 0.0041691808432191349 0 0.0012711597319892453 0.0041118069227415802 0 0.0010266467531716507 0.003768770710750882 0 0.0013711779703544577 0.0038609197019757974 0 0.0012711597319892453 0.0041118069227415802 0 0.0010266467531716507 0.003768770710750882 0 0.0008459374332229657 0.0041691808432191349 0 0.00085954859366424267 0.0037651597634944028 0 0.0008459374332229657 0.0041691808432191349 0 0.00060017471587351474 0.00372787031263457 0 0.00057197070021997433 0.004887414279750711 0 0.0008459374332229657 0.0041691808432191349 0 0.00060017471587351474 0.00372787031263457 0 0.0010266467531716507 0.003768770710750882 0 0.00085954859366424267 0.0037651597634944028 0 0.0008153898277304917 0.003475859273845975 0 0.0010266467531716507 0.003768770710750882 0 0.00085954859366424267 0.0037651597634944028 0 0.0008459374332229657 0.0041691808432191349 0 -0.00067693095717974471 -0.0015309836506868305 0 -0.00078890554730715707 -0.00089350065489577583 0 -0.0006260862461126476 -0.0011090918062975539 0 0.00085954859366424267 0.0037651597634944028 0 0.00060017471587351474 0.00372787031263457 0 0.0008153898277304917 0.003475859273845975 0 -0.00050714570182879937 -0.00058933905504938782 0 -0.00078890554730715707 -0.00089350065489577583 0 -0.00057415763549305699 -0.00080313546939385827 0 -0.00078890554730715707 -0.00089350065489577583 0 -0.0006301533500089585 -0.00091993199365337011 0 -0.00057415763549305699 -0.00080313546939385827 0 -0.00078890554730715707 -0.00089350065489577583 0 -0.0006301533500089585 -0.00091993199365337011 0 -0.0006260862461126476 -0.0011090918062975539 0 -0.0006301533500089585 -0.00091993199365337011 0 -0.00052126246094832789 -0.00095901310813262339 0 -0.0006260862461126476 -0.0011090918062975539 0 -0.0006301533500089585 -0.00091993199365337011 0 -0.00052126246094832789 -0.00095901310813262339 0 -0.00057415763549305699 -0.00080313546939385827 0 -0.00052126246094832789 -0.00095901310813262339 0 -0.00057415763549305699 -0.00080313546939385827 0 -0.00043708104285370423 -0.00080689925581634828 0 -0.00043708104285370423 -0.00080689925581634828 0 -0.00032488726198400556 -0.0010302017900600782 0 -0.00030171875632135578 -0.00073736775524058681 0 -0.00052126246094832789 -0.00095901310813262339 0 -0.00043708104285370423 -0.00080689925581634828 0 -0.00032488726198400556 -0.0010302017900600782 0 -0.00052126246094832789 -0.00095901310813262339 0 -0.00032488726198400556 -0.0010302017900600782 0 -0.0004924793263187886 -0.0012750469528545311 0 -0.00032488726198400556 -0.0010302017900600782 0 -0.0004924793263187886 -0.0012750469528545311 0 -0.00028198978401044729 -0.0013666014831324104 0 -0.00067693095717974471 -0.0015309836506868305 0 -0.0004924793263187886 -0.0012750469528545311 0 -0.0006260862461126476 -0.0011090918062975539 0 -0.00052126246094832789 -0.00095901310813262339 0 -0.0004924793263187886 -0.0012750469528545311 0 -0.0006260862461126476 -0.0011090918062975539 0 0.0030387279792694752 -0.02387130975953327 0 0.0020231162923988648 -0.014153430816493166 0 -0.00034801916878073643 -0.00025524185317815781 0 -0.00030171875632135578 -0.00073736775524058681 0 0.00027002424696732062 -0.001343869548186562 0 0.0039412386035200401 -0.027315429241613856 0 0.0033769612687514429 -0.027038804540402979 0 0.0040223550956525189 -0.026456834036615088 0 0.0015414147604450174 -0.013916077042173748 0 0.0020231162923988648 -0.014153430816493166 0 -0.00032488726198400556 -0.0010302017900600782 0 -0.00030171875632135578 -0.00073736775524058681 0 0.00027002424696732062 -0.001343869548186562 0 -0.00032488726198400556 -0.0010302017900600782 0 0.00027002424696732062 -0.001343869548186562 0 -0.00028198978401044729 -0.0013666014831324104 0 0.00027002424696732062 -0.001343869548186562 0 -4.4461679360624898e-05 -0.0016879458365097898 0 0.0003520264984282877 -0.0020356185082548179 0 0.0020231162923988648 -0.014153430816493166 0 0.0013611245460605271 -0.0068744714975651757 0 0.00020075082803894313 -0.0022913878811037639 0 0.00036601706052653295 -0.0025227848249038854 0 0.00029288304506589093 -0.0024353969615391441 0 0.0020231162923988648 -0.014153430816493166 0 0.0020682825097556238 -0.013696655227399143 0 0.00027002424696732062 -0.001343869548186562 0 -4.4461679360624898e-05 -0.0016879458365097898 0 -0.00028198978401044729 -0.0013666014831324104 0 -4.4461679360624898e-05 -0.0016879458365097898 0 -0.00015540596845297575 -0.0020284522519063396 0 0.0003520264984282877 -0.0020356185082548179 0 -0.00067693095717974471 -0.0015309836506868305 0 -0.0004924793263187886 -0.0012750469528545311 0 -0.00038439278105667274 -0.001644626518773636 0 -4.4461679360624898e-05 -0.0016879458365097898 0 -0.00038439278105667274 -0.001644626518773636 0 -0.00028198978401044729 -0.0013666014831324104 0 -0.0004924793263187886 -0.0012750469528545311 0 -0.00038439278105667274 -0.001644626518773636 0 -0.00028198978401044729 -0.0013666014831324104 0 -4.4461679360624898e-05 -0.0016879458365097898 0 -0.00038439278105667274 -0.001644626518773636 0 -0.00015540596845297575 -0.0020284522519063396 0 -0.00067693095717974471 -0.0015309836506868305 0 -0.00038439278105667274 -0.001644626518773636 0 -0.00054239463719417771 -0.0020236333614077739 0 -0.00038439278105667274 -0.001644626518773636 0 -0.00054239463719417771 -0.0020236333614077739 0 -0.00015540596845297575 -0.0020284522519063396 0 -0.00054239463719417771 -0.0020236333614077739 0 -0.00015540596845297575 -0.0020284522519063396 0 -0.00026291119726085956 -0.0024309947201326407 0 -0.00015540596845297575 -0.0020284522519063396 0 -0.00026291119726085956 -0.0024309947201326407 0 7.7330506489731754e-05 -0.0023514168147337863 0 -0.00054239463719417771 -0.0020236333614077739 0 -0.00026291119726085956 -0.0024309947201326407 0 -0.00064691590624963845 -0.0024466822569644319 0 0.0003520264984282877 -0.0020356185082548179 0 7.7330506489731754e-05 -0.0023514168147337863 0 0.00038836683447435075 -0.0026577591789191373 0 0.0013611245460605271 -0.0068744714975651757 0 0.0011894158285367903 -0.005220564441209578 0 0.00036601706052653295 -0.0025227848249038854 0 0.00029288304506589093 -0.0024353969615391441 0 0.00038836683447435075 -0.0026577591789191373 0 -0.00015540596845297575 -0.0020284522519063396 0 0.0003520264984282877 -0.0020356185082548179 0 7.7330506489731754e-05 -0.0023514168147337863 0 -0.00026291119726085956 -0.0024309947201326407 0 7.7330506489731754e-05 -0.0023514168147337863 0 8.7265330119349919e-05 -0.0026348045969437754 0 0.00071850954938218882 -0.003108077226314327 0 0.00038836683447435075 -0.0026577591789191373 0 0.00019248252861274866 -0.0028805077640670991 0 0.00071850954938218882 -0.003108077226314327 0 0.00036601706052653295 -0.0025227848249038854 0 0.00038836683447435075 -0.0026577591789191373 0 0.00038836683447435075 -0.0026577591789191373 0 8.7265330119349919e-05 -0.0026348045969437754 0 0.00019248252861274866 -0.0028805077640670991 0 7.7330506489731754e-05 -0.0023514168147337863 0 0.00038836683447435075 -0.0026577591789191373 0 8.7265330119349919e-05 -0.0026348045969437754 0 8.7265330119349919e-05 -0.0026348045969437754 0 0.00019248252861274866 -0.0028805077640670991 0 -0.00014848315684251384 -0.0028383570908728246 0 -0.00026291119726085956 -0.0024309947201326407 0 -0.00045160285490129895 -0.0027304283952097608 0 -0.00064691590624963845 -0.0024466822569644319 0 -0.00026291119726085956 -0.0024309947201326407 0 -0.00014848315684251384 -0.0028383570908728246 0 -0.00045160285490129895 -0.0027304283952097608 0 -0.00026291119726085956 -0.0024309947201326407 0 8.7265330119349919e-05 -0.0026348045969437754 0 -0.00014848315684251384 -0.0028383570908728246 0 -0.00014848315684251384 -0.0028383570908728246 0 -0.00045160285490129895 -0.0027304283952097608 0 -0.0005097517942832541 -0.0031050909112319792 0 -0.00045160285490129895 -0.0027304283952097608 0 -0.000709624171977402 -0.0027980526866931681 0 -0.0005097517942832541 -0.0031050909112319792 0 -0.000709624171977402 -0.0027980526866931681 0 -0.00081939264972342551 -0.0025938618084255906 0 -0.00080703617713676567 -0.0028139745958474151 0 -0.000709624171977402 -0.0027980526866931681 0 -0.00081939264972342551 -0.0025938618084255906 0 -0.00064691590624963845 -0.0024466822569644319 0 -0.00045160285490129895 -0.0027304283952097608 0 -0.000709624171977402 -0.0027980526866931681 0 -0.00064691590624963845 -0.0024466822569644319 0 -0.0010229262492170074 -0.0019711905175437056 0 -0.00081939264972342551 -0.0025938618084255906 0 -0.00064691590624963845 -0.0024466822569644319 0 -0.0010229262492170074 -0.0019711905175437056 0 -0.00054239463719417771 -0.0020236333614077739 0 -0.00064691590624963845 -0.0024466822569644319 0 0.00057197070021997433 0.004887414279750711 0 0.001189893746063535 0.0054553572314961747 0 0.0014051815996271636 0.004942480432390815 0 -0.00010353008658737244 0.001722666277353991 0 -8.4477436413668127e-05 0.0020812865599570481 0 0.00057197070021997433 0.004887414279750711 0 0.00067617463532753297 0.0060103635089758965 0 0.001189893746063535 0.0054553572314961747 0 -0.0010229262492170074 -0.0019711905175437056 0 -0.00081939264972342551 -0.0025938618084255906 0 -0.00088275026358562367 -0.0028409019247513444 0 0.00057197070021997433 0.004887414279750711 0 0.00067617463532753297 0.0060103635089758965 0 0.00058666020700532989 0.006433091909128023 0 -0.00088275026358562367 -0.0028409019247513444 0 -0.00080703617713676567 -0.0028139745958474151 0 -0.00077371476899340357 -0.0029351491252700875 0 -0.00081939264972342551 -0.0025938618084255906 0 -0.00088275026358562367 -0.0028409019247513444 0 -0.00080703617713676567 -0.0028139745958474151 0 -0.000709624171977402 -0.0027980526866931681 0 -0.00080703617713676567 -0.0028139745958474151 0 -0.00077371476899340357 -0.0029351491252700875 0 -0.00088275026358562367 -0.0028409019247513444 0 -0.00077371476899340357 -0.0029351491252700875 0 -0.00020435248191935339 -0.0027374766899110996 0 -0.000709624171977402 -0.0027980526866931681 0 -0.00077371476899340357 -0.0029351491252700875 0 -0.0005097517942832541 -0.0031050909112319792 0 -0.00077371476899340357 -0.0029351491252700875 0 -0.0005097517942832541 -0.0031050909112319792 0 -0.00067122924134349041 -0.0034385644351083949 0 -0.00077371476899340357 -0.0029351491252700875 0 -0.0005711322054580242 -0.0019521071205975502 0 -0.00067122924134349041 -0.0034385644351083949 0 -0.00077371476899340357 -0.0029351491252700875 0 -0.0005711322054580242 -0.0019521071205975502 0 -0.00020435248191935339 -0.0027374766899110996 0 0.00071850954938218882 -0.003108077226314327 0 -5.6502809488499427e-05 -0.0031944572343752318 0 -0.00015290308822634243 -0.0038699830413203135 0 0.00071850954938218882 -0.003108077226314327 0 0.00019248252861274866 -0.0028805077640670991 0 -5.6502809488499427e-05 -0.0031944572343752318 0 0.00019248252861274866 -0.0028805077640670991 0 -0.00014848315684251384 -0.0028383570908728246 0 -5.6502809488499427e-05 -0.0031944572343752318 0 -5.6502809488499427e-05 -0.0031944572343752318 0 -0.0005097517942832541 -0.0031050909112319792 0 -0.00015290308822634243 -0.0038699830413203135 0 -0.00014848315684251384 -0.0028383570908728246 0 -5.6502809488499427e-05 -0.0031944572343752318 0 -0.0005097517942832541 -0.0031050909112319792 0 -0.0005097517942832541 -0.0031050909112319792 0 -0.00015290308822634243 -0.0038699830413203135 0 -0.00067122924134349041 -0.0034385644351083949 0 0.0011811531014154809 -0.0050991153489859725 0 0.00071850954938218882 -0.003108077226314327 0 -0.00015290308822634243 -0.0038699830413203135 0 0.0011811531014154809 -0.0050991153489859725 0 -0.00015290308822634243 -0.0038699830413203135 0 -0.00049558834078267393 -0.0050794567393965279 0 -0.00015290308822634243 -0.0038699830413203135 0 -0.00049558834078267393 -0.0050794567393965279 0 -0.00067122924134349041 -0.0034385644351083949 0 -0.00049558834078267393 -0.0050794567393965279 0 -1.9603419799241117e-06 -0.0068181214315004863 0 -1.0982127835011727e-06 -0.0028143075179888773 0 4.8885693243050777e-06 -0.010812834658708437 0 0.0011811531014154809 -0.0050991153489859725 0 -0.00049558834078267393 -0.0050794567393965279 0 4.8885693243050777e-06 -0.010812834658708437 0 -0.00049558834078267393 -0.0050794567393965279 0 -1.9603419799241117e-06 -0.0068181214315004863 0 -0.00049558834078267393 -0.0050794567393965279 0 -0.00067122924134349041 -0.0034385644351083949 0 -1.0982127835011727e-06 -0.0028143075179888773 0 -0.0005711322054580242 -0.0019521071205975502 0 -0.00067122924134349041 -0.0034385644351083949 0 -1.0982127835011727e-06 -0.0028143075179888773 0 -0.0005711322054580242 -0.0019521071205975502 0 -1.0982127835011727e-06 -0.0028143075179888773 0 -1.7487328389041022e-06 0.0011888365540531722 0 -0.0005711322054580242 -0.0019521071205975502 0 -1.7487328389041022e-06 0.0011888365540531722 0 0.00065500596291042344 -0.00057909173960186847 0 -0.00011991439702000391 0.0034004781305720737 0 1.8781674424640762e-07 0.005189297814665924 0 -1.7487328389041022e-06 0.0011888365540531722 0 0.00065500596291042344 -0.00057909173960186847 0 4.3324075298675861e-06 0.0051850035766461602 0 0.00048478633255267644 0.007115155514653651 0 1.7849640478851752e-06 0.0051975495304309813 0 -0.0002104586210362066 0.0070476626753724946 0 1.7849640478851752e-06 0.0051975495304309813 0 -2.0778922605111098e-06 0.0078435373434163954 0 -0.0002104586210362066 0.0070476626753724946 0 -2.0778922605111098e-06 0.0078435373434163954 0 -0.00013847313529805324 0.0079730345132232681 0 2.8155160310035607e-06 0.010490085570220057 0 -2.0778922605111098e-06 0.0078435373434163954 0 -0.00013847313529805324 0.0079730345132232681 0 -0.0002104586210362066 0.0070476626753724946 0 -0.00013847313529805324 0.0079730345132232681 0 -5.589293159344207e-05 0.0072538053017804482 0 -0.0002104586210362066 0.0070476626753724946 0 -0.00013847313529805324 0.0079730345132232681 0 -5.589293159344207e-05 0.0072538053017804482 0 0.00039730709251916579 0.0070893676223145836 0 0.00048478633255267644 0.007115155514653651 0 -0.0002104586210362066 0.0070476626753724946 0 0.0002574856495809511 0.0071342055367156383 0 -5.589293159344207e-05 0.0072538053017804482 0 -0.0002104586210362066 0.0070476626753724946 0 0.0002574856495809511 0.0071342055367156383 0 0.0002574856495809511 0.0071342055367156383 0 0.00020593032597243262 0.007063599726283099 0 0.00029645507979713309 0.0069486674308927082 0 -5.589293159344207e-05 0.0072538053017804482 0 0.0002574856495809511 0.0071342055367156383 0 0.00020593032597243262 0.007063599726283099 0 0.00020593032597243262 0.007063599726283099 0 0.00040057903025173387 0.0069499316260381158 0 0.00039730709251916579 0.0070893676223145836 0 -5.589293159344207e-05 0.0072538053017804482 0 0.00020593032597243262 0.007063599726283099 0 0.00039730709251916579 0.0070893676223145836 0 0.00020593032597243262 0.007063599726283099 0 0.00040057903025173387 0.0069499316260381158 0 0.00029645507979713309 0.0069486674308927082 0 0.00040057903025173387 0.0069499316260381158 0 0.00029645507979713309 0.0069486674308927082 0 0.00035825208774680915 0.0068597667750612519 0 0.0002574856495809511 0.0071342055367156383 0 0.00029645507979713309 0.0069486674308927082 0 0.00035903731460788254 0.0068714824319193622 0 0.00029645507979713309 0.0069486674308927082 0 0.00035903731460788254 0.0068714824319193622 0 0.00034561243334920252 0.0068581970537159942 0 0.0002574856495809511 0.0071342055367156383 0 0.00035903731460788254 0.0068714824319193622 0 0.00035474659199318621 0.0069269929755241648 0 -8.4477436413668127e-05 0.0020812865599570481 0 -8.7460831759961273e-05 0.0025410975766450776 0 0.00035903731460788254 0.0068714824319193622 0 0.00035474659199318621 0.0069269929755241648 0 0.00046254931444358785 0.0067123382344147281 0 0.00058666020700532989 0.006433091909128023 0 0.00035474659199318621 0.0069269929755241648 0 0.00046254931444358785 0.0067123382344147281 0 -0.0005711322054580242 -0.0019521071205975502 0 0.00065500596291042344 -0.00057909173960186847 0 -0.00020435248191935339 -0.0027374766899110996 0 -0.00011991439702000391 0.0034004781305720737 0 -8.7460831759961273e-05 0.0025410975766450776 0 0.00048478633255267644 0.007115155514653651 0 0.0002574856495809511 0.0071342055367156383 0 0.00035474659199318621 0.0069269929755241648 0 -0.00032092371684301277 0.015945976641706869 0 0.00027289948337491378 0.015468812593142402 0 0.00062684496542018834 0.015989409039059412 0 -8.7491387875305181e-07 0.01714012808370852 0 -0.00032092371684301277 0.015945976641706869 0 0.00062684496542018834 0.015989409039059412 0 3.9687385823215619e-06 0.017155153919815293 0 0.0021646735967105349 0.020072327988792282 0 3.7614117547472793e-07 0.015013951620342638 0 0.00020321687033001489 0.014676206060264365 0 -9.3961737457104497e-08 0.015005156960195606 0 2.1985375354163597e-05 0.01282719315359461 0 -0.00032875508047765809 0.012933081892338633 0 -8.7491387875305181e-07 0.01714012808370852 0 9.0354049957852717e-07 0.015025975049997994 0 -0.00032092371684301277 0.015945976641706869 0 2.1985375354163597e-05 0.01282719315359461 0 -0.00032875508047765809 0.012933081892338633 0 -1.1056349932328169e-05 0.013171766568009467 0 2.1985375354163597e-05 0.01282719315359461 0 -1.1056349932328169e-05 0.013171766568009467 0 3.3416096444692252e-05 0.013006678049554214 0 -9.3961737457104497e-08 0.015005156960195606 0 -0.00032875508047765809 0.012933081892338633 0 9.9757840509841004e-08 0.010504888076011559 0 9.4585085484126046e-07 0.010495888702674074 0 0.00050935019393259741 0.010669263697157125 0 -0.00032875508047765809 0.012933081892338633 0 9.9757840509841004e-08 0.010504888076011559 0 -1.1056349932328169e-05 0.013171766568009467 0 -0.00013847313529805324 0.0079730345132232681 0 2.8155160310035607e-06 0.010490085570220057 0 0.00090575819489677374 0.0074571664808457281 0 -0.00013847313529805324 0.0079730345132232681 0 0.00090575819489677374 0.0074571664808457281 0 0.00039730709251916579 0.0070893676223145836 0 0.00090575819489677374 0.0074571664808457281 0 0.00039730709251916579 0.0070893676223145836 0 0.00065653172426619066 0.0069269933404891024 0 0.00040057903025173387 0.0069499316260381158 0 0.00039730709251916579 0.0070893676223145836 0 0.00065653172426619066 0.0069269933404891024 0 0.00040057903025173387 0.0069499316260381158 0 0.00065653172426619066 0.0069269933404891024 0 0.0005801015562508612 0.0069261703906865679 0 2.4700478734024524e-05 0.013002423923469916 0 -1.0875776059575872e-05 0.013033989743604478 0 -1.5577000033312e-05 0.013108295601619231 0 0.00098346050913770272 0.011492812198899614 0 0.00097837537274486305 0.01610419188913427 0 0.00050935019393259741 0.010669263697157125 0 0.00098346050913770272 0.011492812198899614 0 -1.1056349932328169e-05 0.013171766568009467 0 2.4700478734024524e-05 0.013002423923469916 0 3.3416096444692252e-05 0.013006678049554214 0 2.4700478734024524e-05 0.013002423923469916 0 3.3416096444692252e-05 0.013006678049554214 0 -1.0875776059575872e-05 0.013033989743604478 0 -0.00032092371684301277 0.015945976641706869 0 -0.00027795530053305187 0.015295593715524372 0 0.00027289948337491378 0.015468812593142402 0 0.00020321687033001489 0.014676206060264365 0 0.00058484038823239598 0.015049880622764442 0 2.1985375354163597e-05 0.01282719315359461 0 3.3416096444692252e-05 0.013006678049554214 0 -1.0875776059575872e-05 0.013033989743604478 0 0.00058484038823239598 0.015049880622764442 0 0.0013834713419354622 0.01776144918006254 0 -0.00027795530053305187 0.015295593715524372 0 0.00034443273145430602 0.014909576827200191 0 -0.00028933676376627501 0.014617644635492219 0 -0.00027795530053305187 0.015295593715524372 0 0.00034443273145430602 0.014909576827200191 0 0.00027289948337491378 0.015468812593142402 0 0.0011906913691373635 0.028818466554215494 0 0.0011857552911765966 0.028925009466209357 0 0.0010636665332300307 0.028889252614736301 0 0.0011906913691373635 0.028818466554215494 0 0.0013256792149929546 0.028902270013570722 0 0.0011857552911765966 0.028925009466209357 0 0.001177384322026715 0.028690940513969504 0 0.0011906913691373635 0.028818466554215494 0 0.0010708166568539096 0.028759543068852159 0 0.001177384322026715 0.028690940513969504 0 0.0011906913691373635 0.028818466554215494 0 0.0013231973298187154 0.028745257445999404 0 0.0015767598786658209 0.022264462784090534 0 0.0013834713419354622 0.01776144918006254 0 0.0013834713419354622 0.01776144918006254 0 0.00097837537274486305 0.01610419188913427 0 0.00066660819989269621 0.016266365688822674 0 0.00070504000047412279 0.017599330641594663 0 0.0010434526781074444 0.016445711560637462 0 0.0011906913691373635 0.028818466554215494 0 0.0013231973298187154 0.028745257445999404 0 0.0013256792149929546 0.028902270013570722 0 0.0013834713419354622 0.01776144918006254 0 0.0012196751966732314 0.017675541282991945 0 0.0012196751966732314 0.017675541282991945 0 0.00097837537274486305 0.01610419188913427 0 0.00012279626321419571 0.0075910815659964281 0 0.00043091380204740896 0.0072347011489724972 0 0.00034768387494071146 0.0070167948602680294 0 0.00012279626321419571 0.0075910815659964281 0 0.0005254691610269358 0.0074744415997665941 0 0.00043091380204740896 0.0072347011489724972 0 0.0005254691610269358 0.0074744415997665941 0 0.00061518951474894045 0.0071879761590332462 0 0.00076558422508900509 0.0074587918877250473 0 0.0005254691610269358 0.0074744415997665941 0 0.00076558422508900509 0.0074587918877250473 0 0.00064965482739728735 0.0076133740668654611 0 0.0005254691610269358 0.0074744415997665941 0 0.00061518951474894045 0.0071879761590332462 0 0.00043091380204740896 0.0072347011489724972 0 0.00061518951474894045 0.0071879761590332462 0 0.00043091380204740896 0.0072347011489724972 0 0.00050810668691282429 0.0071106735794593161 0 0.00043091380204740896 0.0072347011489724972 0 0.00042674315500860474 0.007041628910769036 0 0.00050810668691282429 0.0071106735794593161 0 0.0004138044522278103 0.0070130909274426084 0 0.00042674315500860474 0.007041628910769036 0 0.0005801015562508612 0.0069261703906865679 0 0.00065653172426619066 0.0069269933404891024 0 0.0004138044522278103 0.0070130909274426084 0 0.0005801015562508612 0.0069261703906865679 0 2.4700478734024524e-05 0.013002423923469916 0 -1.5577000033312e-05 0.013108295601619231 0 9.9690711457854086e-06 0.013121746771633774 0 0.00097837537274486305 0.01610419188913427 0 0.00094897494653654467 0.016068895381159704 0 0.00043091380204740896 0.0072347011489724972 0 0.00034768387494071146 0.0070167948602680294 0 0.00042674315500860474 0.007041628910769036 0 0.00061518951474894045 0.0071879761590332462 0 0.0005801015562508612 0.0069261703906865679 0 0.00050810668691282429 0.0071106735794593161 0 0.00042674315500860474 0.007041628910769036 0 0.0005801015562508612 0.0069261703906865679 0 0.00050810668691282429 0.0071106735794593161 0 0.0005801015562508612 0.0069261703906865679 0 0.0010112149945376934 0.0071839878453006717 0 0.0007855971641585526 0.0072277867569800558 0 0.0005801015562508612 0.0069261703906865679 0 0.0010112149945376934 0.0071839878453006717 0 0.0013831854107512354 0.006977959993366408 0 0.00040057903025173387 0.0069499316260381158 0 0.0005801015562508612 0.0069261703906865679 0 0.00035825208774680915 0.0068597667750612519 0 0.00078749681759502364 0.006887223363156377 0 0.00097395722657756846 0.0068936693592707076 0 0.00061518951474894045 0.0071879761590332462 0 0.0005801015562508612 0.0069261703906865679 0 0.0007855971641585526 0.0072277867569800558 0 0.0010112149945376934 0.0071839878453006717 0 0.0007855971641585526 0.0072277867569800558 0 0.00091700743240331277 0.0074192335637860724 0 0.0007855971641585526 0.0072277867569800558 0 0.00076558422508900509 0.0074587918877250473 0 0.00091700743240331277 0.0074192335637860724 0 0.00061518951474894045 0.0071879761590332462 0 0.0007855971641585526 0.0072277867569800558 0 0.00076558422508900509 0.0074587918877250473 0 0.00076558422508900509 0.0074587918877250473 0 0.00091700743240331277 0.0074192335637860724 0 0.00090453456086644706 0.0076274982522562184 0 0.0010112149945376934 0.0071839878453006717 0 0.00091700743240331277 0.0074192335637860724 0 0.0011168805814834638 0.0075982120357040109 0 0.00091700743240331277 0.0074192335637860724 0 0.00090453456086644706 0.0076274982522562184 0 0.0011168805814834638 0.0075982120357040109 0 0.00090453456086644706 0.0076274982522562184 0 0.00086412886416474121 0.0080404041194753282 0 0.0011168805814834638 0.0075982120357040109 0 0.00076558422508900509 0.0074587918877250473 0 0.00077184809587380347 0.0077501424243159511 0 0.00064965482739728735 0.0076133740668654611 0 0.00090453456086644706 0.0076274982522562184 0 0.00077184809587380347 0.0077501424243159511 0 0.00086412886416474121 0.0080404041194753282 0 0.00076558422508900509 0.0074587918877250473 0 0.00090453456086644706 0.0076274982522562184 0 0.00077184809587380347 0.0077501424243159511 0 0.00077184809587380347 0.0077501424243159511 0 0.00086412886416474121 0.0080404041194753282 0 0.00069134852645293002 0.0078906368766453131 0 0.00086412886416474121 0.0080404041194753282 0 0.00069134852645293002 0.0078906368766453131 0 0.00059772685119804958 0.0079971868357295462 0 0.002939235816524984 0.0046124831622355363 0 0.0029639058071230413 0.00442629863550626 0 0.0027557631532558894 0.0044171566423444851 0 0.0029639058071230413 0.00442629863550626 0 0.002953202701420108 0.0042840640440297692 0 0.0027557631532558894 0.0044171566423444851 0 0.002953202701420108 0.0042840640440297692 0 0.003203229020248788 0.0043891058534327914 0 0.0030926741145202272 0.0041835172745282954 0 0.0029639058071230413 0.00442629863550626 0 0.002953202701420108 0.0042840640440297692 0 0.003203229020248788 0.0043891058534327914 0 0.0045526110271730327 0.0091468450777657841 0 0.0043461817907478866 0.0098904005038919496 0 0.002939235816524984 0.0046124831622355363 0 0.0029639058071230413 0.00442629863550626 0 0.003203229020248788 0.0043891058534327914 0 0.0030206092106320592 0.0045971193388276736 0 0.002939235816524984 0.0046124831622355363 0 0.0031536017578830066 0.0045438777027527865 0 0.00046743870580039353 0.0081987619667998404 0 0.00035198061801508957 0.0079942974029270069 0 0.00059772685119804958 0.0079971868357295462 0 0.00086412886416474121 0.0080404041194753282 0 0.00046743870580039353 0.0081987619667998404 0 0.00059772685119804958 0.0079971868357295462 0 0.0030645934766615206 0.0086193518056866137 0 0.003158261119166967 0.012623065821195621 0 0.00086412886416474121 0.0080404041194753282 0 0.00046743870580039353 0.0081987619667998404 0 0.00021484030836524585 0.0085625217840520455 0 0.0030206092106320592 0.0045971193388276736 0 0.0031536017578830066 0.0045438777027527865 0 0.0033507193998952201 0.0044979060298699835 0 0.0043461817907478866 0.0098904005038919496 0 0.003158261119166967 0.012623065821195621 0 0.00046743870580039353 0.0081987619667998404 0 0.00026442399196458107 0.0083106536360815619 0 0.00021484030836524585 0.0085625217840520455 0 0.00026442399196458107 0.0083106536360815619 0 0.00035198061801508957 0.0079942974029270069 0 0.0001278749416855416 0.00809700805061595 0 0.00046743870580039353 0.0081987619667998404 0 0.00026442399196458107 0.0083106536360815619 0 0.00035198061801508957 0.0079942974029270069 0 0.00035198061801508957 0.0079942974029270069 0 0.00059772685119804958 0.0079971868357295462 0 0.00053268317900830215 0.0077754537251541718 0 0.00069134852645293002 0.0078906368766453131 0 0.00059772685119804958 0.0079971868357295462 0 0.00053268317900830215 0.0077754537251541718 0 0.00077184809587380347 0.0077501424243159511 0 0.00064965482739728735 0.0076133740668654611 0 0.00053268317900830215 0.0077754537251541718 0 0.00077184809587380347 0.0077501424243159511 0 0.00069134852645293002 0.0078906368766453131 0 0.00053268317900830215 0.0077754537251541718 0 0.0005254691610269358 0.0074744415997665941 0 0.00064965482739728735 0.0076133740668654611 0 0.00053268317900830215 0.0077754537251541718 0 0.00012279626321419571 0.0075910815659964281 0 0.00035198061801508957 0.0079942974029270069 0 0.00053268317900830215 0.0077754537251541718 0 0.00012279626321419571 0.0075910815659964281 0 0.0005254691610269358 0.0074744415997665941 0 0.00053268317900830215 0.0077754537251541718 0 0.0016204611679313209 0.017613964135792158 0 0.0016023380471328254 0.017606326204258008 0 0.0016053522554241818 0.017606519109745578 0 0.0012196751966732314 0.017675541282991945 0 0.00030710029812429818 0.021342436000441407 0 0.00012279626321419571 0.0075910815659964281 0 0.00035198061801508957 0.0079942974029270069 0 0.0001278749416855416 0.00809700805061595 0 0.0012196751966732314 0.017675541282991945 0 0.0017949112994577277 0.01479939960037026 0 0.0013256792149929546 0.028902270013570722 0 0.0012753435712635557 0.029062772858703963 0 0.0012046486336507779 0.029009756042462292 0 0.0017949112994577277 0.01479939960037026 0 0.0026592620783185438 0.014086031198641208 0 0.0016023380471328254 0.017606326204258008 0 0.0016053522554241818 0.017606519109745578 0 0.0015965993710827997 0.017601924289267695 0 0.00026442399196458107 0.0083106536360815619 0 0.0001278749416855416 0.00809700805061595 0 0.00014703058182877383 0.0086143786028964973 0 0.00026442399196458107 0.0083106536360815619 0 0.00021484030836524585 0.0085625217840520455 0 0.00014703058182877383 0.0086143786028964973 0 0.0011585324143875021 0.029119662541293254 0 0.0012046486336507779 0.029009756042462292 0 0.0010809916632528024 0.029036710383581077 0 0.0012753435712635557 0.029062772858703963 0 0.0011585324143875021 0.029119662541293254 0 0.0012251099980992663 0.029214811380762457 0 0.0012753435712635557 0.029062772858703963 0 0.0011585324143875021 0.029119662541293254 0 0.0012046486336507779 0.029009756042462292 0 0.0013256792149929546 0.028902270013570722 0 0.0012046486336507779 0.029009756042462292 0 0.0011857552911765966 0.028925009466209357 0 0.0012046486336507779 0.029009756042462292 0 0.0011857552911765966 0.028925009466209357 0 0.0010809916632528024 0.029036710383581077 0 0.0018466728110464598 0.0054703092753138052 0 0.0015725305237168342 0.0057724630109539984 0 0.002070030010698957 0.0056626332381329329 0 0.0018466728110464598 0.0054703092753138052 0 0.0021405142959000241 0.0052408694210894242 0 0.002070030010698957 0.0056626332381329329 0 0.0021405142959000241 0.0052408694210894242 0 0.0018572965094959817 0.0051407783684818088 0 0.0022127449057613058 0.0048320444736386046 0 0.0018466728110464598 0.0054703092753138052 0 0.0021405142959000241 0.0052408694210894242 0 0.0018572965094959817 0.0051407783684818088 0 0.0018466728110464598 0.0054703092753138052 0 0.0018572965094959817 0.0051407783684818088 0 0.0016098755570870048 0.0053999409514794306 0 0.0018572965094959817 0.0051407783684818088 0 0.0016098755570870048 0.0053999409514794306 0 0.0014051815996271636 0.004942480432390815 0 0.00067617463532753297 0.0060103635089758965 0 0.001189893746063535 0.0054553572314961747 0 0.0015725305237168342 0.0057724630109539984 0 0.001189893746063535 0.0054553572314961747 0 0.0016098755570870048 0.0053999409514794306 0 0.0014051815996271636 0.004942480432390815 0 0.001189893746063535 0.0054553572314961747 0 0.0016098755570870048 0.0053999409514794306 0 0.0015725305237168342 0.0057724630109539984 0 0.0018466728110464598 0.0054703092753138052 0 0.0016098755570870048 0.0053999409514794306 0 0.0015725305237168342 0.0057724630109539984 0 0.00054620770171220499 0.0066236800224947134 0 0.00046254931444358785 0.0067123382344147281 0 0.00041582749304266476 0.0067703042064112505 0 0.00080498639185715745 0.0066122089217787346 0 0.0010038359978465428 0.0066916571474917082 0 0.00067617463532753297 0.0060103635089758965 0 0.00058666020700532989 0.006433091909128023 0 0.00054620770171220499 0.0066236800224947134 0 0.00058666020700532989 0.006433091909128023 0 0.00054620770171220499 0.0066236800224947134 0 0.00046254931444358785 0.0067123382344147281 0 0.0010038359978465428 0.0066916571474917082 0 0.0014730864768159201 0.0069112787954180672 0 0.00054620770171220499 0.0066236800224947134 0 0.00041582749304266476 0.0067703042064112505 0 0.00038158681183926107 0.0068204345861538123 0 0.00035903731460788254 0.0068714824319193622 0 0.00046254931444358785 0.0067123382344147281 0 0.00041582749304266476 0.0067703042064112505 0 0.00041582749304266476 0.0067703042064112505 0 0.00036799959001323563 0.0068214502953155825 0 0.00034561243334920252 0.0068581970537159942 0 0.0014441328800810379 0.0069236584515587601 0 0.0014730864768159201 0.0069112787954180672 0 0.00035903731460788254 0.0068714824319193622 0 0.00041582749304266476 0.0067703042064112505 0 0.00034561243334920252 0.0068581970537159942 0 0.00036799959001323563 0.0068214502953155825 0 0.00034561243334920252 0.0068581970537159942 0 0.00035825208774680915 0.0068597667750612519 0 0.0014730864768159201 0.0069112787954180672 0 0.00097395722657756846 0.0068936693592707076 0 0.00029645507979713309 0.0069486674308927082 0 0.00034561243334920252 0.0068581970537159942 0 0.00035825208774680915 0.0068597667750612519 0 0.0010112149945376934 0.0071839878453006717 0 0.0013831854107512354 0.006977959993366408 0 0.00149068926998858 0.0075549287828667799 0 0.0010112149945376934 0.0071839878453006717 0 0.00149068926998858 0.0075549287828667799 0 0.0011168805814834638 0.0075982120357040109 0 0.0021393551387752139 0.0070663920920514918 0 0.0013831854107512354 0.006977959993366408 0 0.00149068926998858 0.0075549287828667799 0 0.0014730864768159201 0.0069112787954180672 0 0.0024297469917782754 0.0072201625173681123 0 0.0021405142959000241 0.0052408694210894242 0 0.002070030010698957 0.0056626332381329329 0 0.0026208727889350256 0.0050180608206482234 0 0.0021405142959000241 0.0052408694210894242 0 0.0026208727889350256 0.0050180608206482234 0 0.0022127449057613058 0.0048320444736386046 0 0.0026208727889350256 0.0050180608206482234 0 0.0022127449057613058 0.0048320444736386046 0 0.0025415636138681791 0.0045898222471965119 0 0.0022127449057613058 0.0048320444736386046 0 0.0025415636138681791 0.0045898222471965119 0 0.0021622721260886172 0.0044036747415241977 0 0.00086412886416474121 0.0080404041194753282 0 0.00149068926998858 0.0075549287828667799 0 0.0011168805814834638 0.0075982120357040109 0 0.0030206092106320592 0.0045971193388276736 0 0.002939235816524984 0.0046124831622355363 0 0.0026208727889350256 0.0050180608206482234 0 0.002939235816524984 0.0046124831622355363 0 0.0026208727889350256 0.0050180608206482234 0 0.0025415636138681791 0.0045898222471965119 0 0.0030645934766615206 0.0086193518056866137 0 0.0024297469917782754 0.0072201625173681123 0 0.0025415636138681791 0.0045898222471965119 0 0.0027557631532558894 0.0044171566423444851 0 0.0024651608570225108 0.0041799059360603684 0 0.002939235816524984 0.0046124831622355363 0 0.0025415636138681791 0.0045898222471965119 0 0.0027557631532558894 0.0044171566423444851 0 0.0027557631532558894 0.0044171566423444851 0 0.0024651608570225108 0.0041799059360603684 0 0.0027508244930286091 0.0041291383937906156 0 0.002953202701420108 0.0042840640440297692 0 0.0027557631532558894 0.0044171566423444851 0 0.0027508244930286091 0.0041291383937906156 0 0.0025415636138681791 0.0045898222471965119 0 0.0021622721260886172 0.0044036747415241977 0 0.0024651608570225108 0.0041799059360603684 0 0.0021622721260886172 0.0044036747415241977 0 0.0024651608570225108 0.0041799059360603684 0 0.0020758079916757127 0.0039796947765308281 0 0.0021622721260886172 0.0044036747415241977 0 0.001719826548012572 0.0041593636326274028 0 0.0020758079916757127 0.0039796947765308281 0 0.0021622721260886172 0.0044036747415241977 0 0.001719826548012572 0.0041593636326274028 0 0.0018479143971064629 0.0046588200711255943 0 0.0022127449057613058 0.0048320444736386046 0 0.0021622721260886172 0.0044036747415241977 0 0.0018479143971064629 0.0046588200711255943 0 0.0018572965094959817 0.0051407783684818088 0 0.0022127449057613058 0.0048320444736386046 0 0.0018479143971064629 0.0046588200711255943 0 0.0018572965094959817 0.0051407783684818088 0 0.0018479143971064629 0.0046588200711255943 0 0.0014051815996271636 0.004942480432390815 0 0.0018479143971064629 0.0046588200711255943 0 0.0014051815996271636 0.004942480432390815 0 0.0014818453487140154 0.0044849203628083249 0 0.0011229912182619667 0.0044899111773257332 0 0.0014051815996271636 0.004942480432390815 0 0.0014818453487140154 0.0044849203628083249 0 0.0012711597319892453 0.0041118069227415802 0 0.001719826548012572 0.0041593636326274028 0 0.0014818453487140154 0.0044849203628083249 0 0.0012711597319892453 0.0041118069227415802 0 0.001719826548012572 0.0041593636326274028 0 0.0013711779703544577 0.0038609197019757974 0 0.001719826548012572 0.0041593636326274028 0 0.0018479143971064629 0.0046588200711255943 0 0.0014818453487140154 0.0044849203628083249 0 0.0011229912182619667 0.0044899111773257332 0 0.0012711597319892453 0.0041118069227415802 0 0.0014818453487140154 0.0044849203628083249 0 0.0011399035102184539 0.0036334201089259768 0 0.0013711779703544577 0.0038609197019757974 0 0.0016602590681224672 0.0036735336147502751 0 0.001719826548012572 0.0041593636326274028 0 0.0013711779703544577 0.0038609197019757974 0 0.0016602590681224672 0.0036735336147502751 0 0.0020758079916757127 0.0039796947765308281 0 0.0016602590681224672 0.0036735336147502751 0 0.0021098879063943497 0.0036308325309755431 0 0.001719826548012572 0.0041593636326274028 0 0.0020758079916757127 0.0039796947765308281 0 0.0016602590681224672 0.0036735336147502751 0 0.0016602590681224672 0.0036735336147502751 0 0.0019065796128176719 0.0033450001784406567 0 0.0021098879063943497 0.0036308325309755431 0 0.0016602590681224672 0.0036735336147502751 0 0.0015725980103446235 0.0032657059820980234 0 0.0019065796128176719 0.0033450001784406567 0 0.0011399035102184539 0.0036334201089259768 0 0.0016602590681224672 0.0036735336147502751 0 0.0015725980103446235 0.0032657059820980234 0 0.0015725980103446235 0.0032657059820980234 0 0.0019065796128176719 0.0033450001784406567 0 0.001978012908717703 0.0029039549541364394 0 0.0019065796128176719 0.0033450001784406567 0 0.001978012908717703 0.0029039549541364394 0 0.0022181790949522221 0.0032694497205180703 0 0.0019065796128176719 0.0033450001784406567 0 0.0022181790949522221 0.0032694497205180703 0 0.0021098879063943497 0.0036308325309755431 0 0.0032131039918468079 -0.0045397583808457842 0 0.0045265410031854504 -0.0021683155002711679 0 0.004564924346343059 -0.0040891115818243928 0 0.0045265410031854504 -0.0021683155002711679 0 0.0057392902672437169 -0.004192627767533927 0 0.004564924346343059 -0.0040891115818243928 0 0.0035147874168774537 0.0012887035772474243 0 0.004732760291972329 0.0011657766598845067 0 0.0025789295430847506 0.0030641020801428337 0 0.0029869827566323332 0.0030878190607620897 0 0.0026288353783546336 0.0027852258218423226 0 0.0025789295430847506 0.0030641020801428337 0 0.0023345864062007727 0.0028746247588016978 0 0.0026288353783546336 0.0027852258218423226 0 0.001978012908717703 0.0029039549541364394 0 0.0022181790949522221 0.0032694497205180703 0 0.0023345864062007727 0.0028746247588016978 0 0.0025789295430847506 0.0030641020801428337 0 0.0022181790949522221 0.0032694497205180703 0 0.0023345864062007727 0.0028746247588016978 0 0.0022181790949522221 0.0032694497205180703 0 0.002536442066934823 0.0033557712087440676 0 0.0024948490889629585 0.0036496863273434272 0 0.0025789295430847506 0.0030641020801428337 0 0.0022181790949522221 0.0032694497205180703 0 0.002536442066934823 0.0033557712087440676 0 0.0025789295430847506 0.0030641020801428337 0 0.002536442066934823 0.0033557712087440676 0 0.0028276514213240577 0.0033307736394036472 0 0.002536442066934823 0.0033557712087440676 0 0.0028222655747381208 0.0036134641871489646 0 0.0028276514213240577 0.0033307736394036472 0 0.002536442066934823 0.0033557712087440676 0 0.0024948490889629585 0.0036496863273434272 0 0.0028222655747381208 0.0036134641871489646 0 0.0024948490889629585 0.0036496863273434272 0 0.0027595787099748818 0.0038455517252172309 0 0.0025738488843405965 0.0039330208523032312 0 0.0024948490889629585 0.0036496863273434272 0 0.0023477604928298745 0.0038738746691410657 0 0.0025738488843405965 0.0039330208523032312 0 0.0024948490889629585 0.0036496863273434272 0 0.0027595787099748818 0.0038455517252172309 0 0.0028222655747381208 0.0036134641871489646 0 0.0024948490889629585 0.0036496863273434272 0 0.0021098879063943497 0.0036308325309755431 0 0.0023477604928298745 0.0038738746691410657 0 0.0022181790949522221 0.0032694497205180703 0 0.0024948490889629585 0.0036496863273434272 0 0.0021098879063943497 0.0036308325309755431 0 0.0024651608570225108 0.0041799059360603684 0 0.0020758079916757127 0.0039796947765308281 0 0.0023477604928298745 0.0038738746691410657 0 0.0020758079916757127 0.0039796947765308281 0 0.0021098879063943497 0.0036308325309755431 0 0.0023477604928298745 0.0038738746691410657 0 0.0024651608570225108 0.0041799059360603684 0 0.0023477604928298745 0.0038738746691410657 0 0.0025738488843405965 0.0039330208523032312 0 0.0027595787099748818 0.0038455517252172309 0 0.0025738488843405965 0.0039330208523032312 0 0.0027508244930286091 0.0041291383937906156 0 0.0024651608570225108 0.0041799059360603684 0 0.0025738488843405965 0.0039330208523032312 0 0.0027508244930286091 0.0041291383937906156 0 0.002953202701420108 0.0042840640440297692 0 0.0027508244930286091 0.0041291383937906156 0 0.0029699664662809757 0.0040569408379292999 0 0.0027595787099748818 0.0038455517252172309 0 0.0027508244930286091 0.0041291383937906156 0 0.0029699664662809757 0.0040569408379292999 0 0.0027595787099748818 0.0038455517252172309 0 0.0029699664662809757 0.0040569408379292999 0 0.0030025296037680073 0.003847834859394285 0 0.0029699664662809757 0.0040569408379292999 0 0.0032404550909141119 0.004002728851508746 0 0.0030025296037680073 0.003847834859394285 0 0.0029699664662809757 0.0040569408379292999 0 0.0030926741145202272 0.0041835172745282954 0 0.0032404550909141119 0.004002728851508746 0 0.002953202701420108 0.0042840640440297692 0 0.0029699664662809757 0.0040569408379292999 0 0.0030926741145202272 0.0041835172745282954 0 0.003203229020248788 0.0043891058534327914 0 0.0030926741145202272 0.0041835172745282954 0 0.0032404550909141119 0.004002728851508746 0 0.0032404550909141119 0.004002728851508746 0 0.0035165590666638661 0.0041705262936274079 0 0.0034584248072519353 0.0035396556770969467 0 0.003203229020248788 0.0043891058534327914 0 0.0032404550909141119 0.004002728851508746 0 0.0034700300966203088 0.0042053930725885723 0 0.0032404550909141119 0.004002728851508746 0 0.0034700300966203088 0.0042053930725885723 0 0.0035165590666638661 0.0041705262936274079 0 0.0032404550909141119 0.004002728851508746 0 0.0030880967306800614 0.0035702517878127569 0 0.0034584248072519353 0.0035396556770969467 0 0.0032404550909141119 0.004002728851508746 0 0.0030880967306800614 0.0035702517878127569 0 0.0030025296037680073 0.003847834859394285 0 0.0030880967306800614 0.0035702517878127569 0 0.0028222655747381208 0.0036134641871489646 0 0.0030025296037680073 0.003847834859394285 0 0.0027595787099748818 0.0038455517252172309 0 0.0028222655747381208 0.0036134641871489646 0 0.0030025296037680073 0.003847834859394285 0 0.0012251099980992663 0.029214811380762457 0 0.0010670903590245162 0.029272103706688514 0 0.0010978778993369555 0.029197130259469774 0 0.0011585324143875021 0.029119662541293254 0 0.0012251099980992663 0.029214811380762457 0 0.0010978778993369555 0.029197130259469774 0 0.0022489171466210096 0.028294217634486193 0 0.0031176722528317119 0.027718054070966256 0 0.003167649150581982 0.029634196529292629 0 0.0016023380471328254 0.017606326204258008 0 0.0015874914852257076 0.017605563746521377 0 0.0015965993710827997 0.017601924289267695 0 0.00030710029812429818 0.021342436000441407 0 -0.00030576099194441737 0.021468303449588905 0 -0.00030576099194441737 0.021468303449588905 0 0.0026592620783185438 0.014086031198641208 0 0.003158261119166967 0.012623065821195621 0 0.0026592620783185438 0.014086031198641208 0 0.0022489171466210096 0.028294217634486193 0 0.0026968364315291043 0.029580326292679267 0 0.003167649150581982 0.029634196529292629 0 0.0022489171466210096 0.028294217634486193 0 0.0020942647091008195 0.029158736844585153 0 0.0026968364315291043 0.029580326292679267 0 0.0026592620783185438 0.014086031198641208 0 0.0024178855036548121 0.016507335229962568 0 0.0020942647091008195 0.029158736844585153 0 0.001796509394878896 0.029692655327124222 0 0.0026968364315291043 0.029580326292679267 0 0.002116737597821495 0.028394717050776858 0 0.0016138054967940942 0.028976872067032415 0 0.0010398010945373638 0.029339126778562135 0 0.0012251099980992663 0.029214811380762457 0 0.0010670903590245162 0.029272103706688514 0 0.0010398010945373638 0.029339126778562135 0 -0.00030576099194441737 0.021468303449588905 0 -0.00091056375173496592 0.024269258968351647 0 0.0022489171466210096 0.028294217634486193 0 0.0020942647091008195 0.029158736844585153 0 0.0016138054967940942 0.028976872067032415 0 -0.00030576099194441737 0.021468303449588905 0 -0.00063792046710741258 0.022572107758388315 0 0.0020942647091008195 0.029158736844585153 0 0.0016138054967940942 0.028976872067032415 0 0.001796509394878896 0.029692655327124222 0 0.0016138054967940942 0.028976872067032415 0 0.001796509394878896 0.029692655327124222 0 0.0012797476086191405 0.029500753067109246 0 0.0013644918575664528 0.030603649428455736 0 0.0013129822756702794 0.031638568785483781 0 5.0327967188969486e-05 0.030096883959223646 0 0.0013574843765279787 0.02983142967541649 0 0.002121115972061615 0.030359402987904915 0 0.0026968364315291043 0.029580326292679267 0 0.0013644918575664528 0.030603649428455736 0 0.0013574843765279787 0.02983142967541649 0 5.0327967188969486e-05 0.030096883959223646 0 0.0019244005203905524 0.035685998540308406 0 0.0023132957910675946 0.035036491136179418 0 0.0013644918575664528 0.030603649428455736 0 0.002121115972061615 0.030359402987904915 0 0.0019699781160631923 0.031087139561620531 0 0.0013644918575664528 0.030603649428455736 0 0.0013574843765279787 0.02983142967541649 0 0.002121115972061615 0.030359402987904915 0 0.002121115972061615 0.030359402987904915 0 0.0027462391592888388 0.030873793677025703 0 0.0019699781160631923 0.031087139561620531 0 0.002121115972061615 0.030359402987904915 0 0.0026884642445739763 0.030108367054239769 0 0.0027462391592888388 0.030873793677025703 0 0.002121115972061615 0.030359402987904915 0 0.0026968364315291043 0.029580326292679267 0 0.0026884642445739763 0.030108367054239769 0 0.0026968364315291043 0.029580326292679267 0 0.0026884642445739763 0.030108367054239769 0 0.003167649150581982 0.029634196529292629 0 0.0026884642445739763 0.030108367054239769 0 0.003167649150581982 0.029634196529292629 0 0.0027462391592888388 0.030873793677025703 0 0.0024178855036548121 0.016507335229962568 0 0.0014197248832998987 0.018045504345664556 0 0.003167649150581982 0.029634196529292629 0 0.0027462391592888388 0.030873793677025703 0 0.0032591056165613553 0.032068276690267711 0 0.0027462391592888388 0.030873793677025703 0 0.0023318118356241029 0.03171011322611831 0 0.0032591056165613553 0.032068276690267711 0 0.0027462391592888388 0.030873793677025703 0 0.0023318118356241029 0.03171011322611831 0 0.0019699781160631923 0.031087139561620531 0 0.0013644918575664528 0.030603649428455736 0 0.0019699781160631923 0.031087139561620531 0 0.0013129822756702794 0.031638568785483781 0 0.0023318118356241029 0.03171011322611831 0 0.0019699781160631923 0.031087139561620531 0 0.0013129822756702794 0.031638568785483781 0 0.0023318118356241029 0.03171011322611831 0 0.0013129822756702794 0.031638568785483781 0 0.0021648720848037825 0.032669503179711283 0 0.0030880967306800614 0.0035702517878127569 0 0.0028276514213240577 0.0033307736394036472 0 0.0029869827566323332 0.0030878190607620897 0 0.0030880967306800614 0.0035702517878127569 0 0.0028222655747381208 0.0036134641871489646 0 0.0028276514213240577 0.0033307736394036472 0 0.0030880967306800614 0.0035702517878127569 0 0.0034584248072519353 0.0035396556770969467 0 0.0029869827566323332 0.0030878190607620897 0 0.0034584248072519353 0.0035396556770969467 0 0.0029869827566323332 0.0030878190607620897 0 0.0033909962471480501 0.0029565710752349019 0 0.0025789295430847506 0.0030641020801428337 0 0.0028276514213240577 0.0033307736394036472 0 0.0029869827566323332 0.0030878190607620897 0 0.0029869827566323332 0.0030878190607620897 0 0.0028585317126030895 0.0024765281547828749 0 0.0033909962471480501 0.0029565710752349019 0 0.0029869827566323332 0.0030878190607620897 0 0.0028585317126030895 0.0024765281547828749 0 0.0026288353783546336 0.0027852258218423226 0 0.0033484734599138833 0.0024217539969181271 0 0.0028585317126030895 0.0024765281547828749 0 0.0033909962471480501 0.0029565710752349019 0 -0.0010672579987037812 0.022145891868637843 0 0.0026198022010416816 0.011200573971954404 0 -0.0037093971095460377 0.010419874921770097 0 0.0012176142872288797 0.0093411500323137778 0 -0.00037622068725763321 0.011093040576162748 0 0.0021648720848037825 0.032669503179711283 0 0.0010408369467037333 0.03379978377388615 0 -0.00028193434299516641 0.032868621603718118 0 0.0013129822756702794 0.031638568785483781 0 0.0021648720848037825 0.032669503179711283 0 -4.9136018031944378e-06 0.03283240697933703 0 0.0009500116193880947 0.039626978859496773 0 -0.0010855531091644366 0.042290920895180426 0 0.0021648720848037825 0.032669503179711283 0 0.0032591056165613553 0.032068276690267711 0 0.0022402578730137397 0.033842200359417103 0 -0.0010672579987037812 0.022145891868637843 0 0.0014197248832998987 0.018045504345664556 0 0.0023318118356241029 0.03171011322611831 0 0.0021648720848037825 0.032669503179711283 0 0.0032591056165613553 0.032068276690267711 0 0.0033225239506320132 0.034572540408642501 0 0.0032591056165613553 0.032068276690267711 0 0.0022402578730137397 0.033842200359417103 0 0.0033225239506320132 0.034572540408642501 0 0.0022402578730137397 0.033842200359417103 0 0.0015376116239967069 0.03499599782597345 0 0.0021648720848037825 0.032669503179711283 0 0.0022402578730137397 0.033842200359417103 0 0.0010408369467037333 0.03379978377388615 0 0.0022402578730137397 0.033842200359417103 0 0.0010408369467037333 0.03379978377388615 0 0.0015376116239967069 0.03499599782597345 0 -0.0061001066610064754 0.034243376075556678 0 -0.0062786165243038121 0.035161269251348562 0 -0.0071250644682072503 0.034491438627460354 0 0.0010408369467037333 0.03379978377388615 0 0.0015376116239967069 0.03499599782597345 0 -0.0002751336277893884 0.035412751731718199 0 -0.0050670498001252956 0.033994819708213893 0 -0.0061001066610064754 0.034243376075556678 0 -0.0050416343829536138 0.035257790716611344 0 -0.0010672579987037812 0.022145891868637843 0 -0.0028498932142924085 0.033829186294706 0 -0.0062786165243038121 0.035161269251348562 0 -0.0050416343829536138 0.035257790716611344 0 -0.0061449451632465384 0.03616249222955268 0 -0.0061001066610064754 0.034243376075556678 0 -0.0062786165243038121 0.035161269251348562 0 -0.0050416343829536138 0.035257790716611344 0 0.0012176142872288797 0.0093411500323137778 0 0.00054166649454440315 0.01175346382154605 0 0.0036705986025371432 0.011241017718097148 0 0.00058142705449865508 0.012873798915188349 0 0.00054166649454440315 0.01175346382154605 0 0.0036705986025371432 0.011241017718097148 0 0.00058142705449865508 0.012873798915188349 0 0.0012720711868425794 0.014185441509670122 0 0.0036705986025371432 0.011241017718097148 0 -0.00059661055173910104 0.012637618950587565 0 0.00059960145165751397 0.012955824940575726 0 -0.0010166042214153832 0.014382986957861596 0 -0.00059661055173910104 0.012637618950587565 0 0.00059960145165751397 0.012955824940575726 0 -0.00037622068725763321 0.011093040576162748 0 0.0019817267081533672 0.0081227741176403429 0 0.0019663294232880311 0.0083541528355232722 0 0.0012176142872288797 0.0093411500323137778 0 -0.00037622068725763321 0.011093040576162748 0 0.00054166649454440315 0.01175346382154605 0 0.0019817267081533672 0.0081227741176403429 0 0.0020137423295487475 0.0085395251203040957 0 0.00059041646149331152 0.012867698126889702 0 -0.00037622068725763321 0.011093040576162748 0 0.00054166649454440315 0.01175346382154605 0 -0.0010672579987037812 0.022145891868637843 0 -0.0031873713386587738 0.02439211365989373 0 -0.0037093971095460377 0.010419874921770097 0 -0.0017974615725949955 0.012672178494509335 0 -0.0035880208419676435 0.015295116396576418 0 -0.0037093971095460377 0.010419874921770097 0 -0.00037622068725763321 0.011093040576162748 0 -0.0017974615725949955 0.012672178494509335 0 -0.00059661055173910104 0.012637618950587565 0 -0.0017974615725949955 0.012672178494509335 0 -0.0010166042214153832 0.014382986957861596 0 -0.00059661055173910104 0.012637618950587565 0 -0.00037622068725763321 0.011093040576162748 0 -0.0017974615725949955 0.012672178494509335 0 -0.0010166042214153832 0.014382986957861596 0 -0.0035880208419676435 0.015295116396576418 0 -0.0013892458330862611 0.017646216133075834 0 -0.0017974615725949955 0.012672178494509335 0 -0.0010166042214153832 0.014382986957861596 0 -0.0035880208419676435 0.015295116396576418 0 0.0012220678682838475 0.0066011690254008347 0 0.0014368556798147101 0.0063339294958772953 0 0.00051704213194813818 0.0052705602099940825 0 -0.0010166042214153832 0.014382986957861596 0 0.0006713492440466992 0.015098094486065505 0 -0.0013892458330862611 0.017646216133075834 0 0.0010642006457040601 0.008813853064581028 0 -0.0017245739142870847 0.016210951826995182 0 0.00059960145165751397 0.012955824940575726 0 -0.0010166042214153832 0.014382986957861596 0 0.0006713492440466992 0.015098094486065505 0 0.0019521573029252033 0.0078760796258697981 0 0.0009184182965467256 0.0059120561669653519 0 0.0018363700603699618 0.0047758136694559424 0 0.0019817267081533672 0.0081227741176403429 0 0.0010642006457040601 0.008813853064581028 0 0.0019817267081533672 0.0081227741176403429 0 0.0022007274954980462 0.0059064903123025375 0 0.0022007274954980462 0.0059064903123025375 0 0.0010642006457040601 0.008813853064581028 0 0.0082096951850010903 -0.0079338963131061705 0 0.0070913158772543108 -0.0080496870165359183 0 0.0075094319598396006 -0.0092467218314616212 0 0.0022007274954980462 0.0059064903123025375 0 0.0017324050939626133 0.00056564504744450485 0 0.0082096951850010903 -0.0079338963131061705 0 0.0070913158772543108 -0.0080496870165359183 0 0.007427032350639586 -0.0069319742418520319 0 0.0022007274954980462 0.0059064903123025375 0 0.0045930249007009255 0.0037014832442806766 0 0.0070913158772543108 -0.0080496870165359183 0 0.007427032350639586 -0.0069319742418520319 0 0.006164015845563026 -0.0074393206953873268 0 0.007427032350639586 -0.0069319742418520319 0 0.006164015845563026 -0.0074393206953873268 0 0.0062112222968878318 -0.0065196626495299887 0 0.0070913158772543108 -0.0080496870165359183 0 0.006164015845563026 -0.0074393206953873268 0 0.0061449712556527307 -0.0087033735501327175 0 0.0070913158772543108 -0.0080496870165359183 0 0.0061449712556527307 -0.0087033735501327175 0 0.0075094319598396006 -0.0092467218314616212 0 0.0061449712556527307 -0.0087033735501327175 0 0.0052484006279473585 -0.0079369113500605739 0 0.0047419117079722873 -0.008980891586185662 0 0.006164015845563026 -0.0074393206953873268 0 0.0061449712556527307 -0.0087033735501327175 0 0.0052484006279473585 -0.0079369113500605739 0 0.0037822111936042365 -0.00857564105599928 0 0.0041936683830042613 -0.0076740019455114232 0 0.0047419117079722873 -0.008980891586185662 0 0.0052484006279473585 -0.0079369113500605739 0 0.0041936683830042613 -0.0076740019455114232 0 0.0047419117079722873 -0.008980891586185662 0 0.0052484006279473585 -0.0079369113500605739 0 0.0041936683830042613 -0.0076740019455114232 0 0.0051878699098265773 -0.0067093224098328918 0 0.0037612397580513201 -0.0063251610772210769 0 0.0041936683830042613 -0.0076740019455114232 0 0.0051878699098265773 -0.0067093224098328918 0 0.006164015845563026 -0.0074393206953873268 0 0.0052484006279473585 -0.0079369113500605739 0 0.0051878699098265773 -0.0067093224098328918 0 0.006164015845563026 -0.0074393206953873268 0 0.0051878699098265773 -0.0067093224098328918 0 0.0062112222968878318 -0.0065196626495299887 0 0.0051878699098265773 -0.0067093224098328918 0 0.0061200478393953232 -0.0057141018945718386 0 0.0062112222968878318 -0.0065196626495299887 0 0.0051878699098265773 -0.0067093224098328918 0 0.0061200478393953232 -0.0057141018945718386 0 0.0048063335025761529 -0.005312883051231866 0 0.0037612397580513201 -0.0063251610772210769 0 0.0051878699098265773 -0.0067093224098328918 0 0.0048063335025761529 -0.005312883051231866 0 0.0032131039918468079 -0.0045397583808457842 0 0.0037612397580513201 -0.0063251610772210769 0 0.0048063335025761529 -0.005312883051231866 0 0.0032131039918468079 -0.0045397583808457842 0 0.004564924346343059 -0.0040891115818243928 0 0.0048063335025761529 -0.005312883051231866 0 0.0057392902672437169 -0.004192627767533927 0 0.004564924346343059 -0.0040891115818243928 0 0.0048063335025761529 -0.005312883051231866 0 0.0057392902672437169 -0.004192627767533927 0 0.0061200478393953232 -0.0057141018945718386 0 0.0048063335025761529 -0.005312883051231866 0 0.001978012908717703 0.0029039549541364394 0 0.0023345864062007727 0.0028746247588016978 0 0.0023423398904785326 0.0025404990291519598 0 0.0057392902672437169 -0.004192627767533927 0 0.0061200478393953232 -0.0057141018945718386 0 0.0068327015986373689 -0.0058873295555374738 0 0.004732760291972329 0.0011657766598845067 0 0.0050629788502979051 0.0040016491881151098 0 0.0023345864062007727 0.0028746247588016978 0 0.0026288353783546336 0.0027852258218423226 0 0.0023423398904785326 0.0025404990291519598 0 0.0012176142872288797 0.0093411500323137778 0 0.0036705986025371432 0.011241017718097148 0 0.0060634525063647839 0.0082820764292912859 0 0.0026198022010416816 0.011200573971954404 0 0.0050629788502979051 0.0040016491881151098 0 0.0045930249007009255 0.0037014832442806766 0 0.0050629788502979051 0.0040016491881151098 0 0.0028585317126030895 0.0024765281547828749 0 0.0026288353783546336 0.0027852258218423226 0 0.0023423398904785326 0.0025404990291519598 0 0.007427032350639586 -0.0069319742418520319 0 0.0062112222968878318 -0.0065196626495299887 0 0.0066772327679039591 -0.0058954174584572756 0 0.0061200478393953232 -0.0057141018945718386 0 0.0062112222968878318 -0.0065196626495299887 0 0.0066772327679039591 -0.0058954174584572756 0 0.0054559961555875622 0.0035400962971934989 0 0.0050629788502979051 0.0040016491881151098 0 -0.0052492998814831007 0.052328202586007636 0 -0.0048771977756881819 0.052084976545468183 0 -0.0048387898836446362 0.052666742092507754 0 -0.0052492998814831007 0.052328202586007636 0 -0.0056298654823876242 0.052529576321402129 0 -0.0048387898836446362 0.052666742092507754 0 -0.0052492998814831007 0.052328202586007636 0 -0.0048771977756881819 0.052084976545468183 0 -0.0056666980111166852 0.051991558504560088 0 -0.0045648179311497143 0.052324089440213592 0 -0.0048771977756881819 0.052084976545468183 0 -0.0043564739716193662 0.052129962975304069 0 -0.0045648179311497143 0.052324089440213592 0 -0.0048387898836446362 0.052666742092507754 0 -0.0042523980631604284 0.052406034148436489 0 -0.0045648179311497143 0.052324089440213592 0 -0.0048771977756881819 0.052084976545468183 0 -0.0048387898836446362 0.052666742092507754 0 -0.0027160720858849983 0.050850737972269154 0 -0.0037765042359440178 0.051900726446417501 0 -0.0015281896845735796 0.051687548666116571 0 -0.0042389485571827723 0.050325955345552224 0 -0.0031611339328798524 0.049208147478375201 0 -0.0027160720858849983 0.050850737972269154 0 -0.0040842428318316167 0.050951847430339627 0 -0.0037765042359440178 0.051900726446417501 0 -0.0042389485571827723 0.050325955345552224 0 -0.0048242112237747636 0.050663298617562628 0 -0.0049475504070024398 0.051435834873122067 0 -0.0056672330565741237 0.050963783728715691 0 -0.0044419855621744666 0.05049542917358911 0 -0.0037765042359440178 0.051900726446417501 0 -0.0049475504070024398 0.051435834873122067 0 -0.0056666980111166852 0.051991558504560088 0 -0.0040842428318316167 0.050951847430339627 0 -0.0037765042359440178 0.051900726446417501 0 -0.0049475504070024398 0.051435834873122067 0 -0.0040842428318316167 0.050951847430339627 0 -0.0049475504070024398 0.051435834873122067 0 -0.0042742347259423063 0.049904415391152868 0 -0.0014233576118242235 0.053481214228663386 0 -0.0011545442448056028 0.054044008202851053 0 -0.0056672330565741237 0.050963783728715691 0 -0.0067137248251446678 0.051477633451884865 0 -0.0056666980111166852 0.051991558504560088 0 -0.0049475504070024398 0.051435834873122067 0 -0.0056672330565741237 0.050963783728715691 0 -0.0056666980111166852 0.051991558504560088 0 -0.00022882236134649174 0.057499628143286616 0 0.00084196996420718906 0.061246705306713251 0 -0.0067137248251446678 0.051477633451884865 0 -0.006471872460589315 0.052395731892116555 0 -0.0056666980111166852 0.051991558504560088 0 -0.006471872460589315 0.052395731892116555 0 -0.0056666980111166852 0.051991558504560088 0 -0.0056298654823876242 0.052529576321402129 0 -0.006471872460589315 0.052395731892116555 0 -0.0056298654823876242 0.052529576321402129 0 -0.0059153698676662897 0.053054970913732236 0 -0.0052492998814831007 0.052328202586007636 0 -0.0056666980111166852 0.051991558504560088 0 -0.0056298654823876242 0.052529576321402129 0 -0.0056298654823876242 0.052529576321402129 0 -0.0059153698676662897 0.053054970913732236 0 -0.0048387898836446362 0.052666742092507754 0 -0.010765986054780765 0.075039083550851204 0 -0.0098586119903935534 0.07392701724459165 0 -0.0086466024773326471 0.074691356007151946 0 -0.006471872460589315 0.052395731892116555 0 -0.0059153698676662897 0.053054970913732236 0 -0.0073244698568914971 0.053384950009386319 0 -0.0078714708731099977 0.065080584525833346 0 -0.0052514444543863004 0.0674259815207605 0 -0.010765986054780765 0.075039083550851204 0 -0.0098586119903935534 0.07392701724459165 0 -0.010926490188314351 0.073232407135071245 0 -0.010765986054780765 0.075039083550851204 0 -0.012325592438655648 0.073864632470237793 0 -0.010926490188314351 0.073232407135071245 0 -0.0078714708731099977 0.065080584525833346 0 -0.0088793571013176999 0.063286079681735885 0 -0.010765986054780765 0.075039083550851204 0 -0.012325592438655648 0.073864632470237793 0 -0.012910833518504678 0.075281505171638716 0 -0.012910833518504678 0.075281505171638716 0 -0.013689302459300544 0.074042213573175475 0 -0.014414643772855179 0.074811511888779061 0 -0.012325592438655648 0.073864632470237793 0 -0.012910833518504678 0.075281505171638716 0 -0.013689302459300544 0.074042213573175475 0 -0.0088793571013176999 0.063286079681735885 0 -0.0092845450680095268 0.060874607573883792 0 -0.012325592438655648 0.073864632470237793 0 -0.013689302459300544 0.074042213573175475 0 -0.013395695542018879 0.072980415412548974 0 -0.013689302459300544 0.074042213573175475 0 -0.014399317133299198 0.073230407825592078 0 -0.013395695542018879 0.072980415412548974 0 -0.014427808319783032 0.073889563454849885 0 -0.015008437714056959 0.07355226445321543 0 -0.014414643772855179 0.074811511888779061 0 -0.013689302459300544 0.074042213573175475 0 -0.014399317133299198 0.073230407825592078 0 -0.014427808319783032 0.073889563454849885 0 -0.014399317133299198 0.073230407825592078 0 -0.014427808319783032 0.073889563454849885 0 -0.015008437714056959 0.07355226445321543 0 -0.015008437714056959 0.07355226445321543 0 -0.016073147531531166 0.073408314860347629 0 -0.014414643772855179 0.074811511888779061 0 -0.013689302459300544 0.074042213573175475 0 -0.014427808319783032 0.073889563454849885 0 -0.014414643772855179 0.074811511888779061 0 -0.015939633842115108 0.073050906040135033 0 -0.015421544019278543 0.074631907888356108 0 -0.016029630686714428 0.07432991713057685 0 -0.015939633842115108 0.073050906040135033 0 -0.016029630686714428 0.07432991713057685 0 -0.016506367429203608 0.073846171033845401 0 -0.012093446414974878 0.067835265283446203 0 -0.012195981226533304 0.070342730442907286 0 -0.015421544019278543 0.074631907888356108 0 -0.016454863211433871 0.075088274102882102 0 -0.01489606185650569 0.075473831291469354 0 -0.015939633842115108 0.073050906040135033 0 -0.015421544019278543 0.074631907888356108 0 -0.014414643772855179 0.074811511888779061 0 -0.015421544019278543 0.074631907888356108 0 -0.016029630686714428 0.07432991713057685 0 -0.016454863211433871 0.075088274102882102 0 -0.015421544019278543 0.074631907888356108 0 -0.014414643772855179 0.074811511888779061 0 -0.01489606185650569 0.075473831291469354 0 -0.012910833518504678 0.075281505171638716 0 -0.014414643772855179 0.074811511888779061 0 -0.01489606185650569 0.075473831291469354 0 -0.0062786165243038121 0.035161269251348562 0 -0.0071221038062960094 0.035556821441916658 0 -0.0071250644682072503 0.034491438627460354 0 -0.0082780526024913599 0.046769099375279823 0 -0.0054615772170935268 0.04532678265542741 0 -0.0088782173843942012 0.052767171696208301 0 -0.0095997532890323076 0.052684376623161014 0 -0.0088740102582240861 0.050275487488306049 0 -0.016992590870467339 0.074041491898995088 0 -0.017493400322805296 0.072934485304779112 0 -0.017209593779370463 0.074506007854665574 0 -0.0098151234737636102 0.058227348206797848 0 -0.007760524633333073 0.051516719503788611 0 -0.015939633842115108 0.073050906040135033 0 -0.017493400322805296 0.072934485304779112 0 -0.016506367429203608 0.073846171033845401 0 -0.016992590870467339 0.074041491898995088 0 -0.017493400322805296 0.072934485304779112 0 -0.016506367429203608 0.073846171033845401 0 -0.016454863211433871 0.075088274102882102 0 -0.017209593779370463 0.074506007854665574 0 -0.016973771773789937 0.075774354876723626 0 -0.0095997532890323076 0.052684376623161014 0 -0.0098989451183145432 0.05050015444025234 0 -0.0088740102582240861 0.050275487488306049 0 -0.007760524633333073 0.051516719503788611 0 -0.0061123467062601322 0.055591717259494945 0 -0.0040315192338901684 0.052045695968403922 0 -0.0040575277528197996 0.052051714182537047 0 -0.0040222206068538467 0.052099255518859224 0 -0.016029630686714428 0.07432991713057685 0 -0.016590447058050344 0.074410998052700031 0 -0.016454863211433871 0.075088274102882102 0 -0.016992590870467339 0.074041491898995088 0 -0.016590447058050344 0.074410998052700031 0 -0.017209593779370463 0.074506007854665574 0 -0.016029630686714428 0.07432991713057685 0 -0.016506367429203608 0.073846171033845401 0 -0.016590447058050344 0.074410998052700031 0 -0.016992590870467339 0.074041491898995088 0 -0.016506367429203608 0.073846171033845401 0 -0.016590447058050344 0.074410998052700031 0 -0.016590447058050344 0.074410998052700031 0 -0.016454863211433871 0.075088274102882102 0 -0.017209593779370463 0.074506007854665574 0 -0.0028498932142924085 0.033829186294706 0 -0.0054615772170935268 0.04532678265542741 0 -0.007760524633333073 0.051516719503788611 0 -0.0054615772170935268 0.04532678265542741 0 -0.0054615772170935268 0.04532678265542741 0 -0.0010855531091644366 0.042290920895180426 0 0.0010408369467037333 0.03379978377388615 0 -0.0002751336277893884 0.035412751731718199 0 -0.00028193434299516641 0.032868621603718118 0 -0.0040575277528197996 0.052051714182537047 0 -0.0040222206068538467 0.052099255518859224 0 -0.0040027135363612538 0.052122901987564932 0 -0.0040315192338901684 0.052045695968403922 0 -0.0040222206068538467 0.052099255518859224 0 -0.0040125574476782356 0.052097280353515213 0 -0.0061123467062601322 0.055591717259494945 0 -0.0060629438291993415 0.054990880267729643 0 -0.0040222206068538467 0.052099255518859224 0 -0.0040114063451790029 0.052100487678928505 0 -0.0040198885464266384 0.052141391073629133 0 -0.0060008543581163819 0.055536129933019575 0 -0.0061123467062601322 0.055591717259494945 0 -0.0039636472874325472 0.052260357621613157 0 -0.0040198885464266384 0.052141391073629133 0 -0.004082458733620193 0.052225407502413411 0 -0.0010855531091644366 0.042290920895180426 0 -0.002080247203903712 0.046866156779570914 0 -0.0040198885464266384 0.052141391073629133 0 -0.0040027135363612538 0.052122901987564932 0 -0.0040493519637055768 0.052147116529129317 0 0.0027844938015282863 0.051261483638009218 0 0.00064571688197555526 0.051456374567876967 0 0.0016758521234106181 0.050394916894356059 0 -0.0040198885464266384 0.052141391073629133 0 -0.004082458733620193 0.052225407502413411 0 -0.0040493519637055768 0.052147116529129317 0 0.00064571688197555526 0.051456374567876967 0 0.0006157058918939564 0.050121444653826869 0 0.0016758521234106181 0.050394916894356059 0 -0.0040222206068538467 0.052099255518859224 0 -0.0040198885464266384 0.052141391073629133 0 -0.0040027135363612538 0.052122901987564932 0 0.0027844938015282863 0.051261483638009218 0 0.002781673884855152 0.049687186123493397 0 0.0016758521234106181 0.050394916894356059 0 -0.0010855531091644366 0.042290920895180426 0 0.00015311410832182925 0.040449701822207682 0 -0.0045648179311497143 0.052324089440213592 0 -0.0042523980631604284 0.052406034148436489 0 -0.0043564739716193662 0.052129962975304069 0 -0.0042523980631604284 0.052406034148436489 0 -0.0041914321401084476 0.052219775801807367 0 -0.0043564739716193662 0.052129962975304069 0 -0.016454863211433871 0.075088274102882102 0 -0.016973771773789937 0.075774354876723626 0 -0.01489606185650569 0.075473831291469354 0 -0.0061123467062601322 0.055591717259494945 0 -0.0092845450680095268 0.060874607573883792 0 -0.0039636472874325472 0.052260357621613157 0 -0.0042523980631604284 0.052406034148436489 0 -0.004082458733620193 0.052225407502413411 0 -0.004082458733620193 0.052225407502413411 0 -0.0041914321401084476 0.052219775801807367 0 -0.0040493519637055768 0.052147116529129317 0 -0.0042523980631604284 0.052406034148436489 0 -0.004082458733620193 0.052225407502413411 0 -0.0041914321401084476 0.052219775801807367 0 -0.002080247203903712 0.046866156779570914 0 -0.0031611339328798524 0.049208147478375201 0 0.00064571688197555526 0.051456374567876967 0 -0.00022945725469928154 0.050845298406518462 0 -0.0015281896845735796 0.051687548666116571 0 -0.0041914321401084476 0.052219775801807367 0 -0.0040493519637055768 0.052147116529129317 0 -0.0043564739716193662 0.052129962975304069 0 0.00064571688197555526 0.051456374567876967 0 -0.00022945725469928154 0.050845298406518462 0 0.0006157058918939564 0.050121444653826869 0 -0.0015281896845735796 0.051687548666116571 0 -0.0018382455372870019 0.050214787683980695 0 -0.00066353022477129593 0.050126413475000138 0 -0.00022945725469928154 0.050845298406518462 0 -0.0015281896845735796 0.051687548666116571 0 -0.00066353022477129593 0.050126413475000138 0 -0.0027160720858849983 0.050850737972269154 0 -0.0015281896845735796 0.051687548666116571 0 -0.0018382455372870019 0.050214787683980695 0 -0.0017725908405664753 0.049010795949613557 0 -0.00066353022477129593 0.050126413475000138 0 0.00050442572858068956 0.04856055042189255 0 -0.0018382455372870019 0.050214787683980695 0 -0.0017725908405664753 0.049010795949613557 0 -0.00066353022477129593 0.050126413475000138 0 -0.00066353022477129593 0.050126413475000138 0 0.0006157058918939564 0.050121444653826869 0 0.00050442572858068956 0.04856055042189255 0 -0.00022945725469928154 0.050845298406518462 0 -0.00066353022477129593 0.050126413475000138 0 0.0006157058918939564 0.050121444653826869 0 -0.0017725908405664753 0.049010795949613557 0 -0.00098229305656168933 0.04712587899446672 0 -0.0031263852512813683 0.047572186050701307 0 -0.0017725908405664753 0.049010795949613557 0 0.00067779880871890225 0.048491229566395219 0 -0.00098229305656168933 0.04712587899446672 0 -0.0010681251831819363 0.044282853473006319 0 -0.00017140073036674117 0.042901557665101807 0 0.0013129822756702794 0.031638568785483781 0 -4.9136018031944378e-06 0.03283240697933703 0 1.0403129778704876e-05 0.031564272678604385 0 0.002781673884855152 0.049687186123493397 0 0.0016709907887581961 0.049372604600167846 0 0.0027748495738824973 0.048097560743356318 0 0.0013129822756702794 0.031638568785483781 0 1.0403129778704876e-05 0.031564272678604385 0 0.00019268518314759922 0.030323266722571136 0 -0.00021639958407416375 0.034924237041933037 0 0.0010019427947618857 0.037713319253776335 0 0.0006157058918939564 0.050121444653826869 0 0.00050442572858068956 0.04856055042189255 0 0.0016709907887581961 0.049372604600167846 0 0.002781673884855152 0.049687186123493397 0 0.0016709907887581961 0.049372604600167846 0 0.0016758521234106181 0.050394916894356059 0 0.0006157058918939564 0.050121444653826869 0 0.0016709907887581961 0.049372604600167846 0 0.0016758521234106181 0.050394916894356059 0 0.00067779880871890225 0.048491229566395219 0 0.0030859727957919239 0.047636871276744847 0 0.0030873730421060522 0.04799211105551212 0 0.00050442572858068956 0.04856055042189255 0 0.0016709907887581961 0.049372604600167846 0 0.0027748495738824973 0.048097560743356318 0 -0.00017140073036674117 0.042901557665101807 0 0.0011006533060440181 0.038407341825927567 0 0.00015311410832182925 0.040449701822207682 0 0.0011006533060440181 0.038407341825927567 0 1.0403129778704876e-05 0.031564272678604385 0 1.4134171430709726e-05 0.030359831213002838 0 0.00019268518314759922 0.030323266722571136 0 0.001796509394878896 0.029692655327124222 0 0.0010508098111452003 0.029800986109916289 0 0.0012797476086191405 0.029500753067109246 0 0.0019244005203905524 0.035685998540308406 0 0.0010019427947618857 0.037713319253776335 0 0.0025179151017198295 0.038029852037189178 0 0.002513183666134062 0.037212618289109399 0 0.0019433522004894479 0.037323531841458334 0 0.0011720640850583484 0.037917054445040177 0 0.0010019427947618857 0.037713319253776335 0 0.0011720640850583484 0.037917054445040177 0 0.0011006533060440181 0.038407341825927567 0 0.0011006533060440181 0.038407341825927567 0 0.0010019427947618857 0.037713319253776335 0 0.00094542760502281211 0.029652379022506215 0 0.0010508098111452003 0.029800986109916289 0 0.0012797476086191405 0.029500753067109246 0 0.00067779880871890225 0.048491229566395219 0 0.0030859727957919239 0.047636871276744847 0 0.0011987390189452222 0.045313505593266218 0 0.0016138054967940942 0.028976872067032415 0 0.0012797476086191405 0.029500753067109246 0 0.0010398010945373638 0.029339126778562135 0 0.0011720640850583484 0.037917054445040177 0 0.0011633374279450229 0.036990835879158045 0 0.0010670903590245162 0.029272103706688514 0 0.0010398010945373638 0.029339126778562135 0 0.0010086022612388287 0.029321292092136405 0 0.00094542760502281211 0.029652379022506215 0 0.0010398010945373638 0.029339126778562135 0 0.0010086022612388287 0.029321292092136405 0 0.00094542760502281211 0.029652379022506215 0 0.0012797476086191405 0.029500753067109246 0 0.0010398010945373638 0.029339126778562135 0 0.0010670903590245162 0.029272103706688514 0 0.0010086022612388287 0.029321292092136405 0 0.0010201868003856291 0.029231349474287828 0 0.0010086022612388287 0.029321292092136405 0 0.00092581009893489392 0.029245550423333391 0 0.0010201868003856291 0.029231349474287828 0 0.0011720640850583484 0.037917054445040177 0 0.0011602399796945585 0.038283577534175592 0 0.001006215841956122 0.029372600934305885 0 0.0010086022612388287 0.029321292092136405 0 0.00092581009893489392 0.029245550423333391 0 0.00092581009893489392 0.029245550423333391 0 0.0010201868003856291 0.029231349474287828 0 0.0010271507218306108 0.029149835280903747 0 0.0011585324143875021 0.029119662541293254 0 0.0010978778993369555 0.029197130259469774 0 0.0010271507218306108 0.029149835280903747 0 0.0010201868003856291 0.029231349474287828 0 0.0010978778993369555 0.029197130259469774 0 0.0010271507218306108 0.029149835280903747 0 0.0010670903590245162 0.029272103706688514 0 0.0010201868003856291 0.029231349474287828 0 0.0010978778993369555 0.029197130259469774 0 0.00067779880871890225 0.048491229566395219 0 0.0011987390189452222 0.045313505593266218 0 -0.00098229305656168933 0.04712587899446672 0 -0.00098229305656168933 0.04712587899446672 0 -0.0019059973760066221 0.045263067533996275 0 -0.0031263852512813683 0.047572186050701307 0 0.0011987390189452222 0.045313505593266218 0 -0.00098229305656168933 0.04712587899446672 0 -0.0019059973760066221 0.045263067533996275 0 0.0011987390189452222 0.045313505593266218 0 -0.0019059973760066221 0.045263067533996275 0 -0.00069099742972136922 0.042975110620079304 0 0.0084045440318171079 0.057402535798508326 0 0.0074705994247916702 0.056669804755335437 0 0.0083196106108077671 0.056025977266143563 0 0.0084045440318171079 0.057402535798508326 0 0.0074705994247916702 0.056669804755335437 0 0.0070636107289956422 0.058104140597117666 0 0.0074705994247916702 0.056669804755335437 0 0.005563713224695151 0.058222843531737914 0 0.0070636107289956422 0.058104140597117666 0 0.0063327339610523333 0.057667738871190623 0 0.005440905236629775 0.058414437369825531 0 0.0062936547091397826 0.056646614494191644 0 0.0057075547005422892 0.058245423148184261 0 0.0050861690434582246 0.056619430357573663 0 0.0074705994247916702 0.056669804755335437 0 0.0062936547091397826 0.056646614494191644 0 0.0057075547005422892 0.058245423148184261 0 0.0064104421240838887 0.058832324933934248 0 0.0072671339642146554 0.059536435325699757 0 0.0057819471332385981 0.05955696337771621 0 0.005563713224695151 0.058222843531737914 0 0.0064104421240838887 0.058832324933934248 0 0.0070636107289956422 0.058104140597117666 0 0.005563713224695151 0.058222843531737914 0 0.0064104421240838887 0.058832324933934248 0 0.0057819471332385981 0.05955696337771621 0 0.0084045440318171079 0.057402535798508326 0 0.0070636107289956422 0.058104140597117666 0 0.0072671339642146554 0.059536435325699757 0 0.0018831678341078217 0.049370200681404457 0 0.00059563778522815029 0.052406904039441343 0 0.0064104421240838887 0.058832324933934248 0 0.0070636107289956422 0.058104140597117666 0 0.0072671339642146554 0.059536435325699757 0 -0.0017725908405664753 0.049010795949613557 0 -0.0031263852512813683 0.047572186050701307 0 -0.0032044642227422176 0.049468344514522249 0 0.00059563778522815029 0.052406904039441343 0 -0.0011545442448056028 0.054044008202851053 0 0.0072671339642146554 0.059536435325699757 0 0.0057819471332385981 0.05955696337771621 0 0.0061390099205025517 0.061612494651898185 0 0.0057819471332385981 0.05955696337771621 0 0.0061390099205025517 0.061612494651898185 0 0.0042426244789377553 0.061202060627537427 0 -0.0011545442448056028 0.054044008202851053 0 -0.0013797034040160302 0.053839952749904219 0 -0.0040842428318316167 0.050951847430339627 0 -0.0042742347259423063 0.049904415391152868 0 -0.0032044642227422176 0.049468344514522249 0 -0.0027160720858849983 0.050850737972269154 0 -0.0040842428318316167 0.050951847430339627 0 -0.0032044642227422176 0.049468344514522249 0 -0.0031263852512813683 0.047572186050701307 0 -0.0043240463267063458 0.049887788769336076 0 -0.0032044642227422176 0.049468344514522249 0 -0.0027160720858849983 0.050850737972269154 0 -0.0018382455372870019 0.050214787683980695 0 -0.0032044642227422176 0.049468344514522249 0 -0.0018382455372870019 0.050214787683980695 0 -0.0017725908405664753 0.049010795949613557 0 -0.0032044642227422176 0.049468344514522249 0 0.00084196996420718906 0.061246705306713251 0 0.0029558650578530095 0.060511273589494659 0 0.0027130587562337995 0.062985966975860008 0 0.0042370170985280616 0.061307649503814128 0 0.0018662372024583673 0.061421072153713237 0 0.0044251268312628916 0.062235456473446665 0 0.0027080425135191885 0.062857441358618329 0 0.0042426244789377553 0.061202060627537427 0 -0.00022882236134649174 0.057499628143286616 0 -0.0011545442448056028 0.054044008202851053 0 0.0044251268312628916 0.062235456473446665 0 0.0061390099205025517 0.061612494651898185 0 0.0042426244789377553 0.061202060627537427 0 0.0039048877153724628 0.059920090533922776 0 0.0029558650578530095 0.060511273589494659 0 0.0057819471332385981 0.05955696337771621 0 0.0042370170985280616 0.061307649503814128 0 0.0036929966243949451 0.059819696029553185 0 0.003933221722516124 0.059677572749094528 0 0.0030357531517300447 0.060425107831552909 0 0.0042370170985280616 0.061307649503814128 0 0.0036929966243949451 0.059819696029553185 0 0.0018662372024583673 0.061421072153713237 0 0.0038156398541917044 0.059898027322059406 0 0.0027241425542287537 0.058866035594696553 0 0.0020270684613954205 0.060111935725893254 0 0.0038156398541917044 0.059898027322059406 0 0.0018662372024583673 0.061421072153713237 0 0.0020270684613954205 0.060111935725893254 0 0.0038156398541917044 0.059898027322059406 0 0.0027241425542287537 0.058866035594696553 0 0.0042294148953918552 0.058365131756765512 0 0.0027241425542287537 0.058866035594696553 0 0.0042294148953918552 0.058365131756765512 0 0.0031580094418701549 0.057643793545848802 0 0.0027241425542287537 0.058866035594696553 0 0.0031580094418701549 0.057643793545848802 0 0.0016817893222466447 0.057789027763880473 0 0.005440905236629775 0.058414437369825531 0 0.003933221722516124 0.059677572749094528 0 0.0057075547005422892 0.058245423148184261 0 0.0038156398541917044 0.059898027322059406 0 0.0042294148953918552 0.058365131756765512 0 0.005563713224695151 0.058222843531737914 0 0.0057819471332385981 0.05955696337771621 0 0.0036929966243949451 0.059819696029553185 0 0.0042294148953918552 0.058365131756765512 0 0.0050861690434582246 0.056619430357573663 0 0.0031580094418701549 0.057643793545848802 0 0.0057075547005422892 0.058245423148184261 0 0.0042294148953918552 0.058365131756765512 0 0.0050861690434582246 0.056619430357573663 0 0.004436379492517884 0.053166492021567792 0 0.0035872903130721788 0.054353262715502788 0 0.0060041240747092115 0.056093354455650918 0 0.0031580094418701549 0.057643793545848802 0 0.0041000649639216999 0.054970682936469603 0 0.0031580094418701549 0.057643793545848802 0 0.0041000649639216999 0.054970682936469603 0 0.0021872408103321027 0.05605640280166236 0 0.0041000649639216999 0.054970682936469603 0 0.0023325947591697174 0.053583743494620834 0 0.0021872408103321027 0.05605640280166236 0 0.0023325947591697174 0.053583743494620834 0 0.0054450215938859564 0.051957612293688511 0 0.0027525181995476742 0.049412150254581892 0 0.0023325947591697174 0.053583743494620834 0 0.0027525181995476742 0.049412150254581892 0 0.00096172197974656308 0.050987408491310914 0 0.0041000649639216999 0.054970682936469603 0 0.0023325947591697174 0.053583743494620834 0 0.0054450215938859564 0.051957612293688511 0 0.0054450215938859564 0.051957612293688511 0 0.0069821510316443883 0.052290562771221363 0 0.0071678082390539402 0.050176044244188256 0 0.0054450215938859564 0.051957612293688511 0 0.0059610436646448002 0.054098188505427768 0 0.0069821510316443883 0.052290562771221363 0 0.0041000649639216999 0.054970682936469603 0 0.0054450215938859564 0.051957612293688511 0 0.0059610436646448002 0.054098188505427768 0 0.0060041240747092115 0.056093354455650918 0 0.0041000649639216999 0.054970682936469603 0 0.0059610436646448002 0.054098188505427768 0 0.004436379492517884 0.053166492021567792 0 0.0056406046254009268 0.049957046640714368 0 0.0062936547091397826 0.056646614494191644 0 0.0050861690434582246 0.056619430357573663 0 0.0069712044739335885 0.055586084258582302 0 0.0060041240747092115 0.056093354455650918 0 0.0078768067353132565 0.054026931270558264 0 0.0090431409754368006 0.054390433433207465 0 0.0060041240747092115 0.056093354455650918 0 0.0059610436646448002 0.054098188505427768 0 0.0078768067353132565 0.054026931270558264 0 0.0078768067353132565 0.054026931270558264 0 0.0090431409754368006 0.054390433433207465 0 0.0088345586898912563 0.052930412389583521 0 0.0069712044739335885 0.055586084258582302 0 0.0081681199201461222 0.055600714420195367 0 0.008887619252558019 0.054537219279454367 0 0.0056406046254009268 0.049957046640714368 0 0.0060046356180509736 0.04412014146066906 0 0.0075748809611677114 0.055954735771005563 0 0.0081681199201461222 0.055600714420195367 0 0.0083196106108077671 0.056025977266143563 0 0.0075748809611677114 0.055954735771005563 0 0.0069712044739335885 0.055586084258582302 0 0.0081681199201461222 0.055600714420195367 0 0.0074705994247916702 0.056669804755335437 0 0.0075748809611677114 0.055954735771005563 0 0.0083196106108077671 0.056025977266143563 0 0.0074705994247916702 0.056669804755335437 0 0.0062936547091397826 0.056646614494191644 0 0.0069712044739335885 0.055586084258582302 0 0.0074705994247916702 0.056669804755335437 0 0.0075748809611677114 0.055954735771005563 0 0.0069712044739335885 0.055586084258582302 0 0.0090431409754368006 0.054390433433207465 0 0.011198451724256278 0.052164115556131305 0 0.012590056196462565 0.052455693236097958 0 0.011198451724256278 0.052164115556131305 0 0.009793994925938734 0.052198107403086877 0 0.01061372132509757 0.051472162939016193 0 0.0090431409754368006 0.054390433433207465 0 0.011198451724256278 0.052164115556131305 0 0.009793994925938734 0.052198107403086877 0 0.0090431409754368006 0.054390433433207465 0 0.009793994925938734 0.052198107403086877 0 0.0088345586898912563 0.052930412389583521 0 0.009793994925938734 0.052198107403086877 0 0.0092235292047581525 0.051565203732342885 0 0.0088345586898912563 0.052930412389583521 0 0.009793994925938734 0.052198107403086877 0 0.010023853232964727 0.050614546580450614 0 0.0092235292047581525 0.051565203732342885 0 0.010023853232964727 0.050614546580450614 0 0.0092235292047581525 0.051565203732342885 0 0.0082433417652087396 0.050507861780434933 0 0.009793994925938734 0.052198107403086877 0 0.010023853232964727 0.050614546580450614 0 0.01061372132509757 0.051472162939016193 0 0.010023853232964727 0.050614546580450614 0 0.01061372132509757 0.051472162939016193 0 0.011436318774130944 0.050907067318080479 0 0.011198451724256278 0.052164115556131305 0 0.01061372132509757 0.051472162939016193 0 0.011436318774130944 0.050907067318080479 0 0.0059015326599018651 0.050344928407462214 0 0.0057777142532315319 0.048515093914130489 0 0.0078768067353132565 0.054026931270558264 0 0.0069821510316443883 0.052290562771221363 0 0.008404232313166126 0.051221921251411381 0 0.0078768067353132565 0.054026931270558264 0 0.0088345586898912563 0.052930412389583521 0 0.0082433417652087396 0.050507861780434933 0 0.0059610436646448002 0.054098188505427768 0 0.0078768067353132565 0.054026931270558264 0 0.0069821510316443883 0.052290562771221363 0 0.0092235292047581525 0.051565203732342885 0 0.0088345586898912563 0.052930412389583521 0 0.0082433417652087396 0.050507861780434933 0 0.0071678082390539402 0.050176044244188256 0 0.008404232313166126 0.051221921251411381 0 0.0088998880869234145 0.048364869181437446 0 0.0057777142532315319 0.048515093914130489 0 0.0051856740203070888 0.043516089123371765 0 0.0069821510316443883 0.052290562771221363 0 0.0071678082390539402 0.050176044244188256 0 0.008404232313166126 0.051221921251411381 0 0.0048944932046893893 0.046162460124410845 0 0.0051856740203070888 0.043516089123371765 0 0.0082433417652087396 0.050507861780434933 0 0.0099738854470166408 0.048794111744533478 0 0.0088202843877250511 0.04702544580227315 0 0.010023853232964727 0.050614546580450614 0 0.0099738854470166408 0.048794111744533478 0 0.011616705990984877 0.049108106675477298 0 0.010023853232964727 0.050614546580450614 0 0.011436318774130944 0.050907067318080479 0 0.011616705990984877 0.049108106675477298 0 0.010023853232964727 0.050614546580450614 0 0.0082433417652087396 0.050507861780434933 0 0.0099738854470166408 0.048794111744533478 0 0.0099738854470166408 0.048794111744533478 0 0.011255138025948257 0.04715015449928437 0 0.011616705990984877 0.049108106675477298 0 0.0051856740203070888 0.043516089123371765 0 0.0060568752081222631 0.037466929901202574 0 0.011255138025948257 0.04715015449928437 0 0.0088202843877250511 0.04702544580227315 0 0.011758904737613859 0.043950224029430739 0 0.0099738854470166408 0.048794111744533478 0 0.011255138025948257 0.04715015449928437 0 0.0088202843877250511 0.04702544580227315 0 0.0099755970856898139 0.047175525879176637 0 0.0067693411068736322 0.046091538494743838 0 0.010728201483243075 0.042795864914890243 0 0.0077103896918916661 0.049552994988883332 0 0.0099755970856898139 0.047175525879176637 0 0.0067693411068736322 0.046091538494743838 0 0.0032950872082664747 0.045233300143933716 0 0.0021172841660391274 0.046141462235998361 0 0.0027525181995476742 0.049412150254581892 0 0.0027831765065971592 0.042831373188649047 0 0.0017151482840762752 0.04521788495925963 0 0.0021172841660391274 0.046141462235998361 0 0.0027525181995476742 0.049412150254581892 0 0.00032626317437058197 0.047630781939802795 0 0.0021172841660391274 0.046141462235998361 0 0.00094217893215063717 0.044656508733998429 0 0.00032626317437058197 0.047630781939802795 0 0.0067693411068736322 0.046091538494743838 0 0.0027525181995476742 0.049412150254581892 0 0.0056709446794768938 0.049250629610167629 0 0.0077103896918916661 0.049552994988883332 0 0.0067693411068736322 0.046091538494743838 0 0.0056709446794768938 0.049250629610167629 0 0.0054450215938859564 0.051957612293688511 0 0.0027525181995476742 0.049412150254581892 0 0.0056709446794768938 0.049250629610167629 0 0.00452548238498756 0.047265164961906907 0 0.0048944932046893893 0.046162460124410845 0 0.0054450215938859564 0.051957612293688511 0 0.0077103896918916661 0.049552994988883332 0 0.0056709446794768938 0.049250629610167629 0 0.0010809916632528024 0.029036710383581077 0 0.0010008935152381042 0.028998395255078659 0 0.0010636665332300307 0.028889252614736301 0 0.0011857552911765966 0.028925009466209357 0 0.0010809916632528024 0.029036710383581077 0 0.0010636665332300307 0.028889252614736301 0 0.0010809916632528024 0.029036710383581077 0 0.0010271507218306108 0.029149835280903747 0 0.00095881589737559713 0.029098929271376323 0 0.0011585324143875021 0.029119662541293254 0 0.0010809916632528024 0.029036710383581077 0 0.0010271507218306108 0.029149835280903747 0 0.00092581009893489392 0.029245550423333391 0 0.0010271507218306108 0.029149835280903747 0 0.00095881589737559713 0.029098929271376323 0 0.0010809916632528024 0.029036710383581077 0 0.00095881589737559713 0.029098929271376323 0 0.0010008935152381042 0.028998395255078659 0 0.00095881589737559713 0.029098929271376323 0 0.0010008935152381042 0.028998395255078659 0 0.00091862982640218899 0.029033358208302711 0 0.0010008935152381042 0.028998395255078659 0 0.00091862982640218899 0.029033358208302711 0 0.00092061360939905902 0.028961367008373904 0 0.00086393838113310725 0.02900454129649839 0 0.00091862982640218899 0.029033358208302711 0 0.00081371703351511466 0.029118159117740461 0 0.0050921528294777061 0.04009641069215248 0 0.00376074322130875 0.042588391331137204 0 0.00086393838113310725 0.02900454129649839 0 0.00091862982640218899 0.029033358208302711 0 0.00092061360939905902 0.028961367008373904 0 0.0050921528294777061 0.04009641069215248 0 0.0050567749332722685 0.03956331327159518 0 0.00095881589737559713 0.029098929271376323 0 0.00091862982640218899 0.029033358208302711 0 0.00081371703351511466 0.029118159117740461 0 0.0011602399796945585 0.038283577534175592 0 0.00376074322130875 0.042588391331137204 0 0.00092581009893489392 0.029245550423333391 0 0.00095881589737559713 0.029098929271376323 0 0.00081371703351511466 0.029118159117740461 0 0.0084045440318171079 0.057402535798508326 0 0.0095010593079613084 0.055288741527873587 0 0.0083196106108077671 0.056025977266143563 0 0.0018831678341078217 0.049370200681404457 0 0.00376074322130875 0.042588391331137204 0 0.0095010593079613084 0.055288741527873587 0 0.0088041468020114699 0.055239574721164322 0 0.008887619252558019 0.054537219279454367 0 0.0081681199201461222 0.055600714420195367 0 0.0088041468020114699 0.055239574721164322 0 0.008887619252558019 0.054537219279454367 0 0.0095010593079613084 0.055288741527873587 0 0.0083196106108077671 0.056025977266143563 0 0.0088041468020114699 0.055239574721164322 0 0.0081681199201461222 0.055600714420195367 0 0.0083196106108077671 0.056025977266143563 0 0.0088041468020114699 0.055239574721164322 0 0.0046234319738780354 0.041398554370016973 0 0.0035227615289417005 0.043485683549285316 0 0.0026591125813702167 0.042421739058819678 0 0.011198451724256278 0.052164115556131305 0 0.011931574961594391 0.052200045428232159 0 0.012590056196462565 0.052455693236097958 0 0.011198451724256278 0.052164115556131305 0 0.011931574961594391 0.052200045428232159 0 0.012048331567646776 0.05158520321359885 0 0.011931574961594391 0.052200045428232159 0 0.012590056196462565 0.052455693236097958 0 0.012048331567646776 0.05158520321359885 0 0.00376074322130875 0.042588391331137204 0 0.0060046356180509736 0.04412014146066906 0 0.015156413982545589 0.051079944511421879 0 0.012590056196462565 0.052455693236097958 0 0.013130074003730261 0.050658761827328508 0 0.0050921528294777061 0.04009641069215248 0 0.0060046356180509736 0.04412014146066906 0 0.013130074003730261 0.050658761827328508 0 0.011436318774130944 0.050907067318080479 0 0.012048331567646776 0.05158520321359885 0 0.012590056196462565 0.052455693236097958 0 0.013130074003730261 0.050658761827328508 0 0.012048331567646776 0.05158520321359885 0 0.011198451724256278 0.052164115556131305 0 0.011436318774130944 0.050907067318080479 0 0.012048331567646776 0.05158520321359885 0 0.011255138025948257 0.04715015449928437 0 0.011616705990984877 0.049108106675477298 0 0.014297688660110851 0.047730226119531753 0 0.013130074003730261 0.050658761827328508 0 0.011616705990984877 0.049108106675477298 0 0.014297688660110851 0.047730226119531753 0 0.013130074003730261 0.050658761827328508 0 0.011436318774130944 0.050907067318080479 0 0.011616705990984877 0.049108106675477298 0 0.014297688660110851 0.047730226119531753 0 0.015229695348383629 0.044456147130761139 0 0.011758904737613859 0.043950224029430739 0 0.011255138025948257 0.04715015449928437 0 0.014297688660110851 0.047730226119531753 0 0.011758904737613859 0.043950224029430739 0 0.014297688660110851 0.047730226119531753 0 0.017218593169342478 0.047063075588053706 0 0.015229695348383629 0.044456147130761139 0 0.00085278768838859497 0.02901165186739835 0 0.00092061360939905902 0.028961367008373904 0 0.000942716089221012 0.028808457008398524 0 0.0050921528294777061 0.04009641069215248 0 0.0053223664083512654 0.035390568429432473 0 0.015156413982545589 0.051079944511421879 0 0.014297688660110851 0.047730226119531753 0 0.017218593169342478 0.047063075588053706 0 0.015156413982545589 0.051079944511421879 0 0.013130074003730261 0.050658761827328508 0 0.014297688660110851 0.047730226119531753 0 0.00098257630415644025 0.028916305493637811 0 0.000942716089221012 0.028808457008398524 0 0.0010636665332300307 0.028889252614736301 0 0.00092061360939905902 0.028961367008373904 0 0.00098257630415644025 0.028916305493637811 0 0.000942716089221012 0.028808457008398524 0 0.0010008935152381042 0.028998395255078659 0 0.00092061360939905902 0.028961367008373904 0 0.00098257630415644025 0.028916305493637811 0 0.0010008935152381042 0.028998395255078659 0 0.00098257630415644025 0.028916305493637811 0 0.0010636665332300307 0.028889252614736301 0 0.000942716089221012 0.028808457008398524 0 0.0010708166568539096 0.028759543068852159 0 0.0010349891085022914 0.028627291315415655 0 0.000942716089221012 0.028808457008398524 0 0.0010708166568539096 0.028759543068852159 0 0.0010636665332300307 0.028889252614736301 0 0.0011906913691373635 0.028818466554215494 0 0.0010708166568539096 0.028759543068852159 0 0.0010636665332300307 0.028889252614736301 0 0.00027289948337491378 0.015468812593142402 0 0.0010150272774451072 0.015224368044502577 0 0.00062684496542018834 0.015989409039059412 0 0.0039689380914575438 0.027852261991615182 0 0.0021646735967105349 0.020072327988792282 0 -2.4057804045168616e-06 0.020298595336419312 0 -1.8854116845500631e-05 0.020135825024792359 0 0.00016646101949254185 0.020139315049967882 0 0.001177384322026715 0.028690940513969504 0 0.0010708166568539096 0.028759543068852159 0 0.0010349891085022914 0.028627291315415655 0 0.00034443273145430602 0.014909576827200191 0 0.00027289948337491378 0.015468812593142402 0 0.0010150272774451072 0.015224368044502577 0 0.0015767598786658209 0.022264462784090534 0 0.0039689380914575438 0.027852261991615182 0 0.017218593169342478 0.047063075588053706 0 0.019271118470750262 0.043065812051579298 0 0.015229695348383629 0.044456147130761139 0 0.0053223664083512654 0.035390568429432473 0 0.0039689380914575438 0.027852261991615182 0 0.0039689380914575438 0.027852261991615182 0 0.006101135828591178 0.029430758363931629 0 -2.4057804045168616e-06 0.020298595336419312 0 -0.00011686552271445364 0.020193340722078509 0 -1.8854116845500631e-05 0.020135825024792359 0 0.019271118470750262 0.043065812051579298 0 0.014680920395170275 0.040887242552813695 0 0.015229695348383629 0.044456147130761139 0 0.014680920395170275 0.040887242552813695 0 0.015229695348383629 0.044456147130761139 0 0.011758904737613859 0.043950224029430739 0 0.006101135828591178 0.029430758363931629 0 0.0060568752081222631 0.037466929901202574 0 -0.00026070530494398577 0.026987186778124284 0 0.00076370161090763143 0.027474046041350529 0 0.0026635738782702528 0.024534254054372692 0 0.0052749997831859439 0.036578063212670854 0 0.0060909435911668235 0.03404741232258298 0 0.0038071621795459855 0.035945662177211658 0 0.0071985816113305434 0.034572480927278978 0 0.0052749997831859439 0.036578063212670854 0 0.0060909435911668235 0.03404741232258298 0 0.006101135828591178 0.029430758363931629 0 0.0038992499677684739 0.028115912734542881 0 0.0038992499677684739 0.028115912734542881 0 0.0036292523302658185 0.028009421912590902 0 0.00019512492986508906 0.027550425886715781 0 0.00013470316797312921 0.027435836851199605 0 0.00049156806650553302 0.028335266829385534 0 0.00019512492986508906 0.027550425886715781 0 0.00076370161090763143 0.027474046041350529 0 0.00049156806650553302 0.028335266829385534 0 0.00013470316797312921 0.027435836851199605 0 0.00049156806650553302 0.028335266829385534 0 0.00032270827879134174 0.028254328927359077 0 0.00032270827879134174 0.028254328927359077 0 -1.1919614285859577e-06 0.024739624994362851 0 3.6041187878711535e-06 0.02884033804998147 0 0.00013470316797312921 0.027435836851199605 0 0.00032270827879134174 0.028254328927359077 0 -1.1919614285859577e-06 0.024739624994362851 0 0.00049156806650553302 0.028335266829385534 0 0.00032270827879134174 0.028254328927359077 0 0.0018437675713031927 0.030376942714530116 0 0.00013470316797312921 0.027435836851199605 0 -1.1919614285859577e-06 0.024739624994362851 0 0.00033130808104956853 0.026221594686211193 0 0.00019512492986508906 0.027550425886715781 0 0.00013470316797312921 0.027435836851199605 0 0.00033130808104956853 0.026221594686211193 0 0.00012653434008820679 0.019985058538617238 0 0.00019268065042693985 0.020020328645953048 0 5.1088878917044975e-05 0.020102235213178388 0 0.00012653434008820679 0.019985058538617238 0 5.1088878917044975e-05 0.020102235213178388 0 -2.3257463311155406e-05 0.020070945645935562 0 0.0038992499677684739 0.028115912734542881 0 0.0010723924189804937 0.024407921806485305 0 0.006101135828591178 0.029430758363931629 0 0.0056824191301543111 0.027386707267089087 0 -0.00011686552271445364 0.020193340722078509 0 -1.8854116845500631e-05 0.020135825024792359 0 -2.3257463311155406e-05 0.020070945645935562 0 5.1088878917044975e-05 0.020102235213178388 0 -2.3257463311155406e-05 0.020070945645935562 0 -0.00016891467277178012 0.020035887185068314 0 -1.8854116845500631e-05 0.020135825024792359 0 -2.3257463311155406e-05 0.020070945645935562 0 -0.00016891467277178012 0.020035887185068314 0 5.1088878917044975e-05 0.020102235213178388 0 -1.5994957808314786e-07 0.02062883456089698 0 -0.00016891467277178012 0.020035887185068314 0 -1.1919614285859577e-06 0.024739624994362851 0 0.00033130808104956853 0.026221594686211193 0 2.7232267827336927e-06 0.020642833660297358 0 0.0010723924189804937 0.024407921806485305 0 2.1170513654027795e-06 0.020645600740020559 0 2.1331181574799827e-07 0.017161566970683186 0 -1.5994957808314786e-07 0.02062883456089698 0 -0.00016891467277178012 0.020035887185068314 0 2.1331181574799827e-07 0.017161566970683186 0 -0.00016891467277178012 0.020035887185068314 0 0.00016646101949254185 0.020139315049967882 0 -1.8854116845500631e-05 0.020135825024792359 0 -0.00016891467277178012 0.020035887185068314 0 0.00016646101949254185 0.020139315049967882 0 0.0012167899380727608 0.039152575132888168 0 0.001984120181110566 0.042487365431705823 0 0.0025365027643524875 0.03853892219468591 0 0.0012167899380727608 0.039152575132888168 0 0.00048025768293104081 0.041625005846783157 0 0.001984120181110566 0.042487365431705823 0 0.00048025768293104081 0.041625005846783157 0 0.00094217893215063717 0.044656508733998429 0 0.001984120181110566 0.042487365431705823 0 0.0021172841660391274 0.046141462235998361 0 0.00094217893215063717 0.044656508733998429 0 0.001984120181110566 0.042487365431705823 0 0.00048025768293104081 0.041625005846783157 0 0.00094217893215063717 0.044656508733998429 0 -0.00024635996518063439 0.044311024937467879 0 0.0032950872082664747 0.045233300143933716 0 0.0021172841660391274 0.046141462235998361 0 0.001984120181110566 0.042487365431705823 0 0.0032950872082664747 0.045233300143933716 0 0.001984120181110566 0.042487365431705823 0 0.0048633742898123574 0.041530652052823691 0 0.0027831765065971592 0.042831373188649047 0 0.0040349692509648706 0.037029798994426322 0 0.0033449467754778461 0.038593984850890911 0 0.0052749997831859439 0.036578063212670854 0 0.0038071621795459855 0.035945662177211658 0 0.0051856740203070888 0.043516089123371765 0 0.0040349692509648706 0.037029798994426322 0 0.0038992499677684739 0.028115912734542881 0 0.0040349692509648706 0.037029798994426322 0 0.0040349692509648706 0.037029798994426322 0 0.0039134363257429146 0.034532364284727918 0 0.00076370161090763143 0.027474046041350529 0 0.0026635738782702528 0.024534254054372692 0 0.0022041475103933826 0.02704941393087355 0 0.0048633742898123574 0.041530652052823691 0 0.0046842853634163671 0.037507698681097497 0 0.0025365027643524875 0.03853892219468591 0 0.001984120181110566 0.042487365431705823 0 0.0048633742898123574 0.041530652052823691 0 0.0025365027643524875 0.03853892219468591 0 0.0012167899380727608 0.039152575132888168 0 0.0025365027643524875 0.03853892219468591 0 0.001008037112986804 0.035435190237595747 0 0.0025365027643524875 0.03853892219468591 0 0.0019797927564243166 0.03451533513773556 0 0.001008037112986804 0.035435190237595747 0 0.0019797927564243166 0.03451533513773556 0 0.001008037112986804 0.035435190237595747 0 0.00098627499363796302 0.032208996631990075 0 0.0046842853634163671 0.037507698681097497 0 0.0019797927564243166 0.03451533513773556 0 0.0018437675713031927 0.030376942714530116 0 0.00049156806650553302 0.028335266829385534 0 0.0022041475103933826 0.02704941393087355 0 0.0018437675713031927 0.030376942714530116 0 0.0039134363257429146 0.034532364284727918 0 0.0037784790559532394 0.033830576872300094 0 0.00076370161090763143 0.027474046041350529 0 0.00049156806650553302 0.028335266829385534 0 0.0022041475103933826 0.02704941393087355 0 0.0046842853634163671 0.037507698681097497 0 0.0025365027643524875 0.03853892219468591 0 0.0019797927564243166 0.03451533513773556 0 0.0019797927564243166 0.03451533513773556 0 0.0018437675713031927 0.030376942714530116 0 0.00098627499363796302 0.032208996631990075 0 0.00032270827879134174 0.028254328927359077 0 0.0018437675713031927 0.030376942714530116 0 3.6041187878711535e-06 0.02884033804998147 0 0.0018437675713031927 0.030376942714530116 0 3.6041187878711535e-06 0.02884033804998147 0 0.00098627499363796302 0.032208996631990075 0 3.6041187878711535e-06 0.02884033804998147 0 0.00098627499363796302 0.032208996631990075 0 9.1595264381195122e-07 0.032939167262124071 0 0.001008037112986804 0.035435190237595747 0 0.00098627499363796302 0.032208996631990075 0 9.1595264381195122e-07 0.032939167262124071 0 9.1595264381195122e-07 0.032939167262124071 0 0.0002917806994528317 0.037816921615104797 0 4.0845254549186224e-07 0.037041087282534489 0 0.001008037112986804 0.035435190237595747 0 9.1595264381195122e-07 0.032939167262124071 0 0.0002917806994528317 0.037816921615104797 0 0.0012167899380727608 0.039152575132888168 0 0.00048025768293104081 0.041625005846783157 0 0.0002917806994528317 0.037816921615104797 0 0.0012167899380727608 0.039152575132888168 0 0.001008037112986804 0.035435190237595747 0 0.0002917806994528317 0.037816921615104797 0 0.00048025768293104081 0.041625005846783157 0 0.0002917806994528317 0.037816921615104797 0 -0.00042906844686576955 0.041136269792777118 0 0.0002917806994528317 0.037816921615104797 0 4.0845254549186224e-07 0.037041087282534489 0 -0.00042906844686576955 0.041136269792777118 0 4.0845254549186224e-07 0.037041087282534489 0 -3.9405157515731422e-06 0.041131563533838955 0 -0.00042906844686576955 0.041136269792777118 0 -3.9405157515731422e-06 0.041131563533838955 0 -0.0010893638827043912 0.042879604005447908 0 -0.00042906844686576955 0.041136269792777118 0 -0.0010893638827043912 0.042879604005447908 0 -0.00042906844686576955 0.041136269792777118 0 -0.0012630928199962779 0.044601901892850786 0 0.00048025768293104081 0.041625005846783157 0 -0.00042906844686576955 0.041136269792777118 0 -0.00024635996518063439 0.044311024937467879 0 -0.00042906844686576955 0.041136269792777118 0 -0.0012630928199962779 0.044601901892850786 0 -0.00024635996518063439 0.044311024937467879 0 -0.0012630928199962779 0.044601901892850786 0 -0.001155286453218843 0.04642939957301382 0 -0.00024635996518063439 0.044311024937467879 0 0.00094217893215063717 0.044656508733998429 0 -0.00024635996518063439 0.044311024937467879 0 0.00032626317437058197 0.047630781939802795 0 -0.001155286453218843 0.04642939957301382 0 -0.00024635996518063439 0.044311024937467879 0 0.00032626317437058197 0.047630781939802795 0 -0.0022506068682660624 0.046997918571961124 0 -0.00357507247874332 0.048672739610211548 0 -0.0029987474222810478 0.048733268026450206 0 -0.00357507247874332 0.048672739610211548 0 -0.0037116025941269512 0.049490464879924756 0 -0.0029987474222810478 0.048733268026450206 0 -0.0012630928199962779 0.044601901892850786 0 -0.001155286453218843 0.04642939957301382 0 -0.0022506068682660624 0.046997918571961124 0 -0.001155286453218843 0.04642939957301382 0 -0.0022506068682660624 0.046997918571961124 0 -0.0017975335920348611 0.049179379688934745 0 -0.0010893638827043912 0.042879604005447908 0 -0.0012630928199962779 0.044601901892850786 0 -0.0024243942129279854 0.045496204436227421 0 -0.0012630928199962779 0.044601901892850786 0 -0.0022506068682660624 0.046997918571961124 0 -0.0024243942129279854 0.045496204436227421 0 -0.0022506068682660624 0.046997918571961124 0 -0.0024243942129279854 0.045496204436227421 0 -0.00357507247874332 0.048672739610211548 0 -0.0024243942129279854 0.045496204436227421 0 -0.0040009486271317838 0.046384524812196327 0 -0.00357507247874332 0.048672739610211548 0 -0.0014893761238114419 0.044262867607641782 0 -0.0021074885734638981 0.046434605320212693 0 2.5959482504466865e-06 0.041141101362948906 0 0.00044400177295581439 0.04643427004731087 0 -8.3324286461711938e-07 0.046074598174475519 0 -0.0024243942129279854 0.045496204436227421 0 -0.0022978351241512724 0.042659121163205027 0 -0.0040009486271317838 0.046384524812196327 0 -0.0010893638827043912 0.042879604005447908 0 -0.0024243942129279854 0.045496204436227421 0 -0.0022978351241512724 0.042659121163205027 0 -3.9405157515731422e-06 0.041131563533838955 0 -0.0010893638827043912 0.042879604005447908 0 -0.0022978351241512724 0.042659121163205027 0 -1.3366263129477013e-06 0.041142785435260329 0 -0.0014893761238114419 0.044262867607641782 0 0.00044400177295581439 0.04643427004731087 0 -8.3324286461711938e-07 0.046074598174475519 0 -0.00046253924523272035 0.050203119993901292 0 -8.3324286461711938e-07 0.046074598174475519 0 -0.0014000277024420291 0.05143005086790129 0 -3.2015615959897708e-06 0.052856664613943123 0 -8.3324286461711938e-07 0.046074598174475519 0 -0.0014000277024420291 0.05143005086790129 0 -0.00046253924523272035 0.050203119993901292 0 -0.0014000277024420291 0.05143005086790129 0 -3.2015615959897708e-06 0.052856664613943123 0 -0.00047341507849972731 0.054133096176739039 0 -3.2015615959897708e-06 0.052856664613943123 0 -0.00047341507849972731 0.054133096176739039 0 8.9863866287352226e-05 0.057814462488314913 0 -0.0014951963214527666 0.055968910186809676 0 -0.00043372445618282618 0.053690334015028082 0 0.00086954478062686109 0.056414467165614345 0 -0.0014951963214527666 0.055968910186809676 0 -0.0022594017837114472 0.052784228665325256 0 -0.002430334780232643 0.051451219046568387 0 -0.0014000277024420291 0.05143005086790129 0 -0.00047341507849972731 0.054133096176739039 0 -0.002430334780232643 0.051451219046568387 0 -0.00060998494520801032 0.05625626133205984 0 -0.0014238740188779963 0.055325487844983534 0 -0.0022594017837114472 0.052784228665325256 0 -0.00043372445618282618 0.053690334015028082 0 -0.0022863864184018466 0.051495134698375369 0 -0.0026880786317189302 0.051686505496786654 0 -0.0022594017837114472 0.052784228665325256 0 -0.0026105990567786737 0.051588128909032666 0 -0.0022594017837114472 0.052784228665325256 0 -0.002430334780232643 0.051451219046568387 0 -0.0026105990567786737 0.051588128909032666 0 -0.0026880786317189302 0.051686505496786654 0 -0.0022594017837114472 0.052784228665325256 0 -0.0022863864184018466 0.051495134698375369 0 -0.0026880786317189302 0.051686505496786654 0 -0.003217881619555702 0.05080792539406264 0 -0.0022863864184018466 0.051495134698375369 0 -0.0014951963214527666 0.055968910186809676 0 -0.0022594017837114472 0.052784228665325256 0 -0.00043372445618282618 0.053690334015028082 0 -0.0040009486271317838 0.046384524812196327 0 -0.0035091979870665127 0.049090839928993241 0 -0.00357507247874332 0.048672739610211548 0 -0.0040009486271317838 0.046384524812196327 0 -0.0035091979870665127 0.049090839928993241 0 -0.002521074924714338 0.051276788426745872 0 -0.0021074885734638981 0.046434605320212693 0 -0.0023061771654804453 0.047354133328077662 0 -0.0035091979870665127 0.049090839928993241 0 -0.0031305994547561858 0.050287894055772775 0 -0.0035988877489658995 0.049659205621280816 0 -0.0014000277024420291 0.05143005086790129 0 -0.002430334780232643 0.051451219046568387 0 -0.002521074924714338 0.051276788426745872 0 -0.0014000277024420291 0.05143005086790129 0 -0.00046253924523272035 0.050203119993901292 0 -0.002521074924714338 0.051276788426745872 0 -0.002430334780232643 0.051451219046568387 0 -0.0027209378358364722 0.051032287973915832 0 -0.0026105990567786737 0.051588128909032666 0 -0.002430334780232643 0.051451219046568387 0 -0.002521074924714338 0.051276788426745872 0 -0.0027209378358364722 0.051032287973915832 0 -0.0035091979870665127 0.049090839928993241 0 -0.002521074924714338 0.051276788426745872 0 -0.0031305994547561858 0.050287894055772775 0 -0.0027209378358364722 0.051032287973915832 0 -0.0031305994547561858 0.050287894055772775 0 -0.0029252715459094124 0.050833995702509148 0 -0.002521074924714338 0.051276788426745872 0 -0.0027209378358364722 0.051032287973915832 0 -0.0031305994547561858 0.050287894055772775 0 -0.0031305994547561858 0.050287894055772775 0 -0.0032558122061073567 0.050476334030735766 0 -0.0035988877489658995 0.049659205621280816 0 -0.0031305994547561858 0.050287894055772775 0 -0.0032558122061073567 0.050476334030735766 0 -0.0029252715459094124 0.050833995702509148 0 -0.0027209378358364722 0.051032287973915832 0 -0.0026105990567786737 0.051588128909032666 0 -0.0029252715459094124 0.050833995702509148 0 -0.0026105990567786737 0.051588128909032666 0 -0.0029252715459094124 0.050833995702509148 0 -0.0029594789377130233 0.051038718513949748 0 -0.0032558122061073567 0.050476334030735766 0 -0.0029252715459094124 0.050833995702509148 0 -0.0029594789377130233 0.051038718513949748 0 -0.0026880786317189302 0.051686505496786654 0 -0.0026105990567786737 0.051588128909032666 0 -0.0029594789377130233 0.051038718513949748 0 -0.0026880786317189302 0.051686505496786654 0 -0.0029594789377130233 0.051038718513949748 0 -0.003217881619555702 0.05080792539406264 0 -0.0032558122061073567 0.050476334030735766 0 -0.0029594789377130233 0.051038718513949748 0 -0.003217881619555702 0.05080792539406264 0 -0.0032558122061073567 0.050476334030735766 0 -0.003217881619555702 0.05080792539406264 0 -0.0036836428765940525 0.050091173775056765 0 -0.0032558122061073567 0.050476334030735766 0 -0.0036836428765940525 0.050091173775056765 0 -0.0035988877489658995 0.049659205621280816 0 -0.0036836428765940525 0.050091173775056765 0 -0.0035988877489658995 0.049659205621280816 0 -0.0037116025941269512 0.049490464879924756 0 -0.0035091979870665127 0.049090839928993241 0 -0.0035988877489658995 0.049659205621280816 0 -0.00357507247874332 0.048672739610211548 0 -0.0035988877489658995 0.049659205621280816 0 -0.00357507247874332 0.048672739610211548 0 -0.0037116025941269512 0.049490464879924756 0 -0.0036836428765940525 0.050091173775056765 0 -0.0035754352425116072 0.050313773713936763 0 -0.0042985804463784826 0.050440104489251243 0 -0.0036836428765940525 0.050091173775056765 0 -0.0037116025941269512 0.049490464879924756 0 -0.0042985804463784826 0.050440104489251243 0 -0.003217881619555702 0.05080792539406264 0 -0.0036836428765940525 0.050091173775056765 0 -0.0035754352425116072 0.050313773713936763 0 -0.003217881619555702 0.05080792539406264 0 -0.0035754352425116072 0.050313773713936763 0 -0.0022863864184018466 0.051495134698375369 0 -0.0072563234934696153 0.051231837147134945 0 -0.0042985804463784826 0.050440104489251243 0 -0.0066680357872226075 0.053178140107502922 0 -0.0022413495773220189 0.058509737983128043 0 -0.0027059756746592415 0.057101335410314792 0 -0.0035754352425116072 0.050313773713936763 0 -0.0033296557552713107 0.049587970414070114 0 -0.0042985804463784826 0.050440104489251243 0 -0.0035754352425116072 0.050313773713936763 0 -0.0033296557552713107 0.049587970414070114 0 -0.0022677776476016688 0.050127803274482602 0 -0.0022863864184018466 0.051495134698375369 0 -0.0022677776476016688 0.050127803274482602 0 0.0002207252802849044 0.050806516556885284 0 -0.00043372445618282618 0.053690334015028082 0 -0.0022863864184018466 0.051495134698375369 0 0.0002207252802849044 0.050806516556885284 0 -0.0035754352425116072 0.050313773713936763 0 -0.0022863864184018466 0.051495134698375369 0 -0.0022677776476016688 0.050127803274482602 0 -0.0033296557552713107 0.049587970414070114 0 -0.0022677776476016688 0.050127803274482602 0 -0.0014448989915367145 0.048889441480108979 0 -0.0022413495773220189 0.058509737983128043 0 0.00085900297312972577 0.063034372844710057 0 0.009985655809576369 0.073596710567583309 0 0.0081351450366585303 0.071132111371297699 0 0.0069879055571292351 0.074324459094036843 0 0.00085900297312972577 0.063034372844710057 0 0.002376229477410635 0.062200360401715359 0 -0.0022677776476016688 0.050127803274482602 0 -0.0014448989915367145 0.048889441480108979 0 0.0002207252802849044 0.050806516556885284 0 0.0065966110885772164 0.074171076281919684 0 0.0064326345202648126 0.074905875370450251 0 0.0053786706959420673 0.074474037946796731 0 0.00085900297312972577 0.063034372844710057 0 0.0035750221030600646 0.067181762311736726 0 0.0064326345202648126 0.074905875370450251 0 0.0062703906803182295 0.075680866468898808 0 0.0053786706959420673 0.074474037946796731 0 -0.010104410931655721 0.051972334670909004 0 -0.0080209617591009037 0.054644405059850069 0 -0.0066680357872226075 0.053178140107502922 0 0.0065966110885772164 0.074171076281919684 0 0.0064326345202648126 0.074905875370450251 0 0.0074646882865195448 0.075289812331528497 0 0.00085900297312972577 0.063034372844710057 0 -0.0023883189482311745 0.063109100311556462 0 -0.0072563234934696153 0.051231837147134945 0 -0.010104410931655721 0.051972334670909004 0 -0.0066680357872226075 0.053178140107502922 0 -0.0023883189482311745 0.063109100311556462 0 0.00052048619727399317 0.065690747420164008 0 -0.0021239445918107827 0.060260102575655457 0 -0.0023868006714964566 0.059524196197752045 0 -0.0021432881920251802 0.060161634428535622 0 0.0064326345202648126 0.074905875370450251 0 0.0074646882865195448 0.075289812331528497 0 0.0062703906803182295 0.075680866468898808 0 -0.0023015848114914194 0.059673441885157393 0 -0.0021239445918107827 0.060260102575655457 0 -0.0019316759538594581 0.060912732978310756 0 -0.0023883189482311745 0.063109100311556462 0 -0.0024062946976052559 0.063073494362663143 0 -0.0023015848114914194 0.059673441885157393 0 -0.0021239445918107827 0.060260102575655457 0 -0.0023868006714964566 0.059524196197752045 0 -0.0042985804463784826 0.050440104489251243 0 -0.00474870879299905 0.053717204285241349 0 -0.0066680357872226075 0.053178140107502922 0 -0.0080209617591009037 0.054644405059850069 0 -0.00474870879299905 0.053717204285241349 0 -0.0066680357872226075 0.053178140107502922 0 -0.0023883189482311745 0.063109100311556462 0 -0.0019567975364729929 0.05920903295496089 0 -0.0023868006714964566 0.059524196197752045 0 -0.0024314382034202431 0.058724244512316719 0 -0.0021432881920251802 0.060161634428535622 0 -0.0024055465905646273 0.059535560192839704 0 -0.00266681553798303 0.057096747153837744 0 -0.0023868006714964566 0.059524196197752045 0 -0.00266681553798303 0.057096747153837744 0 -0.0023868006714964566 0.059524196197752045 0 -0.0024314382034202431 0.058724244512316719 0 -0.00266681553798303 0.057096747153837744 0 -0.0024314382034202431 0.058724244512316719 0 -0.0021280216095151466 0.057483253565455798 0 -0.0042985804463784826 0.050440104489251243 0 -0.00474870879299905 0.053717204285241349 0 -0.0021044788900342394 0.053372980170995399 0 -0.00266681553798303 0.057096747153837744 0 -0.0021280216095151466 0.057483253565455798 0 -0.0021044788900342394 0.053372980170995399 0 -0.0019567975364729929 0.05920903295496089 0 -0.0012728743678051162 0.057799249381124504 0 -0.0021044788900342394 0.053372980170995399 0 -0.001083128938387772 0.055613773004706442 0 -0.00010059115872804999 0.053379907304139072 0 -0.001083128938387772 0.055613773004706442 0 0.00046075833086213963 0.056046637501522487 0 -0.00093642418115930256 0.05762868841410352 0 -0.0021280216095151466 0.057483253565455798 0 -0.0021044788900342394 0.053372980170995399 0 -0.001083128938387772 0.055613773004706442 0 -0.0021280216095151466 0.057483253565455798 0 -0.001083128938387772 0.055613773004706442 0 -0.00093642418115930256 0.05762868841410352 0 -0.001083128938387772 0.055613773004706442 0 0.00046075833086213963 0.056046637501522487 0 -0.00010059115872804999 0.053379907304139072 0 0.0023325947591697174 0.053583743494620834 0 0.00046075833086213963 0.056046637501522487 0 -0.00010059115872804999 0.053379907304139072 0 0.0023325947591697174 0.053583743494620834 0 0.00046075833086213963 0.056046637501522487 0 0.0021872408103321027 0.05605640280166236 0 0.0023325947591697174 0.053583743494620834 0 -0.00010059115872804999 0.053379907304139072 0 0.00096172197974656308 0.050987408491310914 0 -0.0021044788900342394 0.053372980170995399 0 -0.00010059115872804999 0.053379907304139072 0 -0.00053008600555453787 0.050676762587475221 0 -0.00010059115872804999 0.053379907304139072 0 -0.00053008600555453787 0.050676762587475221 0 0.00096172197974656308 0.050987408491310914 0 0.0027525181995476742 0.049412150254581892 0 0.00096172197974656308 0.050987408491310914 0 0.00032626317437058197 0.047630781939802795 0 -0.00053008600555453787 0.050676762587475221 0 0.00096172197974656308 0.050987408491310914 0 0.00032626317437058197 0.047630781939802795 0 -0.00053008600555453787 0.050676762587475221 0 0.00032626317437058197 0.047630781939802795 0 -0.0017975335920348611 0.049179379688934745 0 -0.001155286453218843 0.04642939957301382 0 0.00032626317437058197 0.047630781939802795 0 -0.0017975335920348611 0.049179379688934745 0 -0.0022506068682660624 0.046997918571961124 0 -0.0017975335920348611 0.049179379688934745 0 -0.0029987474222810478 0.048733268026450206 0 -0.0037116025941269512 0.049490464879924756 0 -0.0042985804463784826 0.050440104489251243 0 -0.0030391109130449919 0.050100205428485464 0 -0.0017975335920348611 0.049179379688934745 0 -0.0029987474222810478 0.048733268026450206 0 -0.0030391109130449919 0.050100205428485464 0 -0.0037116025941269512 0.049490464879924756 0 -0.0029987474222810478 0.048733268026450206 0 -0.0030391109130449919 0.050100205428485464 0 -0.0042985804463784826 0.050440104489251243 0 -0.0021044788900342394 0.053372980170995399 0 -0.0030391109130449919 0.050100205428485464 0 -0.0021044788900342394 0.053372980170995399 0 -0.00053008600555453787 0.050676762587475221 0 -0.0017975335920348611 0.049179379688934745 0 -0.0021044788900342394 0.053372980170995399 0 -0.0017975335920348611 0.049179379688934745 0 -0.0030391109130449919 0.050100205428485464 0 -4.6726071152742492e-07 0.074992620080238742 0 -0.0002865306121317831 0.068447487226524786 0 1.8347856069746061e-06 0.0621823094766926 0 -4.6726071152742492e-07 0.074992620080238742 0 5.7880676650553456e-06 0.074404135722336312 0 -6.881908724949643e-07 0.074998379621962555 0 -0.00016514165448714945 0.07366765140868714 0 5.7880676650553456e-06 0.074404135722336312 0 -6.881908724949643e-07 0.074998379621962555 0 -0.00016514165448714945 0.07366765140868714 0 -0.00017445458670328206 0.073880758576972211 0 5.7880676650553456e-06 0.074404135722336312 0 -4.6726071152742492e-07 0.074992620080238742 0 5.7880676650553456e-06 0.074404135722336312 0 -0.0002865306121317831 0.068447487226524786 0 -8.872386527495833e-05 0.068843698919410889 0 5.7880676650553456e-06 0.074404135722336312 0 -0.0002865306121317831 0.068447487226524786 0 -0.0005270289925459967 0.071073049527761695 0 -0.00047539740319472665 0.071582517266975024 0 -0.0002865306121317831 0.068447487226524786 0 -0.001183732429974136 0.066453581829894151 0 -0.00019088319076160531 0.064571651333368743 0 -0.0005270289925459967 0.071073049527761695 0 -0.00017561741586330295 0.070575374542960756 0 -8.872386527495833e-05 0.068843698919410889 0 -0.0002865306121317831 0.068447487226524786 0 -0.001183732429974136 0.066453581829894151 0 -0.00016514165448714945 0.07366765140868714 0 -0.00017445458670328206 0.073880758576972211 0 -0.000419005253436887 0.072596767851938374 0 -0.00016514165448714945 0.07366765140868714 0 -0.000419005253436887 0.072596767851938374 0 -0.00041825270812441401 0.072405572779299487 0 -0.000419005253436887 0.072596767851938374 0 -9.774764336617583e-05 0.071224706586652933 0 -0.00041825270812441401 0.072405572779299487 0 -0.00017561741586330295 0.070575374542960756 0 0.00038331218133235063 0.070565128345998374 0 -0.000419005253436887 0.072596767851938374 0 0.0003627500290432279 0.069265550853866292 0 -9.774764336617583e-05 0.071224706586652933 0 -0.001183732429974136 0.066453581829894151 0 0.0003627500290432279 0.069265550853866292 0 0.0003442376002089251 0.065228077816285299 0 0.0003627500290432279 0.069265550853866292 0 0.0023513415449538631 0.066157700860646956 0 0.0003442376002089251 0.065228077816285299 0 0.0003627500290432279 0.069265550853866292 0 0.0023513415449538631 0.066157700860646956 0 0.0033861011424475879 0.068813115443079748 0 0.0003627500290432279 0.069265550853866292 0 0.0033861011424475879 0.068813115443079748 0 0.0012856246213296873 0.070899464922001748 0 0.0023513415449538631 0.066157700860646956 0 0.0003442376002089251 0.065228077816285299 0 0.003060828325782936 0.062239414616359234 0 0.0003442376002089251 0.065228077816285299 0 0.00096758600323281006 0.0622704400673827 0 0.003060828325782936 0.062239414616359234 0 0.0003442376002089251 0.065228077816285299 0 -0.00019088319076160531 0.064571651333368743 0 0.00096758600323281006 0.0622704400673827 0 -0.001183732429974136 0.066453581829894151 0 0.0003442376002089251 0.065228077816285299 0 -0.00019088319076160531 0.064571651333368743 0 1.8347856069746061e-06 0.0621823094766926 0 0.00096758600323281006 0.0622704400673827 0 8.9863866287352226e-05 0.057814462488314913 0 -0.0002865306121317831 0.068447487226524786 0 -0.00019088319076160531 0.064571651333368743 0 1.8347856069746061e-06 0.0621823094766926 0 -0.00019088319076160531 0.064571651333368743 0 1.8347856069746061e-06 0.0621823094766926 0 0.00096758600323281006 0.0622704400673827 0 -3.2015615959897708e-06 0.052856664613943123 0 1.8347856069746061e-06 0.0621823094766926 0 8.9863866287352226e-05 0.057814462488314913 0 0.00087792124692259374 0.05869736999055826 0 0.00062241764099282772 0.057901546416169 0 -0.0014951963214527666 0.055968910186809676 0 0.00086954478062686109 0.056414467165614345 0 0.0028204089302792212 0.060700345366184912 0 0.00086954478062686109 0.056414467165614345 0 0.0028204089302792212 0.060700345366184912 0 0.0027785924822187227 0.054873129373833714 0 -0.00060998494520801032 0.05625626133205984 0 0.00062241764099282772 0.057901546416169 0 0.00096758600323281006 0.0622704400673827 0 0.0028204089302792212 0.060700345366184912 0 0.003060828325782936 0.062239414616359234 0 0.0028204089302792212 0.060700345366184912 0 0.003060828325782936 0.062239414616359234 0 0.0027785924822187227 0.054873129373833714 0 0.0026446040190291676 0.061324074708456348 0 0.0027898205240999988 0.061636472770470477 0 0.0023513415449538631 0.066157700860646956 0 0.0033861011424475879 0.068813115443079748 0 0.0065634610487033092 0.068242857529682704 0 0.0023513415449538631 0.066157700860646956 0 0.003060828325782936 0.062239414616359234 0 0.0065634610487033092 0.068242857529682704 0 -0.00043372445618282618 0.053690334015028082 0 0.0027785924822187227 0.054873129373833714 0 0.0002207252802849044 0.050806516556885284 0 -0.00043372445618282618 0.053690334015028082 0 0.00086954478062686109 0.056414467165614345 0 0.0027785924822187227 0.054873129373833714 0 0.0065634610487033092 0.068242857529682704 0 0.0081351450366585303 0.071132111371297699 0 0.0054249786398600543 0.07112281002703294 0 0.0027898205240999988 0.061636472770470477 0 0.002376229477410635 0.062200360401715359 0 0.0033861011424475879 0.068813115443079748 0 0.0065634610487033092 0.068242857529682704 0 0.0054249786398600543 0.07112281002703294 0 0.0033861011424475879 0.068813115443079748 0 0.0054249786398600543 0.07112281002703294 0 0.0035461083769463826 0.072901268977085085 0 0.0055790738155790214 0.072904137685078654 0 0.004036465775208796 0.074723829180538159 0 0.0035461083769463826 0.072901268977085085 0 0.0054249786398600543 0.07112281002703294 0 0.0055790738155790214 0.072904137685078654 0 0.0035461083769463826 0.072901268977085085 0 0.0081351450366585303 0.071132111371297699 0 0.0055790738155790214 0.072904137685078654 0 0.0069879055571292351 0.074324459094036843 0 0.0081351450366585303 0.071132111371297699 0 0.0054249786398600543 0.07112281002703294 0 0.0055790738155790214 0.072904137685078654 0 -0.0019316759538594581 0.060912732978310756 0 -0.0019979197991242151 0.061707392605098818 0 -0.001987274441589474 0.061674631698293472 0 0.0062703906803182295 0.075680866468898808 0 0.004882926274940462 0.075259330059121735 0 0.00501865517607756 0.076132296998935395 0 0.00052048619727399317 0.065690747420164008 0 0.00062373502412184313 0.06771190907658034 0 0.0062703906803182295 0.075680866468898808 0 0.0053786706959420673 0.074474037946796731 0 0.004882926274940462 0.075259330059121735 0 0.00049384305063331503 0.070648989982566079 0 0.00062373502412184313 0.06771190907658034 0 0.004882926274940462 0.075259330059121735 0 0.004036465775208796 0.074723829180538159 0 0.0034553049846281297 0.075663861868645585 0 -0.00057707039978725447 0.067866813218540961 0 -0.00065374799668949004 0.068510842974875821 0 0.0002292065403209547 0.06826093218874886 0 0.004882926274940462 0.075259330059121735 0 0.0034553049846281297 0.075663861868645585 0 0.00501865517607756 0.076132296998935395 0 0.0053786706959420673 0.074474037946796731 0 0.004882926274940462 0.075259330059121735 0 0.004036465775208796 0.074723829180538159 0 0.0055790738155790214 0.072904137685078654 0 0.0069879055571292351 0.074324459094036843 0 0.004036465775208796 0.074723829180538159 0 0.0035750221030600646 0.067181762311736726 0 0.0036140061960167045 0.068557868307022582 0 0.00049384305063331503 0.070648989982566079 0 0.0016894221274438694 0.071803088187878158 0 0.004036465775208796 0.074723829180538159 0 0.0034553049846281297 0.075663861868645585 0 0.0035461083769463826 0.072901268977085085 0 0.0012504571980996295 0.073942647611377421 0 0.0018754238308870586 0.075148692470329834 0 0.0023651592561893934 0.073074290498812283 0 0.00049384305063331503 0.070648989982566079 0 -0.0009566431833861206 0.068158425478221527 0 -0.006095725304371853 0.071218726038762836 0 -0.0037824788952341096 0.070277868886801043 0 -0.0058855579298052558 0.068855869748211063 0 -0.006095725304371853 0.071218726038762836 0 -0.0037824788952341096 0.070277868886801043 0 -0.0031190463395250802 0.072527490417642143 0 -0.0037824788952341096 0.070277868886801043 0 -0.0031190463395250802 0.072527490417642143 0 -0.0022944381344359712 0.071138328584873539 0 0.00049384305063331503 0.070648989982566079 0 -0.00049475797720024528 0.071692289821622457 0 0.0012504571980996295 0.073942647611377421 0 0.0018754238308870586 0.075148692470329834 0 0.00012779421576193049 0.074103706103209224 0 0.0012504571980996295 0.073942647611377421 0 0.00012779421576193049 0.074103706103209224 0 0.00052336347491650846 0.073263447402536958 0 0.00012779421576193049 0.074103706103209224 0 0.00052336347491650846 0.073263447402536958 0 -0.00021731723737149517 0.073021489847117066 0 0.00052336347491650846 0.073263447402536958 0 0.00038205514171691719 0.072127152868544389 0 -0.00021731723737149517 0.073021489847117066 0 0.0012504571980996295 0.073942647611377421 0 0.00052336347491650846 0.073263447402536958 0 0.0023651592561893934 0.073074290498812283 0 0.00052336347491650846 0.073263447402536958 0 0.0023651592561893934 0.073074290498812283 0 0.00038205514171691719 0.072127152868544389 0 0.0033861011424475879 0.068813115443079748 0 0.0023651592561893934 0.073074290498812283 0 0.0012856246213296873 0.070899464922001748 0 0.0021992164289387308 0.070470157305100825 0 0.0016894221274438694 0.071803088187878158 0 0.0023651592561893934 0.073074290498812283 0 0.0012856246213296873 0.070899464922001748 0 0.00038205514171691719 0.072127152868544389 0 -9.774764336617583e-05 0.071224706586652933 0 0.00038205514171691719 0.072127152868544389 0 -0.00041825270812441401 0.072405572779299487 0 0.0003627500290432279 0.069265550853866292 0 0.0012856246213296873 0.070899464922001748 0 -9.774764336617583e-05 0.071224706586652933 0 0.0012856246213296873 0.070899464922001748 0 -9.774764336617583e-05 0.071224706586652933 0 0.00038205514171691719 0.072127152868544389 0 0.00038205514171691719 0.072127152868544389 0 -0.00041825270812441401 0.072405572779299487 0 -0.00021731723737149517 0.073021489847117066 0 -0.00016514165448714945 0.07366765140868714 0 -0.00034329128318527218 0.073277297308213335 0 -0.00014413759152081041 0.07377588411865596 0 -0.00016514165448714945 0.07366765140868714 0 -0.00041825270812441401 0.072405572779299487 0 -0.00034329128318527218 0.073277297308213335 0 -0.00041825270812441401 0.072405572779299487 0 -0.00034329128318527218 0.073277297308213335 0 -0.00051466234769646335 0.073159831808681741 0 -0.00051466234769646335 0.073159831808681741 0 -0.00014413759152081041 0.07377588411865596 0 -0.0007607654623748739 0.07318126786442497 0 -0.00034329128318527218 0.073277297308213335 0 -0.00051466234769646335 0.073159831808681741 0 -0.00014413759152081041 0.07377588411865596 0 -0.00014413759152081041 0.07377588411865596 0 -0.0007607654623748739 0.07318126786442497 0 -0.00036197720863965301 0.071898219395710852 0 -0.00041825270812441401 0.072405572779299487 0 -0.00051466234769646335 0.073159831808681741 0 -0.00021731723737149517 0.073021489847117066 0 -0.00051466234769646335 0.073159831808681741 0 -0.0007607654623748739 0.07318126786442497 0 -0.00021731723737149517 0.073021489847117066 0 0.00012779421576193049 0.074103706103209224 0 -0.0007607654623748739 0.07318126786442497 0 -0.00021731723737149517 0.073021489847117066 0 -0.0031190463395250802 0.072527490417642143 0 -0.001398856548360054 0.07198811203698674 0 -0.0022944381344359712 0.071138328584873539 0 -0.0031190463395250802 0.072527490417642143 0 -0.0007607654623748739 0.07318126786442497 0 -0.001398856548360054 0.07198811203698674 0 -0.00049475797720024528 0.071692289821622457 0 -0.00053198010824268937 0.072061668502919007 0 -0.001398856548360054 0.07198811203698674 0 -0.0022944381344359712 0.071138328584873539 0 -0.00097406314757066982 0.071081473019406163 0 -0.0022944381344359712 0.071138328584873539 0 -0.00097406314757066982 0.071081473019406163 0 -0.0023550177701432769 0.069460187370993964 0 -0.0037824788952341096 0.070277868886801043 0 -0.0022944381344359712 0.071138328584873539 0 -0.0023550177701432769 0.069460187370993964 0 -0.00097406314757066982 0.071081473019406163 0 -0.00036197720863965301 0.071898219395710852 0 -0.0013429301033422594 0.071625952334962384 0 -0.001398856548360054 0.07198811203698674 0 -0.00097406314757066982 0.071081473019406163 0 -0.00036197720863965301 0.071898219395710852 0 -0.00043820401169495461 0.073602751889144141 0 -0.00057307990501744108 0.073644530163594693 0 -0.0007607654623748739 0.07318126786442497 0 -0.001398856548360054 0.07198811203698674 0 -0.00036197720863965301 0.071898219395710852 0 -0.00038603919655740004 0.073672468868245952 0 -0.00043820401169495461 0.073602751889144141 0 -0.00014413759152081041 0.07377588411865596 0 3.4989477971337897e-05 0.074717857041747202 0 -6.881908724949643e-07 0.074998379621962555 0 3.4989477971337897e-05 0.074717857041747202 0 -6.881908724949643e-07 0.074998379621962555 0 -0.00010699031517378073 0.074955021463270252 0 -0.00016514165448714945 0.07366765140868714 0 -0.00014413759152081041 0.07377588411865596 0 -6.881908724949643e-07 0.074998379621962555 0 -6.881908724949643e-07 0.074998379621962555 0 5.3752340926073489e-08 0.074999556623648753 0 -0.00018482592553391785 0.07499832491320764 0 5.3752340926073489e-08 0.074999556623648753 0 -0.00018482592553391785 0.07499832491320764 0 -0.00037019573401389722 0.074367608682174013 0 -0.00018482592553391785 0.07499832491320764 0 -0.00073981912791056675 0.074521008094784916 0 -0.00037019573401389722 0.074367608682174013 0 -0.00018482592553391785 0.07499832491320764 0 -0.00032786744918685863 0.074978822976822235 0 -0.00073981912791056675 0.074521008094784916 0 -6.881908724949643e-07 0.074998379621962555 0 -0.00018482592553391785 0.07499832491320764 0 -0.00010699031517378073 0.074955021463270252 0 -0.00018482592553391785 0.07499832491320764 0 -0.00032786744918685863 0.074978822976822235 0 -0.00010699031517378073 0.074955021463270252 0 -0.001453119547909775 0.073514182551632001 0 -0.0013429301033422594 0.071625952334962384 0 -0.00037247919871447478 0.073160809198692875 0 -0.001453119547909775 0.073514182551632001 0 -0.00037247919871447478 0.073160809198692875 0 -0.00095512465173953659 0.074064835680204083 0 -0.00097406314757066982 0.071081473019406163 0 -0.0013429301033422594 0.071625952334962384 0 -0.00037247919871447478 0.073160809198692875 0 -0.00067039922084623509 0.073901002602374088 0 -0.00057307990501744108 0.073644530163594693 0 -0.0027769059359787455 0.067802925630486385 0 -0.0023550177701432769 0.069460187370993964 0 -0.0020587309945041417 0.066992201215713157 0 -0.0014476459283093261 0.070898354564086982 0 -0.0016261467347897971 0.070647176050724722 0 -0.0037824788952341096 0.070277868886801043 0 -0.0027769059359787455 0.067802925630486385 0 -0.0023550177701432769 0.069460187370993964 0 -0.00097406314757066982 0.071081473019406163 0 -0.0023550177701432769 0.069460187370993964 0 -0.0020587309945041417 0.066992201215713157 0 -0.0027769059359787455 0.067802925630486385 0 -0.0020587309945041417 0.066992201215713157 0 -0.0029436119903914755 0.066652540948856406 0 -0.0037279077530035128 0.066999074672024123 0 -0.0029678469372990202 0.066918496065261943 0 -0.0029436119903914755 0.066652540948856406 0 -0.00037247919871447478 0.073160809198692875 0 -0.00095512465173953659 0.074064835680204083 0 -0.0011985129577708749 0.074604839843638887 0 -0.0020587309945041417 0.066992201215713157 0 -0.0037279077530035128 0.066999074672024123 0 -0.0029436119903914755 0.066652540948856406 0 -0.0016261467347897971 0.070647176050724722 0 -0.0019707168987968572 0.070740011947447376 0 -0.00067039922084623509 0.073901002602374088 0 -0.00069244639403771315 0.07401790979911381 0 -0.001453119547909775 0.073514182551632001 0 -0.00095512465173953659 0.074064835680204083 0 -0.00073981912791056675 0.074521008094784916 0 -0.00095512465173953659 0.074064835680204083 0 -0.00073981912791056675 0.074521008094784916 0 -0.0011985129577708749 0.074604839843638887 0 -0.00073981912791056675 0.074521008094784916 0 -0.00097316403459130573 0.073728823081835787 0 -0.00037019573401389722 0.074367608682174013 0 -0.00073981912791056675 0.074521008094784916 0 -0.0011985129577708749 0.074604839843638887 0 -0.00097316403459130573 0.073728823081835787 0 -0.0037279077530035128 0.066999074672024123 0 -0.0028298854982495708 0.067991450461875672 0 -0.0024950438407787185 0.069589174563402079 0 -0.0037279077530035128 0.066999074672024123 0 -0.0029678469372990202 0.066918496065261943 0 -0.0028298854982495708 0.067991450461875672 0 -0.0029678469372990202 0.066918496065261943 0 -0.0025980225242706557 0.066967791900937129 0 -0.0024670643222047053 0.068470377948239097 0 -0.0029678469372990202 0.066918496065261943 0 -0.0028298854982495708 0.067991450461875672 0 -0.0024670643222047053 0.068470377948239097 0 -0.0028298854982495708 0.067991450461875672 0 -0.0024670643222047053 0.068470377948239097 0 -0.0024950438407787185 0.069589174563402079 0 -0.0025980225242706557 0.066967791900937129 0 -0.0021652493182597386 0.068122718046449454 0 -0.0024670643222047053 0.068470377948239097 0 -0.0025980225242706557 0.066967791900937129 0 -0.0019347792564114374 0.066788201460310642 0 -0.0021652493182597386 0.068122718046449454 0 -0.0019347792564114374 0.066788201460310642 0 -0.001683653409635049 0.067918034013360079 0 -0.0021652493182597386 0.068122718046449454 0 -0.0025980225242706557 0.066967791900937129 0 -0.0025122442189491473 0.065803034926669696 0 -0.0019347792564114374 0.066788201460310642 0 -0.0029678469372990202 0.066918496065261943 0 -0.0025980225242706557 0.066967791900937129 0 -0.0033281227064286272 0.065908258606067013 0 -0.0025980225242706557 0.066967791900937129 0 -0.0025122442189491473 0.065803034926669696 0 -0.0033281227064286272 0.065908258606067013 0 -0.0025122442189491473 0.065803034926669696 0 -0.0033281227064286272 0.065908258606067013 0 -0.0025766067584127466 0.064392277693251065 0 -0.0029678469372990202 0.066918496065261943 0 -0.0033281227064286272 0.065908258606067013 0 -0.0029436119903914755 0.066652540948856406 0 -0.0033281227064286272 0.065908258606067013 0 -0.0029436119903914755 0.066652540948856406 0 -0.0032521299600841249 0.067059072830813318 0 -0.0027769059359787455 0.067802925630486385 0 -0.0029436119903914755 0.066652540948856406 0 -0.0032521299600841249 0.067059072830813318 0 -0.0037824788952341096 0.070277868886801043 0 -0.0027769059359787455 0.067802925630486385 0 -0.0058855579298052558 0.068855869748211063 0 -0.0027769059359787455 0.067802925630486385 0 -0.0032521299600841249 0.067059072830813318 0 -0.004016826996921026 0.067995641233845105 0 -0.0023918641311092741 0.068369812883504633 0 -0.0009566431833861206 0.068158425478221527 0 -0.0033281227064286272 0.065908258606067013 0 -0.0032521299600841249 0.067059072830813318 0 -0.004016826996921026 0.067995641233845105 0 -0.0033281227064286272 0.065908258606067013 0 -0.0036688080680088511 0.062148251637621103 0 -0.0025766067584127466 0.064392277693251065 0 -0.0015672960768566039 0.066407551076689803 0 -0.0009566431833861206 0.068158425478221527 0 -0.0036688080680088511 0.062148251637621103 0 -0.0025766067584127466 0.064392277693251065 0 -0.0023005187372157625 0.063150241980577421 0 -0.0025766067584127466 0.064392277693251065 0 -0.0021723463376053494 0.063915006938230948 0 -0.0023005187372157625 0.063150241980577421 0 -0.0021723463376053494 0.063915006938230948 0 -0.0018439652108854009 0.063345266197286379 0 -0.0020228439681479037 0.064770258372078504 0 -0.0021723463376053494 0.063915006938230948 0 -0.0023005187372157625 0.063150241980577421 0 -0.0018439652108854009 0.063345266197286379 0 -0.0036688080680088511 0.062148251637621103 0 -0.0023005187372157625 0.063150241980577421 0 -0.0021388061101420834 0.062113082336053317 0 -0.0009566431833861206 0.068158425478221527 0 0.00062373502412184313 0.06771190907658034 0 -0.0036688080680088511 0.062148251637621103 0 -0.0021388061101420834 0.062113082336053317 0 -0.0020202548670705087 0.061629770214644525 0 -0.0023005187372157625 0.063150241980577421 0 -0.0021388061101420834 0.062113082336053317 0 -0.0019182657603222552 0.062456494480161329 0 -0.0019316759538594581 0.060912732978310756 0 -0.0018575650566405905 0.061566639494237983 0 -0.001987274441589474 0.061674631698293472 0 -0.0018575650566405905 0.061566639494237983 0 -0.001987274441589474 0.061674631698293472 0 -0.0019265979721550426 0.061962153588329995 0 -0.0021388061101420834 0.062113082336053317 0 -0.001987274441589474 0.061674631698293472 0 -0.0019265979721550426 0.061962153588329995 0 -0.0021388061101420834 0.062113082336053317 0 -0.0020202548670705087 0.061629770214644525 0 -0.001987274441589474 0.061674631698293472 0 0.00062373502412184313 0.06771190907658034 0 0.00059434347071564398 0.067689020926203367 0 -0.0021388061101420834 0.062113082336053317 0 -0.0019265979721550426 0.061962153588329995 0 -0.0019182657603222552 0.062456494480161329 0 -0.0019265979721550426 0.061962153588329995 0 -0.0018426743826917113 0.062066156540204649 0 -0.0019182657603222552 0.062456494480161329 0 -0.0018575650566405905 0.061566639494237983 0 -0.0019265979721550426 0.061962153588329995 0 -0.0018426743826917113 0.062066156540204649 0 -0.0018575650566405905 0.061566639494237983 0 -0.0018426743826917113 0.062066156540204649 0 -0.0017186318437568118 0.062270147993324775 0 -0.0018426743826917113 0.062066156540204649 0 -0.0019182657603222552 0.062456494480161329 0 -0.0017186318437568118 0.062270147993324775 0 -0.0019182657603222552 0.062456494480161329 0 -0.0018439652108854009 0.063345266197286379 0 -0.0017186318437568118 0.062270147993324775 0 -0.0023005187372157625 0.063150241980577421 0 -0.0019182657603222552 0.062456494480161329 0 -0.0018439652108854009 0.063345266197286379 0 -0.0018439652108854009 0.063345266197286379 0 -0.0016035068734307678 0.062894603132758367 0 -0.0017186318437568118 0.062270147993324775 0 -0.0018439652108854009 0.063345266197286379 0 -0.0014278437807815143 0.063993731836773718 0 -0.0016035068734307678 0.062894603132758367 0 -0.0018439652108854009 0.063345266197286379 0 -0.0014278437807815143 0.063993731836773718 0 -0.0020228439681479037 0.064770258372078504 0 -0.0014278437807815143 0.063993731836773718 0 -0.0020228439681479037 0.064770258372078504 0 -0.0019347792564114374 0.066788201460310642 0 -0.0025122442189491473 0.065803034926669696 0 -0.0020228439681479037 0.064770258372078504 0 -0.0019347792564114374 0.066788201460310642 0 -0.0025122442189491473 0.065803034926669696 0 -0.0025766067584127466 0.064392277693251065 0 -0.0020228439681479037 0.064770258372078504 0 -0.0025766067584127466 0.064392277693251065 0 -0.0021723463376053494 0.063915006938230948 0 -0.0020228439681479037 0.064770258372078504 0 -0.0014375087726749942 0.063807459425498037 0 -0.0019347792564114374 0.066788201460310642 0 -0.0012838597933470556 0.066882310161636857 0 -0.0019347792564114374 0.066788201460310642 0 -0.0012838597933470556 0.066882310161636857 0 -0.001683653409635049 0.067918034013360079 0 -0.0018294454715009048 0.063538039029459148 0 -0.0021790392526941237 0.064363843057129069 0 -0.0012838597933470556 0.066882310161636857 0 0.00027186626107293899 0.068107343235129597 0 0.0011385411762658683 0.06717379625474082 0 -0.0014375087726749942 0.063807459425498037 0 -0.0012838597933470556 0.066882310161636857 0 -0.0014417345319987405 0.063610798336619229 0 -0.0016025377071898668 0.065739698116099116 0 -0.00092147025995096556 0.065322919697453435 0 0.00027186626107293899 0.068107343235129597 0 -0.0010577617248302203 0.068838329774588716 0 -0.00013085471253215791 0.069570069108852828 0 -0.0012838597933470556 0.066882310161636857 0 0.00027186626107293899 0.068107343235129597 0 -0.0010577617248302203 0.068838329774588716 0 -0.0012838597933470556 0.066882310161636857 0 -0.001683653409635049 0.067918034013360079 0 -0.0010577617248302203 0.068838329774588716 0 -0.001683653409635049 0.067918034013360079 0 -0.0010577617248302203 0.068838329774588716 0 -0.0018310840498542301 0.069213849962204727 0 5.4425324970775138e-05 0.069722639223773961 0 -0.0011626037968478157 0.070409507499763185 0 -0.0010577617248302203 0.068838329774588716 0 -0.0019025892328871365 0.070739621187549964 0 -0.0018310840498542301 0.069213849962204727 0 -0.0010577617248302203 0.068838329774588716 0 -0.00013085471253215791 0.069570069108852828 0 -0.0019025892328871365 0.070739621187549964 0 5.9396935473814072e-05 0.069850348905273404 0 0.00016685785432509501 0.070991698981341972 0 -0.0006041367080714962 0.071212632684815119 0 5.9396935473814072e-05 0.069850348905273404 0 0.00016685785432509501 0.070991698981341972 0 0.00099921434116724181 0.070388163323552785 0 0.00016685785432509501 0.070991698981341972 0 0.00092487391537269127 0.07166807432066262 0 -0.00042920961763190065 0.071829759211716818 0 0.00016685785432509501 0.070991698981341972 0 -0.0006041367080714962 0.071212632684815119 0 -0.00042920961763190065 0.071829759211716818 0 5.9396935473814072e-05 0.069850348905273404 0 -0.0006041367080714962 0.071212632684815119 0 -0.00092106896932201104 0.070579025291466924 0 -0.0006041367080714962 0.071212632684815119 0 -0.0011440842604040651 0.071366938080932682 0 -0.00075348921936740671 0.071929483740359706 0 -0.0006041367080714962 0.071212632684815119 0 -0.00092106896932201104 0.070579025291466924 0 -0.0011440842604040651 0.071366938080932682 0 -0.0011440842604040651 0.071366938080932682 0 -0.0017870957934437888 0.071108488351654245 0 -0.0014758524032143373 0.071398934182864013 0 -0.0019025892328871365 0.070739621187549964 0 -0.0017870957934437888 0.071108488351654245 0 -0.0020381969309571299 0.070952489865469065 0 -0.0011626037968478157 0.070409507499763185 0 -0.0016032309401509386 0.070682999721032605 0 -0.00092106896932201104 0.070579025291466924 0 -0.0011440842604040651 0.071366938080932682 0 -0.0017870957934437888 0.071108488351654245 0 -0.0017870957934437888 0.071108488351654245 0 -0.0020381969309571299 0.070952489865469065 0 -0.0019384726847490213 0.071233931759198801 0 -0.0020381969309571299 0.070952489865469065 0 -0.0021607263807807784 0.071051978482846001 0 -0.0019384726847490213 0.071233931759198801 0 -0.0021607263807807784 0.071051978482846001 0 -0.0019081935223322439 0.071739312028860178 0 -0.0019384726847490213 0.071233931759198801 0 -0.0021607263807807784 0.071051978482846001 0 -0.0022222961411060929 0.071098108532233306 0 -0.0022303672746022745 0.070212870738489433 0 -0.0021607263807807784 0.071051978482846001 0 -0.0022222961411060929 0.071098108532233306 0 -0.0019081935223322439 0.071739312028860178 0 -0.0021607263807807784 0.071051978482846001 0 -0.002110329151647352 0.070331165570541102 0 -0.0022303672746022745 0.070212870738489433 0 -0.0020381969309571299 0.070952489865469065 0 -0.0021607263807807784 0.071051978482846001 0 -0.002110329151647352 0.070331165570541102 0 -0.0019025892328871365 0.070739621187549964 0 -0.0020381969309571299 0.070952489865469065 0 -0.002110329151647352 0.070331165570541102 0 -0.0019025892328871365 0.070739621187549964 0 -0.002110329151647352 0.070331165570541102 0 -0.0018310840498542301 0.069213849962204727 0 -0.002110329151647352 0.070331165570541102 0 -0.0021987264918991918 0.069218889972698774 0 -0.0018310840498542301 0.069213849962204727 0 -0.0021987264918991918 0.069218889972698774 0 -0.0018310840498542301 0.069213849962204727 0 -0.0021652493182597386 0.068122718046449454 0 -0.001683653409635049 0.067918034013360079 0 -0.0018310840498542301 0.069213849962204727 0 -0.0021652493182597386 0.068122718046449454 0 -0.0021987264918991918 0.069218889972698774 0 -0.0021652493182597386 0.068122718046449454 0 -0.0024670643222047053 0.068470377948239097 0 -0.0021987264918991918 0.069218889972698774 0 -0.0024670643222047053 0.068470377948239097 0 -0.0022303672746022745 0.070212870738489433 0 -0.0024670643222047053 0.068470377948239097 0 -0.0024950438407787185 0.069589174563402079 0 -0.0022303672746022745 0.070212870738489433 0 -0.0022222961411060929 0.071098108532233306 0 -0.0024950438407787185 0.069589174563402079 0 -0.0022303672746022745 0.070212870738489433 0 -0.002110329151647352 0.070331165570541102 0 -0.0021987264918991918 0.069218889972698774 0 -0.0022303672746022745 0.070212870738489433 0 -0.0011985129577708749 0.074604839843638887 0 -0.00097316403459130573 0.073728823081835787 0 -0.0023989025839609903 0.071801959395249637 0 -0.0019707168987968572 0.070740011947447376 0 -0.0020892234400420309 0.070967626784293636 0 -0.0037279077530035128 0.066999074672024123 0 -0.0024950438407787185 0.069589174563402079 0 -0.0023989025839609903 0.071801959395249637 0 -0.00097316403459130573 0.073728823081835787 0 -0.0013393496420105999 0.072918102497870285 0 -0.0023989025839609903 0.071801959395249637 0 -0.0022222961411060929 0.071098108532233306 0 -0.0024950438407787185 0.069589174563402079 0 -0.0023989025839609903 0.071801959395249637 0 -0.00097316403459130573 0.073728823081835787 0 -0.00084201259027585028 0.073542636721717514 0 -0.00037019573401389722 0.074367608682174013 0 -0.00097316403459130573 0.073728823081835787 0 -0.00084201259027585028 0.073542636721717514 0 -0.0013393496420105999 0.072918102497870285 0 -0.0014417176343655854 0.072639484823663267 0 -0.0011807465586298458 0.073176130755210136 0 -0.00074895336139971084 0.073866448142583807 0 -0.00084201259027585028 0.073542636721717514 0 -0.0014417176343655854 0.072639484823663267 0 -0.00074895336139971084 0.073866448142583807 0 -0.00084201259027585028 0.073542636721717514 0 -0.0013393496420105999 0.072918102497870285 0 -0.0014417176343655854 0.072639484823663267 0 -0.0014417176343655854 0.072639484823663267 0 -0.0019081935223322439 0.071739312028860178 0 -0.0011807465586298458 0.073176130755210136 0 -0.0013393496420105999 0.072918102497870285 0 -0.0014417176343655854 0.072639484823663267 0 -0.0023989025839609903 0.071801959395249637 0 -0.0014417176343655854 0.072639484823663267 0 -0.0023989025839609903 0.071801959395249637 0 -0.0019081935223322439 0.071739312028860178 0 -0.0022222961411060929 0.071098108532233306 0 -0.0023989025839609903 0.071801959395249637 0 -0.0019081935223322439 0.071739312028860178 0 -0.0014131823729152978 0.072518424014178615 0 -0.001320077372345035 0.072698749929980239 0 -0.0017870957934437888 0.071108488351654245 0 -0.0019384726847490213 0.071233931759198801 0 -0.0017124904073142859 0.071071893168201367 0 -0.0019081935223322439 0.071739312028860178 0 -0.00058689715657668376 0.074047112073303126 0 -0.0011807465586298458 0.073176130755210136 0 -0.0019081935223322439 0.071739312028860178 0 -0.0019384726847490213 0.071233931759198801 0 -0.0017124904073142859 0.071071893168201367 0 -0.0017870957934437888 0.071108488351654245 0 -0.0017124904073142859 0.071071893168201367 0 -0.0014758524032143373 0.071398934182864013 0 -0.00058689715657668376 0.074047112073303126 0 -0.00081700272984135981 0.074080290664848586 0 -0.00082657230514598555 0.074562289671220916 0 -0.00058689715657668376 0.074047112073303126 0 -0.00081700272984135981 0.074080290664848586 0 -0.0011807465586298458 0.073176130755210136 0 -0.00081700272984135981 0.074080290664848586 0 -0.0011807465586298458 0.073176130755210136 0 -0.00074895336139971084 0.073866448142583807 0 -0.00074895336139971084 0.073866448142583807 0 -0.00060021148777797525 0.074498913209667492 0 -1.2471539515314662e-06 0.074998067307474506 0 -0.00081700272984135981 0.074080290664848586 0 -0.00074895336139971084 0.073866448142583807 0 -0.00060021148777797525 0.074498913209667492 0 5.3752340926073489e-08 0.074999556623648753 0 -1.2471539515314662e-06 0.074998067307474506 0 -0.00037019573401389722 0.074367608682174013 0 -0.00074895336139971084 0.073866448142583807 0 -1.2471539515314662e-06 0.074998067307474506 0 -0.00037019573401389722 0.074367608682174013 0 -0.00084201259027585028 0.073542636721717514 0 -0.00074895336139971084 0.073866448142583807 0 -0.00037019573401389722 0.074367608682174013 0 -0.00055506454668879848 0.060015205619138409 0 -0.00011409188341007006 0.059955302483125431 0 -0.00020702482258713371 0.059358400797112257 0 0.0021822233021205682 0.063230301727602037 0 0.0020567606070673919 0.063191422595172686 0 0.0021822233021205682 0.063230301727602037 0 0.0011314258477373486 0.063925125747992667 0 -0.00050970161525388982 0.06027364949669866 0 -0.0017147630959299049 0.060947872584772883 0 -0.0013380842418782145 0.060054719952298531 0 0.0057552192918984349 0.066410977312093042 0 0.0040762171078446117 0.066786000697380832 0 0.005097465699751929 0.067274998396987432 0 0.0040762171078446117 0.066786000697380832 0 0.005097465699751929 0.067274998396987432 0 0.0045686773389247148 0.068147312993995901 0 0.0052812565180404341 0.067938593041540027 0 0.005097465699751929 0.067274998396987432 0 0.0045686773389247148 0.068147312993995901 0 0.0052812565180404341 0.067938593041540027 0 0.005097465699751929 0.067274998396987432 0 0.0059990126658836891 0.067767556831344569 0 0.0057552192918984349 0.066410977312093042 0 0.005097465699751929 0.067274998396987432 0 0.0059990126658836891 0.067767556831344569 0 0.0021822233021205682 0.063230301727602037 0 0.0021373528755314715 0.064862603216126566 0 -0.00070250947336096558 0.060083160915971878 0 -0.00038267631118250271 0.062040360868396045 0 -3.8081051099234859e-05 0.060883286707428777 0 -0.00038267631118250271 0.062040360868396045 0 0.00051215378631214528 0.062306137215309934 0 0.0002999996093847786 0.061591264889429238 0 0.00051215378631214528 0.062306137215309934 0 0.0009400601589753104 0.061649962691865991 0 0.0014301370631898233 0.062502344099452392 0 0.00051215378631214528 0.062306137215309934 0 0.0009400601589753104 0.061649962691865991 0 0.0002999996093847786 0.061591264889429238 0 0.0009400601589753104 0.061649962691865991 0 0.00046773871125452022 0.061082201019989679 0 0.0002999996093847786 0.061591264889429238 0 0.0009400601589753104 0.061649962691865991 0 0.00046773871125452022 0.061082201019989679 0 0.0011620714520792397 0.060877565448233521 0 0.00046773871125452022 0.061082201019989679 0 0.0002999996093847786 0.061591264889429238 0 -3.8081051099234859e-05 0.060883286707428777 0 -0.00038267631118250271 0.062040360868396045 0 0.0002999996093847786 0.061591264889429238 0 -3.8081051099234859e-05 0.060883286707428777 0 0.0027130587562337995 0.062985966975860008 0 0.0018662372024583673 0.061421072153713237 0 0.0014301370631898233 0.062502344099452392 0 0.0009400601589753104 0.061649962691865991 0 0.0018662372024583673 0.061421072153713237 0 0.0014301370631898233 0.062502344099452392 0 0.0009400601589753104 0.061649962691865991 0 0.0018662372024583673 0.061421072153713237 0 0.0011620714520792397 0.060877565448233521 0 0.0018662372024583673 0.061421072153713237 0 0.0011620714520792397 0.060877565448233521 0 0.0020270684613954205 0.060111935725893254 0 0.0011620714520792397 0.060877565448233521 0 0.0020270684613954205 0.060111935725893254 0 0.0010007536883218471 0.060119306106671586 0 0.0020270684613954205 0.060111935725893254 0 0.0010007536883218471 0.060119306106671586 0 0.0013760097338046927 0.059297661667488705 0 -3.8081051099234859e-05 0.060883286707428777 0 0.00040258738746694545 0.060412430677163613 0 -0.00011409188341007006 0.059955302483125431 0 -0.00070250947336096558 0.060083160915971878 0 -3.8081051099234859e-05 0.060883286707428777 0 -0.00011409188341007006 0.059955302483125431 0 0.00046773871125452022 0.061082201019989679 0 -3.8081051099234859e-05 0.060883286707428777 0 0.00040258738746694545 0.060412430677163613 0 0.00046773871125452022 0.061082201019989679 0 0.0011620714520792397 0.060877565448233521 0 0.00040258738746694545 0.060412430677163613 0 0.0011620714520792397 0.060877565448233521 0 0.00040258738746694545 0.060412430677163613 0 0.0010007536883218471 0.060119306106671586 0 0.0004334583859842352 0.059583212779521791 0 0.0010007536883218471 0.060119306106671586 0 0.0013760097338046927 0.059297661667488705 0 0.00040258738746694545 0.060412430677163613 0 0.0004334583859842352 0.059583212779521791 0 0.0010007536883218471 0.060119306106671586 0 0.00040258738746694545 0.060412430677163613 0 0.0004334583859842352 0.059583212779521791 0 -0.00011409188341007006 0.059955302483125431 0 0.0004334583859842352 0.059583212779521791 0 -0.00011409188341007006 0.059955302483125431 0 -0.00020702482258713371 0.059358400797112257 0 0.0004334583859842352 0.059583212779521791 0 -0.00020702482258713371 0.059358400797112257 0 0.0002744999097827849 0.058416699885154549 0 0.0004334583859842352 0.059583212779521791 0 0.0002744999097827849 0.058416699885154549 0 0.0013760097338046927 0.059297661667488705 0 -0.00020702482258713371 0.059358400797112257 0 0.0002744999097827849 0.058416699885154549 0 -0.00074535005248852957 0.059039445964864837 0 0.0027241425542287537 0.058866035594696553 0 0.0020270684613954205 0.060111935725893254 0 0.0013760097338046927 0.059297661667488705 0 0.0002744999097827849 0.058416699885154549 0 0.0013760097338046927 0.059297661667488705 0 0.0016817893222466447 0.057789027763880473 0 0.0027241425542287537 0.058866035594696553 0 0.0013760097338046927 0.059297661667488705 0 0.0016817893222466447 0.057789027763880473 0 0.00046075833086213963 0.056046637501522487 0 0.0021872408103321027 0.05605640280166236 0 0.0016817893222466447 0.057789027763880473 0 0.0031580094418701549 0.057643793545848802 0 0.0021872408103321027 0.05605640280166236 0 0.0016817893222466447 0.057789027763880473 0 0.00046075833086213963 0.056046637501522487 0 0.0002744999097827849 0.058416699885154549 0 0.0016817893222466447 0.057789027763880473 0 0.00046075833086213963 0.056046637501522487 0 0.0002744999097827849 0.058416699885154549 0 -0.00093642418115930256 0.05762868841410352 0 -0.00093642418115930256 0.05762868841410352 0 -0.00074535005248852957 0.059039445964864837 0 -0.0015673257644919743 0.058845301308151209 0 0.0002744999097827849 0.058416699885154549 0 -0.00093642418115930256 0.05762868841410352 0 -0.00074535005248852957 0.059039445964864837 0 0.0021822233021205682 0.063230301727602037 0 0.001726190102755076 0.061867845190344335 0 -0.00055506454668879848 0.060015205619138409 0 -0.00020702482258713371 0.059358400797112257 0 -0.00074535005248852957 0.059039445964864837 0 -0.00050970161525388982 0.06027364949669866 0 -0.0013380842418782145 0.060054719952298531 0 -0.00074535005248852957 0.059039445964864837 0 -0.0013380842418782145 0.060054719952298531 0 -0.0015673257644919743 0.058845301308151209 0 -0.0022002930923377679 0.059815068721739452 0 -0.0013380842418782145 0.060054719952298531 0 -0.00074535005248852957 0.059039445964864837 0 -0.0015673257644919743 0.058845301308151209 0 -0.0021280216095151466 0.057483253565455798 0 -0.00093642418115930256 0.05762868841410352 0 -0.0015673257644919743 0.058845301308151209 0 -0.0021280216095151466 0.057483253565455798 0 -0.0015673257644919743 0.058845301308151209 0 -0.0022002930923377679 0.059815068721739452 0 -0.0024314382034202431 0.058724244512316719 0 -0.0021280216095151466 0.057483253565455798 0 -0.0022002930923377679 0.059815068721739452 0 -0.0024314382034202431 0.058724244512316719 0 -0.0022002930923377679 0.059815068721739452 0 -0.0021432881920251802 0.060161634428535622 0 -0.001571183240401461 0.061710008527688778 0 -0.0016384051898911745 0.062331768567409657 0 -0.0022002930923377679 0.059815068721739452 0 -0.0020533002168901951 0.061823150743959623 0 -0.0020741421675439099 0.061174154214470096 0 -0.0022002930923377679 0.059815068721739452 0 -0.0021432881920251802 0.060161634428535622 0 -0.0016321986967838199 0.061585854590274075 0 -0.0017147630959299049 0.060947872584772883 0 -0.0013380842418782145 0.060054719952298531 0 -0.0022002930923377679 0.059815068721739452 0 -0.0017147630959299049 0.060947872584772883 0 -0.0022002930923377679 0.059815068721739452 0 -0.0020741421675439099 0.061174154214470096 0 -0.0021239445918107827 0.060260102575655457 0 -0.0019316759538594581 0.060912732978310756 0 -0.0018776357842241243 0.061072571489949587 0 -0.0018575650566405905 0.061566639494237983 0 -0.0018776357842241243 0.061072571489949587 0 -0.0017186318437568118 0.062270147993324775 0 -0.0019316759538594581 0.060912732978310756 0 -0.0018575650566405905 0.061566639494237983 0 -0.0018776357842241243 0.061072571489949587 0 -0.0021432881920251802 0.060161634428535622 0 -0.0018776357842241243 0.061072571489949587 0 -0.0016321986967838199 0.061585854590274075 0 -0.0021239445918107827 0.060260102575655457 0 -0.0021432881920251802 0.060161634428535622 0 -0.0018776357842241243 0.061072571489949587 0 -0.0018776357842241243 0.061072571489949587 0 -0.0016321986967838199 0.061585854590274075 0 -0.0017186318437568118 0.062270147993324775 0 -0.0016321986967838199 0.061585854590274075 0 -0.0016035068734307678 0.062894603132758367 0 -0.0017186318437568118 0.062270147993324775 0 -0.0014375087726749942 0.063807459425498037 0 -0.0018002798669541171 0.062551415270369351 0 -0.0014417345319987405 0.063610798336619229 0 -0.0018294454715009048 0.063538039029459148 0 -0.0016384051898911745 0.062331768567409657 0 -0.0014278437807815143 0.063993731836773718 0 -0.0016321986967838199 0.061585854590274075 0 -0.0016035068734307678 0.062894603132758367 0 -0.0014375087726749942 0.063807459425498037 0 -0.0020533002168901951 0.061823150743959623 0 -0.0018002798669541171 0.062551415270369351 0 -0.0020533002168901951 0.061823150743959623 0 -0.0018002798669541171 0.062551415270369351 0 -0.0020741421675439099 0.061174154214470096 0 -0.0018002798669541171 0.062551415270369351 0 -0.0014417345319987405 0.063610798336619229 0 -0.0019843090598766718 0.061889695276842745 0 -0.00092147025995096556 0.065322919697453435 0 6.1147140447766538e-05 0.064629308521329337 0 0.0019643069399349414 0.067632059863539068 0 0.0011385411762658683 0.06717379625474082 0 0.0025446567550198303 0.067140697922597567 0 0.0011314258477373486 0.063925125747992667 0 6.1147140447766538e-05 0.064629308521329337 0 -0.0017147630959299049 0.060947872584772883 0 -0.0020741421675439099 0.061174154214470096 0 -0.0019843090598766718 0.061889695276842745 0 -0.0018002798669541171 0.062551415270369351 0 -0.0020741421675439099 0.061174154214470096 0 -0.0019843090598766718 0.061889695276842745 0 0.0019643069399349414 0.067632059863539068 0 0.0025446567550198303 0.067140697922597567 0 0.0031084150295425678 0.068047078988756171 0 0.0040762171078446117 0.066786000697380832 0 0.0025446567550198303 0.067140697922597567 0 0.0031084150295425678 0.068047078988756171 0 0.0040762171078446117 0.066786000697380832 0 0.0031084150295425678 0.068047078988756171 0 0.0045686773389247148 0.068147312993995901 0 0.0031084150295425678 0.068047078988756171 0 0.0038857443617170994 0.069029584793197665 0 0.0045686773389247148 0.068147312993995901 0 0.0031084150295425678 0.068047078988756171 0 0.002808440120751998 0.0693784583730849 0 0.0038857443617170994 0.069029584793197665 0 0.0031084150295425678 0.068047078988756171 0 0.002808440120751998 0.0693784583730849 0 0.0013684274869477674 0.069009928982210769 0 0.0023708772730997442 0.068553238540616401 0 0.0015182466655251411 0.0689617653252112 0 0.002808440120751998 0.0693784583730849 0 0.0018653403132256109 0.07000260839239357 0 0.0024695481186288691 0.070568196760929874 0 0.002808440120751998 0.0693784583730849 0 0.0038857443617170994 0.069029584793197665 0 0.0038217120944413524 0.07009211679082418 0 0.002808440120751998 0.0693784583730849 0 0.0038217120944413524 0.07009211679082418 0 0.0024695481186288691 0.070568196760929874 0 0.00027186626107293899 0.068107343235129597 0 -0.00013085471253215791 0.069570069108852828 0 0.0017931519764659981 0.068519501543381531 0 0.00027186626107293899 0.068107343235129597 0 0.0011385411762658683 0.06717379625474082 0 0.0017931519764659981 0.068519501543381531 0 0.0019643069399349414 0.067632059863539068 0 0.0011385411762658683 0.06717379625474082 0 0.0017931519764659981 0.068519501543381531 0 0.0019643069399349414 0.067632059863539068 0 0.0031084150295425678 0.068047078988756171 0 0.0017931519764659981 0.068519501543381531 0 0.0013684274869477674 0.069009928982210769 0 0.0018653403132256109 0.07000260839239357 0 0.00099921434116724181 0.070388163323552785 0 0.002808440120751998 0.0693784583730849 0 0.0013684274869477674 0.069009928982210769 0 0.0018653403132256109 0.07000260839239357 0 5.9396935473814072e-05 0.069850348905273404 0 0.0013684274869477674 0.069009928982210769 0 0.00099921434116724181 0.070388163323552785 0 5.4425324970775138e-05 0.069722639223773961 0 0.0015182466655251411 0.0689617653252112 0 0.0018653403132256109 0.07000260839239357 0 0.00099921434116724181 0.070388163323552785 0 0.0017178797665404618 0.070799236084103503 0 0.0018653403132256109 0.07000260839239357 0 0.0017178797665404618 0.070799236084103503 0 0.0024695481186288691 0.070568196760929874 0 0.0017178797665404618 0.070799236084103503 0 0.0022700252245140911 0.071306141725476349 0 0.00092487391537269127 0.07166807432066262 0 -0.00056907661786679924 0.071578221058466146 0 -0.00043300818823446754 0.071773095976272752 0 0.00016685785432509501 0.070991698981341972 0 0.00099921434116724181 0.070388163323552785 0 0.00092487391537269127 0.07166807432066262 0 0.00099921434116724181 0.070388163323552785 0 0.0017178797665404618 0.070799236084103503 0 0.00092487391537269127 0.07166807432066262 0 0.0027772377252956908 0.068657674961551826 0 0.0025870813445762735 0.069000718162491176 0 0.002932987526854414 0.070456566791084529 0 0.0024695481186288691 0.070568196760929874 0 0.0030393778824135947 0.07092514998077476 0 0.0017178797665404618 0.070799236084103503 0 0.0024695481186288691 0.070568196760929874 0 0.0022700252245140911 0.071306141725476349 0 0.0024695481186288691 0.070568196760929874 0 0.0022700252245140911 0.071306141725476349 0 0.0030393778824135947 0.07092514998077476 0 -0.0026952976604851628 0.072960084188718258 0 -0.0042173735060711233 0.073481885890530937 0 -0.0034193074044040822 0.072277046655490881 0 -0.00056907661786679924 0.071578221058466146 0 -0.0010831984616317706 0.071069145344512433 0 0.0030393778824135947 0.07092514998077476 0 0.0034035646897167143 0.070715264241376655 0 0.0032645550697294416 0.070584873006832624 0 -0.0042173735060711233 0.073481885890530937 0 -0.005973132764106894 0.073981433333645152 0 -0.0053648042265029535 0.072881270980649726 0 -0.0010831984616317706 0.071069145344512433 0 -0.0022278413634231084 0.06990155417268995 0 -0.005973132764106894 0.073981433333645152 0 -0.0066267859026347244 0.072940349013998332 0 -0.0053648042265029535 0.072881270980649726 0 0.0034035646897167143 0.070715264241376655 0 0.0034408525076947182 0.070576668472021015 0 0.0035620537580375654 0.070560702302422271 0 0.0034035646897167143 0.070715264241376655 0 0.0034408525076947182 0.070576668472021015 0 0.0032645550697294416 0.070584873006832624 0 0.0034016966330786265 0.070464372513283705 0 0.0032645550697294416 0.070584873006832624 0 0.0032612049742871694 0.070370069632415641 0 0.0034408525076947182 0.070576668472021015 0 0.0034016966330786265 0.070464372513283705 0 0.0032645550697294416 0.070584873006832624 0 0.0034408525076947182 0.070576668472021015 0 0.0034016966330786265 0.070464372513283705 0 0.0034822150478560549 0.070469895467708349 0 0.002932987526854414 0.070456566791084529 0 0.0030393778824135947 0.07092514998077476 0 0.0032645550697294416 0.070584873006832624 0 0.002932987526854414 0.070456566791084529 0 0.0032645550697294416 0.070584873006832624 0 0.0032612049742871694 0.070370069632415641 0 0.0027772377252956908 0.068657674961551826 0 0.00280626312300827 0.067723124873152088 0 0.0038857443617170994 0.069029584793197665 0 0.0038217120944413524 0.07009211679082418 0 0.0050499460925011704 0.069593488871318013 0 0.0050499460925011704 0.069593488871318013 0 0.005461938490291242 0.068567136279284513 0 0.0062419613095708757 0.069131323950657894 0 0.0034016966330786265 0.070464372513283705 0 0.0032612049742871694 0.070370069632415641 0 0.0035202096762493034 0.070285038895326307 0 0.00280626312300827 0.067723124873152088 0 0.0017646713274333003 0.066201399825060556 0 0.0034016966330786265 0.070464372513283705 0 0.0035202096762493034 0.070285038895326307 0 0.0034822150478560549 0.070469895467708349 0 0.0059990126658836891 0.067767556831344569 0 0.005461938490291242 0.068567136279284513 0 0.0062419613095708757 0.069131323950657894 0 0.0052812565180404341 0.067938593041540027 0 0.0059990126658836891 0.067767556831344569 0 0.005461938490291242 0.068567136279284513 0 0.0052812565180404341 0.067938593041540027 0 0.005461938490291242 0.068567136279284513 0 0.0045686773389247148 0.068147312993995901 0 0.0050499460925011704 0.069593488871318013 0 0.005461938490291242 0.068567136279284513 0 0.0045686773389247148 0.068147312993995901 0 0.0038857443617170994 0.069029584793197665 0 0.0050499460925011704 0.069593488871318013 0 0.0045686773389247148 0.068147312993995901 0 0.0027130587562337995 0.062985966975860008 0 0.0014301370631898233 0.062502344099452392 0 0.00086032978778438857 0.06366063920116255 0 0.00084196996420718906 0.061246705306713251 0 0.00090594911154423226 0.064546482779917397 0 0.00051215378631214528 0.062306137215309934 0 0.0008767628935013673 0.063690240163408574 0 -4.2214940663580502e-05 0.064026957765127956 0 0.00078223510237142736 0.064004918565606514 0 0.00090594911154423226 0.064546482779917397 0 0.00051215378631214528 0.062306137215309934 0 0.0014301370631898233 0.062502344099452392 0 0.00086032978778438857 0.06366063920116255 0 0.0021373528755314715 0.064862603216126566 0 0.0017646713274333003 0.066201399825060556 0 -0.00038267631118250271 0.062040360868396045 0 0.00051215378631214528 0.062306137215309934 0 -4.2214940663580502e-05 0.064026957765127956 0 0.00090594911154423226 0.064546482779917397 0 -0.00077908541280269578 0.06398611423448812 0 0.00090594911154423226 0.064546482779917397 0 0.0017646713274333003 0.066201399825060556 0 0.0035202096762493034 0.070285038895326307 0 0.0034822150478560549 0.070469895467708349 0 0.0035620537580375654 0.070560702302422271 0 0.003429091846966686 0.069919269363034622 0 0.003829897762666931 0.070153900977926023 0 0.0035761164962514872 0.070444015126564438 0 0.0037359312985665465 0.069797982850425572 0 0.003429091846966686 0.069919269363034622 0 0.003829897762666931 0.070153900977926023 0 0.0017646713274333003 0.066201399825060556 0 0.0023193738405146115 0.068385545474304116 0 -0.00077908541280269578 0.06398611423448812 0 -0.0006883181208439137 0.064589220700238703 0 0.00084196996420718906 0.061246705306713251 0 -0.00077908541280269578 0.06398611423448812 0 0.00047986882531201274 0.062127535452041568 0 -0.0010574321545979851 0.062694063027380675 0 -0.00083263048354791059 0.063561867357751753 0 -0.0067137248251446678 0.051477633451884865 0 -0.006471872460589315 0.052395731892116555 0 -0.0075665607386014517 0.052498866262682027 0 -0.00077908541280269578 0.06398611423448812 0 -0.0052514444543863004 0.0674259815207605 0 -0.006471872460589315 0.052395731892116555 0 -0.0075665607386014517 0.052498866262682027 0 -0.0073244698568914971 0.053384950009386319 0 0.0034035646897167143 0.070715264241376655 0 0.0037655884709572175 0.070595833624721743 0 0.0035620537580375654 0.070560702302422271 0 0.003702504578132378 0.070288956871545683 0 0.0037655884709572175 0.070595833624721743 0 0.0035761164962514872 0.070444015126564438 0 -0.0022278413634231084 0.06990155417268995 0 -0.0052514444543863004 0.0674259815207605 0 0.003429091846966686 0.069919269363034622 0 0.0035761164962514872 0.070444015126564438 0 0.0035620537580375654 0.070560702302422271 0 0.0034408525076947182 0.070576668472021015 0 0.0034822150478560549 0.070469895467708349 0 0.0035620537580375654 0.070560702302422271 0 0.0037655884709572175 0.070595833624721743 0 0.0035761164962514872 0.070444015126564438 0 0.0035620537580375654 0.070560702302422271 0 -0.005973132764106894 0.073981433333645152 0 -0.0078105368802155037 0.074365314426486237 0 -0.0066267859026347244 0.072940349013998332 0 -0.0052514444543863004 0.0674259815207605 0 -0.0066925047810376895 0.07115886451410372 0 -0.0078105368802155037 0.074365314426486237 0 -0.0083808982863810121 0.072575733766431186 0 -0.0066267859026347244 0.072940349013998332 0 -0.0098586119903935534 0.07392701724459165 0 -0.0086466024773326471 0.074691356007151946 0 -0.0091072043580467769 0.072724824713954098 0 -0.0083808982863810121 0.072575733766431186 0 -0.0066267859026347244 0.072940349013998332 0 -0.0066564403791105134 0.071826183300177454 0 -0.0066564403791105134 0.071826183300177454 0 -0.0073364069350346202 0.070866992735628367 0 -0.0058671772467462678 0.070786238609904725 0 -0.0083808982863810121 0.072575733766431186 0 -0.0066564403791105134 0.071826183300177454 0 -0.0073364069350346202 0.070866992735628367 0 -0.0083808982863810121 0.072575733766431186 0 -0.0073364069350346202 0.070866992735628367 0 -0.0093145999047893595 0.070708317917359362 0 -0.0073364069350346202 0.070866992735628367 0 -0.0075391838937177331 0.069171281444399407 0 -0.0093145999047893595 0.070708317917359362 0 -0.0073364069350346202 0.070866992735628367 0 -0.0064296040105870662 0.069811841315734036 0 -0.0075391838937177331 0.069171281444399407 0 -0.0073364069350346202 0.070866992735628367 0 -0.0064296040105870662 0.069811841315734036 0 -0.0058671772467462678 0.070786238609904725 0 -0.0064296040105870662 0.069811841315734036 0 -0.0075391838937177331 0.069171281444399407 0 -0.0058378140892650175 0.068485094403293853 0 -0.0075391838937177331 0.069171281444399407 0 -0.0093145999047893595 0.070708317917359362 0 -0.0094619157948959351 0.069363731740822707 0 -0.0075391838937177331 0.069171281444399407 0 -0.0094619157948959351 0.069363731740822707 0 -0.0088413101603432506 0.067680227944873647 0 -0.0046834941754828894 0.069124452390640953 0 -0.0054747316460647061 0.069738319273899854 0 -0.0047290078019443594 0.070716630841493378 0 -0.0064296040105870662 0.069811841315734036 0 -0.0054747316460647061 0.069738319273899854 0 -0.0058378140892650175 0.068485094403293853 0 -0.0046834941754828894 0.069124452390640953 0 -0.0054747316460647061 0.069738319273899854 0 -0.0058378140892650175 0.068485094403293853 0 -0.0054747316460647061 0.069738319273899854 0 -0.0058671772467462678 0.070786238609904725 0 -0.0047290078019443594 0.070716630841493378 0 -0.0064296040105870662 0.069811841315734036 0 -0.0054747316460647061 0.069738319273899854 0 -0.0058671772467462678 0.070786238609904725 0 -0.0046834941754828894 0.069124452390640953 0 -0.0047290078019443594 0.070716630841493378 0 -0.0036504260917177862 0.070110166957989425 0 -0.0047290078019443594 0.070716630841493378 0 -0.0056311712265351222 0.071908623994150808 0 -0.0044594396762166737 0.072104520627112256 0 -0.0047290078019443594 0.070716630841493378 0 -0.0044594396762166737 0.072104520627112256 0 -0.0035811230133505813 0.071242814729672477 0 -0.0058671772467462678 0.070786238609904725 0 -0.0047290078019443594 0.070716630841493378 0 -0.0056311712265351222 0.071908623994150808 0 -0.0066564403791105134 0.071826183300177454 0 -0.0058671772467462678 0.070786238609904725 0 -0.0056311712265351222 0.071908623994150808 0 -0.0066267859026347244 0.072940349013998332 0 -0.0056311712265351222 0.071908623994150808 0 -0.0053648042265029535 0.072881270980649726 0 -0.0066267859026347244 0.072940349013998332 0 -0.0066564403791105134 0.071826183300177454 0 -0.0056311712265351222 0.071908623994150808 0 -0.0056311712265351222 0.071908623994150808 0 -0.0053648042265029535 0.072881270980649726 0 -0.0044594396762166737 0.072104520627112256 0 -0.0042173735060711233 0.073481885890530937 0 -0.0053648042265029535 0.072881270980649726 0 -0.0044594396762166737 0.072104520627112256 0 -0.0042173735060711233 0.073481885890530937 0 -0.0044594396762166737 0.072104520627112256 0 -0.0034193074044040822 0.072277046655490881 0 -0.0026952976604851628 0.072960084188718258 0 -0.0034193074044040822 0.072277046655490881 0 -0.0022871842811208153 0.071671510865251989 0 -0.0034193074044040822 0.072277046655490881 0 -0.0035811230133505813 0.071242814729672477 0 -0.0022871842811208153 0.071671510865251989 0 -0.0035811230133505813 0.071242814729672477 0 -0.0022871842811208153 0.071671510865251989 0 -0.0028058409801432443 0.070725893100617582 0 -0.0044594396762166737 0.072104520627112256 0 -0.0034193074044040822 0.072277046655490881 0 -0.0035811230133505813 0.071242814729672477 0 -0.0013877861196261421 0.072455706446330495 0 -0.0022871842811208153 0.071671510865251989 0 -0.0011918383334809726 0.071588518083325434 0 -0.0026952976604851628 0.072960084188718258 0 -0.0013877861196261421 0.072455706446330495 0 -0.0022871842811208153 0.071671510865251989 0 -0.0011918383334809726 0.071588518083325434 0 -0.0013997435796208487 0.070596354585526988 0 -0.00056585121995073083 0.071436404541977319 0 -0.0022871842811208153 0.071671510865251989 0 -0.0011918383334809726 0.071588518083325434 0 -0.0013997435796208487 0.070596354585526988 0 -0.0022871842811208153 0.071671510865251989 0 -0.0013997435796208487 0.070596354585526988 0 -0.0028058409801432443 0.070725893100617582 0 -0.0013997435796208487 0.070596354585526988 0 -0.0028058409801432443 0.070725893100617582 0 -0.0025874704958074621 0.069890404129547765 0 -0.0015655847016818605 0.071323779531017165 0 -0.0025874704958074621 0.069890404129547765 0 -0.0017159587711842305 0.069749028343799119 0 -0.0014900177406803449 0.0710076423442072 0 -0.001930278587344629 0.070676660153683929 0 -0.0015655847016818605 0.071323779531017165 0 -0.001255357384058021 0.070809818567627122 0 -0.0017159587711842305 0.069749028343799119 0 -0.0035811230133505813 0.071242814729672477 0 -0.0036504260917177862 0.070110166957989425 0 -0.0028058409801432443 0.070725893100617582 0 -0.0047290078019443594 0.070716630841493378 0 -0.0035811230133505813 0.071242814729672477 0 -0.0036504260917177862 0.070110166957989425 0 -0.0036504260917177862 0.070110166957989425 0 -0.0028058409801432443 0.070725893100617582 0 -0.0025874704958074621 0.069890404129547765 0 -0.0036504260917177862 0.070110166957989425 0 -0.0025874704958074621 0.069890404129547765 0 -0.0037134051744272161 0.068850697149871506 0 -0.0046834941754828894 0.069124452390640953 0 -0.0036504260917177862 0.070110166957989425 0 -0.0037134051744272161 0.068850697149871506 0 -0.0037134051744272161 0.068850697149871506 0 -0.0029087385246627951 0.068578407137882033 0 -0.003392849729834258 0.067192168986474038 0 -0.0025874704958074621 0.069890404129547765 0 -0.0037134051744272161 0.068850697149871506 0 -0.0029087385246627951 0.068578407137882033 0 -0.0041775958845633263 0.06704586492534452 0 -0.0034187093787344225 0.06745851988414403 0 -0.0029087385246627951 0.068578407137882033 0 -0.003392849729834258 0.067192168986474038 0 -0.0022238916454313 0.068013454140460713 0 -0.0037134051744272161 0.068850697149871506 0 -0.003392849729834258 0.067192168986474038 0 -0.0048108313178110785 0.067783763130222427 0 -0.002101652558308843 0.068336628487781936 0 -0.0020187825959471131 0.068252996602447838 0 -0.0020263554660505793 0.068255714927890329 0 -0.002101652558308843 0.068336628487781936 0 -0.0022238916454313 0.068013454140460713 0 -0.0020263554660505793 0.068255714927890329 0 -0.0023248135148747169 0.069498799774118089 0 -0.0018375303448439064 0.069979787399817348 0 -0.001255357384058021 0.070809818567627122 0 -0.0017159587711842305 0.069749028343799119 0 -0.00092342721099547662 0.070862582462843479 0 -0.0029087385246627951 0.068578407137882033 0 -0.002101652558308843 0.068336628487781936 0 -0.0022238916454313 0.068013454140460713 0 -0.0027103088113848805 0.0692935165662453 0 -0.0023248135148747169 0.069498799774118089 0 -0.0025874704958074621 0.069890404129547765 0 -0.0029087385246627951 0.068578407137882033 0 -0.0017159587711842305 0.069749028343799119 0 -0.0045549184948116116 0.067114422545305558 0 -0.0037976647212838925 0.06697914703715957 0 -0.0042078242291616738 0.066497756700904576 0 -0.0034187093787344225 0.06745851988414403 0 -0.0027315828120676286 0.067810412059642694 0 -0.0045549184948116116 0.067114422545305558 0 -0.0037976647212838925 0.06697914703715957 0 -0.0033552305714090853 0.067753144822642358 0 -0.0037976647212838925 0.06697914703715957 0 -0.0035425388442596748 0.066360196409978062 0 -0.0042078242291616738 0.066497756700904576 0 -0.0045549184948116116 0.067114422545305558 0 -0.0042078242291616738 0.066497756700904576 0 -0.0048464106488773648 0.066322129392455229 0 -0.0042078242291616738 0.066497756700904576 0 -0.0048464106488773648 0.066322129392455229 0 -0.0040062949297485738 0.065235760130909995 0 -0.0040192445932222438 0.066744902253212973 0 -0.0037792100724836405 0.066954463307372633 0 -0.0048464106488773648 0.066322129392455229 0 -0.0049821623138869113 0.066240645588556399 0 -0.0050796040679349022 0.066199877515214209 0 -0.0032035626714199206 0.065685644300718118 0 -0.0032182400753599802 0.065112316184979049 0 -0.0040062949297485738 0.065235760130909995 0 -0.0035425388442596748 0.066360196409978062 0 -0.0042078242291616738 0.066497756700904576 0 -0.0040062949297485738 0.065235760130909995 0 -0.0035425388442596748 0.066360196409978062 0 -0.0032035626714199206 0.065685644300718118 0 -0.0040062949297485738 0.065235760130909995 0 -0.0051037203566967615 0.066523159638633284 0 -0.0050426315297810876 0.066299158743590519 0 -0.0050419078846126696 0.066373416316977171 0 -0.0041775958845633263 0.06704586492534452 0 -0.0045983284416605446 0.066829207229931645 0 -0.0051037203566967615 0.066523159638633284 0 -0.0048464106488773648 0.066322129392455229 0 -0.0050426315297810876 0.066299158743590519 0 -0.0051037203566967615 0.066523159638633284 0 -0.0045549184948116116 0.067114422545305558 0 -0.0048464106488773648 0.066322129392455229 0 -0.0050426315297810876 0.066299158743590519 0 -0.005085488248966109 0.066182003284238358 0 -0.0050796040679349022 0.066199877515214209 0 -0.0048464106488773648 0.066322129392455229 0 -0.0050426315297810876 0.066299158743590519 0 -0.0050796040679349022 0.066199877515214209 0 -0.0050426315297810876 0.066299158743590519 0 -0.0050419078846126696 0.066373416316977171 0 -0.005085488248966109 0.066182003284238358 0 -0.0050419078846126696 0.066373416316977171 0 -0.0054595879480219024 0.066094532644716361 0 -0.0051846460580274572 0.066051194401562305 0 -0.0050419078846126696 0.066373416316977171 0 -0.0051846460580274572 0.066051194401562305 0 -0.005085488248966109 0.066182003284238358 0 -0.0050419078846126696 0.066373416316977171 0 -0.0058911502855448512 0.066256034856444754 0 -0.0058652753326433917 0.067000002655858051 0 -0.0050419078846126696 0.066373416316977171 0 -0.0054595879480219024 0.066094532644716361 0 -0.0058911502855448512 0.066256034856444754 0 -0.0057145444219628104 0.066046341322559696 0 -0.0054595879480219024 0.066094532644716361 0 -0.0058911502855448512 0.066256034856444754 0 -0.0057145444219628104 0.066046341322559696 0 -0.0054595879480219024 0.066094532644716361 0 -0.0053943830140839467 0.065942450735192629 0 -0.00237845983266369 0.059200764259362916 0 -0.0018924179336038403 0.059665795555716244 0 0.0021907676518369708 0.053994540846584609 0 -0.0057145444219628104 0.066046341322559696 0 -0.0061053671757543802 0.065990925923951879 0 -0.0053943830140839467 0.065942450735192629 0 -0.0040300725080623717 0.062524309796167771 0 -0.0020942692659939683 0.059887125400652615 0 -0.0050996383626817059 0.056521570033694027 0 -0.0075495534761292789 0.054307777256882281 0 -0.00237845983266369 0.059200764259362916 0 -0.0074397903509902993 0.055006595276837891 0 -0.0079686802973950484 0.060261929361332234 0 -0.00237845983266369 0.059200764259362916 0 -0.0070268237966129524 0.065530279144224449 0 -0.0079686802973950484 0.060261929361332234 0 -0.00237845983266369 0.059200764259362916 0 -0.0018924179336038403 0.059665795555716244 0 -0.0070268237966129524 0.065530279144224449 0 -0.0040300725080623717 0.062524309796167771 0 -0.0052213835858453189 0.06401882862299399 0 -0.0061053671757543802 0.065990925923951879 0 -0.0058911502855448512 0.066256034856444754 0 -0.0070268237966129524 0.065530279144224449 0 -0.0057145444219628104 0.066046341322559696 0 -0.0061053671757543802 0.065990925923951879 0 -0.0058911502855448512 0.066256034856444754 0 -0.0058911502855448512 0.066256034856444754 0 -0.0070268237966129524 0.065530279144224449 0 -0.0058652753326433917 0.067000002655858051 0 -0.0070268237966129524 0.065530279144224449 0 -0.0068561682308442692 0.067514332237762403 0 -0.0058652753326433917 0.067000002655858051 0 -0.0070268237966129524 0.065530279144224449 0 -0.0068561682308442692 0.067514332237762403 0 -0.0088413101603432506 0.067680227944873647 0 -0.0075391838937177331 0.069171281444399407 0 -0.0068561682308442692 0.067514332237762403 0 -0.0088413101603432506 0.067680227944873647 0 -0.0075391838937177331 0.069171281444399407 0 -0.0068561682308442692 0.067514332237762403 0 -0.0058378140892650175 0.068485094403293853 0 -0.0068561682308442692 0.067514332237762403 0 -0.0058378140892650175 0.068485094403293853 0 -0.0058652753326433917 0.067000002655858051 0 -0.0058378140892650175 0.068485094403293853 0 -0.0048108313178110785 0.067783763130222427 0 -0.0058652753326433917 0.067000002655858051 0 -0.0046834941754828894 0.069124452390640953 0 -0.0037134051744272161 0.068850697149871506 0 -0.0048108313178110785 0.067783763130222427 0 -0.0046834941754828894 0.069124452390640953 0 -0.0058378140892650175 0.068485094403293853 0 -0.0048108313178110785 0.067783763130222427 0 -0.0050419078846126696 0.066373416316977171 0 -0.0048108313178110785 0.067783763130222427 0 -0.0058652753326433917 0.067000002655858051 0 -0.003392849729834258 0.067192168986474038 0 -0.0050419078846126696 0.066373416316977171 0 -0.0048108313178110785 0.067783763130222427 0 -1.2471539515314662e-06 0.074998067307474506 0 -2.1504477300849306e-08 0.074997236631914918 0 -0.00040506869640664797 0.074572818829494139 0 -6.5207837237286567e-07 0.074998170542517104 0 -0.00046085321023413501 0.074153259887141415 0 1.0626743859236322e-08 0.07500019247260481 0 -0.00011521427661300781 0.075136945610308703 0 -3.6494390586218614e-05 0.07503020054437104 0 -0.00052561317160765449 0.073910381490845833 0 -0.00040506869640664797 0.074572818829494139 0 -0.0010827185638378528 0.073477945975309739 0 -2.1504477300849306e-08 0.074997236631914918 0 -0.00052561317160765449 0.073910381490845833 0 -0.00040506869640664797 0.074572818829494139 0 -0.00060021148777797525 0.074498913209667492 0 -1.2471539515314662e-06 0.074998067307474506 0 -0.00040506869640664797 0.074572818829494139 0 -0.00060021148777797525 0.074498913209667492 0 -0.00040506869640664797 0.074572818829494139 0 -0.00082657230514598555 0.074562289671220916 0 -0.00040506869640664797 0.074572818829494139 0 -0.00082657230514598555 0.074562289671220916 0 -0.0010827185638378528 0.073477945975309739 0 -0.0012409023069637503 0.072953669927448936 0 -0.0012060063119930312 0.07305686362449626 0 -0.00081700272984135981 0.074080290664848586 0 -0.00060021148777797525 0.074498913209667492 0 -0.00082657230514598555 0.074562289671220916 0 -0.0017124904073142859 0.071071893168201367 0 -0.0014758524032143373 0.071398934182864013 0 -0.0016242760883188451 0.071981574436637955 0 -0.001320077372345035 0.072698749929980239 0 -0.0012409023069637503 0.072953669927448936 0 -0.0014758524032143373 0.071398934182864013 0 -0.0016242760883188451 0.071981574436637955 0 -0.0011743507075143835 0.071715600024216217 0 -0.0016242760883188451 0.071981574436637955 0 -0.0011061533440445224 0.072715550812038787 0 -0.001019803662467729 0.072130659044513448 0 -0.0016242760883188451 0.071981574436637955 0 -0.001019803662467729 0.072130659044513448 0 -0.0011743507075143835 0.071715600024216217 0 -0.0010212979698533114 0.07263893787304683 0 -0.0011061533440445224 0.072715550812038787 0 -0.00095915763516777057 0.072408990375007351 0 -0.0010212979698533114 0.07263893787304683 0 -0.0010680799092497582 0.072849688267132881 0 -0.00097230770090465924 0.072572442110979671 0 -0.0010212979698533114 0.07263893787304683 0 -0.0011061533440445224 0.072715550812038787 0 -0.0010680799092497582 0.072849688267132881 0 -0.0011061533440445224 0.072715550812038787 0 -0.0010680799092497582 0.072849688267132881 0 -0.0011104517599446232 0.073090737195963915 0 -0.0011061533440445224 0.072715550812038787 0 -0.0010827185638378528 0.073477945975309739 0 -0.0011104517599446232 0.073090737195963915 0 -0.0016242760883188451 0.071981574436637955 0 -0.0011061533440445224 0.072715550812038787 0 -0.0010827185638378528 0.073477945975309739 0 -0.00052561317160765449 0.073910381490845833 0 -0.0010827185638378528 0.073477945975309739 0 -0.0011169731830465682 0.073106346083338339 0 -0.00046085321023413501 0.074153259887141415 0 -0.000674726348174828 0.073188872188104326 0 -0.00011521427661300781 0.075136945610308703 0 -0.00033100040969568067 0.075157094247886122 0 -0.0003846902017003631 0.07520087783032052 0 -0.0010827185638378528 0.073477945975309739 0 -0.0011169731830465682 0.073106346083338339 0 -0.0011104517599446232 0.073090737195963915 0 -0.00033100040969568067 0.075157094247886122 0 -0.0003846902017003631 0.07520087783032052 0 -0.00038390510262027798 0.075145253361669467 0 -0.0003846902017003631 0.07520087783032052 0 -0.00038390510262027798 0.075145253361669467 0 -0.00047137817792373006 0.075156918668215597 0 -0.0011169731830465682 0.073106346083338339 0 -0.0010582291533291638 0.072849755815345404 0 -0.00097304996138062488 0.072605609945487565 0 -0.000674726348174828 0.073188872188104326 0 -0.00067077127570356894 0.071850766554549514 0 -0.0003846902017003631 0.07520087783032052 0 -0.00047137817792373006 0.075156918668215597 0 -0.00065398640308515874 0.075193470248839392 0 -0.00099750346986345289 0.072670754822845698 0 -0.0010582291533291638 0.072849755815345404 0 -0.00097619110960459185 0.07262071273262645 0 -0.0010582291533291638 0.072849755815345404 0 -0.00097619110960459185 0.07262071273262645 0 -0.00097304996138062488 0.072605609945487565 0 -0.00099750346986345289 0.072670754822845698 0 -0.0010223238730251159 0.072726604170158721 0 -0.0010582291533291638 0.072849755815345404 0 -0.0010223238730251159 0.072726604170158721 0 -0.0010680799092497582 0.072849688267132881 0 -0.0010582291533291638 0.072849755815345404 0 -0.0010223238730251159 0.072726604170158721 0 -0.0010680799092497582 0.072849688267132881 0 -0.00097230770090465924 0.072572442110979671 0 -0.00099750346986345289 0.072670754822845698 0 -0.0010223238730251159 0.072726604170158721 0 -0.00096054804363639309 0.072575384542758387 0 -0.0010680799092497582 0.072849688267132881 0 -0.0011104517599446232 0.073090737195963915 0 -0.0010582291533291638 0.072849755815345404 0 -0.0011169731830465682 0.073106346083338339 0 -0.0011104517599446232 0.073090737195963915 0 -0.0010582291533291638 0.072849755815345404 0 -0.00094162561183703316 0.072581295050706693 0 -0.00083377379213267434 0.072239597115172846 0 -0.00071369982254544076 0.071821489721140913 0 -0.00067077127570356894 0.071850766554549514 0 -0.0014138622866766053 0.070705663951000086 0 -0.00086667667111079327 0.07233974053001814 0 -0.00083377379213267434 0.072239597115172846 0 -0.00080574620889559872 0.07216720922398219 0 -0.00086667667111079327 0.07233974053001814 0 -0.00080574620889559872 0.07216720922398219 0 -0.0008742696312894375 0.072345751390569202 0 -0.00086667667111079327 0.07233974053001814 0 -0.00091702701145353696 0.072465109505558789 0 -0.0008742696312894375 0.072345751390569202 0 -0.00097230770090465924 0.072572442110979671 0 -0.00091702701145353696 0.072465109505558789 0 -0.0008742696312894375 0.072345751390569202 0 -0.0010223238730251159 0.072726604170158721 0 -0.00097230770090465924 0.072572442110979671 0 -0.00096054804363639309 0.072575384542758387 0 -0.00097230770090465924 0.072572442110979671 0 -0.00096054804363639309 0.072575384542758387 0 -0.00091702701145353696 0.072465109505558789 0 -0.00096054804363639309 0.072575384542758387 0 -0.00091702701145353696 0.072465109505558789 0 -0.00091666130336577742 0.072491924541993241 0 -0.00086667667111079327 0.07233974053001814 0 -0.00091702701145353696 0.072465109505558789 0 -0.00091666130336577742 0.072491924541993241 0 -0.00091666130336577742 0.072491924541993241 0 -0.00094162561183703316 0.072581295050706693 0 -0.00083377379213267434 0.072239597115172846 0 -0.00099750346986345289 0.072670754822845698 0 -0.00096054804363639309 0.072575384542758387 0 -0.00095778478719930156 0.072580798030951174 0 -0.00099750346986345289 0.072670754822845698 0 -0.00095778478719930156 0.072580798030951174 0 -0.00097619110960459185 0.07262071273262645 0 -0.00096054804363639309 0.072575384542758387 0 -0.00091666130336577742 0.072491924541993241 0 -0.00095778478719930156 0.072580798030951174 0 -0.00091666130336577742 0.072491924541993241 0 -0.00094559053041900327 0.072568523502988924 0 -0.00094162561183703316 0.072581295050706693 0 -0.00095778478719930156 0.072580798030951174 0 -0.00094559053041900327 0.072568523502988924 0 -0.00097619110960459185 0.07262071273262645 0 -0.00091666130336577742 0.072491924541993241 0 -0.00095778478719930156 0.072580798030951174 0 -0.00094559053041900327 0.072568523502988924 0 -0.00067037240998251194 0.071853637032257875 0 -0.00067077127570356894 0.071850766554549514 0 -0.00094559053041900327 0.072568523502988924 0 -0.00097619110960459185 0.07262071273262645 0 -0.00094162561183703316 0.072581295050706693 0 -0.00086667667111079327 0.07233974053001814 0 -0.00091666130336577742 0.072491924541993241 0 -0.00083377379213267434 0.072239597115172846 0 -0.00083377379213267434 0.072239597115172846 0 -0.00077248091828552008 0.07203262635189335 0 -0.00071369982254544076 0.071821489721140913 0 -0.00083377379213267434 0.072239597115172846 0 -0.00077248091828552008 0.07203262635189335 0 -0.00080574620889559872 0.07216720922398219 0 -0.00074933438007039968 0.071922677509197133 0 -0.00075306024324273515 0.071726254406914783 0 -0.00071369982254544076 0.071821489721140913 0 -0.00077248091828552008 0.07203262635189335 0 -0.00074933438007039968 0.071922677509197133 0 -0.00071369982254544076 0.071821489721140913 0 -0.00074933438007039968 0.071922677509197133 0 -0.00076857315538018511 0.07206026289379952 0 -0.0007626076710645595 0.071802124389330618 0 -0.00080574620889559872 0.07216720922398219 0 -0.00076857315538018511 0.07206026289379952 0 -0.0008742696312894375 0.072345751390569202 0 -0.00077248091828552008 0.07203262635189335 0 -0.00074933438007039968 0.071922677509197133 0 -0.00080574620889559872 0.07216720922398219 0 -0.00074933438007039968 0.071922677509197133 0 -0.00080574620889559872 0.07216720922398219 0 -0.00076857315538018511 0.07206026289379952 0 -0.00076857315538018511 0.07206026289379952 0 -0.00076069120343599339 0.072081810336084601 0 -0.0008742696312894375 0.072345751390569202 0 -0.00076857315538018511 0.07206026289379952 0 -0.00076069120343599339 0.072081810336084601 0 -0.0007626076710645595 0.071802124389330618 0 -0.00076069120343599339 0.072081810336084601 0 -0.0008742696312894375 0.072345751390569202 0 -0.00095915763516777057 0.072408990375007351 0 -0.00076069120343599339 0.072081810336084601 0 -0.00095915763516777057 0.072408990375007351 0 -0.001019803662467729 0.072130659044513448 0 -0.0010212979698533114 0.07263893787304683 0 -0.00097230770090465924 0.072572442110979671 0 -0.00095915763516777057 0.072408990375007351 0 -0.00097230770090465924 0.072572442110979671 0 -0.0008742696312894375 0.072345751390569202 0 -0.00095915763516777057 0.072408990375007351 0 -0.0011061533440445224 0.072715550812038787 0 -0.00095915763516777057 0.072408990375007351 0 -0.001019803662467729 0.072130659044513448 0 -0.001019803662467729 0.072130659044513448 0 -0.0011743507075143835 0.071715600024216217 0 -0.00075348921936740671 0.071929483740359706 0 -0.0011440842604040651 0.071366938080932682 0 -0.0014758524032143373 0.071398934182864013 0 -0.0011743507075143835 0.071715600024216217 0 -0.0011440842604040651 0.071366938080932682 0 -0.0011743507075143835 0.071715600024216217 0 -0.00075348921936740671 0.071929483740359706 0 -0.00076069120343599339 0.072081810336084601 0 -0.001019803662467729 0.072130659044513448 0 -0.00075348921936740671 0.071929483740359706 0 -0.00075348921936740671 0.071929483740359706 0 -0.00042920961763190065 0.071829759211716818 0 -0.00056585121995073083 0.071436404541977319 0 -0.00076069120343599339 0.072081810336084601 0 -0.00075348921936740671 0.071929483740359706 0 -0.00086086095608807792 0.071931118415138565 0 -0.00085236999845027391 0.071567260176327238 0 -0.00098515805268038032 0.071424169962570894 0 -0.0006041367080714962 0.071212632684815119 0 -0.00075348921936740671 0.071929483740359706 0 -0.00042920961763190065 0.071829759211716818 0 -0.00043300818823446754 0.071773095976272752 0 -0.00045334461428402469 0.071811774514718568 0 -0.0013877861196261421 0.072455706446330495 0 -0.0011918383334809726 0.071588518083325434 0 -0.00042920961763190065 0.071829759211716818 0 -0.0011918383334809726 0.071588518083325434 0 -0.00042920961763190065 0.071829759211716818 0 -0.00056585121995073083 0.071436404541977319 0 -0.0015655847016818605 0.071323779531017165 0 -0.00086086095608807792 0.071931118415138565 0 -0.00096479228712839974 0.071333848027639771 0 -0.0014900177406803449 0.0710076423442072 0 -0.00098515805268038032 0.071424169962570894 0 -0.00076069120343599339 0.072081810336084601 0 -0.00086086095608807792 0.071931118415138565 0 -0.0007626076710645595 0.071802124389330618 0 -0.00086086095608807792 0.071931118415138565 0 -0.0007626076710645595 0.071802124389330618 0 -0.00096479228712839974 0.071333848027639771 0 -0.0007626076710645595 0.071802124389330618 0 -0.00080738966821439012 0.07144697323735319 0 -0.00096479228712839974 0.071333848027639771 0 -0.00074933438007039968 0.071922677509197133 0 -0.0007626076710645595 0.071802124389330618 0 -0.00075306024324273515 0.071726254406914783 0 -0.0007626076710645595 0.071802124389330618 0 -0.00075306024324273515 0.071726254406914783 0 -0.00080738966821439012 0.07144697323735319 0 -0.00075306024324273515 0.071726254406914783 0 -0.00080738966821439012 0.07144697323735319 0 -0.00071369982254544076 0.071821489721140913 0 -0.0015655847016818605 0.071323779531017165 0 -0.001255357384058021 0.070809818567627122 0 -0.00096479228712839974 0.071333848027639771 0 -0.001255357384058021 0.070809818567627122 0 -0.00096479228712839974 0.071333848027639771 0 -0.00092342721099547662 0.070862582462843479 0 -0.00080738966821439012 0.07144697323735319 0 -0.00096479228712839974 0.071333848027639771 0 -0.00092342721099547662 0.070862582462843479 0 -0.0027315828120676286 0.067810412059642694 0 -0.0023640208538625875 0.067969953457667001 0 -0.0020187825959471131 0.068252996602447838 0 -0.0020263554660505793 0.068255714927890329 0 -0.0019192512974076333 0.068203273047477697 0 -0.0033552305714090853 0.067753144822642358 0 -0.0019192512974076333 0.068203273047477697 0 -0.0025361025591681746 0.067529781844488088 0 -0.00080738966821439012 0.07144697323735319 0 -0.00092342721099547662 0.070862582462843479 0 -0.00071369982254544076 0.071821489721140913 0 -0.0018375303448439064 0.069979787399817348 0 -0.0014138622866766053 0.070705663951000086 0 -0.0020187825959471131 0.068252996602447838 0 -0.0019192512974076333 0.068203273047477697 0 -0.0017945632292099064 0.068234204232007087 0 -0.0019192512974076333 0.068203273047477697 0 -0.0025361025591681746 0.067529781844488088 0 -0.0019359686811312932 0.067618711872121318 0 -0.0019192512974076333 0.068203273047477697 0 -0.0019359686811312932 0.067618711872121318 0 -0.0018121196526835867 0.068098173104749263 0 -0.0025361025591681746 0.067529781844488088 0 -0.0019359686811312932 0.067618711872121318 0 -0.0024014241150537292 0.067038170126744193 0 -0.0019359686811312932 0.067618711872121318 0 -0.0024014241150537292 0.067038170126744193 0 -0.0017783819723502599 0.06637857149494443 0 -0.0025361025591681746 0.067529781844488088 0 -0.0024014241150537292 0.067038170126744193 0 -0.0030554212451076724 0.066986685047187619 0 -0.0033552305714090853 0.067753144822642358 0 -0.0025361025591681746 0.067529781844488088 0 -0.0030554212451076724 0.066986685047187619 0 -0.0037976647212838925 0.06697914703715957 0 -0.0033552305714090853 0.067753144822642358 0 -0.0030554212451076724 0.066986685047187619 0 -0.0037976647212838925 0.06697914703715957 0 -0.0035425388442596748 0.066360196409978062 0 -0.0030554212451076724 0.066986685047187619 0 -0.0035425388442596748 0.066360196409978062 0 -0.0030554212451076724 0.066986685047187619 0 -0.0027079048455124709 0.066332574214173601 0 -0.0035425388442596748 0.066360196409978062 0 -0.0027079048455124709 0.066332574214173601 0 -0.0032035626714199206 0.065685644300718118 0 -0.0024014241150537292 0.067038170126744193 0 -0.0030554212451076724 0.066986685047187619 0 -0.0027079048455124709 0.066332574214173601 0 -0.0027079048455124709 0.066332574214173601 0 -0.0032035626714199206 0.065685644300718118 0 -0.0024807599521043549 0.065268979113995679 0 -0.0032035626714199206 0.065685644300718118 0 -0.0024807599521043549 0.065268979113995679 0 -0.0032182400753599802 0.065112316184979049 0 -0.0027079048455124709 0.066332574214173601 0 -0.0017783819723502599 0.06637857149494443 0 -0.0024807599521043549 0.065268979113995679 0 -0.0027574696038748618 0.074920429380658418 0 -0.0026627915651799387 0.073656640106536844 0 -0.0033924657430774302 0.073902971421572997 0 -0.002286483846785045 0.070691628385682465 0 -0.0031756320117545759 0.06982459995345533 0 -0.0024014241150537292 0.067038170126744193 0 -0.0027079048455124709 0.066332574214173601 0 -0.0017783819723502599 0.06637857149494443 0 -0.0027574696038748618 0.074920429380658418 0 -0.0019993049193652835 0.074168590493464484 0 -0.0026627915651799387 0.073656640106536844 0 -0.0019993049193652835 0.074168590493464484 0 -0.0015587594703632725 0.075178675592737498 0 -0.00096959970409037381 0.074456740861932449 0 -0.0027574696038748618 0.074920429380658418 0 -0.0019993049193652835 0.074168590493464484 0 -0.0015587594703632725 0.075178675592737498 0 -0.0027574696038748618 0.074920429380658418 0 -0.0015587594703632725 0.075178675592737498 0 -0.0021439884246089108 0.075903239666607461 0 -0.001621851910364162 0.07350125815354859 0 -0.0013510161514618667 0.071672483887963462 0 -0.0006946672169870267 0.074782394672230773 0 -0.00080975434617899279 0.074958705593560007 0 -0.00062476472973939812 0.074935141604371688 0 -0.00080975434617899279 0.074958705593560007 0 -0.00064670555347044333 0.075047840784489617 0 -0.00062476472973939812 0.074935141604371688 0 -0.0019359686811312932 0.067618711872121318 0 -0.0017783819723502599 0.06637857149494443 0 -0.0015739066389959266 0.06754954652375024 0 -0.002286483846785045 0.070691628385682465 0 -0.0013510161514618667 0.071672483887963462 0 -0.0017783819723502599 0.06637857149494443 0 -0.0011333486710832911 0.067505509019141333 0 -0.0015739066389959266 0.06754954652375024 0 -0.0013510161514618667 0.071672483887963462 0 -0.0010221395571064409 0.070958580953863024 0 -0.00087663972441203168 0.068379351619040588 0 -0.0016346254040798319 0.068011451002092244 0 -0.0017945632292099064 0.068234204232007087 0 -0.0011333486710832911 0.067505509019141333 0 -0.0015739066389959266 0.06754954652375024 0 -0.0016346254040798319 0.068011451002092244 0 -0.0019359686811312932 0.067618711872121318 0 -0.0015739066389959266 0.06754954652375024 0 -0.0016346254040798319 0.068011451002092244 0 -0.0019359686811312932 0.067618711872121318 0 -0.0016346254040798319 0.068011451002092244 0 -0.0018121196526835867 0.068098173104749263 0 -0.0019192512974076333 0.068203273047477697 0 -0.0018121196526835867 0.068098173104749263 0 -0.0017945632292099064 0.068234204232007087 0 -0.0016346254040798319 0.068011451002092244 0 -0.0018121196526835867 0.068098173104749263 0 -0.0017945632292099064 0.068234204232007087 0 -0.00067077127570356894 0.071850766554549514 0 -0.0013510161514618667 0.071672483887963462 0 -0.00087663972441203168 0.068379351619040588 0 -0.001329838619210624 0.067636139862709846 0 -0.0016346254040798319 0.068011451002092244 0 -0.00065398640308515874 0.075193470248839392 0 -0.00080975434617899279 0.074958705593560007 0 -0.00064670555347044333 0.075047840784489617 0 -0.00065398640308515874 0.075193470248839392 0 -0.00064670555347044333 0.075047840784489617 0 -0.00059349726921686854 0.075105091407191238 0 -0.00046575759134483672 0.075068149683192809 0 -0.00055525955822051181 0.075044549884395725 0 -0.00052279840805128936 0.075122369204569994 0 -0.00046575759134483672 0.075068149683192809 0 -0.00039487471093376685 0.075062213234302358 0 -0.00047095338552674071 0.074998837789081507 0 -0.00046575759134483672 0.075068149683192809 0 -0.00055525955822051181 0.075044549884395725 0 -0.00047095338552674071 0.074998837789081507 0 -0.00064670555347044333 0.075047840784489617 0 -0.00055525955822051181 0.075044549884395725 0 -0.00062476472973939812 0.074935141604371688 0 -0.00064670555347044333 0.075047840784489617 0 -0.00055525955822051181 0.075044549884395725 0 -0.00059349726921686854 0.075105091407191238 0 -0.00065398640308515874 0.075193470248839392 0 -0.00059349726921686854 0.075105091407191238 0 -0.00052279840805128936 0.075122369204569994 0 -0.00047137817792373006 0.075156918668215597 0 -0.00065398640308515874 0.075193470248839392 0 -0.00052279840805128936 0.075122369204569994 0 -0.00055525955822051181 0.075044549884395725 0 -0.00059349726921686854 0.075105091407191238 0 -0.00052279840805128936 0.075122369204569994 0 -0.00047137817792373006 0.075156918668215597 0 -0.00052279840805128936 0.075122369204569994 0 -0.00041490420766272535 0.075115772547760834 0 -0.00046575759134483672 0.075068149683192809 0 -0.00052279840805128936 0.075122369204569994 0 -0.00041490420766272535 0.075115772547760834 0 -0.00033100040969568067 0.075157094247886122 0 -0.00038390510262027798 0.075145253361669467 0 -0.00032248951549175277 0.075087416493001755 0 -0.00038390510262027798 0.075145253361669467 0 -0.00047137817792373006 0.075156918668215597 0 -0.00041490420766272535 0.075115772547760834 0 -0.00033100040969568067 0.075157094247886122 0 -0.00032248951549175277 0.075087416493001755 0 -0.00012883358226657799 0.075034646593086021 0 -0.00038390510262027798 0.075145253361669467 0 -0.00041490420766272535 0.075115772547760834 0 -0.00032248951549175277 0.075087416493001755 0 -0.00041490420766272535 0.075115772547760834 0 -0.00032248951549175277 0.075087416493001755 0 -0.00039487471093376685 0.075062213234302358 0 -0.00046575759134483672 0.075068149683192809 0 -0.00041490420766272535 0.075115772547760834 0 -0.00039487471093376685 0.075062213234302358 0 -0.00032248951549175277 0.075087416493001755 0 -0.00039487471093376685 0.075062213234302358 0 -0.00030178744473397781 0.075015422323003719 0 -0.00039487471093376685 0.075062213234302358 0 -0.00030178744473397781 0.075015422323003719 0 -0.00047095338552674071 0.074998837789081507 0 -0.00030178744473397781 0.075015422323003719 0 -0.00049669648237647235 0.07486346364746764 0 -0.00030110095887230778 0.074787879492006451 0 -0.00030178744473397781 0.075015422323003719 0 -0.00049669648237647235 0.07486346364746764 0 -0.00047095338552674071 0.074998837789081507 0 -0.0006946672169870267 0.074782394672230773 0 -0.00049669648237647235 0.07486346364746764 0 -0.00062476472973939812 0.074935141604371688 0 -0.00049669648237647235 0.07486346364746764 0 -0.00047095338552674071 0.074998837789081507 0 -0.00062476472973939812 0.074935141604371688 0 -0.00055525955822051181 0.075044549884395725 0 -0.00047095338552674071 0.074998837789081507 0 -0.00062476472973939812 0.074935141604371688 0 -0.0006946672169870267 0.074782394672230773 0 -0.00049669648237647235 0.07486346364746764 0 -0.00063586738685535355 0.074545969567261561 0 -0.001621851910364162 0.07350125815354859 0 -0.0013184970610988246 0.073819093609991684 0 -0.00096959970409037381 0.074456740861932449 0 -0.00040945585005719366 0.073896142092684303 0 -0.0013366314970818967 0.073853135065139436 0 -0.0019993049193652835 0.074168590493464484 0 -0.00096959970409037381 0.074456740861932449 0 -0.0013366314970818967 0.073853135065139436 0 -0.0013184970610988246 0.073819093609991684 0 -0.0011132543195148724 0.073760587136679115 0 -0.00063586738685535355 0.074545969567261561 0 -0.0003247501191732043 0.07451400027132396 0 -0.00040945585005719366 0.073896142092684303 0 -0.00063586738685535355 0.074545969567261561 0 -0.0003247501191732043 0.07451400027132396 0 -0.00030110095887230778 0.074787879492006451 0 -0.00049669648237647235 0.07486346364746764 0 -0.00063586738685535355 0.074545969567261561 0 -0.00030110095887230778 0.074787879492006451 0 -0.00030110095887230778 0.074787879492006451 0 -8.0953971188555923e-05 0.074915164667580719 0 -6.4856726997581036e-05 0.074723617556362754 0 -0.0003247501191732043 0.07451400027132396 0 -0.00030110095887230778 0.074787879492006451 0 -6.4856726997581036e-05 0.074723617556362754 0 -0.0003247501191732043 0.07451400027132396 0 -6.4856726997581036e-05 0.074723617556362754 0 0.00012178475493547335 0.074088537514415048 0 -6.4856726997581036e-05 0.074723617556362754 0 7.3321525835370963e-07 0.074998818008340157 0 0.00012178475493547335 0.074088537514415048 0 7.1776959893449603e-08 0.074999048263295495 0 -0.00010153508688191926 0.074365499958383902 0 -8.0953971188555923e-05 0.074915164667580719 0 -6.4856726997581036e-05 0.074723617556362754 0 7.3321525835370963e-07 0.074998818008340157 0 -8.0953971188555923e-05 0.074915164667580719 0 7.3321525835370963e-07 0.074998818008340157 0 -3.8792904022780969e-07 0.07500036813818213 0 -8.0953971188555923e-05 0.074915164667580719 0 -3.8792904022780969e-07 0.07500036813818213 0 -0.00012883358226657799 0.075034646593086021 0 8.155446807142924e-09 0.074999944582279224 0 -7.5191021615718268e-05 0.07496377101513034 0 -3.9178026827255744e-08 0.074999976479851613 0 -1.1584993293940585e-07 0.075000012364221755 0 -0.00010045913221497421 0.075046407196076276 0 -0.00030178744473397781 0.075015422323003719 0 -8.0953971188555923e-05 0.074915164667580719 0 -0.00012883358226657799 0.075034646593086021 0 -0.00030178744473397781 0.075015422323003719 0 -0.00030110095887230778 0.074787879492006451 0 -8.0953971188555923e-05 0.074915164667580719 0 -0.00018039698635776739 0.075099410505341607 0 -0.00010045913221497421 0.075046407196076276 0 -0.00032248951549175277 0.075087416493001755 0 -0.00030178744473397781 0.075015422323003719 0 -0.00012883358226657799 0.075034646593086021 0 -0.00011521427661300781 0.075136945610308703 0 -0.00033100040969568067 0.075157094247886122 0 -7.5191021615718268e-05 0.07496377101513034 0 -0.00011521427661300781 0.075136945610308703 0 -7.5191021615718268e-05 0.07496377101513034 0 -3.6494390586218614e-05 0.07503020054437104 0 1.0626743859236322e-08 0.07500019247260481 0 -3.6494390586218614e-05 0.07503020054437104 0 -3.9178026827255744e-08 0.074999976479851613 0 -7.5191021615718268e-05 0.07496377101513034 0 -3.6494390586218614e-05 0.07503020054437104 0 -3.9178026827255744e-08 0.074999976479851613 0 -2.5141710369759244e-05 0.074984439326828314 0 4.0302631938342575e-08 0.074999878867556324 0 -3.342980064318758e-05 0.074880718671266347 0 3.1822341414446406e-07 0.074999195421939488 0 0.00012008389156160016 0.074571702129023074 0 -2.5141710369759244e-05 0.074984439326828314 0 -7.3042954240224838e-05 0.074849767410752749 0 -3.342980064318758e-05 0.074880718671266347 0 -2.2343877471122715e-05 0.074924975669614022 0 -7.7187966061611924e-05 0.074903750954090076 0 -7.3042954240224838e-05 0.074849767410752749 0 -2.2343877471122715e-05 0.074924975669614022 0 -7.7187966061611924e-05 0.074903750954090076 0 -5.6470709282056373e-05 0.074947042135882019 0 -2.8144434988310864e-05 0.074956475281536025 0 -4.6010435304537684e-05 0.074929517233029597 0 -2.2343877471122715e-05 0.074924975669614022 0 -5.6470709282056373e-05 0.074947042135882019 0 -3.2552003417876187e-05 0.07498809996297183 0 -5.6470709282056373e-05 0.074947042135882019 0 -3.2552003417876187e-05 0.07498809996297183 0 -9.4026568983730612e-05 0.0750042365128748 0 -2.2343877471122715e-05 0.074924975669614022 0 1.1222441152101391e-08 0.074999894454069752 0 -3.2552003417876187e-05 0.07498809996297183 0 -2.8144434988310864e-05 0.074956475281536025 0 -3.0568445984683827e-08 0.074999937751936405 0 -2.5141710369759244e-05 0.074984439326828314 0 4.0302631938342575e-08 0.074999878867556324 0 -2.4612698375206667e-08 0.075000073597298281 0 -1.8291917820496943e-08 0.075000044004094685 0 -2.6332913877593e-05 0.075013559603623325 0 -3.2552003417876187e-05 0.07498809996297183 0 1.1222441152101391e-08 0.074999894454069752 0 -1.8291917820496943e-08 0.075000044004094685 0 -3.2552003417876187e-05 0.07498809996297183 0 4.9297245524789627e-09 0.075000001272872194 0 -1.8291917820496943e-08 0.075000044004094685 0 -2.6332913877593e-05 0.075013559603623325 0 -2.6332913877593e-05 0.075013559603623325 0 -3.2552003417876187e-05 0.07498809996297183 0 -9.4026568983730612e-05 0.0750042365128748 0 -0.00010153508688191926 0.074365499958383902 0 -0.00021464900676320206 0.073679672992598866 0 -0.00032758852838638545 0.072876737080849824 0 -0.00040945585005719366 0.073896142092684303 0 -0.001082988898552317 0.073150938987243938 0 0.00012178475493547335 0.074088537514415048 0 -0.00032758852838638545 0.072876737080849824 0 -0.00040945585005719366 0.073896142092684303 0 -0.0003247501191732043 0.07451400027132396 0 0.00012178475493547335 0.074088537514415048 0 -0.00040945585005719366 0.073896142092684303 0 -0.00040945585005719366 0.073896142092684303 0 -0.0013366314970818967 0.073853135065139436 0 -0.001082988898552317 0.073150938987243938 0 -0.00032758852838638545 0.072876737080849824 0 -0.001082988898552317 0.073150938987243938 0 -0.0011379414625774318 0.071697685487098151 0 -0.00021464900676320206 0.073679672992598866 0 -0.00033769841233885983 0.072809663144887127 0 -5.6470709282056373e-05 0.074947042135882019 0 -9.4026568983730612e-05 0.0750042365128748 0 -0.00010733092181558795 0.074932812546778291 0 -9.4026568983730612e-05 0.0750042365128748 0 -0.00020241322401007891 0.074945181961186477 0 -0.00010733092181558795 0.074932812546778291 0 -7.7187966061611924e-05 0.074903750954090076 0 -5.6470709282056373e-05 0.074947042135882019 0 -0.00010733092181558795 0.074932812546778291 0 -7.7187966061611924e-05 0.074903750954090076 0 -0.00010733092181558795 0.074932812546778291 0 -0.00014591670754146599 0.074860905533346483 0 -7.7187966061611924e-05 0.074903750954090076 0 -0.00014591670754146599 0.074860905533346483 0 -7.3042954240224838e-05 0.074849767410752749 0 -0.00020241322401007891 0.074945181961186477 0 -0.00010733092181558795 0.074932812546778291 0 -0.00014591670754146599 0.074860905533346483 0 -0.00020241322401007891 0.074945181961186477 0 -0.00014591670754146599 0.074860905533346483 0 -0.00032499215181059824 0.07484411924212811 0 -0.0011379414625774318 0.071697685487098151 0 -0.001932035459531193 0.070715600172072457 0 -0.002228582942569507 0.071657103392526858 0 -0.00033769841233885983 0.072809663144887127 0 -0.00032565199437857345 0.071556845867292176 0 -0.001932035459531193 0.070715600172072457 0 -0.002228582942569507 0.071657103392526858 0 -0.0026049687849679002 0.070933673635753675 0 -0.0011379414625774318 0.071697685487098151 0 -0.002228582942569507 0.071657103392526858 0 -0.0019242010395122868 0.072703533993692851 0 -0.0016156076875696178 0.071884699876493235 0 -0.0020276258293746401 0.071619699234480472 0 -0.001082988898552317 0.073150938987243938 0 -0.0011379414625774318 0.071697685487098151 0 -0.0019242010395122868 0.072703533993692851 0 -0.0013366314970818967 0.073853135065139436 0 -0.001082988898552317 0.073150938987243938 0 -0.0020681876064281893 0.073059868129775357 0 -0.0019993049193652835 0.074168590493464484 0 -0.0013366314970818967 0.073853135065139436 0 -0.0020681876064281893 0.073059868129775357 0 -0.0019993049193652835 0.074168590493464484 0 -0.0020681876064281893 0.073059868129775357 0 -0.0026627915651799387 0.073656640106536844 0 -0.0020276258293746401 0.071619699234480472 0 -0.0029027037565975784 0.070826559790417465 0 -0.0020681876064281893 0.073059868129775357 0 -0.0026627915651799387 0.073656640106536844 0 -0.00301255581944407 0.072937676738965507 0 -0.002228582942569507 0.071657103392526858 0 -0.0019242010395122868 0.072703533993692851 0 -0.0026906528922289244 0.072377707049932988 0 -0.00301255581944407 0.072937676738965507 0 -0.0035316994687003595 0.073217499303786557 0 -0.004019031936380449 0.072874982048497933 0 -0.0026906528922289244 0.072377707049932988 0 -0.0036998561655659282 0.072289499772818858 0 -0.0029846939888914562 0.071448807288004013 0 -0.0029027037565975784 0.070826559790417465 0 -0.0041032540369954984 0.069273274356634537 0 -0.0026627915651799387 0.073656640106536844 0 -0.00301255581944407 0.072937676738965507 0 -0.0035316994687003595 0.073217499303786557 0 -0.0026627915651799387 0.073656640106536844 0 -0.0035316994687003595 0.073217499303786557 0 -0.0033924657430774302 0.073902971421572997 0 -0.0024807599521043549 0.065268979113995679 0 -0.0032182400753599802 0.065112316184979049 0 -0.003156533588390222 0.064191966216665994 0 -0.0035316994687003595 0.073217499303786557 0 -0.0033924657430774302 0.073902971421572997 0 -0.004019031936380449 0.072874982048497933 0 -0.0031756320117545759 0.06982459995345533 0 -0.0041032540369954984 0.069273274356634537 0 -0.0032182400753599802 0.065112316184979049 0 -0.003156533588390222 0.064191966216665994 0 -0.0040062949297485738 0.065235760130909995 0 -0.004946254009243499 0.066173306579094537 0 -0.0049482941509055725 0.066167998788986188 0 -0.0049878081276139765 0.06619296401072515 0 -0.0036536039304913156 0.072579878349702615 0 -0.003734693247325544 0.072484029168733657 0 -0.0036549108679476551 0.071948812110475033 0 -0.0041032540369954984 0.069273274356634537 0 -0.0043423305390712687 0.068997479364285394 0 -0.003734693247325544 0.072484029168733657 0 -0.0036549108679476551 0.071948812110475033 0 -0.0049516306308312929 0.070853013632564688 0 -0.0041032540369954984 0.069273274356634537 0 -0.0042670319738805371 0.070089060840288084 0 -0.0036536039304913156 0.072579878349702615 0 -0.0036549108679476551 0.071948812110475033 0 -0.0029846939888914562 0.071448807288004013 0 -0.0036361811142721786 0.071290116434262876 0 -0.0034758743434351574 0.070751454591551979 0 -0.0049516306308312929 0.070853013632564688 0 -0.0036549108679476551 0.071948812110475033 0 -0.0036361811142721786 0.071290116434262876 0 -0.0049516306308312929 0.070853013632564688 0 -0.0029846939888914562 0.071448807288004013 0 -0.0030476789819645269 0.070893028756564488 0 -0.0034758743434351574 0.070751454591551979 0 -0.0036361811142721786 0.071290116434262876 0 -0.0029846939888914562 0.071448807288004013 0 -0.0034758743434351574 0.070751454591551979 0 -0.0036549108679476551 0.071948812110475033 0 -0.0036361811142721786 0.071290116434262876 0 -0.0029846939888914562 0.071448807288004013 0 -0.002228582942569507 0.071657103392526858 0 -0.0026906528922289244 0.072377707049932988 0 -0.0029846939888914562 0.071448807288004013 0 -0.002228582942569507 0.071657103392526858 0 -0.0029846939888914562 0.071448807288004013 0 -0.0026049687849679002 0.070933673635753675 0 -0.0029846939888914562 0.071448807288004013 0 -0.0030476789819645269 0.070893028756564488 0 -0.0026049687849679002 0.070933673635753675 0 -0.0030476789819645269 0.070893028756564488 0 -0.0026049687849679002 0.070933673635753675 0 -0.0030901446675684081 0.070542309033529857 0 -0.0018365019166078562 0.070288182247577033 0 -0.0013876332802680578 0.069894466183848467 0 -0.0034758743434351574 0.070751454591551979 0 -0.0020885057352518529 0.068816081678063953 0 -0.0044429092355029219 0.068793474097871218 0 -0.0030476789819645269 0.070893028756564488 0 -0.0034758743434351574 0.070751454591551979 0 -0.0030901446675684081 0.070542309033529857 0 -0.0039603844691165867 0.067601884695143527 0 -0.0028746973001207883 0.066976453492745558 0 -0.0048205275236582815 0.066753282528290228 0 -0.0039603844691165867 0.067601884695143527 0 -0.0020885057352518529 0.068816081678063953 0 -0.0028746973001207883 0.066976453492745558 0 -0.0039603844691165867 0.067601884695143527 0 -0.0020885057352518529 0.068816081678063953 0 -0.0044429092355029219 0.068793474097871218 0 -0.0026049687849679002 0.070933673635753675 0 -0.0030901446675684081 0.070542309033529857 0 -0.0026984542941295535 0.069982289515081078 0 -0.0020885057352518529 0.068816081678063953 0 -0.00089103962676178575 0.067097533386306141 0 -0.0028746973001207883 0.066976453492745558 0 -0.0013876332802680578 0.069894466183848467 0 -0.00029293934917583672 0.069115101747381974 0 -0.00029293934917583672 0.069115101747381974 0 -0.00020791740860327473 0.062634922436169443 0 0.0012666461500386514 0.065894109688031277 0 -0.00049836044130484433 0.064258513618442731 0 0.0010831368812723292 0.06425344273414009 0 -0.0028746973001207883 0.066976453492745558 0 -0.0031831523828910065 0.064969332863999543 0 -0.0048205275236582815 0.066753282528290228 0 -0.00089103962676178575 0.067097533386306141 0 -0.0028746973001207883 0.066976453492745558 0 -0.0031831523828910065 0.064969332863999543 0 -0.00049836044130484433 0.064258513618442731 0 -0.00085548146633914379 0.062833339019167836 0 0.00057081895000114465 0.062749078236660316 0 -0.0014990123575830362 0.061546511409336507 0 -0.00085548146633914379 0.062833339019167836 0 0.00057081895000114465 0.062749078236660316 0 0.00019463836711961665 0.058982982947363802 0 0.00083553085386120854 0.066002607161764287 0 -0.00023505687832951766 0.074763540347643501 0 -0.00022210714354742748 0.074787742608631108 0 -0.00021944494535549124 0.074805570251506331 0 -0.00020879952219363584 0.074803791684786639 0 -0.00021944494535549124 0.074805570251506331 0 -0.00019771691342918718 0.074825238028924157 0 -0.00022210714354742748 0.074787742608631108 0 -0.00020879952219363584 0.074803791684786639 0 -0.00021944494535549124 0.074805570251506331 0 0.00057081895000114465 0.062749078236660316 0 0.0010831368812723292 0.06425344273414009 0 0.0026298986211926198 0.063943808087670667 0 -0.00049836044130484433 0.064258513618442731 0 0.00057081895000114465 0.062749078236660316 0 0.0010831368812723292 0.06425344273414009 0 0.00083553085386120854 0.066002607161764287 0 -0.00031191032717834078 0.06996400751024956 0 -0.00021944494535549124 0.074805570251506331 0 -0.00019198122571367055 0.074839777995819715 0 -0.00019771691342918718 0.074825238028924157 0 -0.00019198122571367055 0.074839777995819715 0 -0.00019771691342918718 0.074825238028924157 0 -0.00017481058901166145 0.074849132590746575 0 -0.00018336561880684474 0.074798001303714987 0 -0.00019771691342918718 0.074825238028924157 0 -0.00017481058901166145 0.074849132590746575 0 -0.00031191032717834078 0.06996400751024956 0 0.00034797854802530421 0.072730696723462274 0 -0.00021690190819553384 0.074909292318182899 0 -0.00013125377616467752 0.074965120341350056 0 -0.00012971987877699492 0.074907063192537968 0 -0.00021690190819553384 0.074909292318182899 0 -0.00017481058901166145 0.074849132590746575 0 -0.00012971987877699492 0.074907063192537968 0 -0.00031191032717834078 0.06996400751024956 0 -0.0008662082743578274 0.071321573108031555 0 -0.00035534595512117396 0.074581056172596985 0 -0.00032618717968756916 0.074713274708891067 0 -0.00022657219645864243 0.074671153320949174 0 -0.00032618717968756916 0.074713274708891067 0 -0.00022703531447009579 0.074771210380832065 0 -0.00022657219645864243 0.074671153320949174 0 -0.00029293934917583672 0.069115101747381974 0 -0.00031191032717834078 0.06996400751024956 0 0.0012666461500386514 0.065894109688031277 0 0.0010831368812723292 0.06425344273414009 0 0.0026298986211926198 0.063943808087670667 0 -0.00045480388355849567 0.074722366315534708 0 -0.00035534595512117396 0.074581056172596985 0 -0.00032618717968756916 0.074713274708891067 0 -0.001932035459531193 0.070715600172072457 0 -0.0026049687849679002 0.070933673635753675 0 -0.0026984542941295535 0.069982289515081078 0 -0.00032565199437857345 0.071556845867292176 0 -0.00029293934917583672 0.069115101747381974 0 -0.00032499215181059824 0.07484411924212811 0 -0.00045480388355849567 0.074722366315534708 0 -0.00032618717968756916 0.074713274708891067 0 -0.00032499215181059824 0.07484411924212811 0 -0.00032618717968756916 0.074713274708891067 0 -0.00022703531447009579 0.074771210380832065 0 -0.00014591670754146599 0.074860905533346483 0 -0.00032499215181059824 0.07484411924212811 0 -0.00022703531447009579 0.074771210380832065 0 -0.00014591670754146599 0.074860905533346483 0 -0.00022703531447009579 0.074771210380832065 0 -0.00011417677919595075 0.074770218371631766 0 -0.00014591670754146599 0.074860905533346483 0 -0.00011417677919595075 0.074770218371631766 0 -7.3042954240224838e-05 0.074849767410752749 0 -6.0245335520799475e-05 0.075001550752737484 0 -7.3784590426272486e-05 0.074936337425442909 0 -1.9788081757103367e-05 0.07497825865659144 0 0.00026803472881252195 0.073942634384236136 0 0.00034797854802530421 0.072730696723462274 0 -0.00022703531447009579 0.074771210380832065 0 -0.00011417677919595075 0.074770218371631766 0 -0.00022657219645864243 0.074671153320949174 0 -6.0245335520799475e-05 0.075001550752737484 0 -0.00013125377616467752 0.074965120341350056 0 -7.3784590426272486e-05 0.074936337425442909 0 -0.00013125377616467752 0.074965120341350056 0 -0.00012971987877699492 0.074907063192537968 0 -7.3784590426272486e-05 0.074936337425442909 0 -0.00010248787765078071 0.074838726662286817 0 -0.00017481058901166145 0.074849132590746575 0 -0.00012971987877699492 0.074907063192537968 0 -0.00010248787765078071 0.074838726662286817 0 -0.00012971987877699492 0.074907063192537968 0 -7.3784590426272486e-05 0.074936337425442909 0 -8.2096868824484926e-05 0.074900312107564218 0 -3.9762680163540774e-05 0.074931052236532097 0 -0.00010248787765078071 0.074838726662286817 0 -7.3784590426272486e-05 0.074936337425442909 0 -2.828142646511098e-05 0.074912742284562295 0 -7.3784590426272486e-05 0.074936337425442909 0 -2.828142646511098e-05 0.074912742284562295 0 -1.9788081757103367e-05 0.07497825865659144 0 -2.828142646511098e-05 0.074912742284562295 0 1.0960684606298636e-06 0.074995984721512615 0 -1.9788081757103367e-05 0.07497825865659144 0 1.1448152512324381e-08 0.074999963892418892 0 1.6775217890989554e-07 0.074991979152072064 0 4.2529141113476334e-09 0.074999941289146263 0 -7.1034507272750201e-06 0.074989462441182139 0 1.6775217890989554e-07 0.074991979152072064 0 1.0960684606298636e-06 0.074995984721512615 0 -3.9762680163540774e-05 0.074931052236532097 0 -2.3143554484258562e-05 0.074945262737103127 0 1.6775217890989554e-07 0.074991979152072064 0 1.0960684606298636e-06 0.074995984721512615 0 4.2529141113476334e-09 0.074999941289146263 0 1.0960684606298636e-06 0.074995984721512615 0 4.2529141113476334e-09 0.074999941289146263 0 -2.911389473705876e-09 0.074999987909590435 0 1.0960684606298636e-06 0.074995984721512615 0 -2.911389473705876e-09 0.074999987909590435 0 -1.9788081757103367e-05 0.07497825865659144 0 -2.911389473705876e-09 0.074999987909590435 0 -1.9788081757103367e-05 0.07497825865659144 0 -1.5766896477832487e-05 0.075009874836675483 0 -6.0245335520799475e-05 0.075001550752737484 0 -1.9788081757103367e-05 0.07497825865659144 0 -1.5766896477832487e-05 0.075009874836675483 0 -0.00011417677919595075 0.074770218371631766 0 -7.3042954240224838e-05 0.074849767410752749 0 -3.342980064318758e-05 0.074880718671266347 0 0.00026803472881252195 0.073942634384236136 0 0.00012008389156160016 0.074571702129023074 0 -8.3684361016839157e-09 0.075000029928611114 0 -2.911389473705876e-09 0.074999987909590435 0 -1.5766896477832487e-05 0.075009874836675483 0 0.0021808634389787751 0.044553490343794376 0 0.0056794305590633313 0.043838229178705453 0 0.0058357323925261259 0.04866603165764085 0 0.0021808634389787751 0.044553490343794376 0 -0.00023128279584472942 0.048638870879932572 0 0.0058357323925261259 0.04866603165764085 0 0.0056794305590633313 0.043838229178705453 0 0.0058357323925261259 0.04866603165764085 0 0.0092637932425048246 0.043608128065256456 0 -0.00039811672410954604 0.05712068200561321 0 0.00080248726192365708 0.054140069509890969 0 0.0056794305590633313 0.043838229178705453 0 0.0092637932425048246 0.043608128065256456 0 0.0074053721531081047 0.040067304131974395 0 0.0056794305590633313 0.043838229178705453 0 0.0043088955086533418 0.042413398897625347 0 0.0074053721531081047 0.040067304131974395 0 0.0043088955086533418 0.042413398897625347 0 0.0019381488232098204 0.041237573742785319 0 0.0074053721531081047 0.040067304131974395 0 0.0021808634389787751 0.044553490343794376 0 0.0056794305590633313 0.043838229178705453 0 0.0043088955086533418 0.042413398897625347 0 0.0021808634389787751 0.044553490343794376 0 0.0043088955086533418 0.042413398897625347 0 0.0019381488232098204 0.041237573742785319 0 0.0022940339119804695 0.043521211076759429 0 8.7198433759025796e-05 0.043512207345444025 0 0.0021808634389787751 0.044553490343794376 0 0.0019381488232098204 0.041237573742785319 0 -0.0036345548471810214 0.042368781556308556 0 -0.0036345548471810214 0.042368781556308556 0 -0.00023128279584472942 0.048638870879932572 0 -0.0058272063873944626 0.048836929747145728 0 0.0021808634389787751 0.044553490343794376 0 -0.0036345548471810214 0.042368781556308556 0 -0.00023128279584472942 0.048638870879932572 0 -0.00023128279584472942 0.048638870879932572 0 -0.0026088787338293742 0.053304589497930273 0 0.0021907676518369708 0.053994540846584609 0 -0.00023128279584472942 0.048638870879932572 0 -0.0058272063873944626 0.048836929747145728 0 -0.0026088787338293742 0.053304589497930273 0 -0.00237845983266369 0.059200764259362916 0 -0.0026088787338293742 0.053304589497930273 0 -0.0070003424739879345 0.05456486769653119 0 -0.0058272063873944626 0.048836929747145728 0 -0.0026088787338293742 0.053304589497930273 0 -0.0070003424739879345 0.05456486769653119 0 -0.00237845983266369 0.059200764259362916 0 -0.0026088787338293742 0.053304589497930273 0 0.0021907676518369708 0.053994540846584609 0 -0.0054595879480219024 0.066094532644716361 0 -0.0053943830140839467 0.065942450735192629 0 -0.0051846460580274572 0.066051194401562305 0 -0.0053943830140839467 0.065942450735192629 0 -0.0049889513422622898 0.066146188073883505 0 -0.0051846460580274572 0.066051194401562305 0 -0.0020942692659939683 0.059887125400652615 0 -0.00039811672410954604 0.05712068200561321 0 -0.00023128279584472942 0.048638870879932572 0 0.0021907676518369708 0.053994540846584609 0 0.0058357323925261259 0.04866603165764085 0 -0.0049889513422622898 0.066146188073883505 0 -0.0051846460580274572 0.066051194401562305 0 -0.0051271397939455891 0.06613848039487083 0 -0.0051846460580274572 0.066051194401562305 0 -0.005085488248966109 0.066182003284238358 0 -0.0051271397939455891 0.06613848039487083 0 -0.005085488248966109 0.066182003284238358 0 -0.0051271397939455891 0.06613848039487083 0 -0.0050796040679349022 0.066199877515214209 0 -0.0052861165269023078 0.066209135026399302 0 -0.0051271397939455891 0.06613848039487083 0 -0.0050796040679349022 0.066199877515214209 0 -0.0052861165269023078 0.066209135026399302 0 -0.0051271397939455891 0.06613848039487083 0 -0.0051528828820722079 0.066447205997118855 0 -0.0049889513422622898 0.066146188073883505 0 -0.0051271397939455891 0.06613848039487083 0 -0.0051528828820722079 0.066447205997118855 0 -0.0041032540369954984 0.069273274356634537 0 -0.0037792100724836405 0.066954463307372633 0 -0.004946254009243499 0.066173306579094537 0 -0.0049821623138869113 0.066240645588556399 0 -0.0049878081276139765 0.06619296401072515 0 -0.0049821623138869113 0.066240645588556399 0 -0.0050796040679349022 0.066199877515214209 0 -0.0049878081276139765 0.06619296401072515 0 -0.0050796040679349022 0.066199877515214209 0 -0.0050431371469623863 0.066156050603090044 0 -0.0049878081276139765 0.06619296401072515 0 -0.0052861165269023078 0.066209135026399302 0 -0.0050796040679349022 0.066199877515214209 0 -0.0050431371469623863 0.066156050603090044 0 -0.0054762032359170669 0.067533047363636245 0 -0.0054011368812930081 0.067837665842522918 0 -0.0043423305390712687 0.068997479364285394 0 -0.0054011368812930081 0.067837665842522918 0 -0.0049482941509055725 0.066167998788986188 0 -0.0050431371469623863 0.066156050603090044 0 -0.0049878081276139765 0.06619296401072515 0 -0.0072779607469000114 0.065914437189685662 0 -0.0063150106075330822 0.066027072753796379 0 -0.0067402160381889774 0.066826882547841582 0 -0.0043423305390712687 0.068997479364285394 0 -0.0051661538897813577 0.068564298455557948 0 -0.0052861165269023078 0.066209135026399302 0 -0.0063150106075330822 0.066027072753796379 0 -0.0058124355188444148 0.066591038274382675 0 -0.0067402160381889774 0.066826882547841582 0 -0.0058124355188444148 0.066591038274382675 0 -0.0061268798385271063 0.067122693685941065 0 -0.0063150106075330822 0.066027072753796379 0 -0.0067402160381889774 0.066826882547841582 0 -0.0058124355188444148 0.066591038274382675 0 -0.0067402160381889774 0.066826882547841582 0 -0.0061268798385271063 0.067122693685941065 0 -0.0061306531088142638 0.067899134922251969 0 -0.0058124355188444148 0.066591038274382675 0 -0.0061268798385271063 0.067122693685941065 0 -0.0055899013777588732 0.06701193681746799 0 -0.005952433461461154 0.0674776543021499 0 -0.0061268798385271063 0.067122693685941065 0 -0.0055899013777588732 0.06701193681746799 0 -0.005952433461461154 0.0674776543021499 0 -0.0061268798385271063 0.067122693685941065 0 -0.0061306531088142638 0.067899134922251969 0 -0.0051661538897813577 0.068564298455557948 0 -0.0054570639761189676 0.068315385899474765 0 -0.0034758743434351574 0.070751454591551979 0 -0.0049516306308312929 0.070853013632564688 0 -0.0044429092355029219 0.068793474097871218 0 -0.0049516306308312929 0.070853013632564688 0 -0.0044429092355029219 0.068793474097871218 0 -0.0061306531088142638 0.067899134922251969 0 -0.0049889513422622898 0.066146188073883505 0 -0.0051528828820722079 0.066447205997118855 0 -0.004905382429867885 0.066786237499350268 0 -0.0052861165269023078 0.066209135026399302 0 -0.0058124355188444148 0.066591038274382675 0 -0.0051528828820722079 0.066447205997118855 0 -0.0058124355188444148 0.066591038274382675 0 -0.0051528828820722079 0.066447205997118855 0 -0.0055899013777588732 0.06701193681746799 0 -0.0055899013777588732 0.06701193681746799 0 -0.004905382429867885 0.066786237499350268 0 -0.0054386029821547758 0.067764379689012944 0 -0.005952433461461154 0.0674776543021499 0 -0.0055899013777588732 0.06701193681746799 0 -0.0057811982393456453 0.067514006415766215 0 0.00080248726192365708 0.054140069509890969 0 0.0016026587878574597 0.049850078404280199 0 -0.0051528828820722079 0.066447205997118855 0 -0.0055899013777588732 0.06701193681746799 0 -0.004905382429867885 0.066786237499350268 0 0.0016026587878574597 0.049850078404280199 0 0.0047580468236085548 0.044832033786656997 0 0.0062642479615525187 0.039740121376718306 0 0.0051926257941698499 0.039144782827609595 0 0.0045261236874105408 0.040177145321772918 0 0.0092637932425048246 0.043608128065256456 0 0.012632712194492609 0.038847479136756333 0 0.0074053721531081047 0.040067304131974395 0 0.0016026587878574597 0.049850078404280199 0 -0.0008299142060487441 0.051701290887292937 0 -0.0055899013777588732 0.06701193681746799 0 -0.0057811982393456453 0.067514006415766215 0 -0.0054386029821547758 0.067764379689012944 0 -0.0057811982393456453 0.067514006415766215 0 -0.0054386029821547758 0.067764379689012944 0 -0.0060431178787495772 0.067735677880720754 0 0.0015348063756267824 0.050926043458368112 0 0.0014296229426509293 0.051069324807810665 0 0.0012827521487845826 0.050986091496359291 0 0.0062642479615525187 0.039740121376718306 0 0.0069018861853154386 0.038863815736432161 0 0.0051926257941698499 0.039144782827609595 0 0.0021138365797413422 0.049742679815420271 0 0.0023346671043908093 0.04416829412818031 0 0.006288696271031527 0.038693206987340502 0 0.0050527609061957746 0.037938960195251857 0 0.0060334565969008729 0.03769052196146145 0 0.0016026587878574597 0.049850078404280199 0 0.0021138365797413422 0.049742679815420271 0 0.0069018861853154386 0.038863815736432161 0 0.0051926257941698499 0.039144782827609595 0 0.0055439657916351607 0.038029169156790915 0 0.0051926257941698499 0.039144782827609595 0 0.0055439657916351607 0.038029169156790915 0 0.0044372229317445758 0.038344190099047985 0 -0.0044429092355029219 0.068793474097871218 0 -0.0052918669417566563 0.067764136269229225 0 -0.0061306531088142638 0.067899134922251969 0 -0.0039603844691165867 0.067601884695143527 0 -0.0052918669417566563 0.067764136269229225 0 -0.0048205275236582815 0.066753282528290228 0 -0.0039603844691165867 0.067601884695143527 0 -0.0044429092355029219 0.068793474097871218 0 -0.0052918669417566563 0.067764136269229225 0 -0.0052918669417566563 0.067764136269229225 0 -0.0060631840026396707 0.067563659589557859 0 -0.0048205275236582815 0.066753282528290228 0 -0.0054386029821547758 0.067764379689012944 0 -0.0060812419387319665 0.067690027848710949 0 -0.0060431178787495772 0.067735677880720754 0 -0.0052918669417566563 0.067764136269229225 0 -0.0058002426545044131 0.067746121615318233 0 -0.0060631840026396707 0.067563659589557859 0 -0.0058002426545044131 0.067746121615318233 0 -0.0060631840026396707 0.067563659589557859 0 -0.0060431178787495772 0.067735677880720754 0 -0.0060631840026396707 0.067563659589557859 0 -0.0060812419387319665 0.067690027848710949 0 -0.0060431178787495772 0.067735677880720754 0 -0.00081986557279033971 0.051749450831998792 0 -0.0008299142060487441 0.051701290887292937 0 -0.0052918669417566563 0.067764136269229225 0 -0.0058002426545044131 0.067746121615318233 0 -0.0061306531088142638 0.067899134922251969 0 -0.0058002426545044131 0.067746121615318233 0 -0.0061306531088142638 0.067899134922251969 0 -0.0060431178787495772 0.067735677880720754 0 -0.005952433461461154 0.0674776543021499 0 -0.0061306531088142638 0.067899134922251969 0 -0.0060431178787495772 0.067735677880720754 0 -0.005952433461461154 0.0674776543021499 0 -0.0057811982393456453 0.067514006415766215 0 -0.0060431178787495772 0.067735677880720754 0 -0.0060631840026396707 0.067563659589557859 0 -0.0062466553101336439 0.06747886354178835 0 -0.0048205275236582815 0.066753282528290228 0 0.0021138365797413422 0.049742679815420271 0 -0.0008299142060487441 0.051701290887292937 0 -0.007947485559123493 0.066329378894931165 0 -0.0066397798498201458 0.067109453331604688 0 -0.0067598505055443264 0.066248201061265735 0 -0.007947485559123493 0.066329378894931165 0 -0.0067598505055443264 0.066248201061265735 0 -0.0064318706921369226 0.065368395985747063 0 -0.007947485559123493 0.066329378894931165 0 -0.0064318706921369226 0.065368395985747063 0 -0.0067238816865998648 0.064615111606441067 0 0.0021138365797413422 0.049742679815420271 0 0.001658909725290144 0.050252630085211546 0 -0.0067598505055443264 0.066248201061265735 0 -0.0064318706921369226 0.065368395985747063 0 -0.0060191343999670644 0.066177783561488596 0 -0.0066397798498201458 0.067109453331604688 0 -0.0067598505055443264 0.066248201061265735 0 -0.0060191343999670644 0.066177783561488596 0 -0.0031831523828910065 0.064969332863999543 0 -0.0051278865632235614 0.065538941740840947 0 -0.0048205275236582815 0.066753282528290228 0 -0.0066397798498201458 0.067109453331604688 0 -0.0060191343999670644 0.066177783561488596 0 -0.0048205275236582815 0.066753282528290228 0 -0.0008299142060487441 0.051701290887292937 0 -0.0031071314542129766 0.053719813967661428 0 -0.0060191343999670644 0.066177783561488596 0 -0.0051278865632235614 0.065538941740840947 0 -0.0048205275236582815 0.066753282528290228 0 -0.0064318706921369226 0.065368395985747063 0 -0.0060191343999670644 0.066177783561488596 0 -0.0051278865632235614 0.065538941740840947 0 -0.00020791740860327473 0.062634922436169443 0 0.00063689596170401379 0.054558033913826867 0 -0.0031831523828910065 0.064969332863999543 0 -0.005157516170905996 0.064419964371617539 0 -0.005464426482271181 0.062833050480722033 0 -0.0031831523828910065 0.064969332863999543 0 -0.0051278865632235614 0.065538941740840947 0 -0.005157516170905996 0.064419964371617539 0 -0.00049836044130484433 0.064258513618442731 0 -0.00085548146633914379 0.062833339019167836 0 -0.0022705692220572507 0.062612304626084192 0 -0.0064318706921369226 0.065368395985747063 0 -0.0051278865632235614 0.065538941740840947 0 -0.005157516170905996 0.064419964371617539 0 -0.005157516170905996 0.064419964371617539 0 -0.0067365339927884437 0.06460499296065203 0 -0.005464426482271181 0.062833050480722033 0 0.001658909725290144 0.050252630085211546 0 0.0019808957700430531 0.043967249196107033 0 0.0070472314657877245 0.037639925339734585 0 0.0065568248480301914 0.036394614944956896 0 0.0060334565969008729 0.03769052196146145 0 0.001658909725290144 0.050252630085211546 0 0.00063689596170401379 0.054558033913826867 0 -0.0064318706921369226 0.065368395985747063 0 -0.005157516170905996 0.064419964371617539 0 -0.0067365339927884437 0.06460499296065203 0 0.0017228164258501521 0.051122301362623114 0 0.001658909725290144 0.050252630085211546 0 0.0015783208527631284 0.040693288540578236 0 0.00063689596170401379 0.054558033913826867 0 0.00095929162280704273 0.044780741413722708 0 0.0014777865077819829 0.047777842022549331 0 0.0046564882048812269 0.048197535011442909 0 0.0027220587163126349 0.050879950276767359 0 0.0014777865077819829 0.047777842022549331 0 0.0046564882048812269 0.048197535011442909 0 -0.0014990123575830362 0.061546511409336507 0 -0.00085548146633914379 0.062833339019167836 0 -0.0022705692220572507 0.062612304626084192 0 0.0024923768072752056 0.047504887225111779 0 0.0049317033129231535 0.048438837265792151 0 0.0032740513232837123 0.050734254160940871 0 0.00019463836711961665 0.058982982947363802 0 0.00063689596170401379 0.054558033913826867 0 0.0023346671043908093 0.04416829412818031 0 0.0021476553154955451 0.041311112225899928 0 0.0050527609061957746 0.037938960195251857 0 0.0046352118010480727 0.036864618243741834 0 0.0038329912915398526 0.037179967608650381 0 0.0050527609061957746 0.037938960195251857 0 0.00553435433989421 0.036861635959297992 0 0.0046352118010480727 0.036864618243741834 0 0.0050527609061957746 0.037938960195251857 0 0.0060334565969008729 0.03769052196146145 0 0.00553435433989421 0.036861635959297992 0 0.0065568248480301914 0.036394614944956896 0 0.0060334565969008729 0.03769052196146145 0 0.00553435433989421 0.036861635959297992 0 0.006288696271031527 0.038693206987340502 0 0.0070472314657877245 0.037639925339734585 0 0.0060334565969008729 0.03769052196146145 0 0.0065568248480301914 0.036394614944956896 0 0.00553435433989421 0.036861635959297992 0 0.0058126917559367256 0.036103559150088047 0 0.0060662337141082611 0.03516538717931357 0 0.0065568248480301914 0.036394614944956896 0 0.0058126917559367256 0.036103559150088047 0 0.00553435433989421 0.036861635959297992 0 0.0058126917559367256 0.036103559150088047 0 0.0050355766245927212 0.035984113063897975 0 0.0050355766245927212 0.035984113063897975 0 0.0046352118010480727 0.036864618243741834 0 0.0035636079015746512 0.035964075380509393 0 0.00553435433989421 0.036861635959297992 0 0.0050355766245927212 0.035984113063897975 0 0.0046352118010480727 0.036864618243741834 0 0.0035636079015746512 0.035964075380509393 0 0.0026393836394130754 0.036426260916890912 0 0.0038329912915398526 0.037179967608650381 0 0.0046352118010480727 0.036864618243741834 0 0.0035636079015746512 0.035964075380509393 0 0.0038329912915398526 0.037179967608650381 0 0.0022155225990054522 0.035654830795779593 0 0.0035636079015746512 0.035964075380509393 0 0.0026393836394130754 0.036426260916890912 0 0.0018838219342206235 0.040342861132866538 0 0.0021476553154955451 0.041311112225899928 0 0.0026393836394130754 0.036426260916890912 0 0.0040817732641881925 0.037194736462124296 0 0.0019618819503543646 0.038257293770872038 0 0.0055439657916351607 0.038029169156790915 0 0.0040817732641881925 0.037194736462124296 0 0.0044372229317445758 0.038344190099047985 0 0.0040817732641881925 0.037194736462124296 0 0.0044372229317445758 0.038344190099047985 0 0.0033504698126379726 0.039002714418360583 0 0.0051926257941698499 0.039144782827609595 0 0.0044372229317445758 0.038344190099047985 0 0.0033504698126379726 0.039002714418360583 0 0.0040817732641881925 0.037194736462124296 0 0.0033504698126379726 0.039002714418360583 0 0.0019618819503543646 0.038257293770872038 0 0.0033504698126379726 0.039002714418360583 0 0.0026832217103452374 0.040509986055629277 0 0.0019618819503543646 0.038257293770872038 0 0.0022940339119804695 0.043521211076759429 0 0.0047580468236085548 0.044832033786656997 0 0.001823140600266316 0.037990123828420153 0 0.00089013580205967509 0.035530669445275297 0 0.0022866511847891499 0.040734903828677026 0 0.0026832217103452374 0.040509986055629277 0 0.0045261236874105408 0.040177145321772918 0 0.0033504698126379726 0.039002714418360583 0 0.0026832217103452374 0.040509986055629277 0 0.0045261236874105408 0.040177145321772918 0 0.0051926257941698499 0.039144782827609595 0 0.0033504698126379726 0.039002714418360583 0 0.0045261236874105408 0.040177145321772918 0 -0.0036345548471810214 0.042368781556308556 0 -0.0012909962060868856 0.037828033014871823 0 -0.0064418773652681052 0.036526809382907678 0 0.0022866511847891499 0.040734903828677026 0 -0.0036345548471810214 0.042368781556308556 0 -0.0012909962060868856 0.037828033014871823 0 0.0026832217103452374 0.040509986055629277 0 -0.0012909962060868856 0.037828033014871823 0 0.00073842448626292132 0.03342599852701069 0 0.0022866511847891499 0.040734903828677026 0 0.0026832217103452374 0.040509986055629277 0 -0.0012909962060868856 0.037828033014871823 0 -0.0012909962060868856 0.037828033014871823 0 0.00073842448626292132 0.03342599852701069 0 -0.0035702634449267705 0.033472284746787831 0 -0.0012909962060868856 0.037828033014871823 0 -0.0035702634449267705 0.033472284746787831 0 -0.0064418773652681052 0.036526809382907678 0 -0.0035702634449267705 0.033472284746787831 0 -0.0068335678178508457 0.030581389296515785 0 -0.0064418773652681052 0.036526809382907678 0 -0.0035702634449267705 0.033472284746787831 0 -0.0016707793256353378 0.026148381953027832 0 -0.0068335678178508457 0.030581389296515785 0 0.0026393836394130754 0.036426260916890912 0 0.0019618819503543646 0.038257293770872038 0 0.0012222312824689931 0.036185334693088926 0 0.00073842448626292132 0.03342599852701069 0 -0.0035702634449267705 0.033472284746787831 0 -0.0016707793256353378 0.026148381953027832 0 0.00089013580205967509 0.035530669445275297 0 -0.00095703671467360922 0.03127716526979496 0 0.0022155225990054522 0.035654830795779593 0 0.0026393836394130754 0.036426260916890912 0 0.0012222312824689931 0.036185334693088926 0 -0.0016707793256353378 0.026148381953027832 0 -0.0075686846520533358 0.026092842927786106 0 -0.0068335678178508457 0.030581389296515785 0 -0.0063598158562321915 0.022535257532938224 0 -0.0016707793256353378 0.026148381953027832 0 -0.0075686846520533358 0.026092842927786106 0 -0.0075686846520533358 0.026092842927786106 0 -0.01085906591141146 0.025496637031898552 0 -0.010692610516897403 0.029622787339843866 0 -0.0091892696325455749 0.022423518186144978 0 -0.0075686846520533358 0.026092842927786106 0 -0.01085906591141146 0.025496637031898552 0 -0.013619791871234863 0.022723172222442568 0 -0.01085906591141146 0.025496637031898552 0 -0.014174693659964118 0.027783262625513134 0 -0.01085906591141146 0.025496637031898552 0 -0.010692610516897403 0.029622787339843866 0 -0.014174693659964118 0.027783262625513134 0 -0.010692610516897403 0.029622787339843866 0 -0.013580161569071342 0.031956092970235613 0 -0.014174693659964118 0.027783262625513134 0 -0.010692610516897403 0.029622787339843866 0 -0.013580161569071342 0.031956092970235613 0 -0.01101290350430463 0.035165248116155866 0 -0.0075686846520533358 0.026092842927786106 0 -0.010692610516897403 0.029622787339843866 0 -0.0068335678178508457 0.030581389296515785 0 -0.010692610516897403 0.029622787339843866 0 -0.0068335678178508457 0.030581389296515785 0 -0.01101290350430463 0.035165248116155866 0 -0.013619791871234863 0.022723172222442568 0 -0.018533189231647536 0.025646853946892038 0 -0.014174693659964118 0.027783262625513134 0 -0.018533189231647536 0.025646853946892038 0 -0.014174693659964118 0.027783262625513134 0 -0.017728810719764895 0.031143246338536216 0 -0.013580161569071342 0.031956092970235613 0 -0.014174693659964118 0.027783262625513134 0 -0.017728810719764895 0.031143246338536216 0 -0.017728810719764895 0.031143246338536216 0 -0.021524536455813838 0.033126016921577586 0 -0.022780463308267294 0.029482193467643202 0 -0.018533189231647536 0.025646853946892038 0 -0.017728810719764895 0.031143246338536216 0 -0.022780463308267294 0.029482193467643202 0 -0.016718563992543053 0.037022107276247739 0 -0.023105463092503296 0.037300923758342194 0 -0.021524536455813838 0.033126016921577586 0 -0.017728810719764895 0.031143246338536216 0 -0.016718563992543053 0.037022107276247739 0 -0.021524536455813838 0.033126016921577586 0 -0.013580161569071342 0.031956092970235613 0 -0.017728810719764895 0.031143246338536216 0 -0.016718563992543053 0.037022107276247739 0 -0.013580161569071342 0.031956092970235613 0 -0.016718563992543053 0.037022107276247739 0 -0.01101290350430463 0.035165248116155866 0 -0.016718563992543053 0.037022107276247739 0 -0.01127438330407338 0.039795982754985575 0 -0.015485846898148676 0.041463583107289842 0 -0.016718563992543053 0.037022107276247739 0 -0.021289014621467123 0.041616263244007898 0 -0.023105463092503296 0.037300923758342194 0 -0.016718563992543053 0.037022107276247739 0 -0.015485846898148676 0.041463583107289842 0 -0.021289014621467123 0.041616263244007898 0 -0.0036345548471810214 0.042368781556308556 0 -0.0064418773652681052 0.036526809382907678 0 -0.01127438330407338 0.039795982754985575 0 -0.0068335678178508457 0.030581389296515785 0 -0.0064418773652681052 0.036526809382907678 0 -0.01101290350430463 0.035165248116155866 0 -0.016718563992543053 0.037022107276247739 0 -0.01101290350430463 0.035165248116155866 0 -0.01127438330407338 0.039795982754985575 0 -0.0064418773652681052 0.036526809382907678 0 -0.01101290350430463 0.035165248116155866 0 -0.01127438330407338 0.039795982754985575 0 -0.0036345548471810214 0.042368781556308556 0 -0.01127438330407338 0.039795982754985575 0 -0.010177747103991436 0.045014125039755069 0 -0.0036345548471810214 0.042368781556308556 0 -0.0058272063873944626 0.048836929747145728 0 -0.010177747103991436 0.045014125039755069 0 -0.0058272063873944626 0.048836929747145728 0 -0.010177747103991436 0.045014125039755069 0 -0.011706255438787158 0.050217382530117163 0 -0.010177747103991436 0.045014125039755069 0 -0.016518006530885119 0.045880553032562922 0 -0.011706255438787158 0.050217382530117163 0 -0.01127438330407338 0.039795982754985575 0 -0.010177747103991436 0.045014125039755069 0 -0.015485846898148676 0.041463583107289842 0 -0.010177747103991436 0.045014125039755069 0 -0.015485846898148676 0.041463583107289842 0 -0.016518006530885119 0.045880553032562922 0 -0.016057145306080295 0.046538145441323682 0 -0.01847794238290382 0.044354265315081694 0 -0.015485846898148676 0.041463583107289842 0 -0.016518006530885119 0.045880553032562922 0 -0.021289014621467123 0.041616263244007898 0 -0.020702206913515594 0.048002510117181187 0 -0.016318361009460797 0.046200641906342058 0 -0.021289014621467123 0.041616263244007898 0 -0.016057145306080295 0.046538145441323682 0 -0.011806953873872995 0.050416801578103451 0 -0.016318361009460797 0.046200641906342058 0 -0.01683737135196281 0.051338109791055422 0 -0.01175465579950848 0.05071421595563258 0 -0.020702206913515594 0.048002510117181187 0 -0.01683737135196281 0.051338109791055422 0 -0.023202271849878407 0.053120384064785295 0 -0.020702206913515594 0.048002510117181187 0 -0.016318361009460797 0.046200641906342058 0 -0.01683737135196281 0.051338109791055422 0 -0.01683737135196281 0.051338109791055422 0 -0.023202271849878407 0.053120384064785295 0 -0.01817672068703827 0.056051561634466923 0 -0.01683737135196281 0.051338109791055422 0 -0.012741735117040319 0.056955702124395026 0 -0.01817672068703827 0.056051561634466923 0 -0.01683737135196281 0.051338109791055422 0 -0.01175465579950848 0.05071421595563258 0 -0.012741735117040319 0.056955702124395026 0 -0.0074397903509902993 0.055006595276837891 0 -0.01175465579950848 0.05071421595563258 0 -0.012741735117040319 0.056955702124395026 0 -0.0075495534761292789 0.054307777256882281 0 -0.011806953873872995 0.050416801578103451 0 -0.0058272063873944626 0.048836929747145728 0 -0.0070003424739879345 0.05456486769653119 0 -0.011706255438787158 0.050217382530117163 0 -0.029598605946619734 0.049618086785378976 0 -0.030327109874206313 0.053520443140508231 0 -0.027442954596957579 0.052200561683677045 0 -0.029598605946619734 0.049618086785378976 0 -0.033705290368917118 0.049521123732368749 0 -0.030327109874206313 0.053520443140508231 0 -0.017436263710880195 0.033867139199951379 0 -0.01850074715350046 0.038234573778027955 0 -0.033232460448450345 0.049614259821379791 0 -0.032705124380109536 0.050829820606043935 0 -0.030327109874206313 0.053520443140508231 0 -0.011397069530791653 0.029224867728971621 0 -0.011737845002007806 0.028780925898139277 0 -0.012280980184557144 0.029558938592292756 0 -0.017436263710880195 0.033867139199951379 0 -0.015459304269832596 0.026982501586254665 0 -0.014030636595554417 0.026436479077764096 0 -0.014667919151516629 0.025616589825484593 0 -0.014280934917195209 0.025545550502477459 0 -0.011397069530791653 0.029224867728971621 0 -0.011387349164063925 0.029904200152511735 0 -0.012280980184557144 0.029558938592292756 0 -0.033232460448450345 0.049614259821379791 0 -0.032705124380109536 0.050829820606043935 0 -0.03323332480570907 0.051776305068740987 0 -0.017436263710880195 0.033867139199951379 0 -0.018501332599930129 0.039612484051735938 0 -0.018848216852793618 0.040103257040246761 0 -0.018501332599930129 0.039612484051735938 0 -0.033259171471010311 0.051803284093633425 0 -0.030327109874206313 0.053520443140508231 0 -0.033183211963136415 0.058216700418278852 0 -0.016933662682243184 0.04235439901962719 0 -0.018020059469965995 0.044330864146448198 0 -0.016896424957340964 0.04519870808484807 0 -0.032705124380109536 0.050829820606043935 0 -0.033259171471010311 0.051803284093633425 0 -0.030327109874206313 0.053520443140508231 0 -0.011387349164063925 0.029904200152511735 0 -0.012280980184557144 0.029558938592292756 0 -0.012148278305577511 0.031307533595124573 0 -0.018501332599930129 0.039612484051735938 0 -0.016356294640299137 0.038630744457318095 0 -0.018501332599930129 0.039612484051735938 0 -0.020652133872980948 0.050545686697924433 0 -0.030327109874206313 0.053520443140508231 0 -0.027442954596957579 0.052200561683677045 0 -0.028359602191480041 0.056887697892675462 0 -0.027442954596957579 0.052200561683677045 0 -0.023202271849878407 0.053120384064785295 0 -0.028359602191480041 0.056887697892675462 0 -0.020702206913515594 0.048002510117181187 0 -0.023202271849878407 0.053120384064785295 0 -0.025840391437971944 0.04749815332718417 0 -0.027442954596957579 0.052200561683677045 0 -0.023202271849878407 0.053120384064785295 0 -0.025840391437971944 0.04749815332718417 0 -0.029598605946619734 0.049618086785378976 0 -0.027442954596957579 0.052200561683677045 0 -0.025840391437971944 0.04749815332718417 0 -0.029598605946619734 0.049618086785378976 0 -0.025840391437971944 0.04749815332718417 0 -0.02998395784465616 0.044797122219570933 0 -0.025840391437971944 0.04749815332718417 0 -0.026569162614384228 0.041126122206874449 0 -0.02998395784465616 0.044797122219570933 0 -0.020702206913515594 0.048002510117181187 0 -0.025840391437971944 0.04749815332718417 0 -0.021289014621467123 0.041616263244007898 0 -0.025840391437971944 0.04749815332718417 0 -0.021289014621467123 0.041616263244007898 0 -0.026569162614384228 0.041126122206874449 0 -0.026569162614384228 0.041126122206874449 0 -0.02998395784465616 0.044797122219570933 0 -0.030257822336898523 0.038842961782735844 0 -0.02998395784465616 0.044797122219570933 0 -0.033938655599730604 0.042124221446136069 0 -0.030257822336898523 0.038842961782735844 0 -0.029598605946619734 0.049618086785378976 0 -0.033705290368917118 0.049521123732368749 0 -0.02998395784465616 0.044797122219570933 0 -0.033705290368917118 0.049521123732368749 0 -0.02998395784465616 0.044797122219570933 0 -0.033938655599730604 0.042124221446136069 0 -0.014030636595554417 0.026436479077764096 0 -0.014280934917195209 0.025545550502477459 0 -0.014064680260261989 0.022385543438610961 0 -0.017436263710880195 0.033867139199951379 0 -0.01835769714994679 0.03074385832690953 0 -0.014280934917195209 0.025545550502477459 0 -0.014064680260261989 0.022385543438610961 0 -0.016149068787071223 0.023690369890353752 0 -0.014667846924636723 0.025615515501789331 0 -0.014280934917195209 0.025545550502477459 0 -0.016149068787071223 0.023690369890353752 0 -0.015459304269832596 0.026982501586254665 0 -0.015442745516472104 0.026975261776491795 0 -0.014064680260261989 0.022385543438610961 0 -0.015855457629251165 0.020076621016595617 0 -0.015921131069336722 0.021981770897741979 0 -0.014064680260261989 0.022385543438610961 0 -0.014103503763029839 0.018371117779791907 0 -0.015855457629251165 0.020076621016595617 0 -0.033938655599730604 0.042124221446136069 0 -0.030257822336898523 0.038842961782735844 0 -0.034068603684442499 0.034696293508710209 0 -0.01835769714994679 0.03074385832690953 0 -0.014685066602241397 0.019479282591189813 0 -0.030257822336898523 0.038842961782735844 0 -0.029238875065626665 0.034533939955133673 0 -0.027192995846780657 0.036659513386844082 0 -0.030257822336898523 0.038842961782735844 0 -0.029238875065626665 0.034533939955133673 0 -0.034068603684442499 0.034696293508710209 0 -0.029238875065626665 0.034533939955133673 0 -0.034068603684442499 0.034696293508710209 0 -0.029034109675305415 0.029654022349096403 0 -0.00063517031942384534 -0.00014947312109097921 0 -0.00051324271277646905 -0.00010871561380466766 0 -0.00087781529795566578 -0.00050253371614899969 0 -0.01456401242889532 0.018800509185663918 0 -0.014685066602241397 0.019479282591189813 0 -0.00063517031942384534 -0.00014947312109097921 0 -0.00099259219803172929 -0.00014576098408184356 0 -0.0012244014616292697 0.00027306406604445902 0 -0.00063517031942384534 -0.00014947312109097921 0 -0.00061354299322810091 0.00027826817439317267 0 -0.0012244014616292697 0.00027306406604445902 0 -0.014685066602241397 0.019479282591189813 0 -0.0099616843255052982 0.014485812021524234 0 -0.00061354299322810091 0.00027826817439317267 0 -0.0013348397446036441 0.0011281986869068831 0 -0.0012244014616292697 0.00027306406604445902 0 -0.021289014621467123 0.041616263244007898 0 -0.026569162614384228 0.041126122206874449 0 -0.023105463092503296 0.037300923758342194 0 -0.026569162614384228 0.041126122206874449 0 -0.023105463092503296 0.037300923758342194 0 -0.027192995846780657 0.036659513386844082 0 -0.026569162614384228 0.041126122206874449 0 -0.030257822336898523 0.038842961782735844 0 -0.027192995846780657 0.036659513386844082 0 -0.023105463092503296 0.037300923758342194 0 -0.027192995846780657 0.036659513386844082 0 -0.025646312422368922 0.032823848314125208 0 -0.029238875065626665 0.034533939955133673 0 -0.027192995846780657 0.036659513386844082 0 -0.025646312422368922 0.032823848314125208 0 -0.023105463092503296 0.037300923758342194 0 -0.025646312422368922 0.032823848314125208 0 -0.021524536455813838 0.033126016921577586 0 -0.025646312422368922 0.032823848314125208 0 -0.021524536455813838 0.033126016921577586 0 -0.022780463308267294 0.029482193467643202 0 -0.025646312422368922 0.032823848314125208 0 -0.022780463308267294 0.029482193467643202 0 -0.029034109675305415 0.029654022349096403 0 -0.029238875065626665 0.034533939955133673 0 -0.025646312422368922 0.032823848314125208 0 -0.029034109675305415 0.029654022349096403 0 -0.024078236460699166 0.024475627494306006 0 -0.022780463308267294 0.029482193467643202 0 -0.029034109675305415 0.029654022349096403 0 -0.014586831396244669 0.014368470165194335 0 -0.014783742974696182 0.016165342802621298 0 -0.0064295842096030783 0.0025636386980784497 0 -0.0017412178355647411 -0.0008808426302459886 0 -0.0020866134499374286 0.0015128401172335444 0 -0.024078236460699166 0.024475627494306006 0 -0.018533189231647536 0.025646853946892038 0 -0.022780463308267294 0.029482193467643202 0 -0.00080518875395457952 -0.00035423428962465221 0 -0.00087781529795566578 -0.00050253371614899969 0 -0.0001505616968374026 -0.00034673587212317026 0 -0.00080518875395457952 -0.00035423428962465221 0 -0.00079934315218175927 -0.00031374677770271451 0 -0.00087781529795566578 -0.00050253371614899969 0 -0.00063517031942384534 -0.00014947312109097921 0 -0.00099259219803172929 -0.00014576098408184356 0 -0.00079934315218175927 -0.00031374677770271451 0 -0.00080518875395457952 -0.00035423428962465221 0 -0.00099259219803172929 -0.00014576098408184356 0 -0.00079934315218175927 -0.00031374677770271451 0 -0.00063517031942384534 -0.00014947312109097921 0 -0.00079934315218175927 -0.00031374677770271451 0 -0.00087781529795566578 -0.00050253371614899969 0 -0.014685066602241397 0.019479282591189813 0 -0.014783742974696182 0.016165342802621298 0 -0.0017412178355647411 -0.0008808426302459886 0 -0.00087781529795566578 -0.00050253371614899969 0 -0.0001505616968374026 -0.00034673587212317026 0 -0.00051324271277646905 -0.00010871561380466766 0 -0.0017412178355647411 -0.0008808426302459886 0 -0.00087781529795566578 -0.00050253371614899969 0 -0.0017412178355647411 -0.0008808426302459886 0 -0.0020866134499374286 0.0015128401172335444 0 -0.0001505616968374026 -0.00034673587212317026 0 -0.00080518875395457952 -0.00035423428962465221 0 -0.0001505616968374026 -0.00034673587212317026 0 -0.0015965682397112353 -0.0017201981187598438 0 -0.00080518875395457952 -0.00035423428962465221 0 -0.0015965682397112353 -0.0017201981187598438 0 -0.0021935726335193988 -0.00088621400537501355 0 -0.00080518875395457952 -0.00035423428962465221 0 -0.0016753882007755007 -6.5831426551103643e-05 0 -0.0021935726335193988 -0.00088621400537501355 0 -0.00080518875395457952 -0.00035423428962465221 0 -0.00099259219803172929 -0.00014576098408184356 0 -0.0016753882007755007 -6.5831426551103643e-05 0 -0.0021935726335193988 -0.00088621400537501355 0 -0.0033399473589660438 -0.00072835824438530412 0 -0.0028045623583209346 0.00036568852572697527 0 -0.0016753882007755007 -6.5831426551103643e-05 0 -0.0021935726335193988 -0.00088621400537501355 0 -0.0028045623583209346 0.00036568852572697527 0 -0.0033399473589660438 -0.00072835824438530412 0 -0.0037087635994496075 7.8628278814095435e-05 0 -0.0028045623583209346 0.00036568852572697527 0 -0.0021935726335193988 -0.00088621400537501355 0 -0.0029764860921604949 -0.0018484497316534009 0 -0.0033399473589660438 -0.00072835824438530412 0 -0.0015965682397112353 -0.0017201981187598438 0 -0.0021935726335193988 -0.00088621400537501355 0 -0.0029764860921604949 -0.0018484497316534009 0 -0.0029764860921604949 -0.0018484497316534009 0 -0.0042817296707456714 -0.0015391703210635144 0 -0.0033399473589660438 -0.00072835824438530412 0 -0.0042817296707456714 -0.0015391703210635144 0 -0.0051121212395690303 -0.00058794065537045442 0 -0.0041107547707195059 -0.00069033270071350349 0 -0.0042817296707456714 -0.0015391703210635144 0 -0.0033399473589660438 -0.00072835824438530412 0 -0.0041107547707195059 -0.00069033270071350349 0 -0.0042817296707456714 -0.0015391703210635144 0 -0.0051121212395690303 -0.00058794065537045442 0 -0.0059759494068839644 -0.0020538102383533302 0 -0.0051121212395690303 -0.00058794065537045442 0 -0.0059759494068839644 -0.0020538102383533302 0 -0.0058704412367457433 0.00028652606600308402 0 -0.0051121212395690303 -0.00058794065537045442 0 -0.0044070654863856834 0.00091807204155796315 0 -0.0058704412367457433 0.00028652606600308402 0 -0.0069001342784653528 0.0026156971936522147 0 -0.0069158566503007834 0.004274111517602733 0 -0.0051121212395690303 -0.00058794065537045442 0 -0.0037087635994496075 7.8628278814095435e-05 0 -0.0038155515879536596 0.00099248119872018562 0 -0.0051121212395690303 -0.00058794065537045442 0 -0.0041107547707195059 -0.00069033270071350349 0 -0.0037087635994496075 7.8628278814095435e-05 0 -0.0033399473589660438 -0.00072835824438530412 0 -0.0041107547707195059 -0.00069033270071350349 0 -0.0037087635994496075 7.8628278814095435e-05 0 -0.0051121212395690303 -0.00058794065537045442 0 -0.0044070654863856834 0.00091807204155796315 0 -0.0037897510045680322 0.0011134031198779483 0 -0.0037087635994496075 7.8628278814095435e-05 0 -0.0038155515879536596 0.00099248119872018562 0 -0.0032850858870952055 0.00073708417426726494 0 -0.0044070654863856834 0.00091807204155796315 0 -0.0037897510045680322 0.0011134031198779483 0 -0.0043624945496443159 0.0021579755737743873 0 -0.004498716959245929 -0.0023131558703473757 0 -0.0047125486827904982 -0.0046953913484399975 0 -0.0044070654863856834 0.00091807204155796315 0 -0.0057731996661064327 0.0025784696088543718 0 -0.0058704412367457433 0.00028652606600308402 0 -0.0054510191912647216 -0.00030278843773347101 0 -0.004498716959245929 -0.0023131558703473757 0 -0.0060126598217401595 0.0028442086491475278 0 -0.0043624945496443159 0.0021579755737743873 0 -0.0043163783992838656 0.0030264709236058002 0 -0.0044070654863856834 0.00091807204155796315 0 -0.0060126598217401595 0.0028442086491475278 0 -0.0043624945496443159 0.0021579755737743873 0 -0.0037897510045680322 0.0011134031198779483 0 -0.0043624945496443159 0.0021579755737743873 0 -0.0035133200227349605 0.003084462832939444 0 -0.0043624945496443159 0.0021579755737743873 0 -0.0043163783992838656 0.0030264709236058002 0 -0.0035133200227349605 0.003084462832939444 0 -0.0025469511236068981 0.0026617734325111568 0 -0.0029120814043966025 0.0012218414935182068 0 -0.0021009504217935301 0.0013404828902029897 0 -0.0077552363774224071 0.0092645851859188971 0 -0.0052152215246990159 0.003934931142691259 0 -0.0037897510045680322 0.0011134031198779483 0 -0.0035133200227349605 0.003084462832939444 0 -0.0023113168152681441 0.0030191281376126377 0 -0.0023355515396278888 0.0016047686053474771 0 -0.0018908002556253722 0.0012015228808616924 0 -0.0019815984068949632 0.00062376334812663337 0 -0.0069158566503007834 0.004274111517602733 0 -0.0077552363774224071 0.0092645851859188971 0 -0.0038155515879536596 0.00099248119872018562 0 -0.0025469511236068981 0.0026617734325111568 0 -0.0029120814043966025 0.0012218414935182068 0 -0.0023355515396278888 0.0016047686053474771 0 -0.0018908002556253722 0.0012015228808616924 0 -0.0020934271132907337 0.0019133736886451458 0 -0.015855457629251165 0.020076621016595617 0 -0.015921131069336722 0.021981770897741979 0 -0.017611687916709438 0.021778772519746675 0 -0.0099616843255052982 0.014485812021524234 0 -0.0083742093526734483 0.01325537439617981 0 -0.0013348397446036441 0.0011281986869068831 0 -0.0018908002556253722 0.0012015228808616924 0 -0.0020934271132907337 0.0019133736886451458 0 -0.0013348397446036441 0.0011281986869068831 0 -0.0018908002556253722 0.0012015228808616924 0 -0.0019815984068949632 0.00062376334812663337 0 -0.0016753882007755007 -6.5831426551103643e-05 0 -0.0012244014616292697 0.00027306406604445902 0 -0.0019815984068949632 0.00062376334812663337 0 -0.004488904490433366 0.0024670595913631214 0 -0.0052152215246990159 0.003934931142691259 0 -0.0013348397446036441 0.0011281986869068831 0 -0.0012244014616292697 0.00027306406604445902 0 -0.0019815984068949632 0.00062376334812663337 0 -0.00099259219803172929 -0.00014576098408184356 0 -0.0016753882007755007 -6.5831426551103643e-05 0 -0.0012244014616292697 0.00027306406604445902 0 -0.0016753882007755007 -6.5831426551103643e-05 0 -0.0028045623583209346 0.00036568852572697527 0 -0.0021009504217935301 0.0013404828902029897 0 -0.0032850858870952055 0.00073708417426726494 0 -0.0028045623583209346 0.00036568852572697527 0 -0.0029120814043966025 0.0012218414935182068 0 -0.0037087635994496075 7.8628278814095435e-05 0 -0.0032850858870952055 0.00073708417426726494 0 -0.0028045623583209346 0.00036568852572697527 0 -0.0038155515879536596 0.00099248119872018562 0 -0.0032850858870952055 0.00073708417426726494 0 -0.0029120814043966025 0.0012218414935182068 0 -0.0028045623583209346 0.00036568852572697527 0 -0.0029120814043966025 0.0012218414935182068 0 -0.0021009504217935301 0.0013404828902029897 0 -0.00013116302059582369 -0.010083902347220002 0 -0.0016677040419629118 -0.010258722798352091 0 -0.001223356439188512 -0.0085833476079177125 0 -0.0016677040419629118 -0.010258722798352091 0 -0.001223356439188512 -0.0085833476079177125 0 -0.0025440249943076225 -0.0094125332754225553 0 -0.001223356439188512 -0.0085833476079177125 0 -0.0024365817763728789 -0.008236127453676018 0 -0.0025440249943076225 -0.0094125332754225553 0 -0.0016677040419629118 -0.010258722798352091 0 -0.0025440249943076225 -0.0094125332754225553 0 -0.002703643379254318 -0.010853490172193255 0 -0.0025440249943076225 -0.0094125332754225553 0 -0.0039912716187894678 -0.010253665869892807 0 -0.002703643379254318 -0.010853490172193255 0 -0.0025440249943076225 -0.0094125332754225553 0 -0.0039912716187894678 -0.010253665869892807 0 -0.0039898559942820348 -0.0087554549645773617 0 -0.0039912716187894678 -0.010253665869892807 0 -0.0039898559942820348 -0.0087554549645773617 0 -0.0046961497982098725 -0.0093460098725600214 0 -0.0026787708024179832 -0.0075396233521503883 0 -0.0031421414045901762 -0.0070055484872873913 0 -0.002758914950506237 -0.0074144077018204937 0 -0.0024365817763728789 -0.008236127453676018 0 -0.0030227685080326649 -0.0084819887225216009 0 -0.0024365817763728789 -0.008236127453676018 0 -0.0025440249943076225 -0.0094125332754225553 0 -0.0030227685080326649 -0.0084819887225216009 0 -0.0039898559942820348 -0.0087554549645773617 0 -0.005387405836717654 -0.0080534832463269087 0 -0.0046961497982098725 -0.0093460098725600214 0 -0.005387405836717654 -0.0080534832463269087 0 -0.0046961497982098725 -0.0093460098725600214 0 -0.0054128683084412425 -0.010310211873913693 0 -0.0031421414045901762 -0.0070055484872873913 0 -0.0041815758035044165 -0.0055400855570908623 0 -0.0041815758035044165 -0.0055400855570908623 0 -0.0047125486827904982 -0.0046953913484399975 0 -0.0039912716187894678 -0.010253665869892807 0 -0.0046961497982098725 -0.0093460098725600214 0 -0.0054128683084412425 -0.010310211873913693 0 -0.0039912716187894678 -0.010253665869892807 0 -0.0054128683084412425 -0.010310211873913693 0 -0.0044533932716431949 -0.011394453604436057 0 -0.0053499080339055646 -0.012368114861260399 0 -0.0054128683084412425 -0.010310211873913693 0 -0.0044533932716431949 -0.011394453604436057 0 -0.0053499080339055646 -0.012368114861260399 0 -0.0044533932716431949 -0.011394453604436057 0 -0.0037806072470013392 -0.01248673970795461 0 -0.0037806072470013392 -0.01248673970795461 0 -0.0034895841414531938 -0.011520308797824891 0 -0.0026530108609485303 -0.012139344992057282 0 -0.0044533932716431949 -0.011394453604436057 0 -0.0037806072470013392 -0.01248673970795461 0 -0.0034895841414531938 -0.011520308797824891 0 -0.0039912716187894678 -0.010253665869892807 0 -0.0044533932716431949 -0.011394453604436057 0 -0.0034895841414531938 -0.011520308797824891 0 -0.0039912716187894678 -0.010253665869892807 0 -0.0034895841414531938 -0.011520308797824891 0 -0.002703643379254318 -0.010853490172193255 0 -0.0034895841414531938 -0.011520308797824891 0 -0.002703643379254318 -0.010853490172193255 0 -0.0026530108609485303 -0.012139344992057282 0 -0.002703643379254318 -0.010853490172193255 0 -0.0026530108609485303 -0.012139344992057282 0 -0.0020662506526802041 -0.011392150147008633 0 -0.0016677040419629118 -0.010258722798352091 0 -0.002703643379254318 -0.010853490172193255 0 -0.0020662506526802041 -0.011392150147008633 0 -0.0037806072470013392 -0.01248673970795461 0 -0.0026530108609485303 -0.012139344992057282 0 -0.0029612348334342006 -0.0132840425596546 0 -0.0026530108609485303 -0.012139344992057282 0 -0.0018628663277569669 -0.012140970518202177 0 -0.0020662506526802041 -0.011392150147008633 0 -0.0026530108609485303 -0.012139344992057282 0 -0.0018628663277569669 -0.012140970518202177 0 -0.0021406972933093382 -0.012936549182943765 0 -0.0018628663277569669 -0.012140970518202177 0 -0.0012482821712347632 -0.01136876531656745 0 -0.0020662506526802041 -0.011392150147008633 0 -0.00013116302059582369 -0.010083902347220002 0 -0.0016677040419629118 -0.010258722798352091 0 -0.0012482821712347632 -0.01136876531656745 0 -0.0010108988545532334 -0.012012960536057932 0 -0.0018628663277569669 -0.012140970518202177 0 -0.0012482821712347632 -0.01136876531656745 0 -0.0016677040419629118 -0.010258722798352091 0 -0.0012482821712347632 -0.01136876531656745 0 -0.0020662506526802041 -0.011392150147008633 0 -0.0013159950278008555 -0.013407225656139901 0 -0.0021564630241628093 -0.013736214015878549 0 -0.0018419988033740269 -0.014576312417879649 0 -0.00088691765960005175 -0.014843208581025029 0 -0.0013853687946638444 -0.013723327040882008 0 -0.0013159950278008555 -0.013407225656139901 0 -0.0018628663277569669 -0.012140970518202177 0 -0.0021406972933093382 -0.012936549182943765 0 -0.0013159950278008555 -0.013407225656139901 0 -0.0021564630241628093 -0.013736214015878549 0 -0.0021406972933093382 -0.012936549182943765 0 -0.0021564630241628093 -0.013736214015878549 0 -0.0021406972933093382 -0.012936549182943765 0 -0.0029612348334342006 -0.0132840425596546 0 -0.0026530108609485303 -0.012139344992057282 0 -0.0021406972933093382 -0.012936549182943765 0 -0.0029612348334342006 -0.0132840425596546 0 -0.0021564630241628093 -0.013736214015878549 0 -0.0031805442152282996 -0.014602659311490289 0 -0.0018419988033740269 -0.014576312417879649 0 -0.0021564630241628093 -0.013736214015878549 0 -0.0029612348334342006 -0.0132840425596546 0 -0.0031805442152282996 -0.014602659311490289 0 -0.00304824837753353 8.5528177366859452e-05 0 -0.0029261827888622306 -0.0010003700259605228 0 -0.0021203120326379059 -0.00099927912140359686 0 -0.0029612348334342006 -0.0132840425596546 0 -0.0041848273980711432 -0.013582386705289716 0 -0.0031805442152282996 -0.014602659311490289 0 -0.0031742446291590349 -0.0056753131462610306 0 -0.0024205031904281815 -0.0074178698289885841 0 -0.0037806072470013392 -0.01248673970795461 0 -0.0029612348334342006 -0.0132840425596546 0 -0.0041848273980711432 -0.013582386705289716 0 -0.004498716959245929 -0.0023131558703473757 0 -0.0031742446291590349 -0.0056753131462610306 0 -0.0053499080339055646 -0.012368114861260399 0 -0.0037806072470013392 -0.01248673970795461 0 -0.0041848273980711432 -0.013582386705289716 0 -0.0039307785029332283 0.0011395153210158105 0 -0.00304824837753353 8.5528177366859452e-05 0 -0.0039703506735146313 -0.00012313015415056094 0 -0.00304824837753353 8.5528177366859452e-05 0 -0.0035285966884177123 -0.0007920405803976628 0 -0.0039703506735146313 -0.00012313015415056094 0 -0.00304824837753353 8.5528177366859452e-05 0 -0.0035285966884177123 -0.0007920405803976628 0 -0.0029261827888622306 -0.0010003700259605228 0 -0.0035285966884177123 -0.0007920405803976628 0 -0.0039703506735146313 -0.00012313015415056094 0 -0.0040248479235483851 -0.0014788882181398148 0 -0.0035285966884177123 -0.0007920405803976628 0 -0.0034203984184244512 -0.0015345406171248382 0 -0.0029261827888622306 -0.0010003700259605228 0 -0.0035285966884177123 -0.0007920405803976628 0 -0.0034203984184244512 -0.0015345406171248382 0 -0.0040248479235483851 -0.0014788882181398148 0 -0.0048950436197741885 0.006726825374675856 0 -0.0052510116007769489 0.0071513339721501435 0 -0.0034203984184244512 -0.0015345406171248382 0 -0.0030656960489718996 -0.0024480758826765834 0 -0.0040497364939621567 -0.0014743867069332804 0 -0.0022538245085230333 0.0012128178913934197 0 -0.0052510116007769489 0.0071513339721501435 0 -0.0034203984184244512 -0.0015345406171248382 0 -0.0030656960489718996 -0.0024480758826765834 0 -0.0025956628269997446 -0.0017422311338346978 0 -0.0032339947641614715 -0.0022015194298145957 0 -0.0044819066750876177 -0.00097018063389903793 0 -0.0045333108422614121 -0.0030741037852148228 0 -0.0030656960489718996 -0.0024480758826765834 0 -0.0025956628269997446 -0.0017422311338346978 0 -0.0020733572642743668 -0.0025332016980023114 0 -0.0025956628269997446 -0.0017422311338346978 0 -0.0029261827888622306 -0.0010003700259605228 0 -0.0021203120326379059 -0.00099927912140359686 0 -0.0034203984184244512 -0.0015345406171248382 0 -0.0025956628269997446 -0.0017422311338346978 0 -0.0029261827888622306 -0.0010003700259605228 0 -0.0024205031904281815 -0.0074178698289885841 0 -0.0017321350955584473 -0.0086964768559287132 0 -0.0031805442152282996 -0.014602659311490289 0 -0.0023132873194714643 -0.015552612503877952 0 -0.0018419988033740269 -0.014576312417879649 0 -0.0025956628269997446 -0.0017422311338346978 0 -0.0021203120326379059 -0.00099927912140359686 0 -0.0011681294642813217 -0.0021346830673401439 0 -0.0025956628269997446 -0.0017422311338346978 0 -0.0020733572642743668 -0.0025332016980023114 0 -0.0011681294642813217 -0.0021346830673401439 0 -0.0020733572642743668 -0.0025332016980023114 0 -0.0011681294642813217 -0.0021346830673401439 0 -0.0014313245233693304 -0.0029514178022860471 0 -0.0012252478175866315 -0.015601156596921687 0 -0.0023132873194714643 -0.015552612503877952 0 -0.0018419988033740269 -0.014576312417879649 0 -0.0012252478175866315 -0.015601156596921687 0 -0.0014995304767098643 -0.016499283195852095 0 -0.0023132873194714643 -0.015552612503877952 0 -0.0078285951332077823 0.011882656812294721 0 -0.0087707623823528591 0.014569180613796218 0 -0.0099177355997159995 0.015982625626969237 0 -0.0097722041849807473 0.017174674284495109 0 -0.0090973882600510845 0.015051177607362307 0 -0.010321069354277417 0.016395023339956568 0 -0.0099177355997159995 0.015982625626969237 0 -0.0097722041849807473 0.017174674284495109 0 -0.010321069354277417 0.016395023339956568 0 -0.0099177355997159995 0.015982625626969237 0 -0.010476595448951862 0.015314768468227378 0 -0.012118390231421807 0.015636307056798596 0 -0.011263255720765171 0.01670910168879091 0 -0.010476595448951862 0.015314768468227378 0 -0.010321069354277417 0.016395023339956568 0 -0.011263255720765171 0.01670910168879091 0 -0.010476595448951862 0.015314768468227378 0 -0.015459304269832596 0.026982501586254665 0 -0.012298840684893694 0.019912385098665934 0 -0.012298840684893694 0.019912385098665934 0 -0.0083742093526734483 0.01325537439617981 0 -0.010321069354277417 0.016395023339956568 0 -0.011263255720765171 0.01670910168879091 0 -0.010410458394065248 0.017789250068894247 0 -0.016149068787071223 0.023690369890353752 0 -0.015921131069336722 0.021981770897741979 0 -0.017611687916709438 0.021778772519746675 0 -0.014064680260261989 0.022385543438610961 0 -0.016149068787071223 0.023690369890353752 0 -0.015921131069336722 0.021981770897741979 0 -0.0077552363774224071 0.0092645851859188971 0 -0.0083742093526734483 0.01325537439617981 0 -0.0077552363774224071 0.0092645851859188971 0 -0.0078285951332077823 0.011882656812294721 0 -0.0083742093526734483 0.01325537439617981 0 -0.0078285951332077823 0.011882656812294721 0 -0.010321069354277417 0.016395023339956568 0 -0.010410458394065248 0.017789250068894247 0 -0.0097722041849807473 0.017174674284495109 0 -0.0073533875828561066 0.014526458284750691 0 -0.0082255763619535644 0.013408000564548612 0 -0.0064039474667666463 0.011653375804012255 0 -0.0035133200227349605 0.003084462832939444 0 -0.0023113168152681441 0.0030191281376126377 0 -0.0027022856258936251 0.0042127110577912883 0 -0.0035133200227349605 0.003084462832939444 0 -0.0027022856258936251 0.0042127110577912883 0 -0.0042309642911696676 0.0043067562331626031 0 -0.0043163783992838656 0.0030264709236058002 0 -0.0035133200227349605 0.003084462832939444 0 -0.0042309642911696676 0.0043067562331626031 0 -0.004498716959245929 -0.0023131558703473757 0 -0.0048816977301187432 0.0023409427654748332 0 -0.0060126598217401595 0.0028442086491475278 0 -0.0042309642911696676 0.0043067562331626031 0 -0.0059384983063296469 0.0050089371638953424 0 -0.0060126598217401595 0.0028442086491475278 0 -0.0043163783992838656 0.0030264709236058002 0 -0.0042309642911696676 0.0043067562331626031 0 -0.0042309642911696676 0.0043067562331626031 0 -0.0059384983063296469 0.0050089371638953424 0 -0.0042076277468124836 0.0056761804810509719 0 -0.0059384983063296469 0.0050089371638953424 0 -0.0042076277468124836 0.0056761804810509719 0 -0.0057170577506364898 0.0071458697524966214 0 -0.0027022856258936251 0.0042127110577912883 0 -0.0042309642911696676 0.0043067562331626031 0 -0.0042076277468124836 0.0056761804810509719 0 -0.0078285951332077823 0.011882656812294721 0 -0.0068089728681022289 0.01036608481858162 0 -0.0095301942434740227 0.016494539419838437 0 -0.0086472441807181194 0.015656713681511458 0 -0.0090973882600510845 0.015051177607362307 0 -0.0086472441807181194 0.015656713681511458 0 -0.0088925710556577303 0.014964343376142943 0 -0.00770296440913169 0.014758514046588563 0 -0.0086472441807181194 0.015656713681511458 0 -0.0090973882600510845 0.015051177607362307 0 -0.0088925710556577303 0.014964343376142943 0 -0.0064248611699362912 0.012943563524266347 0 -0.0065638249093277817 0.013036984611041491 0 -0.0067311096041552786 0.012982502998756029 0 -0.0068089728681022289 0.01036608481858162 0 -0.0060697265206009002 0.0088116650085755324 0 -0.0059384983063296469 0.0050089371638953424 0 -0.0058551455432919739 0.0072802225992861071 0 -0.0057170577506364898 0.0071458697524966214 0 -0.0048816977301187432 0.0023409427654748332 0 -0.0052510116007769489 0.0071513339721501435 0 -0.011295900415513578 0.018368238831967573 0 -0.0060697265206009002 0.0088116650085755324 0 -0.0065638249093277817 0.013036984611041491 0 -0.0067530653076869505 0.013003752942760486 0 -0.0067311096041552786 0.012982502998756029 0 -0.0052510116007769489 0.0071513339721501435 0 -0.0060697265206009002 0.0088116650085755324 0 -0.0052510116007769489 0.0071513339721501435 0 -0.0051087431042883416 0.0054109421563213276 0 -0.0065638249093277817 0.013036984611041491 0 -0.0067530653076869505 0.013003752942760486 0 -0.0065951519337883457 0.013251931524183311 0 -0.0067530653076869505 0.013003752942760486 0 -0.0065951519337883457 0.013251931524183311 0 -0.0067233615762988296 0.013426028071403655 0 -0.0064248611699362912 0.012943563524266347 0 -0.0065638249093277817 0.013036984611041491 0 -0.0064031384070032176 0.013320541377316293 0 -0.011295900415513578 0.018368238831967573 0 -0.010476254341549989 0.021727338837407479 0 -0.0065638249093277817 0.013036984611041491 0 -0.0065951519337883457 0.013251931524183311 0 -0.0064031384070032176 0.013320541377316293 0 -0.014812211923280227 0.02933332548847498 0 -0.013498730591393773 0.030382196113905479 0 -0.014765937622326973 0.031231754692076487 0 -0.014812211923280227 0.02933332548847498 0 -0.013498730591393773 0.030382196113905479 0 -0.013272194318221577 0.029042752657437047 0 -0.011295900415513578 0.018368238831967573 0 -0.012657344804815443 0.022476727310472257 0 -0.0099177355997159995 0.015982625626969237 0 -0.0090973882600510845 0.015051177607362307 0 -0.010476595448951862 0.015314768468227378 0 -0.0090973882600510845 0.015051177607362307 0 -0.0088925710556577303 0.014964343376142943 0 -0.010476595448951862 0.015314768468227378 0 -0.011737845002007806 0.028780925898139277 0 -0.013272194318221577 0.029042752657437047 0 -0.012280980184557144 0.029558938592292756 0 -0.015459304269832596 0.026982501586254665 0 -0.012657344804815443 0.022476727310472257 0 -0.013498730591393773 0.030382196113905479 0 -0.013272194318221577 0.029042752657437047 0 -0.012280980184557144 0.029558938592292756 0 -0.013498730591393773 0.030382196113905479 0 -0.012280980184557144 0.029558938592292756 0 -0.012148278305577511 0.031307533595124573 0 -0.012148278305577511 0.031307533595124573 0 -0.012916782089003013 0.032752121011730494 0 -0.013680941278206045 0.031940616534859183 0 -0.016356294640299137 0.038630744457318095 0 -0.015818339191795545 0.039901968855912531 0 -0.013498730591393773 0.030382196113905479 0 -0.012148278305577511 0.031307533595124573 0 -0.013680941278206045 0.031940616534859183 0 -0.018020059469965995 0.044330864146448198 0 -0.019103905547926951 0.04629512683976706 0 -0.017652828307054565 0.046452670668967411 0 -0.019103905547926951 0.04629512683976706 0 -0.01856780705538276 0.047716656128670785 0 -0.017652828307054565 0.046452670668967411 0 -0.013941876323843031 0.033090513275630208 0 -0.013680941278206045 0.031940616534859183 0 -0.014738208171274875 0.033157240639415622 0 -0.012916782089003013 0.032752121011730494 0 -0.013941876323843031 0.033090513275630208 0 -0.013716401791001512 0.034247008338130026 0 -0.012916782089003013 0.032752121011730494 0 -0.013941876323843031 0.033090513275630208 0 -0.013680941278206045 0.031940616534859183 0 -0.013498730591393773 0.030382196113905479 0 -0.013680941278206045 0.031940616534859183 0 -0.014765937622326973 0.031231754692076487 0 -0.0064031384070032176 0.013320541377316293 0 -0.0065335343949532027 0.01347050067142659 0 -0.0063791519405107166 0.01369027354109419 0 -0.010476254341549989 0.021727338837407479 0 -0.0096391167804049382 0.023299310778902422 0 -0.013680941278206045 0.031940616534859183 0 -0.014765937622326973 0.031231754692076487 0 -0.014738208171274875 0.033157240639415622 0 -0.0065951519337883457 0.013251931524183311 0 -0.0064031384070032176 0.013320541377316293 0 -0.0065335343949532027 0.01347050067142659 0 -0.0065951519337883457 0.013251931524183311 0 -0.0065335343949532027 0.01347050067142659 0 -0.0067233615762988296 0.013426028071403655 0 -0.0051087431042883416 0.0054109421563213276 0 -0.0045498752107211203 0.0048092659657910245 0 -0.0067233615762988296 0.013426028071403655 0 -0.0065544403030744266 0.013663002380140114 0 -0.0066790423542692707 0.013832309546484895 0 -0.0045333108422614121 -0.0030741037852148228 0 -0.004536828028398842 -0.0051034802769883243 0 -0.004215360812945196 -0.0048237239806078816 0 -0.0065335343949532027 0.01347050067142659 0 -0.0067233615762988296 0.013426028071403655 0 -0.0065544403030744266 0.013663002380140114 0 -0.0065335343949532027 0.01347050067142659 0 -0.0065544403030744266 0.013663002380140114 0 -0.0063791519405107166 0.01369027354109419 0 -0.013941876323843031 0.033090513275630208 0 -0.014738208171274875 0.033157240639415622 0 -0.014653498487615444 0.03348176392415074 0 -0.014738208171274875 0.033157240639415622 0 -0.014653498487615444 0.03348176392415074 0 -0.014631132555927719 0.036005954813289616 0 -0.0096391167804049382 0.023299310778902422 0 -0.0082927195979684634 0.024287757066051404 0 -0.014653498487615444 0.03348176392415074 0 -0.014311259547351293 0.034909253604510471 0 -0.014631132555927719 0.036005954813289616 0 -0.0063791519405107166 0.01369027354109419 0 -0.0065013461503326923 0.013856108467688895 0 -0.0063546132045505478 0.014042158392917137 0 -0.0065544403030744266 0.013663002380140114 0 -0.0063791519405107166 0.01369027354109419 0 -0.0065013461503326923 0.013856108467688895 0 -0.0065544403030744266 0.013663002380140114 0 -0.0065013461503326923 0.013856108467688895 0 -0.0066790423542692707 0.013832309546484895 0 -0.0065013461503326923 0.013856108467688895 0 -0.0066790423542692707 0.013832309546484895 0 -0.0065210527277705507 0.01402834225106344 0 -0.004536828028398842 -0.0051034802769883243 0 -0.0039005607750796749 -0.0056015812021791133 0 -0.0045440177256460173 -0.0067330441344521418 0 -0.0045498752107211203 0.0048092659657910245 0 -0.0031413355257580958 0.0062828058421576863 0 -0.0066790423542692707 0.013832309546484895 0 -0.0065210527277705507 0.01402834225106344 0 -0.0066395005786855149 0.014213918091907776 0 -0.0065210527277705507 0.01402834225106344 0 -0.0064755190499300834 0.01418878904650266 0 -0.0066395005786855149 0.014213918091907776 0 -0.014311259547351293 0.034909253604510471 0 -0.014631132555927719 0.036005954813289616 0 -0.014189089644783066 0.035441776344235419 0 -0.014631132555927719 0.036005954813289616 0 -0.013996014370952506 0.03599290136742158 0 -0.014189089644783066 0.035441776344235419 0 -0.0065013461503326923 0.013856108467688895 0 -0.0065210527277705507 0.01402834225106344 0 -0.0063546132045505478 0.014042158392917137 0 -0.0065210527277705507 0.01402834225106344 0 -0.0064288704801478058 0.014128506898786362 0 -0.0064755190499300834 0.01418878904650266 0 -0.0065210527277705507 0.01402834225106344 0 -0.0063546132045505478 0.014042158392917137 0 -0.0064288704801478058 0.014128506898786362 0 -0.013854542745963845 0.036685870798890081 0 -0.012932223702428707 0.036818361089307181 0 -0.013920068799693715 0.037688050555771048 0 -0.013996014370952506 0.03599290136742158 0 -0.012932223702428707 0.036818361089307181 0 -0.013169797593396582 0.034530477111831659 0 -0.012932223702428707 0.036818361089307181 0 -0.011142082244135961 0.036216574294810809 0 -0.013169797593396582 0.034530477111831659 0 -0.013854542745963845 0.036685870798890081 0 -0.013996014370952506 0.03599290136742158 0 -0.012932223702428707 0.036818361089307181 0 -0.014631132555927719 0.036005954813289616 0 -0.013854542745963845 0.036685870798890081 0 -0.013920068799693715 0.037688050555771048 0 -0.014631132555927719 0.036005954813289616 0 -0.013854542745963845 0.036685870798890081 0 -0.013996014370952506 0.03599290136742158 0 -0.013996014370952506 0.03599290136742158 0 -0.014189089644783066 0.035441776344235419 0 -0.013262094371034931 0.03464968254611233 0 -0.014717996449235958 0.040241439680203162 0 -0.015380849575470557 0.041648299979967579 0 -0.012932223702428707 0.036818361089307181 0 -0.011142082244135961 0.036216574294810809 0 -0.012240873693929864 0.037722168426803031 0 -0.01618665330445546 0.046870493167627716 0 -0.015380849575470557 0.041648299979967579 0 -0.018521412964940687 0.049689975039281194 0 -0.01856780705538276 0.047716656128670785 0 -0.020198781276508128 0.048249574933430725 0 -0.019103905547926951 0.04629512683976706 0 -0.01856780705538276 0.047716656128670785 0 -0.020198781276508128 0.048249574933430725 0 -0.018521412964940687 0.049689975039281194 0 -0.01856780705538276 0.047716656128670785 0 -0.017360978309265494 0.047898690755510558 0 -0.015818339191795545 0.039901968855912531 0 -0.015380849575470557 0.041648299979967579 0 -0.014653498487615444 0.03348176392415074 0 -0.014311259547351293 0.034909253604510471 0 -0.013262094371034931 0.03464968254611233 0 -0.013941876323843031 0.033090513275630208 0 -0.014653498487615444 0.03348176392415074 0 -0.013716401791001512 0.034247008338130026 0 -0.016008591716672956 0.040262433877927058 0 -0.015380849575470557 0.041648299979967579 0 -0.014311259547351293 0.034909253604510471 0 -0.014189089644783066 0.035441776344235419 0 -0.013262094371034931 0.03464968254611233 0 -0.0011919450463978695 -0.0096985467287063216 0 -0.0012610361110372752 -0.0070852003483485018 0 -0.00059426947927225754 -0.0041417706066318415 0 -0.001760408706079317 -0.0048994667660551957 0 -0.0011634136175017534 -0.004971167922371322 0 -0.00065069486036971075 -0.01082598615270644 0 -0.00059228443462198206 -0.0075970012932831399 0 -0.00062139958463293247 -0.0040243887225374043 0 -0.0018831806064816346 -0.0041375341872242561 0 -0.0017573673275861484 -0.0047761152229527145 0 -0.00062139958463293247 -0.0040243887225374043 0 -0.00081966897016985099 -0.0037802900083015118 0 -0.0018831806064816346 -0.0041375341872242561 0 -0.0011919450463978695 -0.0096985467287063216 0 -0.0017321350955584473 -0.0086964768559287132 0 -0.00021898906410601582 -0.0032991605741984841 0 -0.0011681294642813217 -0.0021346830673401439 0 -0.0014313245233693304 -0.0029514178022860471 0 -0.00021898906410601582 -0.0032991605741984841 0 -0.0014313245233693304 -0.0029514178022860471 0 -0.0014320870243461987 -0.00373511309072859 0 -0.0014313245233693304 -0.0029514178022860471 0 -0.0020797800534816096 -0.0034185085646400025 0 -0.0014320870243461987 -0.00373511309072859 0 -0.0020733572642743668 -0.0025332016980023114 0 -0.0014313245233693304 -0.0029514178022860471 0 -0.0020797800534816096 -0.0034185085646400025 0 -0.0018831806064816346 -0.0041375341872242561 0 -0.0030128452231174612 -0.0044932435735314897 0 -0.0017573673275861484 -0.0047761152229527145 0 -0.0020797800534816096 -0.0034185085646400025 0 -0.0014320870243461987 -0.00373511309072859 0 -0.0027627552931302163 -0.0042606102514515442 0 -0.0012610361110372752 -0.0070852003483485018 0 -0.0022301469428646545 -0.0061951903267210319 0 -0.0027627552931302163 -0.0042606102514515442 0 -0.0030960519049060583 -0.0032555093625843859 0 -0.0036851935011984398 -0.0038424435006619278 0 -0.0020797800534816096 -0.0034185085646400025 0 -0.0027627552931302163 -0.0042606102514515442 0 -0.0030960519049060583 -0.0032555093625843859 0 -0.0032339947641614715 -0.0022015194298145957 0 -0.0020797800534816096 -0.0034185085646400025 0 -0.0030960519049060583 -0.0032555093625843859 0 -0.0030656960489718996 -0.0024480758826765834 0 -0.0020733572642743668 -0.0025332016980023114 0 -0.0020797800534816096 -0.0034185085646400025 0 -0.0022538245085230333 0.0012128178913934197 0 -0.0015453445912958592 -0.00034799827742433635 0 -0.0032339947641614715 -0.0022015194298145957 0 -0.0045333108422614121 -0.0030741037852148228 0 -0.0030960519049060583 -0.0032555093625843859 0 -0.0045333108422614121 -0.0030741037852148228 0 -0.0030960519049060583 -0.0032555093625843859 0 -0.0036851935011984398 -0.0038424435006619278 0 -0.0045333108422614121 -0.0030741037852148228 0 -0.0036851935011984398 -0.0038424435006619278 0 -0.004215360812945196 -0.0048237239806078816 0 -0.0027627552931302163 -0.0042606102514515442 0 -0.0036851935011984398 -0.0038424435006619278 0 -0.004215360812945196 -0.0048237239806078816 0 -0.0030128452231174612 -0.0044932435735314897 0 -0.004215360812945196 -0.0048237239806078816 0 -0.0035201044702793702 -0.0051283155138493845 0 -0.0035201044702793702 -0.0051283155138493845 0 -0.0039005607750796749 -0.0056015812021791133 0 -0.0029698955557909724 -0.0056018719730823296 0 -0.0022301469428646545 -0.0061951903267210319 0 -0.0028211997671788603 -0.0060444725657236202 0 -0.004536828028398842 -0.0051034802769883243 0 -0.004215360812945196 -0.0048237239806078816 0 -0.0039005607750796749 -0.0056015812021791133 0 -0.004215360812945196 -0.0048237239806078816 0 -0.0035201044702793702 -0.0051283155138493845 0 -0.0039005607750796749 -0.0056015812021791133 0 -0.0039005607750796749 -0.0056015812021791133 0 -0.003552205378910195 -0.0062585676789670332 0 -0.0029698955557909724 -0.0056018719730823296 0 -0.0039005607750796749 -0.0056015812021791133 0 -0.003552205378910195 -0.0062585676789670332 0 -0.0045440177256460173 -0.0067330441344521418 0 -0.0029698955557909724 -0.0056018719730823296 0 -0.0025345631658177667 -0.0060820469051000615 0 -0.0020393831703080629 -0.0058473147967923527 0 -0.003552205378910195 -0.0062585676789670332 0 -0.0029698955557909724 -0.0056018719730823296 0 -0.0028485677855612955 -0.0064006169407481309 0 -0.0029698955557909724 -0.0056018719730823296 0 -0.0028485677855612955 -0.0064006169407481309 0 -0.0025345631658177667 -0.0060820469051000615 0 -0.0028485677855612955 -0.0064006169407481309 0 -0.0025345631658177667 -0.0060820469051000615 0 -0.0024291411460224789 -0.0063738746928275729 0 -0.0030128452231174612 -0.0044932435735314897 0 -0.0029698955557909724 -0.0056018719730823296 0 -0.0017573673275861484 -0.0047761152229527145 0 -0.0030128452231174612 -0.0044932435735314897 0 -0.0035201044702793702 -0.0051283155138493845 0 -0.0029698955557909724 -0.0056018719730823296 0 -0.0012217575865924079 -0.0071412968089878221 0 -0.00059228443462198206 -0.0075970012932831399 0 -0.0029698955557909724 -0.0056018719730823296 0 -0.0018757224526429123 -0.0053814374756017197 0 -0.0020393831703080629 -0.0058473147967923527 0 -0.0029698955557909724 -0.0056018719730823296 0 -0.001760408706079317 -0.0048994667660551957 0 -0.0018757224526429123 -0.0053814374756017197 0 -0.0018757224526429123 -0.0053814374756017197 0 -0.0020393831703080629 -0.0058473147967923527 0 -0.0013687095586984836 -0.0055507292950538788 0 -0.0025345631658177667 -0.0060820469051000615 0 -0.0019673582027215789 -0.0062946084040024931 0 -0.0020393831703080629 -0.0058473147967923527 0 -0.0025345631658177667 -0.0060820469051000615 0 -0.0024291411460224789 -0.0063738746928275729 0 -0.0019673582027215789 -0.0062946084040024931 0 -0.0019673582027215789 -0.0062946084040024931 0 -0.0020393831703080629 -0.0058473147967923527 0 -0.0014547661678024593 -0.006013640528814296 0 -0.0020393831703080629 -0.0058473147967923527 0 -0.0014547661678024593 -0.006013640528814296 0 -0.0013687095586984836 -0.0055507292950538788 0 -0.0014547661678024593 -0.006013640528814296 0 -0.00095667397810479909 -0.0058345375198904153 0 -0.0013687095586984836 -0.0055507292950538788 0 -0.0019673582027215789 -0.0062946084040024931 0 -0.0014547661678024593 -0.006013640528814296 0 -0.00094594152575314225 -0.0065416350235318046 0 -0.0014547661678024593 -0.006013640528814296 0 -0.00095667397810479909 -0.0058345375198904153 0 -0.00094594152575314225 -0.0065416350235318046 0 -0.00076840333167641991 -0.0052013303326266707 0 -0.00095667397810479909 -0.0058345375198904153 0 -0.0013687095586984836 -0.0055507292950538788 0 -0.0018757224526429123 -0.0053814374756017197 0 -0.0013687095586984836 -0.0055507292950538788 0 -0.0011634136175017534 -0.004971167922371322 0 -0.001760408706079317 -0.0048994667660551957 0 -0.0018757224526429123 -0.0053814374756017197 0 -0.0011634136175017534 -0.004971167922371322 0 -0.00076840333167641991 -0.0052013303326266707 0 -0.0013687095586984836 -0.0055507292950538788 0 -0.0011634136175017534 -0.004971167922371322 0 -0.00076840333167641991 -0.0052013303326266707 0 -0.00068123549128412133 -0.0047750885354432438 0 -0.0011634136175017534 -0.004971167922371322 0 0.0035160644583944194 -0.011128172456306302 0 0.0042907795104097637 -0.011411085092344347 0 0.0042142583020672551 -0.010693989966323217 0 0.0042907795104097637 -0.011411085092344347 0 0.0042142583020672551 -0.010693989966323217 0 0.0053595277291937629 -0.010580188331369034 0 0.0026883866354191848 -0.011073403274864746 0 0.0027415242551751887 -0.01088399185735151 0 0.0023860261518845647 -0.010897641494662819 0 0.0026883866354191848 -0.011073403274864746 0 0.0023860261518845647 -0.010897641494662819 0 0.0023446976456837684 -0.010969937661223703 0 0.00060532803826581503 -0.0079456455292058296 0 -0.0004934298828928788 -0.0019518286801388405 0 0.0036358411121221548 -0.0067922936423486227 0 0.00049299185524483223 -0.0016290232553353768 0 -0.0019673582027215789 -0.0062946084040024931 0 -0.00094594152575314225 -0.0065416350235318046 0 -0.0024756349583416664 -0.0067757539604307634 0 -0.0024291411460224789 -0.0063738746928275729 0 -0.0019673582027215789 -0.0062946084040024931 0 -0.0024756349583416664 -0.0067757539604307634 0 0.0042907795104097637 -0.011411085092344347 0 0.0060926469052853807 -0.01181862524242077 0 0.0053595277291937629 -0.010580188331369034 0 0.00049299185524483223 -0.0016290232553353768 0 0.0012915865516570592 -0.0015048476502203703 0 0.0060926469052853807 -0.01181862524242077 0 0.006794514180579081 -0.010538350428557868 0 0.0053595277291937629 -0.010580188331369034 0 -0.00087001957482108719 0.0026252042675955108 0 9.6366590407004799e-05 0.0024297719458807729 0 -0.00017905901226525223 0.0039467514309668135 0 -0.0004934298828928788 -0.0019518286801388405 0 -0.0016311751389825318 0.0026835520061674265 0 -0.0028485677855612955 -0.0064006169407481309 0 -0.0024756349583416664 -0.0067757539604307634 0 -0.003503706925521358 -0.0069516612846808627 0 -0.00019445963336903733 0.0010548595258565014 0 -0.00027951069869145453 0.000894906535947152 0 -0.00066757391916397733 0.00098317357775710881 0 -0.0004934298828928788 -0.0019518286801388405 0 0.00049299185524483223 -0.0016290232553353768 0 -0.0028485677855612955 -0.0064006169407481309 0 -0.0024291411460224789 -0.0063738746928275729 0 -0.0024756349583416664 -0.0067757539604307634 0 -0.003552205378910195 -0.0062585676789670332 0 -0.0028485677855612955 -0.0064006169407481309 0 -0.003503706925521358 -0.0069516612846808627 0 0.00049299185524483223 -0.0016290232553353768 0 -0.0016311751389825318 0.0026835520061674265 0 -0.0011712592402692804 0.0050192833545602824 0 -0.005290361926423061 0.0058903530311034367 0 -0.0053454782569758953 0.0043080508193608282 0 9.6366590407004799e-05 0.0024297719458807729 0 0.00063798431061432405 0.0033757579315100094 0 0.0012788926511068197 0.0026455426118484281 0 -0.0016311751389825318 0.0026835520061674265 0 -0.0029202161631193958 0.0095061550619974615 0 -0.0016311751389825318 0.0026835520061674265 0 -0.0031413355257580958 0.0062828058421576863 0 -0.003552205378910195 -0.0062585676789670332 0 -0.003503706925521358 -0.0069516612846808627 0 -0.0045440177256460173 -0.0067330441344521418 0 9.6366590407004799e-05 0.0024297719458807729 0 0.00063798431061432405 0.0033757579315100094 0 -0.00017905901226525223 0.0039467514309668135 0 0.00051704213194813818 0.0052705602099940825 0 -0.00017905901226525223 0.0039467514309668135 0 0.001355154242341607 0.004482360889210891 0 0.00063798431061432405 0.0033757579315100094 0 -0.00017905901226525223 0.0039467514309668135 0 0.001355154242341607 0.004482360889210891 0 0.0017324050939626133 0.00056564504744450485 0 0.0012915865516570592 -0.0015048476502203703 0 0.0061449712556527307 -0.0087033735501327175 0 0.0075094319598396006 -0.0092467218314616212 0 0.0063384680269147646 -0.0096938350505087721 0 0.0061449712556527307 -0.0087033735501327175 0 0.0063384680269147646 -0.0096938350505087721 0 0.0054444780215166582 -0.0095754057497194726 0 0.006794514180579081 -0.010538350428557868 0 0.0063384680269147646 -0.0096938350505087721 0 0.0053595277291937629 -0.010580188331369034 0 0.0075094319598396006 -0.0092467218314616212 0 0.006794514180579081 -0.010538350428557868 0 0.0063384680269147646 -0.0096938350505087721 0 0.0053595277291937629 -0.010580188331369034 0 0.0054444780215166582 -0.0095754057497194726 0 0.0044388878556570754 -0.0099894843133086532 0 0.0063384680269147646 -0.0096938350505087721 0 0.0053595277291937629 -0.010580188331369034 0 0.0054444780215166582 -0.0095754057497194726 0 0.0061449712556527307 -0.0087033735501327175 0 0.0054444780215166582 -0.0095754057497194726 0 0.0047419117079722873 -0.008980891586185662 0 0.0034486855449507264 -0.0095198646077536853 0 0.0047419117079722873 -0.008980891586185662 0 0.0044388878556570754 -0.0099894843133086532 0 0.0054444780215166582 -0.0095754057497194726 0 0.0047419117079722873 -0.008980891586185662 0 0.0044388878556570754 -0.0099894843133086532 0 0.0042142583020672551 -0.010693989966323217 0 0.0053595277291937629 -0.010580188331369034 0 0.0044388878556570754 -0.0099894843133086532 0 0.0035905277961717566 -0.010306436533536047 0 0.0042142583020672551 -0.010693989966323217 0 0.0044388878556570754 -0.0099894843133086532 0 -0.010345028125589406 0.033782511268661497 0 -0.0057389395038278069 0.023050090752600883 0 -0.010345028125589406 0.033782511268661497 0 -0.0047177234469610932 0.023782142162757241 0 -0.0059062326135493337 0.027979474456182547 0 -0.0046633251404318539 0.028132131768608223 0 -0.0047057869854840876 0.026500769476757762 0 -0.0065753670336264952 0.037127042868679704 0 -0.0059766035729653102 0.03768146659900877 0 -0.0059428882245447035 0.037014610569502775 0 -0.010474473690808873 0.041238558070695083 0 -0.010419926386240799 0.040047352113012823 0 -0.012174124760316122 0.039612179628811521 0 -0.010832385561581372 0.04345324594510773 0 -0.010345028125589406 0.033782511268661497 0 -0.010419926386240799 0.040047352113012823 0 -0.012140186208848242 0.039624181437931075 0 -0.011109088742335162 0.03835711990837308 0 -0.010260189818269016 0.034229465705042199 0 -0.010345028125589406 0.033782511268661497 0 -0.011142082244135961 0.036216574294810809 0 -0.011109088742335162 0.03835711990837308 0 -0.009000176966711855 0.037984547978740499 0 -0.010345028125589406 0.033782511268661497 0 -0.010835788060238119 0.034598194961330951 0 -0.011142082244135961 0.036216574294810809 0 -0.011109088742335162 0.03835711990837308 0 -0.012240873693929864 0.037722168426803031 0 -0.012067045219186643 0.039505606441731379 0 -0.011109088742335162 0.03835711990837308 0 -0.012240873693929864 0.037722168426803031 0 -0.012126827311818938 0.039343554719519468 0 -0.013920068799693715 0.037688050555771048 0 -0.014525526107922062 0.039043729203675263 0 -0.012932223702428707 0.036818361089307181 0 -0.012240873693929864 0.037722168426803031 0 -0.013920068799693715 0.037688050555771048 0 -0.012067045219186643 0.039505606441731379 0 -0.012240873693929864 0.037722168426803031 0 -0.013920068799693715 0.037688050555771048 0 -0.010345028125589406 0.033782511268661497 0 -0.010587731752219883 0.034683114690965619 0 -0.0064288704801478058 0.014128506898786362 0 -0.0064755190499300834 0.01418878904650266 0 -0.0063409868975503898 0.014367527952135219 0 -0.014631132555927719 0.036005954813289616 0 -0.013920068799693715 0.037688050555771048 0 -0.014525526107922062 0.039043729203675263 0 -0.0082927195979684634 0.024287757066051404 0 -0.0057389395038278069 0.023050090752600883 0 -0.0063546132045505478 0.014042158392917137 0 -0.0064288704801478058 0.014128506898786362 0 -0.0063409868975503898 0.014367527952135219 0 -0.0029202161631193958 0.0095061550619974615 0 -0.0057389395038278069 0.023050090752600883 0 -0.0064755190499300834 0.01418878904650266 0 -0.0066074001862571124 0.014295426528406516 0 -0.0063409868975503898 0.014367527952135219 0 -0.0064755190499300834 0.01418878904650266 0 -0.0066080005188924734 0.014213645958222826 0 -0.0066074001862571124 0.014295426528406516 0 -0.0041013038277939945 0.0069227876869585861 0 -0.0031413355257580958 0.0062828058421576863 0 -0.0031413355257580958 0.0062828058421576863 0 -0.0029202161631193958 0.0095061550619974615 0 -0.0029202161631193958 0.0095061550619974615 0 -0.00059423133732575432 0.0097467114216681621 0 -0.00081634556815124546 0.016926297875102192 0 -0.0014965624076091284 0.016034064053556233 0 -0.00085289781973682847 0.015458487822638591 0 0.00063798431061432405 0.0033757579315100094 0 0.0012788926511068197 0.0026455426118484281 0 0.001355154242341607 0.004482360889210891 0 -0.00081634556815124546 0.016926297875102192 0 -0.0019863491753948971 0.016740025945076054 0 -0.0014965624076091284 0.016034064053556233 0 -0.0019863491753948971 0.016740025945076054 0 -0.0014965624076091284 0.016034064053556233 0 -0.0020248900257679187 0.015369122010122489 0 -0.0057389395038278069 0.023050090752600883 0 -0.0047177234469610932 0.023782142162757241 0 -0.0014965624076091284 0.016034064053556233 0 -0.0020248900257679187 0.015369122010122489 0 -0.00085289781973682847 0.015458487822638591 0 0.0014368556798147101 0.0063339294958772953 0 0.00051704213194813818 0.0052705602099940825 0 0.001355154242341607 0.004482360889210891 0 0.0010642006457040601 0.008813853064581028 0 -0.00059423133732575432 0.0097467114216681621 0 -0.0008828016425298929 0.013957190887699053 0 -0.00085289781973682847 0.015458487822638591 0 -0.0014584787498603403 0.014664121905285715 0 -0.0031873713386587738 0.02439211365989373 0 -0.0047177234469610932 0.023782142162757241 0 -0.0020248900257679187 0.015369122010122489 0 -0.00085289781973682847 0.015458487822638591 0 -0.0014584787498603403 0.014664121905285715 0 -0.0035880208419676435 0.015295116396576418 0 -0.0034584854641283649 0.020197248217876433 0 -0.0013892458330862611 0.017646216133075834 0 -0.0047177234469610932 0.023782142162757241 0 -0.0017245739142870847 0.016210951826995182 0 -0.0050416343829536138 0.035257790716611344 0 -0.0050170664951014422 0.036503528412790621 0 -0.0061449451632465384 0.03616249222955268 0 -0.0059766035729653102 0.03768146659900877 0 -0.0050170664951014422 0.036503528412790621 0 -0.0059428882245447035 0.037014610569502775 0 -0.0050170664951014422 0.036503528412790621 0 -0.0059428882245447035 0.037014610569502775 0 -0.0061449451632465384 0.03616249222955268 0 -0.0065753670336264952 0.037127042868679704 0 -0.0059428882245447035 0.037014610569502775 0 -0.0061449451632465384 0.03616249222955268 0 -0.0065753670336264952 0.037127042868679704 0 -0.0061449451632465384 0.03616249222955268 0 -0.0071223639375322277 0.0366246977126033 0 -0.0062786165243038121 0.035161269251348562 0 -0.0071221038062960094 0.035556821441916658 0 -0.0061449451632465384 0.03616249222955268 0 -0.0088782173843942012 0.052767171696208301 0 -0.0095997532890323076 0.052684376623161014 0 -0.0093114858131302068 0.054895521647597353 0 -0.0071221038062960094 0.035556821441916658 0 -0.0061449451632465384 0.03616249222955268 0 -0.0071223639375322277 0.0366246977126033 0 -0.0082780526024913599 0.046769099375279823 0 -0.011185599560262086 0.053691315683869201 0 -0.0088782173843942012 0.052767171696208301 0 -0.0093114858131302068 0.054895521647597353 0 -0.0088971475518632489 0.055290198191838516 0 -0.0098151234737636102 0.058227348206797848 0 -0.011368655635495229 0.058669916484501733 0 -0.012093446414974878 0.067835265283446203 0 -0.011368655635495229 0.058669916484501733 0 -0.016073147531531166 0.073408314860347629 0 -0.01768383463282213 0.07186515867755805 0 -0.016309911586805309 0.0719439740097369 0 -0.015939633842115108 0.073050906040135033 0 -0.017493400322805296 0.072934485304779112 0 -0.017720633094173526 0.071268029856231749 0 -0.016779612970894909 0.071447335644370738 0 -0.017186513594786085 0.070938733776101617 0 -0.016060758450977167 0.071033818197669546 0 -0.016779612970894909 0.071447335644370738 0 -0.01768383463282213 0.07186515867755805 0 -0.016309911586805309 0.0719439740097369 0 -0.016779612970894909 0.071447335644370738 0 -0.017186513594786085 0.070938733776101617 0 -0.01768383463282213 0.07186515867755805 0 -0.011368655635495229 0.058669916484501733 0 -0.012026505518869999 0.064864248493440108 0 -0.011185599560262086 0.053691315683869201 0 -0.013467925822982786 0.054726413118206779 0 -0.017627341845268926 0.071262709030061738 0 -0.017822081860699793 0.071089755946239147 0 -0.017891881696506386 0.0702338205470215 0 -0.010474473690808873 0.041238558070695083 0 -0.0089166935852462523 0.042724271937930922 0 -0.0089463892774945333 0.040322801052038719 0 -0.017186513594786085 0.070938733776101617 0 -0.01768383463282213 0.07186515867755805 0 -0.017872469042346507 0.070114294736121796 0 -0.011368655635495229 0.058669916484501733 0 -0.011185599560262086 0.053691315683869201 0 -0.010832385561581372 0.04345324594510773 0 -0.011185599560262086 0.053691315683869201 0 -0.017627341845268926 0.071262709030061738 0 -0.017872469042346507 0.070114294736121796 0 -0.017891881696506386 0.0702338205470215 0 -0.010419926386240799 0.040047352113012823 0 -0.0089463892774945333 0.040322801052038719 0 -0.009000176966711855 0.037984547978740499 0 -0.010474473690808873 0.041238558070695083 0 -0.010419926386240799 0.040047352113012823 0 -0.0089463892774945333 0.040322801052038719 0 -0.017872469042346507 0.070114294736121796 0 -0.017891881696506386 0.0702338205470215 0 -0.017920383169619008 0.069094600695828262 0 -0.017186513594786085 0.070938733776101617 0 -0.016532639579551391 0.070274785718387411 0 -0.016060758450977167 0.071033818197669546 0 -0.017186513594786085 0.070938733776101617 0 -0.017872469042346507 0.070114294736121796 0 -0.016532639579551391 0.070274785718387411 0 -0.017872469042346507 0.070114294736121796 0 -0.016532639579551391 0.070274785718387411 0 -0.017920383169619008 0.069094600695828262 0 -0.016532639579551391 0.070274785718387411 0 -0.016498625967074805 0.068877512832626345 0 -0.017894428719165155 0.069119863743959273 0 -0.013436737112071962 0.060686683152658891 0 -0.015765917184664392 0.05513295722589006 0 -0.010419926386240799 0.040047352113012823 0 -0.011109088742335162 0.03835711990837308 0 -0.009000176966711855 0.037984547978740499 0 -0.013467925822982786 0.054726413118206779 0 -0.015765917184664392 0.05513295722589006 0 -0.015053256985107021 0.070016757430754861 0 -0.013862867836797381 0.069104081271185433 0 -0.015230845327853338 0.068614186922884582 0 -0.016532639579551391 0.070274785718387411 0 -0.016498625967074805 0.068877512832626345 0 -0.015053256985107021 0.070016757430754861 0 -0.016498625967074805 0.068877512832626345 0 -0.015053256985107021 0.070016757430754861 0 -0.015230845327853338 0.068614186922884582 0 -0.016532639579551391 0.070274785718387411 0 -0.015053256985107021 0.070016757430754861 0 -0.016060758450977167 0.071033818197669546 0 -0.015053256985107021 0.070016757430754861 0 -0.015088864177103877 0.071461087186585434 0 -0.016060758450977167 0.071033818197669546 0 -0.015053256985107021 0.070016757430754861 0 -0.015088864177103877 0.071461087186585434 0 -0.014002342035964272 0.071137335997625048 0 -0.015088864177103877 0.071461087186585434 0 -0.014286187806245038 0.072219173085171534 0 -0.014002342035964272 0.071137335997625048 0 -0.015088864177103877 0.071461087186585434 0 -0.016060758450977167 0.071033818197669546 0 -0.016309911586805309 0.0719439740097369 0 -0.015088864177103877 0.071461087186585434 0 -0.016309911586805309 0.0719439740097369 0 -0.015334504779610484 0.072550496462020872 0 -0.016779612970894909 0.071447335644370738 0 -0.016060758450977167 0.071033818197669546 0 -0.016309911586805309 0.0719439740097369 0 -0.016073147531531166 0.073408314860347629 0 -0.016309911586805309 0.0719439740097369 0 -0.015334504779610484 0.072550496462020872 0 -0.015008437714056959 0.07355226445321543 0 -0.016073147531531166 0.073408314860347629 0 -0.015334504779610484 0.072550496462020872 0 -0.015088864177103877 0.071461087186585434 0 -0.015334504779610484 0.072550496462020872 0 -0.014286187806245038 0.072219173085171534 0 -0.014399317133299198 0.073230407825592078 0 -0.015008437714056959 0.07355226445321543 0 -0.015334504779610484 0.072550496462020872 0 -0.014399317133299198 0.073230407825592078 0 -0.015334504779610484 0.072550496462020872 0 -0.014286187806245038 0.072219173085171534 0 -0.014399317133299198 0.073230407825592078 0 -0.014286187806245038 0.072219173085171534 0 -0.013395695542018879 0.072980415412548974 0 -0.014286187806245038 0.072219173085171534 0 -0.013395695542018879 0.072980415412548974 0 -0.013332964670525971 0.07197507732655703 0 -0.013395695542018879 0.072980415412548974 0 -0.012321217907805394 0.072520560269226 0 -0.013332964670525971 0.07197507732655703 0 -0.012325592438655648 0.073864632470237793 0 -0.013395695542018879 0.072980415412548974 0 -0.012321217907805394 0.072520560269226 0 -0.012325592438655648 0.073864632470237793 0 -0.012321217907805394 0.072520560269226 0 -0.010926490188314351 0.073232407135071245 0 -0.012704948930769559 0.071230794070463524 0 -0.011151110764285446 0.071761346956511249 0 -0.011842543158396638 0.070546280299355585 0 -0.012321217907805394 0.072520560269226 0 -0.012704948930769559 0.071230794070463524 0 -0.013332964670525971 0.07197507732655703 0 -0.012321217907805394 0.072520560269226 0 -0.012704948930769559 0.071230794070463524 0 -0.011151110764285446 0.071761346956511249 0 -0.012704948930769559 0.071230794070463524 0 -0.014002342035964272 0.071137335997625048 0 -0.013332964670525971 0.07197507732655703 0 -0.014286187806245038 0.072219173085171534 0 -0.014002342035964272 0.071137335997625048 0 -0.013332964670525971 0.07197507732655703 0 -0.0091072043580467769 0.072724824713954098 0 -0.010926490188314351 0.073232407135071245 0 -0.011151110764285446 0.071761346956511249 0 -0.0098586119903935534 0.07392701724459165 0 -0.0091072043580467769 0.072724824713954098 0 -0.010926490188314351 0.073232407135071245 0 -0.012321217907805394 0.072520560269226 0 -0.010926490188314351 0.073232407135071245 0 -0.011151110764285446 0.071761346956511249 0 -0.0091072043580467769 0.072724824713954098 0 -0.011151110764285446 0.071761346956511249 0 -0.0093145999047893595 0.070708317917359362 0 -0.0066925047810376895 0.07115886451410372 0 -0.0074092090805763129 0.070926696122061539 0 -0.0093145999047893595 0.070708317917359362 0 -0.011327819238275447 0.069768895902745057 0 -0.0094619157948959351 0.069363731740822707 0 -0.011151110764285446 0.071761346956511249 0 -0.0093145999047893595 0.070708317917359362 0 -0.011842543158396638 0.070546280299355585 0 -0.0093145999047893595 0.070708317917359362 0 -0.011842543158396638 0.070546280299355585 0 -0.011327819238275447 0.069768895902745057 0 -0.011327819238275447 0.069768895902745057 0 -0.0094619157948959351 0.069363731740822707 0 -0.010747684923796241 0.068125752990010141 0 -0.011842543158396638 0.070546280299355585 0 -0.011327819238275447 0.069768895902745057 0 -0.012730460600503386 0.069528273518555714 0 -0.015053256985107021 0.070016757430754861 0 -0.014002342035964272 0.071137335997625048 0 -0.013400376669898444 0.070110092978691751 0 -0.012704948930769559 0.071230794070463524 0 -0.014002342035964272 0.071137335997625048 0 -0.013400376669898444 0.070110092978691751 0 -0.012704948930769559 0.071230794070463524 0 -0.011842543158396638 0.070546280299355585 0 -0.013400376669898444 0.070110092978691751 0 -0.011842543158396638 0.070546280299355585 0 -0.013400376669898444 0.070110092978691751 0 -0.012730460600503386 0.069528273518555714 0 -0.012730460600503386 0.069528273518555714 0 -0.013862867836797381 0.069104081271185433 0 -0.01282263171044235 0.068431036671581638 0 -0.011327819238275447 0.069768895902745057 0 -0.012730460600503386 0.069528273518555714 0 -0.01282263171044235 0.068431036671581638 0 -0.013400376669898444 0.070110092978691751 0 -0.012730460600503386 0.069528273518555714 0 -0.013862867836797381 0.069104081271185433 0 -0.015053256985107021 0.070016757430754861 0 -0.013400376669898444 0.070110092978691751 0 -0.013862867836797381 0.069104081271185433 0 -0.019862115827619126 0.067943933580671481 0 -0.01282263171044235 0.068431036671581638 0 -0.016467763639747106 0.065645023255866769 0 -0.013862867836797381 0.069104081271185433 0 -0.01420073898818089 0.068123606324542521 0 -0.01282263171044235 0.068431036671581638 0 -0.016933711359480935 0.065502476642345875 0 -0.015049106131954024 0.066527499433857412 0 -0.01282263171044235 0.068431036671581638 0 -0.012981193974663284 0.067110538738502715 0 -0.016467763639747106 0.065645023255866769 0 -0.012981193974663284 0.067110538738502715 0 -0.016467763639747106 0.065645023255866769 0 -0.015587382848321734 0.061523561777098432 0 -0.013680735470259759 0.066024119630145303 0 -0.015387927400352594 0.06210872787781134 0 -0.013336733990658951 0.06703581368125619 0 -0.01289776089098838 0.064651125500826731 0 -0.016018448965265407 0.062173113316359878 0 -0.016467763639747106 0.065645023255866769 0 -0.015587382848321734 0.061523561777098432 0 -0.021280150342655037 0.062400456329933664 0 -0.019862115827619126 0.067943933580671481 0 -0.016467763639747106 0.065645023255866769 0 -0.021280150342655037 0.062400456329933664 0 -0.0094619157948959351 0.069363731740822707 0 -0.0088413101603432506 0.067680227944873647 0 -0.010747684923796241 0.068125752990010141 0 -0.0088413101603432506 0.067680227944873647 0 -0.010747684923796241 0.068125752990010141 0 -0.011143049844076517 0.066241893330802257 0 -0.012834536824270708 0.067872921511318005 0 -0.013680735470259759 0.066024119630145303 0 -0.011327819238275447 0.069768895902745057 0 -0.013336733990658951 0.06703581368125619 0 -0.010747684923796241 0.068125752990010141 0 -0.011327819238275447 0.069768895902745057 0 -0.01282263171044235 0.068431036671581638 0 -0.012981193974663284 0.067110538738502715 0 -0.013336733990658951 0.06703581368125619 0 -0.010747684923796241 0.068125752990010141 0 -0.011143049844076517 0.066241893330802257 0 -0.01289776089098838 0.064651125500826731 0 -0.011143049844076517 0.066241893330802257 0 -0.011220976875048489 0.062985469282156467 0 -0.013336733990658951 0.06703581368125619 0 -0.01289776089098838 0.064651125500826731 0 -0.011143049844076517 0.066241893330802257 0 -0.0070268237966129524 0.065530279144224449 0 -0.0088413101603432506 0.067680227944873647 0 -0.011143049844076517 0.066241893330802257 0 -0.0070268237966129524 0.065530279144224449 0 -0.011143049844076517 0.066241893330802257 0 -0.011220976875048489 0.062985469282156467 0 -0.0070268237966129524 0.065530279144224449 0 -0.0079686802973950484 0.060261929361332234 0 -0.011220976875048489 0.062985469282156467 0 -0.0079686802973950484 0.060261929361332234 0 -0.011220976875048489 0.062985469282156467 0 -0.012741735117040319 0.056955702124395026 0 -0.011220976875048489 0.062985469282156467 0 -0.012741735117040319 0.056955702124395026 0 -0.016018448965265407 0.062173113316359878 0 -0.01289776089098838 0.064651125500826731 0 -0.011220976875048489 0.062985469282156467 0 -0.016018448965265407 0.062173113316359878 0 -0.0074397903509902993 0.055006595276837891 0 -0.0079686802973950484 0.060261929361332234 0 -0.012741735117040319 0.056955702124395026 0 -0.015587382848321734 0.061523561777098432 0 -0.01817672068703827 0.056051561634466923 0 -0.021280150342655037 0.062400456329933664 0 -0.015387927400352594 0.06210872787781134 0 -0.016456437138727704 0.059524868523197938 0 -0.012741735117040319 0.056955702124395026 0 -0.016018448965265407 0.062173113316359878 0 -0.01817672068703827 0.056051561634466923 0 -0.023202271849878407 0.053120384064785295 0 -0.01817672068703827 0.056051561634466923 0 -0.024060167423392877 0.05825685605641457 0 -0.01817672068703827 0.056051561634466923 0 -0.024060167423392877 0.05825685605641457 0 -0.021280150342655037 0.062400456329933664 0 -0.024060167423392877 0.05825685605641457 0 -0.021280150342655037 0.062400456329933664 0 -0.027915899003385192 0.061395086030716625 0 -0.023202271849878407 0.053120384064785295 0 -0.024060167423392877 0.05825685605641457 0 -0.028359602191480041 0.056887697892675462 0 -0.024060167423392877 0.05825685605641457 0 -0.027915899003385192 0.061395086030716625 0 -0.028359602191480041 0.056887697892675462 0 -0.027915899003385192 0.061395086030716625 0 -0.028359602191480041 0.056887697892675462 0 -0.033183211963136415 0.058216700418278852 0 -0.030327109874206313 0.053520443140508231 0 -0.028359602191480041 0.056887697892675462 0 -0.033183211963136415 0.058216700418278852 0 -0.018020059469965995 0.044330864146448198 0 -0.016896424957340964 0.04519870808484807 0 -0.017652828307054565 0.046452670668967411 0 -0.020652133872980948 0.050545686697924433 0 -0.019872374527817951 0.056844931256656087 0 -0.016896424957340964 0.04519870808484807 0 -0.017652828307054565 0.046452670668967411 0 -0.016866092927581806 0.048028899443822215 0 -0.027915899003385192 0.061395086030716625 0 -0.033183211963136415 0.058216700418278852 0 -0.033104693876118453 0.064721282778778921 0 -0.019872374527817951 0.056844931256656087 0 -0.019753484981383917 0.062524531498062266 0 -0.027915899003385192 0.061395086030716625 0 -0.033104693876118453 0.064721282778778921 0 -0.026627205474081747 0.066373393939023473 0 -0.018521412964940687 0.049689975039281194 0 -0.017360978309265494 0.047898690755510558 0 -0.016860392109891178 0.04802809110130133 0 -0.01856780705538276 0.047716656128670785 0 -0.017652828307054565 0.046452670668967411 0 -0.017360978309265494 0.047898690755510558 0 -0.017652828307054565 0.046452670668967411 0 -0.017360978309265494 0.047898690755510558 0 -0.016866092927581806 0.048028899443822215 0 -0.019833954083372768 0.056759110833672806 0 -0.019872374527817951 0.056844931256656087 0 -0.015765917184664392 0.05513295722589006 0 -0.019872374527817951 0.056844931256656087 0 -0.01618665330445546 0.046870493167627716 0 -0.015765917184664392 0.05513295722589006 0 -0.018521412964940687 0.049689975039281194 0 -0.016827572169717517 0.051132410843824506 0 -0.016860392109891178 0.04802809110130133 0 -0.016498625967074805 0.068877512832626345 0 -0.017917873513256827 0.067025318895163818 0 -0.016031258772448858 0.067542664417601331 0 -0.016498625967074805 0.068877512832626345 0 -0.017894428719165155 0.069119863743959273 0 -0.017917873513256827 0.067025318895163818 0 -0.016498625967074805 0.068877512832626345 0 -0.015230845327853338 0.068614186922884582 0 -0.016031258772448858 0.067542664417601331 0 -0.01420073898818089 0.068123606324542521 0 -0.015230845327853338 0.068614186922884582 0 -0.016031258772448858 0.067542664417601331 0 -0.016933711359480935 0.065502476642345875 0 -0.019753484981383917 0.062524531498062266 0 -0.013862867836797381 0.069104081271185433 0 -0.01420073898818089 0.068123606324542521 0 -0.015230845327853338 0.068614186922884582 0 -0.019862115827619126 0.067943933580671481 0 -0.021280150342655037 0.062400456329933664 0 -0.026627205474081747 0.066373393939023473 0 -0.021280150342655037 0.062400456329933664 0 -0.027915899003385192 0.061395086030716625 0 -0.026627205474081747 0.066373393939023473 0 
</DataArray>
</PointData>
<CellData Scalars="region_id,cross_section_updated," Vectors="" Tensors="stress,">
<DataArray type="Float64" Name="region_id" format="ascii">
5 5 6 5 5 5 5 6 5 5 5 5 5 5 5 5 5 5 5 5 6 5 5 5 5 6 5 5 5 5 5 5 5 6 5 5 5 5 5 5 5 5 6 5 5 5 5 5 5 5 5 5 5 5 6 6 5 5 5 5 5 5 5 5 6 5 5 5 5 5 5 5 5 5 5 5 5 5 5 5 5 5 5 5 5 5 5 6 5 5 5 5 5 5 5 5 5 5 5 6 5 5 5 6 5 5 5 5 5 5 5 5 5 5 5 5 5 5 5 5 5 5 5 5 5 5 5 5 5 5 5 5 5 5 5 5 5 5 5 5 5 5 5 5 5 5 5 5 5 6 5 6 5 5 5 5 5 5 5 5 5 5 5 5 5 5 5 5 5 5 5 5 5 5 5 5 5 5 6 5 5 6 5 6 5 5 5 5 5 5 5 5 5 5 5 5 5 5 6 5 6 5 5 5 5 5 5 5 6 5 6 5 5 5 5 5 5 6 5 5 6 5 5 5 5 5 5 6 6 5 5 6 5 6 5 6 6 5 5 5 6 5 5 5 5 5 5 5 5 5 5 5 5 5 6 5 5 5 5 5 5 5 6 5 5 5 5 5 5 5 6 5 5 5 5 6 5 5 5 5 5 5 6 5 5 5 6 5 5 5 5 5 5 5 6 5 5 5 5 5 5 6 5 5 5 5 5 5 6 5 5 5 5 5 5 5 6 5 5 5 5 5 5 5 5 5 5 5 5 5 5 5 5 5 5 5 5 5 6 6 5 5 5 5 5 6 5 5 5 5 5 5 5 6 5 6 5 5 5 6 5 5 5 6 5 6 5 5 5 5 5 5 5 6 5 5 5 5 5 5 5 6 5 5 5 6 5 5 5 5 5 5 5 5 5 5 5 5 5 5 5 5 5 5 5 5 5 5 5 5 5 5 5 5 5 5 5 5 6 5 5 5 5 5 5 5 5 5 5 5 5 5 5 5 5 5 5 5 5 5 5 5 5 5 5 5 5 5 5 5 5 6 5 5 5 5 5 5 5 5 5 5 5 5 5 5 5 5 5 5 5 5 6 5 5 5 5 5 5 5 6 5 5 5 5 5 6 5 5 6 5 6 5 5 5 5 6 5 5 6 5 5 5 5 5 5 6 5 5 5 5 5 5 5 5 5 5 5 5 5 5 5 5 5 5 5 6 5 5 5 5 5 5 5 5 5 5 5 6 6 5 5 5 5 5 5 5 5 5 5 5 5 5 5 5 5 5 5 5 5 5 6 5 6 6 5 5 6 5 5 5 5 5 5 5 5 5 5 5 5 5 6 5 5 5 5 5 5 5 6 6 5 5 5 5 5 5 5 5 6 6 5 5 5 6 5 5 5 5 5 5 5 5 5 5 5 5 5 5 5 5 5 5 5 5 5 5 5 5 5 5 5 5 5 5 5 5 5 5 5 6 5 5 6 5 5 5 5 6 5 5 5 6 5 5 5 6 5 5 6 5 5 5 5 5 5 5 5 5 5 5 5 5 5 5 5 5 5 5 5 5 6 5 5 5 6 5 5 5 5 5 6 5 5 5 5 5 5 6 5 5 5 5 5 5 5 5 5 5 5 5 5 5 5 5 5 5 6 5 5 5 5 5 5 5 5 5 5 5 5 5 5 5 5 5 5 5 5 5 6 5 5 5 5 5 5 5 5 5 5 5 5 5 5 5 6 5 5 5 5 5 5 5 5 5 5 5 5 5 5 5 5 5 5 6 5 5 5 5 5 5 5 6 5 5 5 5 5 5 5 5 5 5 5 5 5 5 5 5 5 5 5 5 5 6 5 5 5 5 5 5 5 5 5 6 5 5 5 5 5 5 5 5 6 5 5 5 5 5 5 5 5 5 5 5 5 5 5 5 5 5 5 5 6 5 5 5 5 5 6 5 5 5 6 5 5 5 5 5 5 6 5 5 5 5 5 5 5 5 5 5 6 5 5 5 5 5 5 5 5 5 5 5 5 6 5 6 5 5 5 5 5 5 5 6 5 6 5 5 5 5 5 5 5 5 5 5 5 5 5 5 5 5 5 5 5 5 5 5 5 5 5 5 5 5 5 5 5 5 5 5 5 5 5 5 5 5 5 5 5 5 5 6 6 5 5 6 5 5 5 5 5 5 5 5 5 5 5 5 5 5 5 5 6 5 5 5 5 6 5 5 6 5 5 5 5 5 5 6 5 6 5 5 6 5 5 5 5 5 5 5 5 5 5 6 5 5 5 5 5 6 6 5 5 5 5 6 5 5 6 5 6 5 5 5 5 5 6 5 5 6 5 5 5 5 5 5 5 5 5 5 5 5 6 5 5 5 5 5 5 5 5 5 5 5 5 5 5 5 6 5 6 5 6 6 5 6 5 5 6 5 5 5 5 5 5 6 5 6 5 5 6 5 5 5 6 5 5 6 5 5 5 5 5 6 5 5 6 5 5 5 5 5 6 5 6 5 5 6 5 5 6 5 5 5 5 5 5 5 5 6 5 5 5 5 5 5 5 5 5 5 6 5 5 5 5 6 5 5 6 5 5 5 5 5 6 5 5 5 5 5 6 5 6 5 5 5 5 5 5 6 5 5 5 5 5 5 5 5 6 6 6 5 5 5 5 6 5 6 5 5 5 6 6 5 5 5 6 5 5 5 6 5 6 5 6 6 5 6 5 5 5 5 6 5 5 5 6 5 6 5 6 5 5 5 5 5 5 5 6 5 5 5 5 6 5 5 5 5 5 5 5 5 6 5 6 6 5 5 5 6 5 5 5 5 6 6 5 5 6 6 5 5 5 5 5 6 5 5 5 5 5 5 5 5 6 5 6 5 5 5 5 5 5 5 5 5 5 5 5 5 5 5 5 5 6 5 5 5 5 5 5 5 5 5 5 5 5 5 5 5 5 5 5 5 5 5 5 5 5 5 6 5 6 5 5 5 5 5 6 6 5 5 5 5 6 6 5 6 5 5 6 5 5 6 5 5 5 5 6 6 5 5 5 5 5 5 5 5 6 5 5 6 5 5 5 6 5 5 6 5 5 5 5 5 5 6 5 5 5 5 5 5 6 5 5 5 5 5 6 5 5 6 6 5 5 6 5 5 6 5 5 5 5 5 5 5 5 5 5 5 5 6 5 6 5 5 6 5 5 5 5 5 5 6 5 5 5 6 6 6 5 5 5 6 6 5 6 6 5 5 6 5 5 6 5 6 5 6 5 5 5 6 6 5 5 6 6 6 6 5 5 5 6 6 5 5 6 6 6 5 6 6 5 5 6 5 6 6 5 6 5 5 6 5 6 6 5 5 5 5 6 6 5 5 6 5 5 5 6 5 5 5 5 5 5 5 5 5 5 5 5 5 5 5 5 5 5 5 5 5 5 5 5 5 5 5 5 5 5 5 5 5 5 5 5 5 5 5 5 5 5 5 5 5 5 5 5 5 5 5 5 5 5 5 5 5 5 6 5 6 5 5 5 5 5 5 5 5 5 5 5 5 5 5 6 5 5 5 5 5 5 5 5 5 5 6 5 5 5 5 5 5 5 5 5 5 5 5 5 5 5 5 5 5 5 5 5 5 5 5 5 5 5 5 5 5 5 5 5 5 5 5 5 5 5 5 5 5 5 5 5 5 6 5 5 5 6 5 6 5 5 5 5 5 6 5 6 5 5 5 5 5 5 5 5 5 5 5 5 5 5 5 5 5 5 5 5 5 5 5 5 5 6 5 5 5 5 5 5 6 5 6 5 5 5 6 5 5 6 5 5 5 5 5 5 5 5 5 5 5 5 5 5 5 5 5 5 5 5 5 5 5 5 5 5 5 5 5 5 5 5 5 5 5 5 5 6 5 6 5 5 5 5 5 5 5 5 5 5 6 5 5 5 5 5 5 5 5 5 5 5 5 5 5 5 5 5 6 5 5 5 6 6 5 6 5 5 5 5 5 5 5 5 6 5 5 5 5 6 5 5 5 5 5 5 5 6 5 5 6 5 6 5 5 6 5 5 6 6 5 5 5 5 5 5 5 5 5 5 5 5 5 5 5 6 5 6 5 5 5 6 5 6 5 5 5 5 5 5 5 5 5 5 5 5 6 5 6 5 5 5 5 5 5 5 5 6 5 5 6 5 5 5 6 6 5 5 5 5 5 5 5 5 5 5 5 5 5 5 5 5 5 5 5 5 5 6 5 5 5 5 5 6 5 6 5 5 5 5 6 5 5 6 5 5 5 5 5 6 5 5 5 5 6 5 5 5 5 5 5 5 6 5 5 5 6 5 5 5 5 5 5 5 5 5 5 5 6 5 5 5 5 5 5 5 5 6 5 5 5 5 5 5 6 5 5 5 5 5 5 6 5 5 5 5 5 5 5 5 5 5 5 6 5 5 5 6 5 5 5 6 5 6 5 5 5 5 5 5 6 5 5 5 5 5 5 5 5 5 5 5 5 5 5 5 6 5 5 5 5 5 6 5 5 5 5 5 5 5 5 6 5 5 5 5 5 5 5 5 5 5 5 5 5 5 5 5 6 5 5 5 5 6 5 5 5 5 5 5 5 5 5 5 5 5 5 5 5 5 5 5 5 5 5 5 5 5 5 5 6 5 5 5 6 5 6 5 5 5 5 6 5 6 5 5 5 5 5 6 5 5 5 5 5 5 5 5 5 6 5 5 5 5 5 5 5 5 5 5 5 5 5 5 5 5 5 5 5 5 5 5 5 5 6 6 5 5 5 5 5 6 5 5 5 6 5 5 5 6 5 5 6 5 6 5 5 5 5 6 5 5 5 5 6 6 5 5 5 5 5 5 5 5 5 5 5 5 6 5 5 5 5 6 5 5 5 5 5 6 5 5 6 5 5 5 5 5 5 5 5 5 5 5 5 5 5 5 5 6 5 5 6 5 5 5 6 5 5 5 5 5 5 5 5 5 5 5 6 5 5 5 5 5 5 5 5 5 5 5 5 5 5 5 5 6 5 5 6 5 6 5 5 6 5 6 5 6 5 5 5 5 5 5 5 5 5 5 5 5 5 6 5 6 6 5 5 6 6 5 5 6 6 5 5 5 6 5 6 5 5 6 5 5 5 5 6 6 5 6 5 5 6 6 5 5 6 5 5 5 6 5 5 5 6 6 6 5 5 6 5 6 6 5 5 5 5 5 5 5 5 5 5 5 6 6 5 6 5 6 5 6 5 5 5 6 5 5 5 5 5 6 5 5 5 5 5 5 5 5 5 5 5 5 5 5 5 5 5 5 5 5 5 5 5 5 6 5 5 5 5 5 5 5 5 5 5 5 5 5 5 5 5 5 5 6 5 5 5 5 5 5 5 5 5 5 5 6 5 5 5 5 5 6 5 5 5 5 5 5 5 5 5 5 5 5 5 5 6 5 5 5 5 5 5 5 5 5 5 5 5 5 5 6 5 6 5 5 5 5 6 5 5 5 5 5 5 5 5 5 5 5 5 6 5 6 5 5 5 5 6 5 5 5 5 5 5 5 6 5 5 5 5 5 5 5 6 5 5 5 6 5 6 5 5 5 5 5 5 5 5 5 6 5 5 5 5 5 5 5 5 5 5 5 5 5 5 5 5 5 5 5 5 5 5 5 5 5 5 5 5 5 5 5 5 5 5 5 5 5 5 5 5 5 5 5 6 5 5 6 5 5 5 5 5 5 5 5 5 5 6 5 5 5 5 5 6 5 5 6 5 5 5 5 5 5 6 5 5 5 5 6 5 5 6 5 6 5 5 5 5 5 5 5 5 5 5 5 6 5 6 5 5 5 5 6 5 5 5 5 5 5 5 5 5 5 5 5 5 5 5 5 5 5 5 5 5 6 5 5 5 5 6 5 5 5 5 5 5 5 6 5 5 5 5 5 6 5 5 5 6 5 5 5 6 5 5 6 5 5 5 6 5 5 6 5 5 5 5 5 5 5 5 5 5 5 5 5 5 5 5 5 5 5 5 5 5 5 5 5 5 5 5 5 5 5 6 5 5 5 5 5 5 5 5 5 5 5 6 5 5 5 5 5 5 5 5 5 5 5 5 5 5 5 6 6 5 5 5 6 5 5 5 5 6 5 5 6 5 5 5 5 5 5 5 5 5 5 5 5 5 6 6 5 5 5 5 5 5 5 5 5 5 5 6 5 5 6 5 5 5 5 5 5 5 5 5 5 5 5 5 5 5 5 5 5 5 6 5 5 5 6 5 5 5 5 5 6 5 5 5 5 5 5 5 5 5 5 5 5 5 5 5 5 5 5 5 5 6 5 5 6 5 5 5 5 5 5 5 5 5 5 5 5 5 5 5 5 5 5 5 6 5 5 5 5 5 5 5 5 5 5 5 5 5 5 5 5 5 5 5 5 5 5 5 5 5 5 5 5 5 5 5 5 6 5 5 5 5 5 5 6 5 5 5 5 5 6 5 5 5 5 6 5 5 5 5 5 5 5 5 5 5 5 5 5 5 5 5 5 5 5 5 5 5 6 5 5 5 5 5 5 5 6 5 5 6 5 5 6 5 5 5 5 5 5 6 5 5 5 5 5 5 5 5 5 5 6 5 6 5 5 5 5 5 5 5 5 6 5 5 6 5 5 5 6 5 5 5 6 5 5 5 6 6 5 5 6 5 5 6 5 5 6 5 5 5 5 5 5 5 5 5 6 5 5 5 6 5 5 5 6 5 5 5 6 5 6 5 5 6 5 5 5 5 5 5 5 5 6 5 5 6 5 5 5 5 5 5 5 5 5 5 5 5 5 6 5 6 5 5 5 6 6 5 6 5 5 5 5 6 5 6 5 5 5 5 5 5 5 5 5 6 5 5 5 5 5 5 5 5 5 5 5 5 5 5 5 5 5 5 5 5 5 5 5 5 5 5 5 5 6 5 5 5 5 5 5 6 5 5 5 5 5 5 6 5 5 5 5 5 5 6 5 5 5 6 5 5 5 6 5 5 6 5 5 5 5 5 5 6 5 5 5 6 6 5 5 5 5 5 5 5 5 5 5 5 5 5 5 5 5 5 6 5 5 5 5 5 5 5 6 5 5 5 5 5 6 5 5 5 5 5 6 5 5 6 5 5 5 5 6 5 5 5 5 5 5 6 5 6 5 6 6 5 6 5 5 5 6 5 5 5 5 5 6 5 5 5 6 5 5 5 5 6 6 6 5 5 5 5 6 6 5 6 5 5 5 5 5 5 6 5 6 5 5 6 5 5 5 6 5 5 6 5 5 5 5 5 5 5 5 5 5 5 5 6 5 5 5 5 6 5 5 5 5 6 5 5 5 5 5 5 5 5 5 6 6 6 5 5 5 6 6 5 5 6 5 6 5 5 5 5 5 5 5 6 5 5 5 5 5 5 5 5 5 5 5 5 5 5 5 5 6 5 5 5 5 5 5 5 5 5 6 5 5 6 5 6 5 6 5 5 6 5 5 5 6 6 5 5 6 5 5 5 6 5 5 5 5 6 5 5 5 5 5 5 5 5 5 5 5 6 6 5 5 5 5 5 5 5 5 5 5 5 5 5 5 5 5 5 5 5 5 5 5 5 5 5 5 5 5 5 5 5 5 6 5 5 5 5 5 5 5 5 5 5 5 5 5 5 5 5 5 5 5 6 5 5 5 5 5 5 6 6 5 5 6 6 5 5 5 6 5 5 5 5 5 5 5 5 5 5 5 5 5 5 5 5 5 5 5 5 5 5 5 6 5 6 5 6 5 5 5 5 5 5 6 5 6 6 5 5 6 5 5 5 5 5 5 6 6 5 5 6 6 5 5 6 6 5 5 5 5 5 5 5 5 6 5 5 5 5 5 6 5 5 6 5 5 5 6 5 5 5 5 5 5 5 5 5 5 5 5 5 5 5 5 5 5 5 5 5 5 5 5 5 5 5 5 5 5 5 5 5 5 6 5 5 6 5 6 6 5 5 5 5 5 5 5 5 5 6 5 5 5 5 5 6 5 5 5 5 5 5 5 6 5 5 5 5 5 5 5 5 6 5 5 5 5 5 6 5 5 5 5 5 5 5 5 5 5 5 5 5 5 5 5 5 5 5 5 5 5 5 5 5 5 5 5 5 5 6 6 5 5 5 5 5 5 5 6 5 5 5 6 5 6 5 5 5 5 5 5 5 5 5 5 5 5 5 5 5 5 5 5 5 5 5 6 5 5 5 5 5 5 6 5 5 5 5 5 5 5 6 5 5 6 5 5 5 5 5 5 6 5 5 5 6 5 5 6 6 5 5 5 5 5 5 5 5 5 5 5 5 5 5 5 5 5 5 5 5 5 5 5 5 5 5 5 5 6 5 5 5 5 5 5 5 5 5 5 5 5 5 5 5 5 5 5 5 6 5 5 5 6 6 5 5 5 5 5 6 5 5 5 6 5 5 5 5 5 6 5 5 5 5 5 5 5 5 5 5 5 5 5 5 5 5 5 5 5 5 5 6 5 5 5 5 5 5 6 5 5 5 5 5 5 5 5 5 5 5 5 6 5 5 5 5 6 5 6 5 5 5 5 5 5 5 5 5 5 5 5 5 6 5 5 5 5 5 6 5 5 5 5 5 5 6 5 5 5 5 5 5 5 5 5 5 5 5 6 5 5 6 5 5 6 5 5 6 5 5 5 5 5 5 5 5 5 5 6 5 5 5 5 5 5 5 5 6 5 5 5 6 5 5 5 6 5 5 6 5 5 5 6 5 5 5 5 5 6 5 6 5 5 5 5 6 6 5 5 5 6 5 5 5 5 6 5 5 5 5 5 5 5 5 5 5 5 5 5 5 5 6 5 5 6 6 5 5 5 5 6 5 5 5 5 5 5 6 5 5 5 5 5 5 6 5 5 5 5 5 5 5 5 6 5 5 5 5 5 5 5 5 5 5 6 5 5 6 5 5 6 5 5 5 5 5 6 6 5 5 6 6 5 6 5 6 5 6 6 5 5 6 5 6 5 6 5 6 5 6 5 5 6 5 6 5 6 5 5 5 5 5 5 6 5 5 5 6 5 5 5 5 5 5 5 5 5 6 5 5 6 5 6 5 6 5 5 5 6 6 5 5 5 5 5 5 5 5 5 5 5 6 5 5 5 5 5 6 5 5 5 5 5 5 5 5 5 5 5 5 5 5 5 5 5 6 5 5 5 5 5 5 6 5 5 5 6 5 5 6 5 5 5 6 5 6 6 5 5 5 5 5 5 5 5 5 6 5 5 5 5 5 5 5 6 5 6 5 6 5 5 5 5 5 5 5 5 5 5 5 5 5 5 5 5 5 5 5 5 5 5 5 5 5 5 5 5 5 5 5 5 5 5 5 5 5 6 5 5 6 6 5 5 5 5 6 5 5 5 5 5 6 5 5 6 6 5 5 5 5 5 5 6 5 6 5 5 6 6 5 6 5 5 5 6 5 5 5 5 6 5 5 5 6 5 5 6 6 5 5 5 6 5 5 5 5 6 5 5 6 5 5 5 6 5 5 6 5 5 5 6 5 6 5 5 6 5 5 6 6 5 5 6 5 6 6 5 5 5 5 6 5 5 5 5 6 5 5 5 5 5 5 5 5 5 5 5 5 6 5 5 5 5 6 5 6 5 5 5 5 5 6 6 6 5 5 5 5 5 5 5 5 6 5 5 5 5 5 5 6 5 5 5 5 6 5 5 5 5 5 5 5 5 5 5 5 5 5 5 5 5 5 5 6 5 6 5 5 6 6 5 6 5 5 6 5 6 5 6 5 6 5 5 5 5 6 5 5 5 6 5 5 5 5 5 5 5 5 5 5 5 5 5 5 5 5 5 5 5 5 5 5 5 5 5 6 5 5 5 5 5 6 5 5 5 5 5 5 5 5 5 5 5 6 5 5 5 5 5 6 5 5 6 6 5 5 5 6 5 5 6 6 5 6 5 5 5 5 5 5 5 5 5 5 5 5 5 5 5 5 6 5 5 5 5 6 5 5 5 5 5 5 5 5 6 6 5 5 6 5 5 5 5 5 5 5 5 5 6 6 5 5 6 5 5 5 6 5 5 5 5 5 5 5 5 5 5 5 5 5 5 5 5 5 5 5 5 5 5 5 5 5 5 6 5 5 5 5 5 5 5 5 5 5 5 5 5 5 5 5 5 5 5 5 6 5 5 5 6 6 5 5 5 6 5 5 6 5 5 5 5 5 6 5 6 5 5 5 5 5 5 5 5 6 5 5 5 6 5 5 6 5 6 5 5 5 6 5 5 5 6 5 5 5 5 5 5 5 5 5 5 5 5 5 5 5 5 5 6 5 5 5 5 5 5 5 5 5 6 5 5 5 5 5 5 5 5 6 5 5 5 5 5 5 5 5 5 5 5 5 5 6 5 5 5 6 5 5 5 5 5 5 5 5 5 5 5 5 5 5 5 5 5 5 5 6 5 5 5 6 5 6 5 5 5 6 5 5 5 6 6 5 5 5 5 5 5 5 5 5 5 5 5 5 5 5 5 5 5 5 5 5 5 6 5 5 5 5 6 5 5 5 5 6 5 5 5 5 5 5 5 6 5 5 5 5 6 5 5 5 5 5 5 6 5 5 5 5 5 5 6 5 5 5 6 5 5 5 5 5 5 5 5 5 6 5 5 5 5 5 5 6 5 5 5 5 5 5 5 5 5 5 5 6 5 5 6 5 5 5 5 5 6 5 5 6 5 5 5 5 5 5 5 6 6 5 5 5 5 6 5 5 5 5 5 5 6 5 5 5 5 5 5 5 5 5 5 6 5 5 5 5 5 5 5 5 5 5 5 5 6 5 6 5 5 5 6 5 5 6 5 5 5 5 6 5 5 5 5 5 6 5 5 5 5 5 5 5 5 6 5 5 5 5 6 5 5 5 5 5 5 5 6 5 5 5 5 5 5 5 5 5 5 6 5 5 5 6 5 6 5 5 5 5 5 5 6 5 6 5 6 5 5 5 5 6 5 5 5 5 5 5 5 5 5 5 5 5 5 5 6 5 6 5 5 5 5 5 5 5 6 5 5 5 5 5 5 5 5 5 5 5 5 5 6 5 5 5 5 6 5 5 5 5 5 5 5 5 5 5 5 5 5 5 5 5 5 5 5 5 5 5 5 5 6 5 5 5 5 6 5 5 5 6 5 5 6 5 5 6 5 5 5 5 5 5 5 5 5 5 5 5 5 5 5 6 5 5 6 5 5 5 5 5 5 5 6 5 5 5 5 5 6 5 5 5 6 5 5 5 6 5 5 5 5 5 5 5 6 5 5 5 6 5 6 6 5 5 5 5 5 6 5 5 5 5 5 5 5 5 5 5 6 5 5 5 5 5 5 5 5 5 5 5 5 5 5 5 5 5 5 5 5 5 5 5 5 5 5 5 5 5 5 5 5 5 5 5 5 5 6 5 5 5 5 5 5 5 5 5 5 5 5 5 5 5 5 6 5 5 5 5 5 5 5 5 5 6 5 5 5 5 5 5 5 6 5 5 5 5 5 5 5 5 5 5 5 5 5 5 5 5 5 5 5 5 5 6 5 5 5 5 5 5 5 5 5 5 5 5 5 5 5 5 5 6 5 5 5 5 5 5 5 5 5 5 5 5 5 5 5 5 5 5 5 5 5 5 5 5 5 5 5 5 5 5 5 5 5 5 5 5 5 5 5 5 5 5 5 5 5 5 6 5 5 5 5 5 5 5 5 5 5 5 5 5 6 5 6 5 5 5 5 5 6 5 5 5 5 5 6 6 5 5 5 5 5 5 5 5 5 5 5 5 5 5 5 5 5 6 6 5 5 5 5 5 5 6 5 6 5 5 5 5 5 5 5 5 5 6 5 5 5 5 5 5 5 5 5 5 5 5 5 5 5 5 5 5 5 6 5 5 5 5 5 6 5 6 5 5 5 5 5 5 5 6 5 5 5 6 5 5 5 6 5 5 6 5 5 5 6 5 5 6 5 6 5 6 5 5 6 5 5 5 5 5 5 5 5 5 5 5 5 5 5 5 5 5 5 5 5 5 6 5 6 5 5 5 5 5 5 5 6 5 5 5 5 5 5 5 5 5 5 5 5 5 5 5 5 5 5 5 6 5 5 5 6 5 5 5 5 5 5 5 5 5 5 6 5 5 5 5 6 5 5 6 5 5 5 5 5 6 5 5 5 5 6 5 6 5 5 6 5 5 5 5 5 5 5 6 5 5 6 5 6 5 5 5 5 5 5 5 5 5 5 5 5 5 5 5 5 5 5 6 5 5 5 5 5 5 5 6 5 5 5 5 6 5 5 5 5 5 5 5 5 5 6 5 5 5 5 6 5 5 5 5 5 5 5 5 5 5 5 5 6 5 5 5 5 5 5 5 5 5 6 5 5 5 5 5 5 5 5 5 5 5 5 6 5 5 6 5 5 5 5 5 5 5 5 5 6 6 6 5 5 5 6 5 5 5 5 5 5 6 5 5 5 6 6 5 5 5 5 5 5 5 5 5 5 5 5 6 5 5 5 6 6 5 5 5 5 5 6 5 5 5 5 6 5 5 5 5 6 5 5 5 5 5 6 6 6 5 5 5 6 6 5 5 5 5 5 5 5 5 5 6 6 5 5 5 6 6 5 5 5 5 5 5 5 5 5 5 5 5 5 5 5 5 5 6 5 6 5 5 5 5 6 5 5 5 5 5 5 5 6 5 5 5 5 5 5 5 6 5 5 6 5 6 6 5 5 5 6 6 5 5 5 6 6 5 5 5 5 5 5 5 5 5 5 6 5 5 5 5 5 5 5 6 5 5 5 5 6 5 5 5 5 5 5 6 5 5 5 5 6 5 6 5 5 5 5 5 5 5 5 5 5 5 5 5 5 6 5 5 5 5 5 5 5 6 5 5 5 5 6 5 5 5 6 5 5 5 5 5 5 5 5 5 5 5 5 5 5 5 5 5 5 5 5 5 5 6 5 6 5 5 6 5 5 5 6 5 5 6 5 5 5 5 5 5 5 5 5 5 5 5 5 5 5 5 5 5 5 5 6 6 6 5 5 5 5 5 5 5 5 5 5 5 5 5 6 5 5 5 6 5 5 6 5 5 5 5 6 5 5 6 6 5 5 5 5 6 5 5 6 5 6 5 5 5 5 5 5 5 5 5 5 5 5 6 5 5 5 5 5 5 5 6 5 6 5 5 5 5 6 5 5 5 5 5 5 5 5 5 5 5 5 5 5 5 5 5 5 5 5 5 5 5 6 5 5 5 6 5 6 5 5 5 6 5 5 5 5 5 6 5 5 6 5 5 5 5 5 5 5 5 6 5 5 5 5 5 6 5 5 5 5 5 5 5 5 5 5 5 5 5 5 6 5 5 5 5 6 5 5 5 5 5 5 5 5 5 5 5 5 6 5 5 5 5 6 5 5 5 5 5 5 5 5 5 5 5 5 5 6 5 5 6 5 5 5 6 5 5 5 5 5 5 5 5 5 5 5 5 5 6 6 5 6 6 5 5 5 6 6 5 6 5 6 5 6 5 5 5 6 5 6 5 5 5 5 6 5 5 5 5 5 5 6 5 5 5 5 5 6 5 5 6 5 5 6 5 5 6 5 5 5 5 5 6 5 6 5 5 5 5 5 5 5 5 5 5 5 5 5 6 5 5 6 5 5 5 5 5 5 5 5 5 6 5 5 5 5 5 5 5 5 5 6 5 5 6 5 6 5 5 5 5 5 5 5 6 5 5 5 5 5 5 5 6 5 6 5 5 6 5 5 5 6 5 5 5 5 6 5 5 5 5 5 6 5 5 5 5 5 5 5 5 5 5 5 5 5 5 5 5 5 5 5 5 5 6 5 5 6 5 5 5 6 5 5 5 5 6 5 5 5 5 5 5 5 5 5 5 5 5 5 5 5 5 5 5 5 5 5 5 5 6 5 5 5 5 5 5 6 5 5 5 5 5 5 5 5 5 5 5 5 5 6 5 6 5 5 6 5 5 5 5 6 6 5 6 5 6 5 5 5 5 5 6 5 5 6 6 5 5 5 5 5 6 5 5 6 5 5 5 5 5 5 5 5 6 6 5 5 5 6 5 6 5 5 5 5 5 6 5 6 5 5 5 5 5 6 6 5 5 5 5 6 5 5 5 5 6 5 5 5 5 5 5 5 5 5 5 5 5 5 5 5 5 5 6 5 5 6 5 5 5 6 5 5 5 5 5 5 5 5 5 5 5 5 5 5 5 5 5 5 5 6 5 5 5 5 5 5 5 5 5 5 5 5 5 5 6 6 5 5 5 6 5 5 5 5 5 6 5 5 5 5 5 5 5 5 5 5 5 6 5 5 6 5 5 5 5 5 5 5 5 5 5 6 5 5 5 6 5 6 5 6 5 5 5 6 6 5 6 5 5 6 5 5 6 6 5 5 5 6 5 5 6 5 6 5 5 5 6 5 5 6 6 5 6 5 5 6 5 6 5 5 5 5 5 5 5 5 5 6 5 5 5 5 5 6 5 5 5 5 5 5 5 5 5 5 6 5 5 5 5 6 6 5 5 6 5 6 5 5 5 5 5 6 5 5 6 5 6 5 5 5 5 5 5 5 6 5 5 5 5 5 5 5 5 5 6 5 6 5 6 5 6 5 5 5 5 6 5 5 5 5 5 6 6 5 5 5 5 5 5 6 5 5 5 5 5 6 5 5 5 5 6 5 5 6 5 6 5 5 5 6 5 6 5 5 6 6 6 5 5 5 5 5 5 6 6 6 5 5 5 5 6 5 6 5 6 5 5 5 5 5 5 6 5 5 5 5 5 5 5 5 5 5 5 5 5 5 5 5 5 5 5 5 5 5 5 5 5 5 5 5 5 5 5 5 5 5 5 5 5 5 5 5 5 5 5 5 5 5 5 5 5 6 5 5 5 6 6 5 5 5 5 5 5 5 5 5 5 5 5 5 5 5 5 5 5 5 6 5 5 5 5 5 5 5 6 5 5 6 5 5 6 5 5 6 5 6 5 5 6 5 5 5 6 5 6 5 6 6 5 5 5 6 6 5 5 6 5 5 6 5 5 5 5 5 5 5 5 5 5 5 5 6 5 5 5 5 6 5 5 5 5 6 5 5 5 5 5 5 5 5 5 6 5 6 5 5 5 5 6 5 5 5 6 5 5 5 5 5 5 6 5 5 6 5 5 5 6 5 5 5 5 5 5 5 6 5 5 5 5 5 6 5 5 5 5 5 5 5 5 5 5 5 5 5 5 5 6 5 5 5 5 5 6 5 5 6 5 6 5 5 5 5 6 6 5 5 6 5 5 5 5 5 5 5 5 5 5 5 6 5 6 5 5 5 5 5 6 5 5 5 6 5 5 5 6 5 5 5 5 5 5 5 5 5 5 5 5 5 6 5 5 5 5 5 5 5 6 5 6 5 5 5 5 5 5 5 6 6 5 5 5 5 5 5 5 5 5 6 5 5 5 5 5 5 6 6 6 5 6 5 5 5 5 5 5 6 5 6 5 6 5 6 5 5 5 5 5 5 6 5 5 6 5 5 5 5 6 5 5 5 5 5 5 5 5 5 5 5 5 5 5 5 5 5 5 5 5 5 6 5 6 5 5 5 5 5 5 5 5 5 5 5 5 5 5 5 5 5 5 5 5 5 5 5 5 5 5 5 5 5 5 5 5 5 5 5 5 5 5 5 5 5 5 5 5 5 5 5 5 5 5 5 5 5 5 5 5 5 5 6 5 5 5 5 5 5 5 5 5 5 5 5 5 5 5 5 5 5 5 5 5 5 5 6 5 5 5 6 5 6 5 5 5 5 5 5 5 5 5 5 5 5 5 5 5 5 5 5 5 5 5 5 5 5 5 5 5 5 5 5 5 5 5 5 5 5 5 5 5 6 5 6 5 5 5 5 5 5 5 5 5 5 5 5 5 5 5 5 5 5 5 5 5 5 5 5 5 6 5 5 5 5 5 5 5 5 5 5 5 5 5 5 5 5 5 5 5 5 5 5 5 5 5 5 5 5 5 5 5 5 5 5 5 5 5 5 5 5 5 5 5 5 5 5 5 5 5 5 5 5 5 5 5 5 5 5 5 5 5 5 5 5 5 5 5 5 5 6 5 5 5 5 5 5 5 6 5 5 6 5 5 5 5 5 5 5 5 5 5 5 5 5 5 5 5 5 5 5 5 6 5 5 5 5 5 5 5 5 5 5 5 5 5 5 5 5 5 5 5 5 5 5 5 5 5 5 5 5 5 5 5 5 6 5 5 5 5 6 5 6 5 5 5 5 5 5 6 5 5 6 5 5 6 6 5 6 5 5 5 6 5 5 5 5 5 5 5 5 5 5 5 5 5 5 5 6 5 5 5 5 5 5 5 5 6 5 5 5 5 5 5 5 5 5 5 5 5 5 5 5 5 5 5 5 5 5 5 5 5 5 5 5 5 5 5 5 5 5 5 5 5 6 5 5 5 5 5 5 5 6 5 5 6 5 6 5 5 5 5 5 5 5 5 5 5 5 6 6 5 5 6 5 5 6 6 5 5 5 5 6 5 6 5 5 6 5 6 6 5 6 5 6 5 5 5 5 5 5 5 6 5 6 5 5 5 5 5 6 5 5 5 6 5 5 6 5 6 5 6 6 5 5 6 5 5 5 5 5 5 6 5 5 5 5 5 5 5 5 6 6 5 5 5 6 5 5 5 5 6 6 5 6 5 5 5 6 5 5 5 5 5 5 5 5 5 5 5 5 5 5 5 5 6 5 5 5 5 5 5 6 5 6 5 5 5 6 6 5 5 6 5 6 5 5 5 5 5 5 5 5 5 5 5 5 6 6 5 5 5 5 5 6 5 5 5 5 5 5 5 6 5 5 5 6 5 6 5 5 6 5 5 5 5 5 5 5 5 5 6 5 5 6 5 5 5 5 5 5 5 5 5 5 5 6 5 5 5 5 5 5 5 5 5 5 5 5 5 5 5 5 5 5 5 5 5 5 6 5 5 5 5 5 5 5 5 5 5 5 6 5 5 5 5 6 5 5 5 5 5 5 5 5 5 5 5 6 5 5 5 5 5 6 5 6 5 5 5 5 5 5 5 5 5 6 5 5 6 5 5 6 5 5 5 5 6 5 5 5 5 5 5 5 5 5 5 5 5 5 5 5 5 5 5 5 5 5 6 5 5 6 5 6 5 5 5 5 5 5 5 5 5 6 5 5 6 6 6 5 5 5 6 5 5 5 5 5 5 6 6 5 6 5 5 6 5 5 6 5 5 5 5 6 5 5 5 5 6 5 5 5 5 5 5 5 5 5 5 5 6 5 5 6 5 6 6 5 5 6 6 6 5 5 5 5 5 5 5 5 5 5 6 5 5 5 5 5 5 5 5 5 6 5 5 5 5 5 6 5 5 5 5 5 5 5 5 5 5 6 5 5 5 5 5 5 5 5 5 5 5 5 5 5 5 5 5 5 5 5 5 5 5 5 6 6 5 5 5 5 5 5 5 5 6 5 5 5 5 5 5 5 5 5 5 5 5 5 5 5 5 6 5 5 5 5 6 5 5 5 6 6 5 5 5 5 5 5 6 5 6 5 5 5 6 5 5 5 5 5 5 5 5 6 5 6 6 5 5 5 5 5 5 5 5 5 5 5 5 6 5 5 6 5 6 5 5 5 5 5 5 5 5 5 5 5 5 5 5 5 5 5 5 5 5 5 5 5 6 5 5 5 5 5 6 5 5 5 5 5 5 5 5 5 5 6 5 5 5 6 5 5 5 5 5 5 5 5 5 5 5 6 6 5 5 5 5 5 6 5 5 5 6 5 5 5 5 5 5 5 5 5 5 6 5 5 5 5 5 5 5 6 6 5 6 5 5 5 5 6 5 5 5 5 5 6 5 5 5 5 5 5 5 5 5 5 6 5 5 5 5 5 5 5 5 5 5 6 5 5 5 5 5 5 5 6 5 5 5 5 5 5 5 5 5 5 5 5 5 5 5 5 5 5 5 5 6 5 5 5 6 5 5 5 5 5 5 5 5 5 5 5 5 5 6 5 6 6 5 6 6 5 5 5 5 5 6 5 5 5 5 5 5 5 6 5 5 6 5 5 6 5 5 6 5 5 6 6 6 6 5 5 6 6 5 5 6 5 5 6 5 5 5 5 6 6 6 6 5 5 5 6 5 6 5 6 5 6 6 5 5 5 5 5 5 5 6 5 5 6 5 6 5 5 6 6 5 5 5 5 5 5 5 5 5 5 5 5 5 5 5 5 5 6 5 5 5 5 5 5 5 5 5 5 5 5 5 5 5 5 5 6 5 5 5 5 5 5 5 5 5 5 5 5 5 5 6 6 5 5 5 5 6 5 6 5 5 5 6 6 5 6 5 5 5 5 5 5 5 5 5 5 5 5 5 5 5 5 5 5 5 6 5 6 5 5 5 5 6 5 5 5 5 5 5 5 5 5 5 5 5 5 5 5 5 5 5 5 5 6 5 5 5 5 5 5 5 5 5 5 5 5 5 5 6 5 5 5 5 5 5 5 5 5 5 5 5 5 5 5 5 5 5 5 5 5 5 5 5 5 5 5 5 5 5 5 5 5 5 5 5 5 5 5 5 5 5 5 5 5 5 5 5 5 5 5 5 5 5 5 5 5 5 5 5 5 5 6 5 5 5 6 5 5 6 5 5 5 5 5 5 5 5 5 5 5 6 5 5 5 5 6 5 5 5 5 5 5 5 5 5 5 5 5 5 5 5 5 5 5 5 5 5 5 5 5 5 5 5 5 5 6 5 5 5 5 6 5 5 5 5 5 5 5 5 5 5 6 5 5 6 5 5 5 5 5 5 5 5 5 5 5 5 6 5 5 5 5 5 5 5 5 6 5 5 5 5 5 5 5 5 5 5 6 5 6 5 5 5 6 5 5 5 6 5 6 5 6 6 5 5 5 5 5 6 5 5 5 5 5 5 5 5 5 5 5 5 5 5 5 5 5 5 5 5 5 5 5 6 5 5 6 5 5 5 6 5 6 5 5 5 5 5 5 5 5 5 5 5 5 6 5 5 5 5 5 5 5 5 5 5 5 5 5 5 5 5 5 5 5 6 5 5 5 5 5 5 5 5 5 5 5 5 5 5 5 5 5 5 5 5 5 5 5 5 5 5 5 6 5 5 5 5 5 5 5 5 5 5 5 5 5 5 5 5 5 5 6 5 5 5 6 5 5 5 6 6 5 5 5 5 5 6 5 5 5 5 5 5 5 6 6 5 5 5 6 5 6 5 5 5 5 5 5 6 6 5 5 6 6 5 5 5 5 5 5 5 5 5 5 6 5 5 5 5 5 5 6 5 5 5 5 5 5 5 5 5 5 5 5 5 5 5 5 5 6 5 5 5 5 6 5 5 6 5 5 5 5 5 5 5 5 5 5 5 6 5 6 5 6 5 5 5 5 5 5 5 5 5 5 5 5 5 5 5 5 5 5 5 6 5 5 6 5 5 5 6 5 5 6 5 5 5 5 6 5 5 5 5 5 5 5 6 5 5 5 5 5 5 5 5 5 5 5 5 5 5 5 5 5 5 5 5 5 5 5 5 5 5 5 5 5 6 5 5 5 5 5 5 5 5 5 5 5 5 5 5 5 5 5 5 5 5 5 5 5 5 5 5 5 5 5 5 5 5 5 5 5 5 5 6 6 6 5 5 6 5 5 5 6 5 6 5 5 5 5 5 6 5 5 5 5 5 5 5 6 5 5 5 5 5 5 5 5 5 5 5 5 5 5 6 5 5 5 6 5 6 5 5 5 5 5 5 5 5 6 5 5 5 5 5 5 5 6 5 6 5 6 5 5 5 5 5 5 5 5 6 5 5 6 6 6 5 6 5 6 5 5 5 5 5 5 5 5 5 5 5 5 5 5 5 5 5 5 5 5 5 6 5 5 6 6 5 5 5 6 5 5 5 5 5 5 5 6 5 6 5 5 5 5 6 5 5 6 5 5 5 5 5 5 5 6 5 5 6 5 5 5 6 5 5 5 5 5 5 5 5 5 6 5 5 5 5 5 5 6 5 5 6 5 5 5 5 6 5 5 5 5 5 5 6 6 6 5 5 5 6 5 6 5 6 5 5 5 5 5 5 6 5 5 5 6 5 5 5 6 5 5 5 5 5 5 5 5 5 5 5 5 6 5 5 5 6 5 5 5 5 5 6 6 5 5 6 5 6 6 6 5 5 5 6 5 5 5 5 5 6 5 5 5 5 5 5 5 5 5 5 5 5 6 5 5 5 5 5 5 6 5 5 6 5 5 6 5 5 5 5 5 6 5 5 6 5 6 5 6 5 5 5 5 5 5 6 5 5 5 5 6 5 5 5 5 5 5 5 5 5 5 6 5 5 5 5 5 6 5 5 5 5 5 5 5 5 5 5 5 5 5 5 5 6 5 5 5 5 5 6 5 6 5 5 5 5 5 6 5 5 5 5 5 6 5 5 5 5 5 6 5 5 5 5 5 5 5 5 5 5 6 5 6 5 6 5 5 6 5 5 5 5 5 5 5 5 6 5 6 5 5 5 5 5 5 5 5 5 5 6 5 5 5 5 5 5 5 5 5 5 6 5 5 5 6 5 6 6 5 5 5 6 5 5 5 6 6 5 5 5 5 5 5 5 5 5 5 6 6 5 5 5 5 5 6 5 5 5 5 5 5 5 5 5 5 6 5 6 6 6 5 5 5 5 5 5 5 5 6 5 5 5 5 5 5 5 5 5 5 5 5 5 5 5 5 5 5 5 5 5 5 5 5 5 5 5 5 5 6 5 5 5 5 6 5 5 5 5 5 5 5 5 6 5 5 5 5 5 5 5 5 6 5 5 5 5 5 5 5 5 5 5 5 5 5 5 5 5 5 5 5 5 5 5 5 5 5 5 6 5 5 5 5 5 5 6 5 6 5 5 6 5 5 5 6 5 6 5 5 5 6 5 5 5 6 5 5 5 5 5 5 6 5 5 5 5 5 5 5 5 5 5 5 5 5 5 5 5 5 5 5 5 5 5 5 5 5 5 5 6 5 6 5 5 5 5 6 5 5 5 5 5 5 5 5 5 5 5 5 5 6 5 5 6 5 5 6 5 5 5 5 5 6 5 5 5 5 5 5 5 5 6 5 6 5 5 5 5 5 6 6 5 5 6 5 5 5 6 5 5 5 5 5 5 5 6 5 5 5 5 5 5 5 5 5 5 5 5 5 5 5 5 6 5 5 5 5 5 6 5 6 5 5 5 5 5 5 5 5 5 5 5 5 6 5 6 5 5 5 5 5 5 6 6 5 5 5 5 5 5 5 5 5 5 5 5 5 5 5 5 5 5 5 5 5 6 5 5 6 5 5 5 5 5 6 5 5 5 5 5 5 6 5 5 5 5 5 5 5 5 5 5 5 5 5 5 5 5 6 5 5 6 5 5 5 5 6 5 5 5 5 5 5 5 5 5 5 5 6 5 5 5 5 5 5 5 5 5 5 5 5 5 5 5 5 5 5 5 6 5 5 5 5 5 5 5 5 5 5 5 5 6 5 5 5 5 5 5 5 5 5 5 5 5 5 6 6 5 5 5 5 5 5 6 5 5 5 5 5 5 5 5 5 5 5 5 5 5 5 5 5 5 5 5 5 5 5 5 5 5 5 5 5 5 5 5 5 5 5 6 5 5 5 5 5 5 5 5 6 5 5 5 5 5 5 5 5 5 5 5 5 6 5 5 5 5 6 5 6 5 5 5 5 5 5 5 5 6 5 5 5 5 5 5 5 5 5 5 6 5 5 5 6 5 5 6 5 5 5 5 6 5 5 6 5 5 5 5 5 5 5 5 6 5 5 5 6 5 5 5 5 5 5 5 6 5 6 5 6 5 6 6 5 5 5 6 6 6 5 5 6 5 5 5 6 5 5 5 5 6 5 5 5 5 5 5 5 5 5 5 5 5 5 5 5 5 5 5 5 5 5 5 5 5 5 5 5 5 5 5 5 5 5 5 5 5 5 5 6 5 5 5 5 5 5 5 5 6 5 5 5 5 6 5 5 6 5 5 6 5 5 5 5 6 5 5 5 5 5 6 5 5 5 5 5 5 5 5 5 5 5 5 5 6 6 5 5 5 6 5 5 5 5 5 5 5 5 5 5 5 5 5 5 6 5 5 5 5 5 5 6 5 5 6 5 5 5 5 5 5 5 5 5 5 6 5 5 5 5 5 6 5 5 5 5 5 5 5 5 5 5 6 5 5 5 5 5 5 5 5 5 5 5 5 5 5 5 6 5 5 5 5 5 5 5 5 5 5 5 5 5 5 5 5 5 5 5 5 5 5 5 6 5 6 5 5 5 6 5 5 5 5 5 5 5 5 5 6 5 5 5 6 5 5 5 5 5 5 5 5 5 5 5 5 5 5 5 5 6 5 5 5 5 5 6 5 5 5 6 5 6 5 5 5 5 5 5 6 5 5 5 5 5 5 5 5 5 5 5 5 5 5 5 5 5 5 5 5 5 5 5 5 5 5 5 6 5 5 6 5 5 5 5 5 5 5 6 5 5 5 5 6 5 5 6 5 5 5 5 5 5 6 5 5 5 6 5 5 5 6 5 5 5 5 5 6 5 5 5 5 5 6 5 5 5 5 5 5 5 5 6 5 5 6 5 5 5 5 6 5 5 5 5 6 5 5 5 5 6 5 5 5 6 5 6 5 5 5 5 5 5 5 5 5 5 6 5 5 5 5 5 5 5 6 6 5 5 5 5 5 6 5 5 5 5 5 6 5 5 5 6 5 5 6 5 5 6 5 5 5 6 5 5 5 5 5 5 6 5 5 5 5 5 6 5 5 5 5 5 6 5 5 5 5 5 5 6 5 5 5 5 6 5 5 5 5 5 6 5 5 5 5 5 5 5 5 5 5 6 5 5 5 5 5 5 5 6 5 5 5 5 6 6 5 5 6 5 5 5 5 5 5 5 6 5 5 5 5 5 5 5 6 5 6 5 5 6 5 5 5 5 6 5 6 5 5 5 5 5 5 5 5 5 5 6 5 5 5 5 5 6 5 5 5 6 5 5 5 5 6 5 5 6 5 5 5 5 5 6 5 6 5 6 6 5 5 5 5 6 6 5 5 5 5 5 5 5 5 5 5 5 5 5 6 5 5 5 5 5 5 6 6 5 5 5 5 5 5 5 5 5 5 5 5 5 6 5 5 5 5 5 5 5 5 5 5 5 5 5 5 5 5 5 5 5 5 5 5 5 5 5 5 5 5 5 5 5 5 5 6 5 5 6 5 5 5 5 5 5 5 6 5 5 5 6 5 5 6 5 5 5 6 6 5 5 5 5 6 6 5 5 5 5 5 5 5 5 5 5 5 5 5 5 6 5 5 6 5 5 5 6 5 5 5 5 6 5 5 6 5 5 5 5 5 5 5 5 5 5 5 6 5 5 5 5 5 5 5 6 5 5 5 5 5 5 5 5 5 5 5 5 5 5 5 5 5 5 6 5 5 5 5 5 5 6 5 6 5 5 5 5 5 6 5 5 6 5 5 5 6 5 5 5 6 5 5 5 5 5 5 5 5 5 5 5 5 5 5 6 5 5 5 5 6 6 5 5 5 5 5 5 5 5 5 5 5 5 5 5 5 5 5 5 5 6 5 5 5 5 5 5 5 5 6 5 6 5 5 5 5 5 5 5 6 5 6 5 5 5 5 5 6 5 5 5 5 5 5 6 5 5 5 5 5 6 6 5 5 5 6 6 6 5 5 5 5 5 6 5 5 5 5 5 6 5 5 5 5 6 5 6 6 5 6 6 5 5 5 6 5 5 5 6 5 5 5 6 5 5 5 6 5 5 5 5 5 5 5 5 6 5 5 5 6 5 5 5 5 5 5 6 5 5 5 5 5 5 6 5 5 5 5 5 5 5 5 5 5 5 5 5 5 6 5 6 5 5 5 6 5 5 6 5 6 5 6 5 5 6 5 5 5 5 5 5 6 5 5 5 5 6 5 5 5 5 5 5 6 5 5 5 5 5 5 5 5 5 5 6 5 5 5 5 5 5 5 5 5 5 5 5 5 5 5 5 5 5 5 6 6 5 5 5 6 5 5 6 5 5 6 5 5 6 5 5 6 6 5 5 5 5 6 5 5 5 5 5 5 5 5 5 5 5 6 6 5 5 5 6 5 6 5 6 5 5 5 5 5 6 5 5 6 5 6 5 5 6 6 6 5 5 5 5 6 5 5 6 5 6 5 5 6 5 5 5 5 5 5 5 5 6 5 6 6 5 5 5 5 5 6 6 5 5 5 6 6 5 5 5 5 5 5 5 5 6 5 6 5 5 5 5 5 5 5 5 5 5 5 5 5 5 5 5 5 5 5 5 5 5 5 5 5 5 5 5 5 6 5 5 5 5 5 5 5 5 5 5 5 5 5 5 5 6 5 5 6 5 5 5 5 5 6 5 5 5 5 5 5 5 5 5 5 5 5 5 6 5 5 5 5 5 5 5 5 5 6 5 5 6 5 5 5 5 6 6 6 5 5 5 5 5 6 5 5 5 
</DataArray>
<DataArray type="Float64" Name="stress" NumberOfComponents="9" format="ascii">
-279023.8372579175 781706176.37846375 0 781706176.37846375 -4699486351.2952633 0 0 0 0 -876231.76000270538 1311812.0454177856 0 1311812.0454177856 -278453781.98376465 0 0 0 0 99227.181007930936 1262537.3850361686 0 1262537.3850361686 -2387014.9345536679 0 0 0 0 650685201.19113326 -532675382.99545288 0 -532675382.99545288 -1279665609.9407349 0 0 0 0 702895970.840765 630950536.24195099 0 630950536.24195099 -4716931497.7854919 0 0 0 0 -231337739.39120692 1289586177.7640533 0 1289586177.7640533 -1541979342.7950134 0 0 0 0 -363309533.45575297 1349386430.2423248 0 1349386430.2423248 -1044113643.0180607 0 0 0 0 59095.643142725661 1429801.5933572147 0 1429801.5933572147 -2497070.4681138843 0 0 0 0 -535225164.87674284 1795866028.8425522 0 1795866028.8425522 -1913146278.9700317 0 0 0 0 -13839136.568638742 820054995.37989044 0 820054995.37989044 -2686568810.470726 0 0 0 0 -14950386.326219227 691881887.36624479 0 691881887.36624479 -1255179959.6058044 0 0 0 0 105561315.53248435 451926254.46900177 0 451926254.46900177 -1660992220.9277344 0 0 0 0 -164555545.77141541 286013912.54115295 0 286013912.54115295 -1469295034.7496033 0 0 0 0 -152880165.79669562 234674321.84173584 0 234674321.84173584 -1618727472.7857666 0 0 0 0 -3451222.4109765245 211883546.83084869 0 211883546.83084869 -1866101850.8747025 0 0 0 0 420546863.85921717 998169633.61549377 0 998169633.61549377 -2122413354.1337585 0 0 0 0 95862642.484973788 460658815.80757141 0 460658815.80757141 -1400625775.4642181 0 0 0 0 314613586.58257008 142074234.10151672 0 142074234.10151672 -1442622244.8600998 0 0 0 0 789609993.60586429 -346703975.14515686 0 -346703975.14515686 -566787747.1414032 0 0 0 0 2045759809.0338984 325558552.00759888 0 325558552.00759888 -1898873755.8188934 0 0 0 0 64036.203039226006 2365639.7517633568 0 2365639.7517633568 -4331351.2962460816 0 0 0 0 -560247318.0087719 1099551782.1315384 0 1099551782.1315384 329492512.90213776 0 0 0 0 -101087749.26178372 1245068429.9268265 0 1245068429.9268265 -1952169642.2338867 0 0 0 0 697956637.68983901 1298063944.2171936 0 1298063944.2171936 -1948656130.8033543 0 0 0 0 699040667.80444264 1933780107.6916656 0 1933780107.6916656 -4715281984.0911713 0 0 0 0 431617.28164359555 3054483.3633056162 0 3054483.3633056162 -4120760.50421682 0 0 0 0 1944153194.7294769 -925766909.04942513 0 -925766909.04942513 -3377276127.2045898 0 0 0 0 -385243378.6417622 2484771336.3660431 0 2484771336.3660431 -1657724106.5845108 0 0 0 0 1750015001.0893764 -28156772.662773132 0 -28156772.662773132 -4714390012.3054581 0 0 0 0 97060850.57704322 228911859.32388306 0 228911859.32388306 -2681908388.8913574 0 0 0 0 96452414.472871304 783109968.19852936 0 783109968.19852936 -3662105597.2529297 0 0 0 0 658619388.83171058 -1055743201.9935226 0 -1055743201.9935226 -1080337407.6507568 0 0 0 0 -1887950595.8932939 2084573265.1656475 0 2084573265.1656475 -7316256399.9756927 0 0 0 0 276233.88010427321 -1834593.0762246177 0 -1834593.0762246177 -6189806.1389631107 0 0 0 0 -1988874005.6513622 2079650485.6589966 0 2079650485.6589966 -3181770091.2952728 0 0 0 0 -458724490.63956535 1640527380.2341003 0 1640527380.2341003 -4728084834.9530678 0 0 0 0 -1446224944.8113966 1208906857.202919 0 1208906857.202919 -1946949281.7736664 0 0 0 0 -1483204637.2818615 1778785797.8855362 0 1778785797.8855362 -2007137946.696764 0 0 0 0 -245231102.27794993 -699392438.71907043 0 -699392438.71907043 1427192941.2609215 0 0 0 0 280090952.76571929 -3441778320.7771835 0 -3441778320.7771835 21312981.116394043 0 0 0 0 168838809.27172554 -244552308.49742126 0 -244552308.49742126 -219185073.73558044 0 0 0 0 1341405560.5939045 343992459.15756798 0 343992459.15756798 -304657666.00216675 0 0 0 0 2552043.3916285606 -3594390.0050799586 0 -3594390.0050799586 -15376946.858954638 0 0 0 0 1740054627.7112105 -1130334597.1151199 0 -1130334597.1151199 229628847.58247375 0 0 0 0 915862921.3888402 -62266433.951423645 0 -62266433.951423645 -12052922.048862457 0 0 0 0 485518561.58044171 -136139375.84963989 0 -136139375.84963989 9554583.8067779541 0 0 0 0 871526067.33636856 -74484074.300559998 0 -74484074.300559998 -90890444.275512695 0 0 0 0 547444646.63841271 -20705405.647117615 0 -20705405.647117615 -515169890.16348267 0 0 0 0 -389773842.30228829 708279838.04000092 0 708279838.04000092 -464550042.27935791 0 0 0 0 274814482.89810228 2163181669.6573715 0 2163181669.6573715 -1405672399.860611 0 0 0 0 -727577378.25797999 1739532271.8515778 0 1739532271.8515778 344098955.17550659 0 0 0 0 -1006772041.6720877 1896114104.613739 0 1896114104.613739 -1370172334.6325631 0 0 0 0 -994631917.70930636 1055109245.7228775 0 1055109245.7228775 -1367167135.7027283 0 0 0 0 1166995091.3426099 -465598557.35201263 0 -465598557.35201263 147049762.02055359 0 0 0 0 4271318.2687746566 -3436018.912520811 0 -3436018.912520811 -19068993.899887905 0 0 0 0 3228076.0431012763 2187760.1741892137 0 2187760.1741892137 -3477719.7398509085 0 0 0 0 761522375.48589253 2219076000.63027 0 2219076000.63027 -2208119507.3968811 0 0 0 0 863697197.80421603 980984672.57552338 0 980984672.57552338 -1755464731.9692993 0 0 0 0 -530479842.74274635 -131419046.13175964 0 -131419046.13175964 70217303.255233765 0 0 0 0 -44218676.991714954 159750217.17185974 0 159750217.17185974 -370397255.09538269 0 0 0 0 1307022694.4841614 50114546.413589478 0 50114546.413589478 -595578488.64067078 0 0 0 0 1227863450.3788049 -41461473.199396133 0 -41461473.199396133 -410395718.35319519 0 0 0 0 1179293710.864243 708380757.06500244 0 708380757.06500244 491960666.38903809 0 0 0 0 1075298446.8668604 443333747.43082047 0 443333747.43082047 -159331893.71166992 0 0 0 0 2278430.8693730882 5348387.6641370934 0 5348387.6641370934 -21898673.321957901 0 0 0 0 814356811.64522123 335468068.29290771 0 335468068.29290771 218696763.09764099 0 0 0 0 547883419.2423811 -163787760.29275513 0 -163787760.29275513 1032401.1694641113 0 0 0 0 516315234.59577149 -277514416.19633293 0 -277514416.19633293 -194348552.73110962 0 0 0 0 710109472.07594371 40526242.606563568 0 40526242.606563568 -576950985.47290039 0 0 0 0 -630808775.66323805 429475849.75604248 0 429475849.75604248 -366584727.34344482 0 0 0 0 -33382326.505311012 568409560.97913361 0 568409560.97913361 -558638159.28146362 0 0 0 0 410048188.6430645 -21326110.284255981 0 -21326110.284255981 -195619345.18930054 0 0 0 0 912940127.67923975 -24832375.992614746 0 -24832375.992614746 -425555748.75205994 0 0 0 0 271218939.74860764 682260745.98731232 0 682260745.98731232 -242938934.54955673 0 0 0 0 133064966.73021793 494086257.67105865 0 494086257.67105865 -472904550.00384521 0 0 0 0 524992332.37895751 -48415170.840530396 0 -48415170.840530396 171578806.33302307 0 0 0 0 97212470.702199101 380998863.60244942 0 380998863.60244942 -772640526.46697998 0 0 0 0 -804293469.87683582 701602899.90922546 0 701602899.90922546 -205180599.16645813 0 0 0 0 -741516765.56415319 469913534.22206116 0 469913534.22206116 63268679.314056396 0 0 0 0 -417952739.21578741 798381422.60288239 0 798381422.60288239 -330810145.29272461 0 0 0 0 -23518308.328769684 362468813.09062958 0 362468813.09062958 31279326.514572144 0 0 0 0 -346507428.88498354 331062353.1061554 0 331062353.1061554 258090266.38399506 0 0 0 0 -319727103.58059502 694390513.99654388 0 694390513.99654388 -264040948.8049469 0 0 0 0 -444785818.57638788 663913382.0144577 0 663913382.0144577 18630442.751459122 0 0 0 0 -444556767.53517908 488419969.93009257 0 488419969.93009257 114502378.06661987 0 0 0 0 1182197882.942955 38398425.701541901 0 38398425.701541901 -307462893.18458557 0 0 0 0 1000167757.4218149 220465702.47570801 0 220465702.47570801 -244374683.9745636 0 0 0 0 1132363.5559847606 4261428.1702733189 0 4261428.1702733189 -15985308.246740416 0 0 0 0 273801358.80238771 -452317827.45877075 0 -452317827.45877075 -125530498.56455994 0 0 0 0 262034698.43676281 -506392035.82559204 0 -506392035.82559204 -274709888.68328476 0 0 0 0 408091495.20861399 -259925365.95282936 0 -259925365.95282936 -337327083.96800232 0 0 0 0 338715976.37693882 -61409535.515304565 0 -61409535.515304565 134647853.52532959 0 0 0 0 12323374.575340688 -241415121.61466599 0 -241415121.61466599 -431456552.927948 0 0 0 0 93094154.579212904 -388012847.77742004 0 -388012847.77742004 -246280819.99577332 0 0 0 0 -70141358.325790703 -424270000.51355743 0 -424270000.51355743 -752361765.3460083 0 0 0 0 -120974654.74862123 -412068409.41995239 0 -412068409.41995239 -311821239.65042114 0 0 0 0 -207677232.80043769 -265179479.9041748 0 -265179479.9041748 -172815546.23736572 0 0 0 0 -402976230.16513431 -38516740.957183838 0 -38516740.957183838 1792824.7265472412 0 0 0 0 -381537607.9240104 -454613555.03317261 0 -454613555.03317261 -349362502.10205078 0 0 0 0 706583.10296632745 24762.150842760224 0 24762.150842760224 -4904303.831026122 0 0 0 0 -15242.732054012333 -102625674.9129715 0 -102625674.9129715 355539212.16603088 0 0 0 0 96095532.240142658 -33348605.516819 0 -33348605.516819 9956928.8109130859 0 0 0 0 -54939384.986839294 -82608929.198249817 0 -82608929.198249817 -117185289.35993958 0 0 0 0 116521.56801967809 -480575.9665994877 0 -480575.9665994877 -1966742.5838640034 0 0 0 0 -894696501.23145914 -447227416.03405762 0 -447227416.03405762 -80185580.745002747 0 0 0 0 316210452.98113441 112647835.40517426 0 112647835.40517426 -1128943224.1080322 0 0 0 0 -1128344134.9976439 -876117101.50997162 0 -876117101.50997162 -743524366.83242798 0 0 0 0 -246047753.42462778 -361396712.76480103 0 -361396712.76480103 -415208032.23925018 0 0 0 0 -367504180.74075335 -682793642.14535522 0 -682793642.14535522 -1074600432.4922791 0 0 0 0 -82095770.713302851 -331940395.11769104 0 -331940395.11769104 -1275338607.3453064 0 0 0 0 -236723094.66196263 -623133476.75095367 0 -623133476.75095367 -2288324859.3299866 0 0 0 0 -148353470.49442291 -263223774.80461121 0 -263223774.80461121 -1127224104.4759083 0 0 0 0 -414896899.71681452 277776445.26808167 0 277776445.26808167 -1758695583.3115616 0 0 0 0 709677.73927862337 -562101298.67349243 0 -562101298.67349243 -2355628147.0974426 0 0 0 0 -621810278.12843859 38415396.524021149 0 38415396.524021149 -1625956908.3366394 0 0 0 0 -371912430.3684724 -1068199.7953033447 0 -1068199.7953033447 -1677300741.5131378 0 0 0 0 129414120.57180429 371118638.39204407 0 371118638.39204407 -1553406709.9930573 0 0 0 0 -92080378.003196806 135668965.97189713 0 135668965.97189713 -1414007014.9169617 0 0 0 0 -102871406.07055277 216584408.53407288 0 216584408.53407288 -1799173436.7810059 0 0 0 0 716164358.60578012 533589890.7365799 0 533589890.7365799 -1469252615.7025146 0 0 0 0 155383949.58151865 201844080.92437744 0 201844080.92437744 -988121976.74060059 0 0 0 0 152751211.43127823 478772301.13554382 0 478772301.13554382 -1472931759.6646423 0 0 0 0 -876759546.04436493 1266693278.2357483 0 1266693278.2357483 -880595493.75457764 0 0 0 0 198644827.93148804 377342193.21125793 0 377342193.21125793 -679867117.35892105 0 0 0 0 60656512.378696442 483646330.96417618 0 483646330.96417618 -701630474.08337402 0 0 0 0 258695139.91145396 67684169.757499695 0 67684169.757499695 -487606830.01492691 0 0 0 0 106579988.56480396 -78278048.501425743 0 -78278048.501425743 -616984561.90838623 0 0 0 0 92483293.502514303 52548328.460939407 0 52548328.460939407 -1124556651.9623718 0 0 0 0 -41289082.894852877 -105667862.91348267 0 -105667862.91348267 -699026515.38364601 0 0 0 0 155874615.73502684 208590492.89199829 0 208590492.89199829 -1494973503.3757935 0 0 0 0 -229743575.30652538 163213441.13582611 0 163213441.13582611 166742787.16003418 0 0 0 0 -60289164.852683067 407138248.87270355 0 407138248.87270355 -727731115.28614044 0 0 0 0 68829443.95083952 290389400.30635834 0 290389400.30635834 -872428632.64611816 0 0 0 0 -102172088.31489003 166491093.97298813 0 166491093.97298813 -1047936669.0010223 0 0 0 0 -29534719.203707874 469341382.22757435 0 469341382.22757435 -1500488680.1096954 0 0 0 0 -118096381.76830709 1063701752.3001022 0 1063701752.3001022 -2111635994.9772949 0 0 0 0 116233833.6196793 767911202.54628372 0 767911202.54628372 -2129487302.2910461 0 0 0 0 -592077734.38105893 727299677.30429077 0 727299677.30429077 -751807446.31924438 0 0 0 0 437415606.39951992 1313686764.0280094 0 1313686764.0280094 -4726675100.3139801 0 0 0 0 695783628.97530353 759289943.9598732 0 759289943.9598732 -3691941661.8960419 0 0 0 0 549991214.39534307 736674334.6202774 0 736674334.6202774 -3687592294.760437 0 0 0 0 418610147.34199435 715671584.68410301 0 715671584.68410301 -2892232256.2224197 0 0 0 0 726115389.94520772 222780429.05249405 0 222780429.05249405 -3796367671.4668121 0 0 0 0 921390462.89776242 607240731.82001495 0 607240731.82001495 -4724250730.0207062 0 0 0 0 720496965.44549596 384673320.15916181 0 384673320.15916181 -3754579672.7819061 0 0 0 0 156705185.54999655 193148109.95609474 0 193148109.95609474 -1942798022.5962601 0 0 0 0 328270956.50476623 -93658563.426246643 0 -93658563.426246643 -2432401148.861702 0 0 0 0 -73677783.368891954 -264478724.39148712 0 -264478724.39148712 -693078396.70569611 0 0 0 0 134071057.1426301 -441446235.34061432 0 -441446235.34061432 -1829710253.5833454 0 0 0 0 -629561.37615440413 -1128147.6372446977 0 -1128147.6372446977 -1049664.4917007163 0 0 0 0 -355933041.22475767 -945682911.50458145 0 -945682911.50458145 -1748083258.8306236 0 0 0 0 -926621.6516864053 1413892.4965436319 0 1413892.4965436319 -4813904.9049766362 0 0 0 0 138588724.0903227 351928088.43340683 0 351928088.43340683 -3423495598.3288383 0 0 0 0 153234530.64410451 -558773057.86954498 0 -558773057.86954498 -3163207293.803299 0 0 0 0 219125509.96135518 -345863828.05315399 0 -345863828.05315399 -4723785483.9803467 0 0 0 0 113571921.77421324 -291195783.82157898 0 -291195783.82157898 -3512082858.7960205 0 0 0 0 -344944306.37528974 -1165850511.6887283 0 -1165850511.6887283 -4723976756.2854061 0 0 0 0 -1623037207.3707511 -208082361.61624908 0 -208082361.61624908 -3262923116.7796783 0 0 0 0 -1455215392.021239 -1080723001.4524689 0 -1080723001.4524689 -2278345006.1240921 0 0 0 0 -761700381.1663655 -1700954221.2738724 0 -1700954221.2738724 -3435623940.4606018 0 0 0 0 -280292893.9197731 -1813481809.7966385 0 -1813481809.7966385 -3415775870.8367157 0 0 0 0 103153448.94213927 -1581496797.2269135 0 -1581496797.2269135 -5498644890.3778381 0 0 0 0 -3204647037.0663357 -944787117.73776245 0 -944787117.73776245 -4726475430.0523748 0 0 0 0 262426922.60153639 -3171335724.1968918 0 -3171335724.1968918 -3665707867.7803192 0 0 0 0 -373991595.42095351 -1331154825.5996475 0 -1331154825.5996475 -1666170819.4896851 0 0 0 0 -820088282.84011734 -1841513503.3053055 0 -1841513503.3053055 -1259879356.9423065 0 0 0 0 -135529956.2749145 458365679.93306732 0 458365679.93306732 -1669608134.550148 0 0 0 0 -911921641.44084764 -548569505.02055359 0 -548569505.02055359 -639015934.10882568 0 0 0 0 -940612438.03842616 -937490966.03450012 0 -937490966.03450012 -2863027131.0914154 0 0 0 0 -1098799162.9863443 1117556034.850296 0 1117556034.850296 -2463427103.7352362 0 0 0 0 -2174942423.8256068 1090166477.3564072 0 1090166477.3564072 -436772976.09936523 0 0 0 0 -492726184.52636838 549107778.4578476 0 549107778.4578476 -495004379.95396423 0 0 0 0 -1034772242.0215976 760974891.1506443 0 760974891.1506443 -510220221.60977173 0 0 0 0 -610300212.80588818 573727708.92839384 0 573727708.92839384 -1066391305.0617981 0 0 0 0 -1560622271.7117262 664468338.14807129 0 664468338.14807129 -282675734.48575592 0 0 0 0 -1219022007.6217737 1046366949.037365 0 1046366949.037365 -616824548.2376709 0 0 0 0 -580225223.87289143 63883245.606761932 0 63883245.606761932 50424098.993118286 0 0 0 0 244539451.75118256 131117715.60462952 0 131117715.60462952 -443539742.79458237 0 0 0 0 -3535705.2118822634 3809617.6479171962 0 3809617.6479171962 -9779749.3451849129 0 0 0 0 -261601931.80862665 -13398560.672847748 0 -13398560.672847748 198225197.61715698 0 0 0 0 -2320106260.286675 369943737.18360138 0 369943737.18360138 -56736712.454315186 0 0 0 0 -516475.31714916788 -34959.384838849306 0 -34959.384838849306 -27150.101102292538 0 0 0 0 -2101977356.8684835 1029739152.5209656 0 1029739152.5209656 -394405900.79839325 0 0 0 0 -1197237.9520874787 1733346.9066664558 0 1733346.9066664558 -500467.21673086286 0 0 0 0 -810244830.36873102 437911568.83645487 0 437911568.83645487 -478717436.76913452 0 0 0 0 -1103478886.1459846 854829539.09657288 0 854829539.09657288 -346012805.68307877 0 0 0 0 -303371971.68165398 -314767916.91967773 0 -314767916.91967773 -138080400.77737427 0 0 0 0 -1713821146.5491304 120204959.84994507 0 120204959.84994507 330767678.47750854 0 0 0 0 -1066145834.9864197 -661106077.08575439 0 -661106077.08575439 171117569.84926605 0 0 0 0 -754074128.81281471 252088523.85238647 0 252088523.85238647 236948405.99580383 0 0 0 0 -695312809.39181328 286980882.93806458 0 286980882.93806458 163878081.86608887 0 0 0 0 -674287615.01957226 587817126.1999054 0 587817126.1999054 112506547.46605682 0 0 0 0 -367698752.68629074 275877327.43968201 0 275877327.43968201 143199891.15481567 0 0 0 0 -488406589.91451359 421735486.4625473 0 421735486.4625473 23227317.882873535 0 0 0 0 -448482131.67401934 163427503.04715729 0 163427503.04715729 324151780.21353149 0 0 0 0 -141848927.12492228 189423411.86439896 0 189423411.86439896 5858797.2015991211 0 0 0 0 -47293348.089273453 17513548.798625946 0 17513548.798625946 15969200.920379639 0 0 0 0 -13751990.744735718 12138818.884384155 0 12138818.884384155 3812222.5266723633 0 0 0 0 -5240109.6352274418 5593099.7797262389 0 5593099.7797262389 8960951.5615185201 0 0 0 0 20431398.424972534 34952678.751579285 0 34952678.751579285 -7423590.5942993164 0 0 0 0 -4587939.2228272278 10481944.921074407 0 10481944.921074407 -9723988.4857277572 0 0 0 0 -23146236.768997192 47035190.897174835 0 47035190.897174835 3601098.4425354004 0 0 0 0 20703548.852739334 -32436953.812744141 0 -32436953.812744141 -46338467.279312134 0 0 0 0 -26823478.83656311 15124318.971359253 0 15124318.971359253 -2557449.4181442261 0 0 0 0 -18514389.348741531 26769229.701644897 0 26769229.701644897 -25841494.728790283 0 0 0 0 -3776693.9435377121 6760669.7860107422 0 6760669.7860107422 -15064136.017333984 0 0 0 0 -13645568.92304039 7634009.837348938 0 7634009.837348938 -9970337.1251831055 0 0 0 0 -39067495.574305534 14958545.856807709 0 14958545.856807709 29794728.509475708 0 0 0 0 -8942116.9634000715 4736480.0948412046 0 4736480.0948412046 -12895882.453380309 0 0 0 0 -82366786.465673447 249804562.90875244 0 249804562.90875244 -374109331.35862732 0 0 0 0 -2929610.8540308583 6149588.529335605 0 6149588.529335605 -11705741.283406928 0 0 0 0 50423833.856987111 59653435.607761383 0 59653435.607761383 -13509901.261688232 0 0 0 0 -16033829.125436068 7593345.1150817871 0 7593345.1150817871 8267873.1178512573 0 0 0 0 -141374000.54411811 103063845.77945709 0 103063845.77945709 5792816.935043335 0 0 0 0 -148139333.33311197 -54714032.135967612 0 -54714032.135967612 -18778906.215423584 0 0 0 0 -167871322.87770963 -50881307.381034851 0 -50881307.381034851 -238161153.81613159 0 0 0 0 46097520.959225655 291643613.53726959 0 291643613.53726959 -197242050.04303169 0 0 0 0 -5869578.6329759695 -3848464.9175069109 0 -3848464.9175069109 1134673.8270646632 0 0 0 0 95366594.903034925 73383751.856616974 0 73383751.856616974 -483260934.09998322 0 0 0 0 -35486134.578790188 -22751259.465705872 0 -22751259.465705872 14425216.450469971 0 0 0 0 -17330672.794954319 3190354.6880492866 0 3190354.6880492866 -11613842.96706802 0 0 0 0 -19294854.308612823 10987293.415924072 0 10987293.415924072 -24356327.906496048 0 0 0 0 -12696391.143334866 8200142.134935379 0 8200142.134935379 -26111897.006851196 0 0 0 0 -15304207.204244614 23747630.493247986 0 23747630.493247986 -27007633.675827026 0 0 0 0 -22094873.167114258 19135151.184181213 0 19135151.184181213 -37454652.4708848 0 0 0 0 -16472735.826421738 16164542.272380829 0 16164542.272380829 -44054919.292953491 0 0 0 0 -18904438.916080475 9496912.1050949097 0 9496912.1050949097 -37814599.676895142 0 0 0 0 -11428257.879493814 4514153.6669776477 0 4514153.6669776477 -19064208.384477414 0 0 0 0 -1260895.2845689431 -3206231.0157982954 0 -3206231.0157982954 -39606770.086456478 0 0 0 0 10258976.673870087 -56383420.752897263 0 -56383420.752897263 35198601.720287323 0 0 0 0 -143949141.82955933 235757627.81007957 0 235757627.81007957 90204704.682861328 0 0 0 0 5332846.5269492408 -3917910.3701744508 0 -3917910.3701744508 -10844844.560120597 0 0 0 0 55446645.668388367 -319533536.78103256 0 -319533536.78103256 -305144136.9132309 0 0 0 0 -6130871.6115808114 -4362808.798594648 0 -4362808.798594648 -17417367.124261186 0 0 0 0 -219342269.32626915 112927027.63641167 0 112927027.63641167 289464594.37091064 0 0 0 0 13577.501445703208 -1040849.2275314238 0 -1040849.2275314238 -3352419.1668065726 0 0 0 0 -8283058.3106845804 -1925954.0628490597 0 -1925954.0628490597 -11386320.559409682 0 0 0 0 -78265415.064156532 81515539.863594055 0 81515539.863594055 143205154.69385529 0 0 0 0 -1463769.6669998169 -1344795.2780380249 0 -1344795.2780380249 -7418811.5911636353 0 0 0 0 -231676368.82476175 -107423083.78029251 0 -107423083.78029251 -37981236.757110596 0 0 0 0 -6380612.4319517184 -6953212.887455998 0 -6953212.887455998 -19107706.426510334 0 0 0 0 104838585.28587992 -254989901.22627068 0 -254989901.22627068 -246785367.97109985 0 0 0 0 -200289909.49384499 -19434850.941196442 0 -19434850.941196442 -37358462.998153687 0 0 0 0 -76886567.065130234 -90098226.805682182 0 -90098226.805682182 -93513487.381439209 0 0 0 0 -50475118.492992401 -130654079.0014267 0 -130654079.0014267 -182319328.2160759 0 0 0 0 12075070.387582779 -75235564.423528671 0 -75235564.423528671 -146714034.77549362 0 0 0 0 7191619.7209653854 -106981707.49717903 0 -106981707.49717903 -79323070.035751343 0 0 0 0 -2266702.7462348938 -93312432.84759903 0 -93312432.84759903 -37003391.043961525 0 0 0 0 -82573296.005180359 -93116361.243875504 0 -93116361.243875504 -33715620.251712799 0 0 0 0 -86180430.992014885 -51445831.57963562 0 -51445831.57963562 27790582.675685883 0 0 0 0 -23408862.108125687 -78456092.264974594 0 -78456092.264974594 28420415.329059601 0 0 0 0 -15604022.724395752 -69795044.476194382 0 -69795044.476194382 31226491.426815033 0 0 0 0 107245553.40770531 -126377814.53595924 0 -126377814.53595924 18642259.921099663 0 0 0 0 -3657087.624414444 -82526626.156516075 0 -82526626.156516075 38617159.150054932 0 0 0 0 1528812.159937704 -7473336.2900128607 0 -7473336.2900128607 -47456567.084225476 0 0 0 0 3095635.4256629944 31469953.022750854 0 31469953.022750854 -52559658.123886108 0 0 0 0 48439729.317468643 29577535.369224548 0 29577535.369224548 -61474708.585113525 0 0 0 0 -12619430.54778862 46576283.521694183 0 46576283.521694183 -32854966.202941895 0 0 0 0 -41361693.915653229 58993945.372444153 0 58993945.372444153 -36652074.983078003 0 0 0 0 16509278.451503754 29833586.433990479 0 29833586.433990479 -49461099.184494019 0 0 0 0 9957174.4881229401 65870377.653160095 0 65870377.653160095 -64453688.307266235 0 0 0 0 442860542.76544571 45636966.3436203 0 45636966.3436203 -130623961.05709839 0 0 0 0 1668964.7188651077 -11835355.034526175 0 -11835355.034526175 -54242389.840813532 0 0 0 0 5831466.6953544617 361980537.44450378 0 361980537.44450378 150445408.75667572 0 0 0 0 120790196.41218185 -56439986.636289597 0 -56439986.636289597 -63370084.379066467 0 0 0 0 179845645.07556248 -196051374.40651703 0 -196051374.40651703 26706467.426929474 0 0 0 0 97946391.275371552 -82372848.312202454 0 -82372848.312202454 -241059431.30981445 0 0 0 0 100429170.71173859 -23114276.042972565 0 -23114276.042972565 -218486877.63133621 0 0 0 0 259832192.82500648 -72136978.363136292 0 -72136978.363136292 -348638836.82756805 0 0 0 0 109447832.98858261 29008266.93724823 0 29008266.93724823 -64582016.513978958 0 0 0 0 1360218.9257007483 -15363596.453371236 0 -15363596.453371236 -59594885.817963876 0 0 0 0 159116833.89486122 -26873904.467796326 0 -26873904.467796326 -1165883047.6823425 0 0 0 0 772916366.1270752 -709639404.62168884 0 -709639404.62168884 -1333011259.0906677 0 0 0 0 -729979665.54616165 -39020503.532159805 0 -39020503.532159805 290113037.72549438 0 0 0 0 -539739068.94792938 196505867.53309631 0 196505867.53309631 321364624.46264648 0 0 0 0 -723736.11232074792 2226463.3714546338 0 2226463.3714546338 -1729751.913226366 0 0 0 0 289875030.63022995 -220453100.10009766 0 -220453100.10009766 -879393425.04497147 0 0 0 0 -68522087.487751007 -359825387.25584412 0 -359825387.25584412 -485546293.60450268 0 0 0 0 165808871.93861008 -391627450.42296219 0 -391627450.42296219 -649632240.49945068 0 0 0 0 -71188163.016166687 -356126515.11860657 0 -356126515.11860657 -647041316.01167297 0 0 0 0 -339632434.40443039 -140366124.55205536 0 -140366124.55205536 575718113.93717957 0 0 0 0 986248858.87979507 202234986.80480194 0 202234986.80480194 -972008502.42248535 0 0 0 0 -1164287.7069081878 1631075.8520070501 0 1631075.8520070501 1214595.8519154936 0 0 0 0 353033810.30618668 148401731.5592041 0 148401731.5592041 -508522561.50712585 0 0 0 0 -285193042.75336456 -47794566.330154419 0 -47794566.330154419 -116290411.83401489 0 0 0 0 7550342.9430809021 178283594.61096191 0 178283594.61096191 -94133371.433393478 0 0 0 0 -1734814.2075870393 5186312.3391042426 0 5186312.3391042426 -5130594.5732260346 0 0 0 0 -225743733.90096569 88685699.579956055 0 88685699.579956055 -8065204.0301055908 0 0 0 0 -40600984.673810959 29095700.967636108 0 29095700.967636108 -16000059.211486816 0 0 0 0 -36988089.082865238 40842891.262020111 0 40842891.262020111 -20888592.137145996 0 0 0 0 -29574407.986515045 35483480.103122711 0 35483480.103122711 -23875710.263748169 0 0 0 0 -29966545.967479706 36183957.127593994 0 36183957.127593994 -25079536.524682045 0 0 0 0 123907069.74762821 110111375.7948494 0 110111375.7948494 -12768120.673431396 0 0 0 0 -167654838.71279526 153053051.21903229 0 153053051.21903229 176978074.75309753 0 0 0 0 -2706783.8585865311 7132463.6020712564 0 7132463.6020712564 -7895361.3214660138 0 0 0 0 -223666010.67513847 -24870796.723274231 0 -24870796.723274231 117998289.81182861 0 0 0 0 248168426.7391758 -35596303.359031677 0 -35596303.359031677 -309127197.27575684 0 0 0 0 -675437322.41722202 466316580.51470947 0 466316580.51470947 426445633.74768829 0 0 0 0 681535011.0539608 -316491107.58650208 0 -316491107.58650208 -1029167466.355423 0 0 0 0 -109422034.32100487 -33996525.381072998 0 -33996525.381072998 185386778.73971558 0 0 0 0 457626000.51948738 542260456.53149033 0 542260456.53149033 52452370.539367676 0 0 0 0 -3080607.2400654969 3829372.3310636878 0 3829372.3310636878 4259118.5707880557 0 0 0 0 -232255949.55796528 136352370.87351227 0 136352370.87351227 5876945.793987751 0 0 0 0 -289730800.05513144 121616660.34986877 0 121616660.34986877 172918461.07130432 0 0 0 0 -721260878.22627449 -322844288.75711823 0 -322844288.75711823 28885800.085529327 0 0 0 0 -110027982.71500325 -474576811.44072723 0 -474576811.44072723 -381420854.67607117 0 0 0 0 -829187209.11788702 106270269.33268738 0 106270269.33268738 -887842138.44400024 0 0 0 0 -644957069.26972628 265802395.55556107 0 265802395.55556107 -811353956.2341156 0 0 0 0 -2298302.4910255005 -1507724.6514882743 0 -1507724.6514882743 -466887.57191324641 0 0 0 0 -254161348.80953979 -493775814.98144531 0 -493775814.98144531 -757135277.01062775 0 0 0 0 -178686202.84263611 -361011307.68552399 0 -361011307.68552399 -1120493103.33992 0 0 0 0 -151420876.4936409 -222855799.21030426 0 -222855799.21030426 -704429654.56170654 0 0 0 0 -184674080.50098419 -483135822.23080444 0 -483135822.23080444 -723456790.4728241 0 0 0 0 -418968584.98307037 -606209375.2824707 0 -606209375.2824707 -895293064.43606567 0 0 0 0 -766601530.09910965 -576446558.79909897 0 -576446558.79909897 -413636079.72622681 0 0 0 0 -60234638.458445549 264524487.63323593 0 264524487.63323593 -422058808.24008179 0 0 0 0 352291.71815501968 485495.45948322862 0 485495.45948322862 -1788641.4054131508 0 0 0 0 -531132465.09737778 -249770932.79237366 0 -249770932.79237366 -13772472.914321899 0 0 0 0 -132228069.12287903 13359405.065093994 0 13359405.065093994 196878853.13260269 0 0 0 0 -312655890.72915268 -401281961.70341492 0 -401281961.70341492 -503900984.06463623 0 0 0 0 -286354094.40167236 -441247612.98156738 0 -441247612.98156738 -515359852.23323059 0 0 0 0 -71616452.102722168 -339074994.45375061 0 -339074994.45375061 -544832773.65588379 0 0 0 0 -172805256.15714264 -414814070.48236084 0 -414814070.48236084 -533928182.67033005 0 0 0 0 -157881458.89291573 -360331180.61457825 0 -360331180.61457825 -346366219.59802246 0 0 0 0 -274019204.6823616 -387210728.75923157 0 -387210728.75923157 -333869426.89764404 0 0 0 0 -499776691.28854275 -455242457.16153336 0 -455242457.16153336 -255288375.74371338 0 0 0 0 -238222761.00324249 -384812252.17446899 0 -384812252.17446899 -337683446.96461487 0 0 0 0 -359431797.84596634 -280941255.58334351 0 -280941255.58334351 -69941334.036346436 0 0 0 0 -191404252.19787979 -190148336.05757141 0 -190148336.05757141 -151883787.55743408 0 0 0 0 -33436277.261291504 -109968585.94942474 0 -109968585.94942474 -115668678.06672668 0 0 0 0 -230882388.28209305 -238056147.27357483 0 -238056147.27357483 -184350718.97766113 0 0 0 0 -22921591.484775543 -263093852.177948 0 -263093852.177948 -262374945.77099609 0 0 0 0 -139764420.68048096 -272776170.63479614 0 -272776170.63479614 -232901777.7897644 0 0 0 0 -175183254.46469688 -372392755.26211166 0 -372392755.26211166 -325319015.62854004 0 0 0 0 -91278135.520909786 -216475048.10334015 0 -216475048.10334015 -287719922.11334229 0 0 0 0 4447507.617515564 -63670396.408950806 0 -63670396.408950806 -176824641.58361816 0 0 0 0 -62450282.676483154 -95386834.249237061 0 -95386834.249237061 -108215335.74151611 0 0 0 0 36993505.650895596 23888.750202178955 0 23888.750202178955 9144940.3020477295 0 0 0 0 3361277.5019473899 -2181992.954141099 0 -2181992.954141099 -6135439.4333108217 0 0 0 0 923608.36844063364 -1090182.0782139823 0 -1090182.0782139823 211752.15456277132 0 0 0 0 -20100680.489747047 -114480047.91650391 0 -114480047.91650391 -896011.87104797363 0 0 0 0 13578252.699497223 12659912.914535522 0 12659912.914535522 -105354784.82943726 0 0 0 0 100746979.27403259 -76277836.271938324 0 -76277836.271938324 -124295261.05844116 0 0 0 0 -337659760.80226898 -13271776.018859863 0 -13271776.018859863 127890295.22817993 0 0 0 0 47422266.321565151 -244327306.03020859 0 -244327306.03020859 110463530.09417725 0 0 0 0 5556588.7212739307 -5293232.1349944919 0 -5293232.1349944919 -7007656.5076100156 0 0 0 0 3462728.5048518479 8504979.4455032349 0 8504979.4455032349 515519.80193328857 0 0 0 0 18242151.937991574 5647215.0957679749 0 5647215.0957679749 -7177017.5056762695 0 0 0 0 28502874.478350796 16525798.92105484 0 16525798.92105484 -12620645.834289551 0 0 0 0 14950991.844939269 19469673.594520569 0 19469673.594520569 -9301187.7363586426 0 0 0 0 2625837.5116943419 4801409.4819030762 0 4801409.4819030762 -5926324.6112594604 0 0 0 0 65807383.698342323 -20339053.843452454 0 -20339053.843452454 -56101988.074813843 0 0 0 0 5228566.8273820877 -12520988.232055664 0 -12520988.232055664 -12003046.474411011 0 0 0 0 5100127.8876907136 3372733.4845577935 0 3372733.4845577935 -16601661.290470198 0 0 0 0 -9600794.0256996155 13796904.422462463 0 13796904.422462463 60082060.626876831 0 0 0 0 11561317.283663962 -11995476.198072523 0 -11995476.198072523 -12810830.686825708 0 0 0 0 -72042613.081478119 -83008874.360733032 0 -83008874.360733032 -699121.29321289062 0 0 0 0 -26674582.752815247 -95700821.831130981 0 -95700821.831130981 -87210673.169219971 0 0 0 0 71503663.210512161 -53633883.330497742 0 -53633883.330497742 -72885865.282989502 0 0 0 0 15078317.396400928 14205504.62507749 0 14205504.62507749 -33165935.669710755 0 0 0 0 32514625.312556267 34426903.616081238 0 34426903.616081238 6206195.1317443848 0 0 0 0 66416145.901176453 -92597898.857009888 0 -92597898.857009888 -104162537.76438522 0 0 0 0 31278335.804420471 30796372.903259277 0 30796372.903259277 2908615.4448204041 0 0 0 0 -1702215.1975305623 -439021.67434039712 0 -439021.67434039712 1065011.2104280442 0 0 0 0 1028484.2167644501 -10988412.676994324 0 -10988412.676994324 -62131758.981872559 0 0 0 0 571866.68306194281 87037.960738241673 0 87037.960738241673 -298631.98992630839 0 0 0 0 3010765.7894558907 -23989831.014221191 0 -23989831.014221191 -73381408.564315796 0 0 0 0 3888245.7180240154 -7505603.9101104736 0 -7505603.9101104736 -82264303.036621094 0 0 0 0 119509020.6833992 109135814.92442322 0 109135814.92442322 96293800.317306519 0 0 0 0 24896187.16468811 17747946.855499268 0 17747946.855499268 3924372.4687042236 0 0 0 0 22971687.136883736 31683300.073028564 0 31683300.073028564 22781720.684410572 0 0 0 0 23944131.435047865 23833751.947297096 0 23833751.947297096 22927364.12310791 0 0 0 0 -296658992.25767517 -420714991.44368744 0 -420714991.44368744 -518982601.54909515 0 0 0 0 7499770.2972562425 3226899.4186288044 0 3226899.4186288044 -55383479.276299149 0 0 0 0 -325860165.21923351 -285990374.45919418 0 -285990374.45919418 -306777955.44259644 0 0 0 0 31316433.776026726 38160512.521194458 0 38160512.521194458 12671501.067138672 0 0 0 0 -125459451.41508484 -305475412.95098877 0 -305475412.95098877 -683728096.54555511 0 0 0 0 -153668253.43199158 -299395249.13936234 0 -299395249.13936234 -596714917.54379272 0 0 0 0 -53831410.296741486 -212319797.6062088 0 -212319797.6062088 -540595676.93840027 0 0 0 0 -150098922.76377487 -143109251.94363785 0 -143109251.94363785 -553090522.5838089 0 0 0 0 20221224.587368965 -779074852.87077618 0 -779074852.87077618 -284863411.17614746 0 0 0 0 4268123.5226197541 -15785928.293298867 0 -15785928.293298867 -65005081.802461125 0 0 0 0 -98609592.610717773 -178245499.40882874 0 -178245499.40882874 -555818033.34947586 0 0 0 0 -150285450.19514671 -158711366.36301878 0 -158711366.36301878 -440758042.72819519 0 0 0 0 -123481534.12488556 -234223355.65003204 0 -234223355.65003204 -678084295.92464733 0 0 0 0 5834724.1782201733 -4057669.8548808135 0 -4057669.8548808135 -8586874.6980072707 0 0 0 0 212565963.64686203 101040331.69061279 0 101040331.69061279 -16062879.558456421 0 0 0 0 745534.19261932373 -638459866.66146851 0 -638459866.66146851 -1121728106.6639404 0 0 0 0 113536951.54026794 -102175233.34918976 0 -102175233.34918976 -432538673.73690796 0 0 0 0 -85362015.660694122 -425590722.93215942 0 -425590722.93215942 -554572084.39745331 0 0 0 0 -135255788.92676926 -531748228.94714355 0 -531748228.94714355 -209045658.72250366 0 0 0 0 -301888538.11090851 -364681536.2766571 0 -364681536.2766571 -258645959.92991638 0 0 0 0 -163342576.9889946 -359875913.90727234 0 -359875913.90727234 -345175299.2543335 0 0 0 0 -159559802.83526611 -341221712.93411255 0 -341221712.93411255 -337166073.7557373 0 0 0 0 -62127220.092502594 -270904373.53381348 0 -270904373.53381348 -558964818.34777832 0 0 0 0 -79670591.882511139 43992939.559585571 0 43992939.559585571 -832682885.43136978 0 0 0 0 -6330619.3532104492 -153102478.56199646 0 -153102478.56199646 -311004473.57400513 0 0 0 0 -468731852.41871834 211837302.2822113 0 211837302.2822113 129514394.89422607 0 0 0 0 -285694583.54346704 -473465753.50798321 0 -473465753.50798321 255374574.60229492 0 0 0 0 118833073.26708221 -197300098.47872543 0 -197300098.47872543 -439103914.73076534 0 0 0 0 -69521343.255401611 -212369318.89209366 0 -212369318.89209366 -429213616.18416786 0 0 0 0 83689102.701786041 -134165842.01135254 0 -134165842.01135254 -420175993.30622292 0 0 0 0 176104122.38105392 -19734684.195353985 0 -19734684.195353985 -357535067.06266785 0 0 0 0 87678875.793479919 -149770401.26271439 0 -149770401.26271439 -454304606.79133224 0 0 0 0 129286182.98697376 -82527138.542536736 0 -82527138.542536736 -420044715.19805527 0 0 0 0 82581570.83115387 -184113376.80612564 0 -184113376.80612564 -521440990.22418594 0 0 0 0 -1770299.9294929504 -179471538.99263763 0 -179471538.99263763 -478344389.31103897 0 0 0 0 129977831.30153656 -155470521.43091774 0 -155470521.43091774 -506822264.61685944 0 0 0 0 -15607023.039455414 -154595237.83230209 0 -154595237.83230209 -521665024.35511208 0 0 0 0 -94588428.751167297 -214046989.46414566 0 -214046989.46414566 -500709677.14807892 0 0 0 0 -56509408.305801392 -238017459.34828186 0 -238017459.34828186 -529925774.31627274 0 0 0 0 5260153.7586154938 -167566990.16767502 0 -167566990.16767502 -473036803.77651215 0 0 0 0 26511264.164325714 -172356683.51333809 0 -172356683.51333809 -418334722.88145828 0 0 0 0 -26861485.978906631 -222183934.09955406 0 -222183934.09955406 -461437832.54808044 0 0 0 0 -131529943.42442322 -286403929.35411453 0 -286403929.35411453 -514421659.09646511 0 0 0 0 -94266286.295631409 -194121731.5800209 0 -194121731.5800209 -388289080.37730408 0 0 0 0 -72438053.433639526 -205187320.00021362 0 -205187320.00021362 -388806829.41413736 0 0 0 0 -18776325.626468658 -62365914.681346893 0 -62365914.681346893 -219861835.32976341 0 0 0 0 2109295.7111570546 11522362.983059227 0 11522362.983059227 -52896251.410137832 0 0 0 0 -124372188.83259583 -91058347.959400177 0 -91058347.959400177 -177880288.96556091 0 0 0 0 -235001728.07947159 -187776623.36400223 0 -187776623.36400223 -218157557.25038147 0 0 0 0 -21184344.672813416 -151045208.59140778 0 -151045208.59140778 -320170199.53907752 0 0 0 0 -17441024.113643646 -140575136.13988304 0 -140575136.13988304 -292853812.43361664 0 0 0 0 -66097176.801172256 -183689021.97429085 0 -183689021.97429085 -317976710.41545868 0 0 0 0 38417891.772945404 -106915731.51940155 0 -106915731.51940155 -334521889.08626032 0 0 0 0 23970242.925292969 -77890410.690643311 0 -77890410.690643311 -268931798.82661533 0 0 0 0 38405961.417957306 -131961707.24925613 0 -131961707.24925613 -376484376.77186584 0 0 0 0 73171919.207489014 -118056553.11505699 0 -118056553.11505699 -396840599.81044388 0 0 0 0 37244248.512359619 -123006741.27871704 0 -123006741.27871704 -332327094.24922276 0 0 0 0 63383742.414676666 -159611389.5309906 0 -159611389.5309906 -446415020.13464355 0 0 0 0 33385766.637435913 -152679450.63018799 0 -152679450.63018799 -381215338.01634121 0 0 0 0 83620312.194709897 -141321181.62449798 0 -141321181.62449798 -463902739.08955383 0 0 0 0 91988528.743331909 -138462140.20381546 0 -138462140.20381546 -463362327.73323059 0 0 0 0 78037137.427524567 -113112290.58845711 0 -113112290.58845711 -443824313.08413315 0 0 0 0 91316924.602989197 -135144616.33057404 0 -135144616.33057404 -479681935.19592571 0 0 0 0 70495983.293071747 -126281918.01119518 0 -126281918.01119518 -409708925.3769455 0 0 0 0 53182326.231323242 -49329559.553726196 0 -49329559.553726196 -363016586.54144001 0 0 0 0 18179874.944386005 -29687365.993442535 0 -29687365.993442535 -543644851.67984009 0 0 0 0 14767211.813903809 -26573971.708961487 0 -26573971.708961487 -411406216.86499596 0 0 0 0 28251618.162740707 -87299437.540971756 0 -87299437.540971756 -517124340.60639954 0 0 0 0 72984121.85888195 -130100865.23009729 0 -130100865.23009729 -479681328.57531738 0 0 0 0 15654164.383359909 -200066787.72889328 0 -200066787.72889328 -510973935.32286453 0 0 0 0 93788999.430995941 -150530714.91270065 0 -150530714.91270065 -473635611.10005093 0 0 0 0 61501937.476306915 -127333119.72662735 0 -127333119.72662735 -400936681.10510254 0 0 0 0 52182543.606526852 -82084619.583764315 0 -82084619.583764315 -271334266.59163666 0 0 0 0 47027174.920269012 -119365291.59945679 0 -119365291.59945679 -311703535.42775345 0 0 0 0 -10491607.974067688 -177623759.53894424 0 -177623759.53894424 -380737561.92136002 0 0 0 0 -41946361.384700298 -129430761.54362869 0 -129430761.54362869 -228777279.9781723 0 0 0 0 -46568967.622680187 -121425511.21807718 0 -121425511.21807718 -226402572.65766144 0 0 0 0 -54416513.94589752 -33182813.657577515 0 -33182813.657577515 -891210276.81600952 0 0 0 0 -36756786.241919503 111288830.73465252 0 111288830.73465252 -853268300.51400757 0 0 0 0 333855.17110375303 -438960.36590875685 0 -438960.36590875685 -2291641.7186374678 0 0 0 0 41678420.984957457 -49909483.495574951 0 -49909483.495574951 -1017653190.297821 0 0 0 0 84146173.913663864 29565704.769805908 0 29565704.769805908 -1104434759.3291016 0 0 0 0 69162973.072638273 58498026.294265747 0 58498026.294265747 -969889195.43141937 0 0 0 0 23166125.237834573 30992811.512397766 0 30992811.512397766 -876580916.06265259 0 0 0 0 80017919.998945236 101594834.9246521 0 101594834.9246521 -863074789.55279541 0 0 0 0 5376927.3060603142 80199003.205718994 0 80199003.205718994 -561311605.08947754 0 0 0 0 -19883310.134559393 90373399.973152161 0 90373399.973152161 -570719638.51034546 0 0 0 0 36676523.602331758 103148176.3637619 0 103148176.3637619 -766049243.52713013 0 0 0 0 46773830.940805197 83359435.308303833 0 83359435.308303833 -776862081.33148193 0 0 0 0 -12162832.693469465 77800729.380073547 0 77800729.380073547 -771711208.29449463 0 0 0 0 -1161949.2007207796 13143705.31098175 0 13143705.31098175 -567086546.37879944 0 0 0 0 31136897.528800867 40707083.892234802 0 40707083.892234802 -719268909.72947121 0 0 0 0 28387449.222572744 37972389.929840088 0 37972389.929840088 -796377223.66088104 0 0 0 0 15027688.957204282 30868855.813293457 0 30868855.813293457 -718279094.54615974 0 0 0 0 -3555460.7334969491 84209917.4425354 0 84209917.4425354 -667620134.4247818 0 0 0 0 -65434390.15316993 -11869327.12600708 0 -11869327.12600708 -707628577.73680115 0 0 0 0 64992.668332770911 99629949.104278564 0 99629949.104278564 -860573886.61779785 0 0 0 0 -156103163.34397647 217894366.60882568 0 217894366.60882568 -338475258.37734985 0 0 0 0 6587911.0408237129 -11569282.719070435 0 -11569282.719070435 -879741530.04522705 0 0 0 0 65479783.363782175 33575905.350509644 0 33575905.350509644 -924214175.07350159 0 0 0 0 227653.12988769915 -414953.99648554623 0 -414953.99648554623 -751032.67133694759 0 0 0 0 67665966.937201262 75309240.763137817 0 75309240.763137817 -944778634.31823993 0 0 0 0 61523415.267002344 28781970.496337891 0 28781970.496337891 -886807740.54718018 0 0 0 0 49967113.507601231 81471152.413848877 0 81471152.413848877 -870223467.96728516 0 0 0 0 -11917046.257862508 33856927.753448486 0 33856927.753448486 -28893747.739471436 0 0 0 0 13792070.323134661 12205265.522583008 0 12205265.522583008 -53106481.385513544 0 0 0 0 -22908030.840186656 6046723.3397445679 0 6046723.3397445679 17770441.681243896 0 0 0 0 4352520.3564417362 -2363262.7920379639 0 -2363262.7920379639 -10136804.332580566 0 0 0 0 -38804.379181325079 169593.70829805266 0 169593.70829805266 -394442.70813111961 0 0 0 0 34385962.216739163 -61592547.673271179 0 -61592547.673271179 -223485922.78796387 0 0 0 0 -1818.9624408132022 28076370.258888245 0 28076370.258888245 81047170.275817871 0 0 0 0 -46503968.469308943 17702296.937660217 0 17702296.937660217 21384200.738922119 0 0 0 0 -5338520.4265738726 -12173081.272369385 0 -12173081.272369385 20262652.392146111 0 0 0 0 13136304.808243752 -10612988.616378784 0 -10612988.616378784 12640350.158493042 0 0 0 0 -121431.07898851809 449016.20237039588 0 449016.20237039588 -1006065.6441194564 0 0 0 0 -3908531.8655027151 121389.83901977539 0 121389.83901977539 16091407.322998047 0 0 0 0 16196579.108327331 4302716.1329708099 0 4302716.1329708099 -1176450.7503051758 0 0 0 0 786441.10531393613 -447417.68447864056 0 -447417.68447864056 -6168861.9779750854 0 0 0 0 -202678009.99807411 -43412790.745407104 0 -43412790.745407104 -23365004.261863708 0 0 0 0 582315.01731988485 1519386.5004030615 0 1519386.5004030615 -5089812.8119249642 0 0 0 0 -108460692.87290651 -233634924.36893654 0 -233634924.36893654 -207448155.53794861 0 0 0 0 -64587446.210671186 -262134183.02872467 0 -262134183.02872467 -335858281.00869751 0 0 0 0 -74623133.303687096 -244585616.93432617 0 -244585616.93432617 -260943559.20175171 0 0 0 0 -72105276.228429794 -192857720.02885437 0 -192857720.02885437 -248661686.74568176 0 0 0 0 -1130765.8336768819 2708704.2567231208 0 2708704.2567231208 -4144470.3951252773 0 0 0 0 -1137324.9299376309 18889762.597173691 0 18889762.597173691 -2654850.0228271484 0 0 0 0 -23642233.23451519 -8477480.5334625244 0 -8477480.5334625244 -7070166.2274475098 0 0 0 0 -3305384.9133458785 3367806.9209399 0 3367806.9209399 -3420058.3150267154 0 0 0 0 160787250.09297991 14748504.239654541 0 14748504.239654541 -286738659.99409485 0 0 0 0 9339196.3658821583 4827343.7944488525 0 4827343.7944488525 -19389365.418258667 0 0 0 0 132900270.88060468 -302864429.58856297 0 -302864429.58856297 -576909913.45211792 0 0 0 0 125859640.10739303 -343141506.47924805 0 -343141506.47924805 -315831881.022995 0 0 0 0 -46936586.433107853 -197725978.86600494 0 -197725978.86600494 -324492907.2197876 0 0 0 0 349451924.44504547 -450617530.25244904 0 -450617530.25244904 -613199124.03210449 0 0 0 0 179655.14098220947 2000692.1151062618 0 2000692.1151062618 -5916811.4354713112 0 0 0 0 336818993.26055288 -580219054.89543152 0 -580219054.89543152 -1096255655.5049438 0 0 0 0 -630350288.70944452 716363076.87414551 0 716363076.87414551 900629046.08232117 0 0 0 0 337734362.86241913 477017439.27450562 0 477017439.27450562 -2129920026.6825104 0 0 0 0 -794291566.6763792 1419842415.9031525 0 1419842415.9031525 -120672809.80711365 0 0 0 0 403396769.42567873 -97401657.669517517 0 -97401657.669517517 -469419330.86008835 0 0 0 0 405104286.41098356 -101607591.88712311 0 -101607591.88712311 -916040152.46627808 0 0 0 0 423730851.53810358 69568250.72064209 0 69568250.72064209 -279040521.72789001 0 0 0 0 -15703530.000556588 388228120.61533356 0 388228120.61533356 -286940297.26405144 0 0 0 0 -189244727.78605151 188450399.16929245 0 188450399.16929245 -415715775.31304932 0 0 0 0 -666616114.63579869 775197178.00554085 0 775197178.00554085 -287805729.07214355 0 0 0 0 -175046410.01295388 827667190.20851898 0 827667190.20851898 -1443506283.0994263 0 0 0 0 225364732.04163527 -541993285.85437012 0 -541993285.85437012 -1643312998.7118378 0 0 0 0 -703322341.98203659 -632259731.28968811 0 -632259731.28968811 1036345597.2701263 0 0 0 0 -448969908.66010761 -1356039604.0818939 0 -1356039604.0818939 -273624679.4949646 0 0 0 0 293430455.10163307 -91670396.519111633 0 -91670396.519111633 -447388394.1333313 0 0 0 0 74611578.200513959 45274378.505195618 0 45274378.505195618 47776697.105819702 0 0 0 0 46305655.447125435 -296500841.73285675 0 -296500841.73285675 -1248515779.5452576 0 0 0 0 80296513.337555885 -148164794.08128357 0 -148164794.08128357 -1021913891.985611 0 0 0 0 38010222.340111732 7654333.3433609009 0 7654333.3433609009 -734308818.16107178 0 0 0 0 -5556772.8643599655 -1822505.2680797204 0 -1822505.2680797204 -1321561.8306706087 0 0 0 0 114500293.23991108 -257573812.75474548 0 -257573812.75474548 -1301340853.9765778 0 0 0 0 223258012.65396976 285582800.04673767 0 285582800.04673767 -1385067426.6993408 0 0 0 0 -62244757.394915581 -132176797.50769043 0 -132176797.50769043 -800834023.95947266 0 0 0 0 93962184.170862198 -91707984.058517456 0 -91707984.058517456 -805107623.16361046 0 0 0 0 217314190.51442051 -110558651.83110046 0 -110558651.83110046 -1141399342.9026031 0 0 0 0 217044965.46098909 -102766350.18987465 0 -102766350.18987465 -1168656950.5456238 0 0 0 0 106964196.21672916 141634868.44026947 0 141634868.44026947 -800730182.85006714 0 0 0 0 152690781.25033569 213990228.43864441 0 213990228.43864441 -1385182265.5560684 0 0 0 0 -75163104.76350832 -36174754.852630615 0 -36174754.852630615 -912423956.2807312 0 0 0 0 9858423.9125487804 81134184.358581543 0 81134184.358581543 -995154242.03474426 0 0 0 0 38569246.946011066 -201121765.62940979 0 -201121765.62940979 -1320476681.4275818 0 0 0 0 -1643612.7424283964 24220.472312927246 0 24220.472312927246 -139780.42451297492 0 0 0 0 -4231067.6618142026 536923.23163150251 0 536923.23163150251 -2868964.0606178939 0 0 0 0 132485026.9232645 -13925427.528671265 0 -13925427.528671265 -1860316577.0361176 0 0 0 0 -153874291.62570667 63609617.468811035 0 63609617.468811035 -32156079.29723525 0 0 0 0 -452254040.10407066 -122059752.26437378 0 -122059752.26437378 -1006158818.311554 0 0 0 0 -121033569.0869267 218410912.5218029 0 218410912.5218029 -915838281.00982666 0 0 0 0 49220309.770042419 -61762717.412353516 0 -61762717.412353516 -1000527308.844738 0 0 0 0 -54460834.790114403 -158831112.15406799 0 -158831112.15406799 -774834453.8921814 0 0 0 0 -11265119.69209671 50215822.934860229 0 50215822.934860229 -601640989.42082214 0 0 0 0 155583743.80930805 -25757035.404037476 0 -25757035.404037476 -721365997.60046387 0 0 0 0 19076359.450562954 167033335.43617249 0 167033335.43617249 -534229389.77212524 0 0 0 0 139982303.57547379 99447769.525192261 0 99447769.525192261 -994275758.06590271 0 0 0 0 57520982.112770319 166927639.28118134 0 166927639.28118134 -580890927.23779297 0 0 0 0 45528746.118735582 169289788.00367451 0 169289788.00367451 -353298197.04568481 0 0 0 0 35679189.745176792 59264865.345625877 0 59264865.345625877 -83177206.78704834 0 0 0 0 238863930.18797445 -8712404.5526885986 0 -8712404.5526885986 -193848051.28393555 0 0 0 0 307499981.71817827 212055982.95137024 0 212055982.95137024 -534663564.3114624 0 0 0 0 10904191.400379181 115347759.30389404 0 115347759.30389404 -499079423.15670776 0 0 0 0 202748784.58561194 -104389689.95286942 0 -104389689.95286942 -277275744.63830566 0 0 0 0 2325376.2905304432 -121886147.42588139 0 -121886147.42588139 -402480322.0758667 0 0 0 0 8612769.7714881897 70232546.370117188 0 70232546.370117188 -294152605.56881714 0 0 0 0 100913548.2858226 -129806676.07023954 0 -129806676.07023954 -102625214.67053223 0 0 0 0 259563528.15635777 121509119.58297729 0 121509119.58297729 54368165.663116455 0 0 0 0 75554.966762474272 -214805.97581681609 0 -214805.97581681609 46017.979926668108 0 0 0 0 -15517397.215686798 48511762.754486084 0 48511762.754486084 -162084897.16009521 0 0 0 0 -11268.510565666584 -70028.492031661328 0 -70028.492031661328 -9078.8105785995722 0 0 0 0 -442870.46085083578 -1902024.1960756481 0 -1902024.1960756481 -30670.036525800824 0 0 0 0 1378115.5164354295 -974247.80317258835 0 -974247.80317258835 -1814874.0146179199 0 0 0 0 198605924.7787649 16089437.302781582 0 16089437.302781582 -85188851.695739746 0 0 0 0 1522563.2711739335 340785.88952064002 0 340785.88952064002 -944093.96577753127 0 0 0 0 147765320.80896831 -19580980.091400146 0 -19580980.091400146 6493759.2867431641 0 0 0 0 137873577.90062076 -54531749.472370148 0 -54531749.472370148 -116987829.9675293 0 0 0 0 51433710.154565692 14035988.421585083 0 14035988.421585083 -79628830.821228027 0 0 0 0 60419976.225528717 -44517473.118225098 0 -44517473.118225098 -618721279.12205505 0 0 0 0 -156098568.97249413 84869836.916305542 0 84869836.916305542 -2278165.5288543701 0 0 0 0 -24440076.596834183 -29521781.15953064 0 -29521781.15953064 -45281357.820678711 0 0 0 0 -75356985.523803234 186106077.35653305 0 186106077.35653305 -358153976.42974854 0 0 0 0 71148153.117147446 -57337592.347640991 0 -57337592.347640991 -374470086.55717468 0 0 0 0 -59222777.038129807 94047202.473251343 0 94047202.473251343 -155804091.59495544 0 0 0 0 2170390.5522420406 42241655.372253418 0 42241655.372253418 -434845360.97640991 0 0 0 0 68103254.414699554 97250995.826644897 0 97250995.826644897 -154699139.15258789 0 0 0 0 -65423494.562055588 -19473446.735244751 0 -19473446.735244751 -128616033.63409424 0 0 0 0 -49766045.154976845 110995939.56033325 0 110995939.56033325 23043192.936698914 0 0 0 0 1271202.2236407329 -2535058.3769359067 0 -2535058.3769359067 -586033.1259181276 0 0 0 0 1087811.2325434685 -1861536.8481445312 0 -1861536.8481445312 -3271608.9521636963 0 0 0 0 1021761.6317386627 -431546.7508392334 0 -431546.7508392334 -1102658.2913208008 0 0 0 0 53232201.91803509 -79607237.375849724 0 -79607237.375849724 25541553.124847412 0 0 0 0 -59293678.792203903 69362646.590560913 0 69362646.590560913 139565434.22235107 0 0 0 0 2505527.161687851 51690100.216461182 0 51690100.216461182 17861067.659606934 0 0 0 0 -17103613.185407639 -93694519.520141602 0 -93694519.520141602 55598879.290962219 0 0 0 0 5601804.2618435621 -1270222.6448059082 0 -1270222.6448059082 4632733.5847244263 0 0 0 0 4226690.1409974536 -463311.9772149846 0 -463311.9772149846 -2100690.9457196072 0 0 0 0 2963981.2889132989 295206.09817761928 0 295206.09817761928 -1149834.5610020533 0 0 0 0 1916623.2909241542 -10049559.836992264 0 -10049559.836992264 6252286.7641296387 0 0 0 0 -15008115.368920594 10555599.404373169 0 10555599.404373169 -1920548.7141709328 0 0 0 0 6820361.4843954332 2198349.9719219208 0 2198349.9719219208 -1613497.3020019531 0 0 0 0 6322846.5672316551 -12619813.623764038 0 -12619813.623764038 -9112229.3307189941 0 0 0 0 135286870.50639021 -102453873.62010956 0 -102453873.62010956 -32195649.31741333 0 0 0 0 46359314.836153626 -82939451.235900879 0 -82939451.235900879 -3437538.1889877319 0 0 0 0 133439290.25634789 -44721706.005981445 0 -44721706.005981445 -15946146.550949097 0 0 0 0 2656758.0041437149 126506.60284423828 0 126506.60284423828 -2072202.3790283203 0 0 0 0 1596641.3144969367 263448.61891722912 0 263448.61891722912 -1273556.1785364002 0 0 0 0 1007154.8504306215 167222.9718574672 0 167222.9718574672 -640618.63802424073 0 0 0 0 2933077.2748852968 -1715834.8109207153 0 -1715834.8109207153 -12346035.802124023 0 0 0 0 20059687.687505126 -2228172.010635376 0 -2228172.010635376 -3233165.7569580078 0 0 0 0 106879793.94328547 -113906606.44379425 0 -113906606.44379425 78720644.817878723 0 0 0 0 1436887.6801309204 -81678.235534720123 0 -81678.235534720123 -794802.64278887957 0 0 0 0 5418506.5327041149 -42238979.965881348 0 -42238979.965881348 84575121.743602753 0 0 0 0 117519435.6504426 -50764812.470550537 0 -50764812.470550537 -36366495.609832764 0 0 0 0 66726448.815209448 -256722391.70755768 0 -256722391.70755768 170075823.26298141 0 0 0 0 -26762663.380352348 18241210.471157074 0 18241210.471157074 -112888199.47521973 0 0 0 0 22733568.011443317 -82872714.09967804 0 -82872714.09967804 -69451353.367736816 0 0 0 0 35962482.582964182 -9493204.8405761719 0 -9493204.8405761719 -42612637.022375107 0 0 0 0 -41761628.990129113 32092305.458770752 0 32092305.458770752 -152011886.31471252 0 0 0 0 18424995.494189739 75041927.95690918 0 75041927.95690918 -292413689.05831909 0 0 0 0 29678156.340794802 -56957274.81489563 0 -56957274.81489563 -147548510.94789124 0 0 0 0 30063997.826470256 -31827936.653968811 0 -31827936.653968811 -164458244.36419678 0 0 0 0 -16241167.013161659 -23009533.558319092 0 -23009533.558319092 -217200004.49142075 0 0 0 0 -46479104.21890223 46584183.161865234 0 46584183.161865234 -243337362.31488037 0 0 0 0 -1692465.3719321489 1788303.3582992554 0 1788303.3582992554 -324746568.05233765 0 0 0 0 -19888900.606897712 103098023.38513184 0 103098023.38513184 -384591681.60986328 0 0 0 0 13210755.479413122 27440100.019016266 0 27440100.019016266 -546667729.0637207 0 0 0 0 33895064.648073912 143134224.58544922 0 143134224.58544922 -523680815.52749634 0 0 0 0 32163969.941861391 58478758.382736206 0 58478758.382736206 -512852804.35966492 0 0 0 0 -13298463.882832855 30798956.372461319 0 30798956.372461319 -335675427.72799683 0 0 0 0 -71151.166920599499 -24890472.00377655 0 -24890472.00377655 -488798423.40777588 0 0 0 0 -1471102.3825674653 6731811.4421844482 0 6731811.4421844482 -427698318.48731995 0 0 0 0 -20837272.59709549 93687438.505397797 0 93687438.505397797 -472100970.34329224 0 0 0 0 -43050722.743748054 -9250443.5225753784 0 -9250443.5225753784 -265880309.90803528 0 0 0 0 -13543854.708206002 50252784.461662292 0 50252784.461662292 -388042026.32221985 0 0 0 0 -49410774.27562388 -10155780.954093933 0 -10155780.954093933 -115832131.90869141 0 0 0 0 -44155.525531768413 -36810117.666424178 0 -36810117.666424178 -213234824.39501953 0 0 0 0 -19193422.057756662 -47043061.536132812 0 -47043061.536132812 -155959290.12474823 0 0 0 0 -43130074.60766387 41647064.245849609 0 41647064.245849609 -198755706.51199341 0 0 0 0 -32647168.036682017 -11643466.686336517 0 -11643466.686336517 -80992689.084533691 0 0 0 0 -32859935.0060516 -74309112.041778564 0 -74309112.041778564 -44687959.632194519 0 0 0 0 -13410.811584090094 -65045789.100021362 0 -65045789.100021362 -97797746.139398575 0 0 0 0 -42096679.900175065 -59331772.776794434 0 -59331772.776794434 -15017598.633331299 0 0 0 0 53025476.469016209 -68737141.218826294 0 -68737141.218826294 -30940243.441913605 0 0 0 0 59874344.35188695 19896757.902758598 0 19896757.902758598 254174.66899108887 0 0 0 0 -39638.773226029421 -55822866.724639893 0 -55822866.724639893 -18696786.180252075 0 0 0 0 8389946.8225795627 -16090000.224597931 0 -16090000.224597931 -201476287.17720032 0 0 0 0 340576.13260076079 -44313.759381197393 0 -44313.759381197393 -192870.45166310668 0 0 0 0 42794042.452851593 -125722229.197258 0 -125722229.197258 -152718733.76702881 0 0 0 0 -39772613.18728137 -252987327.16352844 0 -252987327.16352844 -18851854.908218384 0 0 0 0 99784.809437354052 -4138.0157897621393 0 -4138.0157897621393 -205682.12293216586 0 0 0 0 -10223146.965145975 -36923588.168777466 0 -36923588.168777466 -7462553.0474243164 0 0 0 0 -110628179.86627883 -68857872.898361206 0 -68857872.898361206 -169811650.2700119 0 0 0 0 -18476500.058286361 -17363928.825592041 0 -17363928.825592041 -145320484.38661194 0 0 0 0 11360911.639723171 9471810.7903785706 0 9471810.7903785706 -55063905.830535889 0 0 0 0 184702.84519534165 75969.638646349311 0 75969.638646349311 -517783.7260171473 0 0 0 0 -66107470.543262392 -3110723.3399658203 0 -3110723.3399658203 -40677625.04196167 0 0 0 0 45659310.82385993 -16978535.299583435 0 -16978535.299583435 -145318169.23680115 0 0 0 0 16001680.044852868 -43312678.322906494 0 -43312678.322906494 -92382297.662597656 0 0 0 0 105299.81247790594 -43916.138967387378 0 -43916.138967387378 -146741.04126542807 0 0 0 0 -10610088.293721316 -22641429.768798828 0 -22641429.768798828 -122931746.7376709 0 0 0 0 -9878032.2244089749 -43123386.186019897 0 -43123386.186019897 -137370688.27223206 0 0 0 0 -51005906.01526776 -138222204.66663361 0 -138222204.66663361 -153869643.30496216 0 0 0 0 69648.503727159899 -1480.705246552825 0 -1480.705246552825 -98519.540110629052 0 0 0 0 -9734489.8770139143 -43052370.074829102 0 -43052370.074829102 -187001258.90257263 0 0 0 0 -6101540.8123875447 -45661391.859802246 0 -45661391.859802246 -186455072.79248047 0 0 0 0 27876.109390057078 -67535.650007307529 0 -67535.650007307529 -127705.12235004455 0 0 0 0 -8496594.173517704 -19616132.432540894 0 -19616132.432540894 -79149003.540351868 0 0 0 0 7761728.6946905106 -65868298.003265381 0 -65868298.003265381 -29641302.777740479 0 0 0 0 -11570365.671122104 298931.03802490234 0 298931.03802490234 -64489413.144287109 0 0 0 0 -126552.58867528848 -25697738.68145752 0 -25697738.68145752 -139179556.91290283 0 0 0 0 -1187166.3246602211 -21266267.732406616 0 -21266267.732406616 -139055198.42752361 0 0 0 0 20.568479478872177 -7961677.5225143433 0 -7961677.5225143433 -123844828.91563416 0 0 0 0 5322205.4335815655 -20004097.625999451 0 -20004097.625999451 -135116989.03938293 0 0 0 0 14348.525976036763 -4797467.9417572021 0 -4797467.9417572021 -154517289.26209259 0 0 0 0 3670810.3553744634 -1546855.7800636292 0 -1546855.7800636292 -151837563.91653442 0 0 0 0 -1437458.5951818321 9326156.1405334473 0 9326156.1405334473 -174789712.46511841 0 0 0 0 4514499.8678023117 -12446452.237335205 0 -12446452.237335205 -162894167.79963684 0 0 0 0 6547993.9763722392 -11274441.84349823 0 -11274441.84349823 -162231050.2116394 0 0 0 0 596898.12398680625 -18995254.974569321 0 -18995254.974569321 -171482915.20022583 0 0 0 0 321169.20874871872 -19037919.624679565 0 -19037919.624679565 -171475987.9234314 0 0 0 0 3305927.0791085418 -3351608.3387908936 0 -3351608.3387908936 -192279769.60995483 0 0 0 0 -6747015.1616973355 -30321888.193206787 0 -30321888.193206787 -216772265.25201416 0 0 0 0 -7511171.6494508758 -30154617.328369141 0 -30154617.328369141 -180629936.68343353 0 0 0 0 8936171.7812087312 -15525477.077026367 0 -15525477.077026367 -207342634.15539551 0 0 0 0 1265721.7245207475 -14098017.542565346 0 -14098017.542565346 -203448333.91473389 0 0 0 0 5697181.327962216 -1813289.1027927399 0 -1813289.1027927399 -262848151.43441772 0 0 0 0 -36209958.234206066 -7571831.2383117676 0 -7571831.2383117676 -185558949.87994385 0 0 0 0 -198559.70526171644 -37911.153201900423 0 -37911.153201900423 -272525.60241082311 0 0 0 0 1983613.6081537604 12023217.596290588 0 12023217.596290588 -235823358.64981079 0 0 0 0 -3188295.4311646186 17253294.856643677 0 17253294.856643677 -221208220.08052826 0 0 0 0 6409232.9952617288 6691884.661491394 0 6691884.661491394 -194388704.15093994 0 0 0 0 -140577.92330719883 -87844.056757345796 0 -87844.056757345796 -361170.07893356308 0 0 0 0 1084865.6651057247 3011700.4876098633 0 3011700.4876098633 -187428731.90942383 0 0 0 0 -36386719.185210764 -8591240.6974487305 0 -8591240.6974487305 -244319933.38656998 0 0 0 0 52973309.741808027 44147436.334335327 0 44147436.334335327 -348462020.20697021 0 0 0 0 -19768933.779890507 -139963447.21578217 0 -139963447.21578217 -380748724.97616959 0 0 0 0 32992769.462347627 -14112442.794189453 0 -14112442.794189453 -17947923.421388626 0 0 0 0 -261407.1294262298 -297632.61382164806 0 -297632.61382164806 -996440.47068065405 0 0 0 0 44112038.759392448 71825458.412307441 0 71825458.412307441 -172372492.44430542 0 0 0 0 43950801.031624496 88904731.247253418 0 88904731.247253418 -6581533.8020629883 0 0 0 0 -20991825.640808538 2243773.5441436768 0 2243773.5441436768 -87789587.114044189 0 0 0 0 4266263.1166350245 -19278262.754730225 0 -19278262.754730225 -105080896.59386444 0 0 0 0 -5654396.8946109042 7904143.3869934082 0 7904143.3869934082 -164497777.97341919 0 0 0 0 31422430.730062038 28372967.936304092 0 28372967.936304092 -303723868.61558533 0 0 0 0 -23957.95975974873 -76902.296924896538 0 -76902.296924896538 -395070.11872799322 0 0 0 0 -33225.41646967455 -26951629.490623474 0 -26951629.490623474 -187084633.95436859 0 0 0 0 17347357.591987364 -15157303.023506165 0 -15157303.023506165 -254451754.71761322 0 0 0 0 16320838.228351384 -20693933.079269409 0 -20693933.079269409 -169195873.76470947 0 0 0 0 15959636.400312245 -11953610.761276245 0 -11953610.761276245 -128547811.70852029 0 0 0 0 29274805.423151478 -25592888.547039032 0 -25592888.547039032 -183904431.54020691 0 0 0 0 10731941.919016063 -28496453.527015686 0 -28496453.527015686 -128831595.17953491 0 0 0 0 8799294.2264093161 -27171052.25390625 0 -27171052.25390625 -70046017.055236816 0 0 0 0 5263357.3984667063 -15227073.004219055 0 -15227073.004219055 -88296470.830322266 0 0 0 0 -2776845.4603877962 -25523673.981704712 0 -25523673.981704712 -91557227.465332031 0 0 0 0 3569425.4161893325 -32037244.160507202 0 -32037244.160507202 -128770464.13189697 0 0 0 0 -17257722.852195352 -26470028.178192139 0 -26470028.178192139 -127022819.27388763 0 0 0 0 -24640629.20706993 -50401434.583106995 0 -50401434.583106995 -83187522.033813477 0 0 0 0 -25288920.788838953 -39017661.339569092 0 -39017661.339569092 -132123263.08595276 0 0 0 0 -21383123.123571422 -45250938.248207092 0 -45250938.248207092 -133494535.8859272 0 0 0 0 13285481.690594882 -5369204.0009918213 0 -5369204.0009918213 -239161095.64637756 0 0 0 0 -50939521.712652236 -79693285.993379593 0 -79693285.993379593 -192161704.13006592 0 0 0 0 6595438.233551085 6732500.4874649048 0 6732500.4874649048 -161434133.35112381 0 0 0 0 -7703846.3779404834 -19342629.843833923 0 -19342629.843833923 -173530914.05906677 0 0 0 0 -90323.934067389957 4516.7491302117705 0 4516.7491302117705 -113767.22390287742 0 0 0 0 -15814021.545435846 -369749.15650081635 0 -369749.15650081635 -145899137.27702332 0 0 0 0 -8071138.6139087379 2221938.7782592773 0 2221938.7782592773 -296841356.37657166 0 0 0 0 -4869538.1700072736 19457864.28175354 0 19457864.28175354 -242586453.25642395 0 0 0 0 -7132411.9032771438 -51932506.648208618 0 -51932506.648208618 -188875060.30932617 0 0 0 0 12838981.011521339 -52867394.740844727 0 -52867394.740844727 -241046117.40063477 0 0 0 0 13220293.595502377 -65995940.143280029 0 -65995940.143280029 -368807935.62350464 0 0 0 0 9712640.0704668462 -63942731.559173584 0 -63942731.559173584 -214172796.99078369 0 0 0 0 41013763.924770832 37353553.221099854 0 37353553.221099854 -222819865.77954292 0 0 0 0 -55419438.757968932 7987317.3319244385 0 7987317.3319244385 -289378515.96496582 0 0 0 0 -28128003.706785232 -33235256.916694641 0 -33235256.916694641 -232966830.78092957 0 0 0 0 35481275.739972696 15227908.854240417 0 15227908.854240417 -229093182.89758301 0 0 0 0 -28376856.951035626 -50296106.683158875 0 -50296106.683158875 -184999217.76072693 0 0 0 0 83996631.414286226 47919730.73261261 0 47919730.73261261 -153243861.24789429 0 0 0 0 46553215.994061232 -5768853.1916427612 0 -5768853.1916427612 -205621486.31640625 0 0 0 0 41766717.135389104 -7199333.8031845093 0 -7199333.8031845093 -205793548.77068138 0 0 0 0 1526475.3573293872 1121698.8424835205 0 1121698.8424835205 -138412416.04223633 0 0 0 0 6435806.5539092571 -13928974.025634766 0 -13928974.025634766 -144939433.86270142 0 0 0 0 -5030175.0358033776 -47271298.451553345 0 -47271298.451553345 -127131469.14859009 0 0 0 0 6027202.7777550519 -33922478.262733459 0 -33922478.262733459 -141842105.58506775 0 0 0 0 17449243.063788094 -50135224.069290161 0 -50135224.069290161 -119867594.19239807 0 0 0 0 -19817863.558047056 -126270663.51403809 0 -126270663.51403809 -256014273.0826416 0 0 0 0 76097.744324275074 72092.161821126938 0 72092.161821126938 -319385.35018056631 0 0 0 0 -17570139.297441959 62661806.910400391 0 62661806.910400391 43501954.539855957 0 0 0 0 43249380.503628731 123298733.06362915 0 123298733.06362915 -33531217.546020508 0 0 0 0 10875491.827794284 54866639.954627991 0 54866639.954627991 -49196460.96182251 0 0 0 0 54740496.043234304 85798325.98758316 0 85798325.98758316 -122759081.66329956 0 0 0 0 -15972189.196144938 16600679.842926025 0 16600679.842926025 -100642085.04161072 0 0 0 0 -10343202.251734644 9886676.4389190674 0 9886676.4389190674 -96087160.806518555 0 0 0 0 -47491785.633015275 -36925017.803451538 0 -36925017.803451538 -98920245.289221764 0 0 0 0 -80559480.911910266 -29288903.27331543 0 -29288903.27331543 -93622291.425995827 0 0 0 0 -24759899.225228295 -28521729.797027588 0 -28521729.797027588 -46294828.477686882 0 0 0 0 -20265099.616979256 -7335913.6408996582 0 -7335913.6408996582 -92107336.567565918 0 0 0 0 34965537.478676438 -62412756.830497742 0 -62412756.830497742 -81448194.297363281 0 0 0 0 -27035140.408767849 -717287.20390319824 0 -717287.20390319824 42238912.347973824 0 0 0 0 41067428.540709741 -43618200.032218933 0 -43618200.032218933 -164583113.03416443 0 0 0 0 34687681.68025133 -63756425.740631104 0 -63756425.740631104 -206863158.24145889 0 0 0 0 18842422.705068827 -3392953.6335144043 0 -3392953.6335144043 -194436522.84191895 0 0 0 0 303717.32670489885 14452.652356381877 0 14452.652356381877 -258658.74024604261 0 0 0 0 -50608244.039791949 -95824066.899967432 0 -95824066.899967432 -119164019.09017944 0 0 0 0 -5128373.3281818274 61919091.509821892 0 61919091.509821892 -96310108.982269287 0 0 0 0 -28530996.891442291 -10281562.404541016 0 -10281562.404541016 -6065480.5622406006 0 0 0 0 20102539.247784376 7507066.943447113 0 7507066.943447113 -156201700.14404297 0 0 0 0 15253353.059010759 -20533965.156982422 0 -20533965.156982422 -122983573.4276123 0 0 0 0 9602900.3730752617 -15778967.666217804 0 -15778967.666217804 -88433550.104797363 0 0 0 0 -48076815.848013893 -81563621.058437347 0 -81563621.058437347 -149400600.30209351 0 0 0 0 28026131.104275107 -20046455.365432739 0 -20046455.365432739 -209348219.71226501 0 0 0 0 -3787082.0839855149 28478188.83518219 0 28478188.83518219 -76617056.193878174 0 0 0 0 -20487178.786701724 9879043.4913330078 0 9879043.4913330078 -4087111.9577789307 0 0 0 0 -5497848.17979756 69392.54810333252 0 69392.54810333252 -23767930.572479248 0 0 0 0 -1267275.161312595 14472043.739429474 0 14472043.739429474 -23367605.61138916 0 0 0 0 15001189.002314046 -2461847.7172088623 0 -2461847.7172088623 -57339552.683837891 0 0 0 0 10342259.468564533 -3351128.5771598816 0 -3351128.5771598816 -10273295.807342529 0 0 0 0 9648747.1638347059 -1025871.3874855042 0 -1025871.3874855042 -41700126.168075562 0 0 0 0 -6684336.1502444893 -27732264.811050415 0 -27732264.811050415 -50813172.187578201 0 0 0 0 97123221.468815923 51914677.199565887 0 51914677.199565887 -40135664.595458984 0 0 0 0 31933635.296812698 -5890543.5830535889 0 -5890543.5830535889 -44672461.3230896 0 0 0 0 1407799.1032347607 4398071.77594171 0 4398071.77594171 -11321724.644922256 0 0 0 0 5475385.6764717102 35482099.120605469 0 35482099.120605469 13983629.083328247 0 0 0 0 -8970600.1628114581 -21551858.266212463 0 -21551858.266212463 -50541543.983215332 0 0 0 0 -2305588.5728464127 -22469549.172302246 0 -22469549.172302246 -53918452.191345215 0 0 0 0 -16749086.961119652 19254186.421157837 0 19254186.421157837 -17356694.153991699 0 0 0 0 8630495.3701848388 1977938.3504581451 0 1977938.3504581451 -70229421.337097168 0 0 0 0 6598177.9617561102 20401808.311218262 0 20401808.311218262 -8781110.4711914062 0 0 0 0 22838867.451864243 -15782210.573242188 0 -15782210.573242188 -292571097.16488647 0 0 0 0 -1279389.6201756052 -691719.96606629342 0 -691719.96606629342 1070440.5885463655 0 0 0 0 -24749138.784885406 -48051327.800537109 0 -48051327.800537109 -156942236.21081543 0 0 0 0 -29556880.637447357 -40755503.971908569 0 -40755503.971908569 -100753594.77209473 0 0 0 0 -10644076.848267555 -13340190.613998413 0 -13340190.613998413 -62363819.382427216 0 0 0 0 -26666063.76366806 34843321.940216064 0 34843321.940216064 -80956989.564338684 0 0 0 0 -16823883.029958725 21561802.239807129 0 21561802.239807129 -68132008.249954224 0 0 0 0 -45397918.578346252 61176211.057937622 0 61176211.057937622 -50839159.403411865 0 0 0 0 -17955933.844047546 37366193.242279053 0 37366193.242279053 -176472783.44590378 0 0 0 0 9734388.1011695862 42377067.200996399 0 42377067.200996399 -30861006.123405457 0 0 0 0 -46817075.432391644 39709221.318548203 0 39709221.318548203 -20888442.391021729 0 0 0 0 -44024380.485729218 47671148.196029663 0 47671148.196029663 -26046377.331604004 0 0 0 0 -28318900.859491348 28387045.955276489 0 28387045.955276489 -3077482.853729248 0 0 0 0 2665824.5557363033 10961051.944465637 0 10961051.944465637 16839638.981765747 0 0 0 0 67385410.09609735 2923123.4285812378 0 2923123.4285812378 -32779740.242523193 0 0 0 0 -7409294.8646833897 37793760.417327881 0 37793760.417327881 -30476462.452827454 0 0 0 0 -4635829.1370307207 18814880.729358673 0 18814880.729358673 -11813512.165588379 0 0 0 0 30546799.52332449 51022509.398841858 0 51022509.398841858 -8250247.893119812 0 0 0 0 -39979353.259518623 85784776.138008118 0 85784776.138008118 -67314612.894775391 0 0 0 0 -60943715.015986443 49862175.787322998 0 49862175.787322998 3000039.3492851257 0 0 0 0 12758640.356534958 93447602.897262573 0 93447602.897262573 -66311613.801925659 0 0 0 0 -34010530.770440578 162426952.94429016 0 162426952.94429016 -162991781.37271118 0 0 0 0 3679373.7073879242 125323010.84854126 0 125323010.84854126 -163728977.28832769 0 0 0 0 -317853.10809877713 1572600.5864459909 0 1572600.5864459909 -2162609.0638431609 0 0 0 0 -378912569.67463881 230300985.54043579 0 230300985.54043579 -98322442.412872314 0 0 0 0 -185228639.87033236 51751346.440605164 0 51751346.440605164 26512366.679519653 0 0 0 0 13010725.919593349 -82789957.111961365 0 -82789957.111961365 -126718686.14009666 0 0 0 0 -345508974.42952788 -431444900.44114685 0 -431444900.44114685 -465151593.84468079 0 0 0 0 63870559.614569314 -45294120.803871155 0 -45294120.803871155 -170894045.43061829 0 0 0 0 26015259.748471141 -112250280.67185974 0 -112250280.67185974 -284585769.18161011 0 0 0 0 -18641053.411722735 -59975248.482475281 0 -59975248.482475281 -72757791.153060913 0 0 0 0 21435139.188357309 -66121279.336875916 0 -66121279.336875916 -173898511.07540894 0 0 0 0 -38014807.088589653 -91696477.714420319 0 -91696477.714420319 -124683380.27973938 0 0 0 0 -36009.293867478511 3518608.9188122265 0 3518608.9188122265 -6726279.8342178315 0 0 0 0 -31786736.931118011 76031214.68378067 0 76031214.68378067 -166877340.9444294 0 0 0 0 -30294769.256342888 14445032.642540455 0 14445032.642540455 -54401856.22026062 0 0 0 0 40703668.528110504 24719731.339071274 0 24719731.339071274 -334870804.64963788 0 0 0 0 34690629.25094986 -78047099.619123459 0 -78047099.619123459 -336892934.77277374 0 0 0 0 14433217.029630661 -19629927.856704712 0 -19629927.856704712 -146031669.34344482 0 0 0 0 13443562.327651978 956240.89311790466 0 956240.89311790466 -22958876.600383759 0 0 0 0 7919722.3410606384 51643791.204395294 0 51643791.204395294 -162246708.33122301 0 0 0 0 77534390.966761589 58893203.289063454 0 58893203.289063454 -124840809.18236542 0 0 0 0 1030299.5935826935 16160113.464285038 0 16160113.464285038 -56543270.212995805 0 0 0 0 89557664.687101364 60006545.787307739 0 60006545.787307739 -65147345.72668457 0 0 0 0 52098611.989282608 -16801179.483030319 0 -16801179.483030319 -250133607.17744827 0 0 0 0 -23731306.847288132 -18186499.479476929 0 -18186499.479476929 -62875169.686664581 0 0 0 0 23727936.197675705 -70882500.289554596 0 -70882500.289554596 -228348040.90919495 0 0 0 0 75321241.907669067 203096580.68676758 0 203096580.68676758 -95137302.691162109 0 0 0 0 -17006596.552337646 -116082697.6829052 0 -116082697.6829052 -197296592.34762192 0 0 0 0 -14685596.637224197 -50252807.245758057 0 -50252807.245758057 50166453.863342285 0 0 0 0 -26227254.03976059 149873996.27963257 0 149873996.27963257 -253336553.4604187 0 0 0 0 -159239715.91486168 190548466.55366516 0 190548466.55366516 152113108.26611328 0 0 0 0 -22932865.88527298 46839658.696914673 0 46839658.696914673 -56084685.127071381 0 0 0 0 10196433.727087975 45547613.917503357 0 45547613.917503357 -54361876.514526367 0 0 0 0 93183849.214557648 2627309.8793792725 0 2627309.8793792725 -47292175.033599854 0 0 0 0 56641318.927883148 46738745.741622925 0 46738745.741622925 -94682521.686218262 0 0 0 0 60625255.617062569 64163560.530094147 0 64163560.530094147 -119196460.68264771 0 0 0 0 41066112.256137848 104479139.43308258 0 104479139.43308258 -148316362.78439331 0 0 0 0 86452159.273010254 8208705.6393203735 0 8208705.6393203735 -97088961.593917847 0 0 0 0 102279831.9064064 66483940.317550659 0 66483940.317550659 -191728098.47937012 0 0 0 0 133291349.69094181 18361128.111740112 0 18361128.111740112 -151162589.46322632 0 0 0 0 120251266.39644098 15042364.199748993 0 15042364.199748993 -132682630.69689941 0 0 0 0 5231027.3499926887 -24863300.194385692 0 -24863300.194385692 -59242395.847796395 0 0 0 0 87319698.207206726 -6757019.6288833618 0 -6757019.6288833618 -89641708.177867889 0 0 0 0 35016182.769095421 5503011.8524627686 0 5503011.8524627686 -91590360.641998291 0 0 0 0 58814614.189228058 38546816.214988708 0 38546816.214988708 -63889771.287126541 0 0 0 0 13084962.658789635 36246030.667529464 0 36246030.667529464 -54642071.087623596 0 0 0 0 22948610.415376663 88544316.515542984 0 88544316.515542984 -35050181.165132999 0 0 0 0 3138779.7814951818 18431217.239008002 0 18431217.239008002 -63934483.680777401 0 0 0 0 791079022.94902992 722330217.76914978 0 722330217.76914978 -744355707.7060113 0 0 0 0 -41842379.435155869 197958751.94874859 0 197958751.94874859 -129110015.76887321 0 0 0 0 2384243994.0533066 6584193.3038368225 0 6584193.3038368225 -591490779.28533936 0 0 0 0 2251035.8818586394 -1846118.806918554 0 -1846118.806918554 -3289554.2697431985 0 0 0 0 -1398731274.4568787 -408358197.76052856 0 -408358197.76052856 164391972.95850372 0 0 0 0 -96691168.496471405 -209390466.20806885 0 -209390466.20806885 -383556434.32780838 0 0 0 0 -6289632.1403503418 -16886989.712375641 0 -16886989.712375641 -550257606.24566841 0 0 0 0 -52224596.587552071 -15507612.747969627 0 -15507612.747969627 -153491341.66214752 0 0 0 0 -168427294.36035156 -520142599.12480164 0 -520142599.12480164 81743265.072244167 0 0 0 0 157898462.25273466 112642036.73655701 0 112642036.73655701 -205939152.22590637 0 0 0 0 8486709.8593503553 8707325.6073486805 0 8707325.6073486805 -27006681.174735755 0 0 0 0 -113618822.74466324 22240863.961921692 0 22240863.961921692 -65942209.142007828 0 0 0 0 -81573654.459880829 2509122.8748092651 0 2509122.8748092651 -54377617.436549187 0 0 0 0 -47907211.161026001 -19835478.154151917 0 -19835478.154151917 -151444061.15771103 0 0 0 0 -78091373.850768089 -87412752.611835957 0 -87412752.611835957 -282875132.11768723 0 0 0 0 -85788307.074640274 -153092102.67533493 0 -153092102.67533493 -198450225.30530167 0 0 0 0 -146042525.3414669 -193078679.10434628 0 -193078679.10434628 -144446244.12420273 0 0 0 0 -92303923.130661964 -60317880.854828835 0 -60317880.854828835 -110529397.71774292 0 0 0 0 -75871696.155502319 -73002504.446857452 0 -73002504.446857452 -163824477.00161362 0 0 0 0 -100280472.84519577 -121816155.3686657 0 -121816155.3686657 -58874572.314212799 0 0 0 0 -16299524.482585907 167782.59286499023 0 167782.59286499023 -89216123.41443634 0 0 0 0 -737087.5688013332 1124274.806752305 0 1124274.806752305 -6918742.7548160348 0 0 0 0 -97034122.039402008 -65128277.60628891 0 -65128277.60628891 -44500520.049531937 0 0 0 0 -54915388.075702667 -12540226.354343414 0 -12540226.354343414 14966189.380363464 0 0 0 0 11959583.233919144 52630396.14452076 0 52630396.14452076 -15232106.520046234 0 0 0 0 75758170.780185699 40926438.128393173 0 40926438.128393173 -85507666.382139683 0 0 0 0 56621278.043746948 37673212.101215363 0 37673212.101215363 -85384457.536209106 0 0 0 0 -50076815.065577626 7633961.0195177794 0 7633961.0195177794 -75491416.100570679 0 0 0 0 20057166.288078308 12384196.48468399 0 12384196.48468399 -96677946.4793396 0 0 0 0 26867507.227500916 17373443.187297821 0 17373443.187297821 -95870897.124205589 0 0 0 0 22295138.509048462 24575871.515090942 0 24575871.515090942 -88346329.616590023 0 0 0 0 18584158.719652653 20654847.539703369 0 20654847.539703369 -87880677.167556763 0 0 0 0 67187193.82787323 13171008.879390717 0 13171008.879390717 -95325624.218784332 0 0 0 0 55422167.743328094 17250555.21137619 0 17250555.21137619 -93789396.592517853 0 0 0 0 -1519755.8432462718 -4458114.6445125435 0 -4458114.6445125435 -31705572.743105184 0 0 0 0 70228808.954545975 14858784.210808754 0 14858784.210808754 -94440477.488780975 0 0 0 0 4024504.1349282879 3948110.5451198407 0 3948110.5451198407 -30622300.350090779 0 0 0 0 77426115.58026123 23207775.419757843 0 23207775.419757843 -90349310.774150848 0 0 0 0 55389199.021827698 14281744.885875702 0 14281744.885875702 -93844951.774040222 0 0 0 0 138779226.13489914 176783958.94587708 0 176783958.94587708 -226774245.18944836 0 0 0 0 -351962158.58603668 -141123457.87253857 0 -141123457.87253857 -64472955.025211334 0 0 0 0 200666440.25658798 -263286659.59980774 0 -263286659.59980774 -30773897.186126709 0 0 0 0 119696153.18041229 -78183921.476608276 0 -78183921.476608276 37377970.518920898 0 0 0 0 160301773.43531227 -24999750.342407227 0 -24999750.342407227 -249304491.80450439 0 0 0 0 7063495.5941618057 -27042110.8864289 0 -27042110.8864289 -58511203.541070089 0 0 0 0 -34782964.121614695 -6084337.6763305664 0 -6084337.6763305664 -95148386.878677368 0 0 0 0 -1095278.0500751894 19338842.975647323 0 19338842.975647323 -57690714.861655369 0 0 0 0 23596900.228614151 4247005.8016729355 0 4247005.8016729355 -112465684.55548859 0 0 0 0 -17712124.404547453 62419732.622974873 0 62419732.622974873 -69251483.99356842 0 0 0 0 -32614955.303538322 32496821.165072918 0 32496821.165072918 70060824.325889587 0 0 0 0 85773058.415149689 -60223757.779895782 0 -60223757.779895782 -24184341.804473877 0 0 0 0 16450027.596784592 1256194.4010276794 0 1256194.4010276794 -62788979.230583191 0 0 0 0 28167196.953346252 3908723.4827651978 0 3908723.4827651978 -109554362.81009674 0 0 0 0 59045639.654752731 3198893.0868263245 0 3198893.0868263245 -113026288.49367523 0 0 0 0 88527933.394855499 -29737519.748180389 0 -29737519.748180389 -93764788.019256592 0 0 0 0 108720648.70937824 343267.05423069 0 343267.05423069 -154683686.39952087 0 0 0 0 132460547.78529739 21893982.437194824 0 21893982.437194824 -138194730.6531601 0 0 0 0 55486112.31967926 37307600.382442474 0 37307600.382442474 -136616115.75959778 0 0 0 0 -15642185.999015808 159653505.75074768 0 159653505.75074768 -126201223.86611176 0 0 0 0 31717340.352813721 83263391.769557953 0 83263391.769557953 -68607293.652187347 0 0 0 0 142574320.81834459 127288282.92424369 0 127288282.92424369 -246907511.0976944 0 0 0 0 123189141.35357666 -416644615.50839615 0 -416644615.50839615 492262329.63293648 0 0 0 0 248914200.98144913 91339672.261116028 0 91339672.261116028 -234754993.51160812 0 0 0 0 7373973.6568832397 -37676649.866828918 0 -37676649.866828918 173481490.15943909 0 0 0 0 415506565.62897491 -172746233.88299561 0 -172746233.88299561 -270207568.25376129 0 0 0 0 258951592.96930695 37069336.091159821 0 37069336.091159821 -327859999.38723755 0 0 0 0 87825916.489677429 -60352947.912418365 0 -60352947.912418365 -57575969.727596283 0 0 0 0 245099056.32598877 -90119299.094932556 0 -90119299.094932556 -99289918.939956665 0 0 0 0 218838310.33271027 -259119735.90324402 0 -259119735.90324402 144829541.86092758 0 0 0 0 410682866.09597015 -91490068.463521957 0 -91490068.463521957 -471998692.71620178 0 0 0 0 1366957141.4738464 -1464896434.8086891 0 -1464896434.8086891 -300012725.29302454 0 0 0 0 824429835.84805298 750906340.12908936 0 750906340.12908936 -1527708576.7894058 0 0 0 0 3318415052.0869598 -1079439164.713501 0 -1079439164.713501 -3551942231.6751709 0 0 0 0 -1193505309.4347916 1457752187.6933594 0 1457752187.6933594 -1150937103.2891617 0 0 0 0 3552752428.4511604 379244259.42686462 0 379244259.42686462 -5580985853.3446198 0 0 0 0 616914613.63350105 2373114841.803236 0 2373114841.803236 -3785666779.6466827 0 0 0 0 -302347428.33150482 541174984.37882233 0 541174984.37882233 -286794609.06450653 0 0 0 0 -241007678.6456604 510451148.45091248 0 510451148.45091248 -282822048.20095825 0 0 0 0 148664677.26068878 331695457.71759796 0 331695457.71759796 -587265776.29911613 0 0 0 0 436595509.65865326 1018748913.6324387 0 1018748913.6324387 -1710259840.431839 0 0 0 0 702423518.20371246 37816216.101501465 0 37816216.101501465 -477485488.74847412 0 0 0 0 -198407477.36343384 297919935.43860626 0 297919935.43860626 -141433787.64567566 0 0 0 0 -44925646.670677185 292959346.5815239 0 292959346.5815239 -149319137.88935089 0 0 0 0 -18173451.456139088 133861691.1049757 0 133861691.1049757 7729113.713508606 0 0 0 0 -169990888.96575165 91920811.836597443 0 91920811.836597443 86543856.472434998 0 0 0 0 -579079533.23978424 263404435.66451263 0 263404435.66451263 3334579.7068252563 0 0 0 0 -168043106.43974304 87728686.965877056 0 87728686.965877056 77135380.861671448 0 0 0 0 68914589.794612885 -89666466.72325325 0 -89666466.72325325 -752192.48619842529 0 0 0 0 -246788107.58581924 -60889988.388715744 0 -60889988.388715744 26518623.119277954 0 0 0 0 126289726.19380569 -32263364.138083458 0 -32263364.138083458 26601059.869091034 0 0 0 0 -297750891.17028046 -416378479.37426949 0 -416378479.37426949 -286737566.65474319 0 0 0 0 -1350064201.4741497 1292322388.9309907 0 1292322388.9309907 -348757954.07791328 0 0 0 0 -5840136.5743928682 -99726.737351114862 0 -99726.737351114862 -12765414.939031117 0 0 0 0 -3323861.4008173067 3792108.1717615817 0 3792108.1717615817 -912565.22835495882 0 0 0 0 -800440147.94588947 259053799.29277039 0 259053799.29277039 -148571122.27377319 0 0 0 0 64580449.755780697 -56107026.556060791 0 -56107026.556060791 -367161839.44289017 0 0 0 0 79877.04214732004 -976988.93950213492 0 -976988.93950213492 -8407407.9694605842 0 0 0 0 -180309201.76765648 445171897.91940308 0 445171897.91940308 524252277.21064758 0 0 0 0 8297084.7222664356 -92041119.606430054 0 -92041119.606430054 -268940735.53076172 0 0 0 0 -10039301.874907672 -12184389.993247986 0 -12184389.993247986 -188104333.78598022 0 0 0 0 163648432.44609103 -18855099.580745697 0 -18855099.580745697 -258100091.09407043 0 0 0 0 80432630.680507153 -46676814.566139221 0 -46676814.566139221 13680198.249511719 0 0 0 0 283636298.58066577 45494656.326080322 0 45494656.326080322 -881466267.0007019 0 0 0 0 95066317.918905407 711405378.62705994 0 711405378.62705994 -358088294.85424042 0 0 0 0 -129382007.48252392 357117252.05995941 0 357117252.05995941 -558635470.19784546 0 0 0 0 185341745.17825413 -67217308.971542358 0 -67217308.971542358 -969208834.98542786 0 0 0 0 -642942291.21484423 -827617974.35932922 0 -827617974.35932922 -68694765.814094543 0 0 0 0 259576467.08530426 -222745109.1204834 0 -222745109.1204834 -116799302.70655823 0 0 0 0 113390722.28144026 117898669.2809906 0 117898669.2809906 -404908041.51083374 0 0 0 0 129525982.67181587 -106571790.00212097 0 -106571790.00212097 -202326436.64726257 0 0 0 0 267889696.77591419 -98210620.317771912 0 -98210620.317771912 -237364540.93331909 0 0 0 0 -378056178.70197833 -148814283.54755402 0 -148814283.54755402 728962003.69619751 0 0 0 0 -82511135.338993147 -70397369.93031311 0 -70397369.93031311 -179584168.9031868 0 0 0 0 2398192.8085457915 -1350586.4178182855 0 -1350586.4178182855 -31133712.4179914 0 0 0 0 9294758.2846835908 -67110284.761753082 0 -67110284.761753082 -330710288.69522095 0 0 0 0 -365826755.59917104 -63820167.281585693 0 -63820167.281585693 237261281.62893677 0 0 0 0 -199596332.26479065 149827788.78152466 0 149827788.78152466 -104619294.72088623 0 0 0 0 30912417.623450607 39814824.03427124 0 39814824.03427124 -374761779.47872162 0 0 0 0 6350856.8149003917 -27606512.227536321 0 -27606512.227536321 -66821614.202474765 0 0 0 0 167719783.73135209 88580838.386749268 0 88580838.386749268 -486724390.93557739 0 0 0 0 23806160.403728664 -39134320.090560913 0 -39134320.090560913 -108662525.48274612 0 0 0 0 8572515.0670716241 2934203.789297916 0 2934203.789297916 -18099913.346829735 0 0 0 0 -42606625.104022264 -3076807.665576458 0 -3076807.665576458 -93959310.115768433 0 0 0 0 1940746.8467922211 -20535862.891040802 0 -20535862.891040802 -109194506.90247393 0 0 0 0 -38036155.656382322 12463478.971828938 0 12463478.971828938 -101213113.79142761 0 0 0 0 -19122133.815471649 14201130.439590454 0 14201130.439590454 -101881686.3638134 0 0 0 0 28850527.391711354 50659556.623981476 0 50659556.623981476 -17687822.383758545 0 0 0 0 94614068.939073235 -81900895.297149658 0 -81900895.297149658 -41278184.098377228 0 0 0 0 5683186.5606902847 -23319910.402817965 0 -23319910.402817965 -59856263.828803435 0 0 0 0 -76994600.657442093 -264109500.25840759 0 -264109500.25840759 170720357.82923508 0 0 0 0 6808768.1739637377 -19979075.529307947 0 -19979075.529307947 -58092531.682376631 0 0 0 0 12239912.431280077 -54078300.564163208 0 -54078300.564163208 72283168.980422974 0 0 0 0 -14469907.358425558 -4073622.6618041992 0 -4073622.6618041992 -15090398.639167786 0 0 0 0 2225778.400081065 1074937.0440860987 0 1074937.0440860987 -14462753.882103037 0 0 0 0 -14418416.033741206 -8862314.9472160339 0 -8862314.9472160339 -16779545.704376221 0 0 0 0 19327750.109064817 -21747197.750167847 0 -21747197.750167847 -138560384.03900146 0 0 0 0 9427613.4181964695 27865677.671859741 0 27865677.671859741 -158480295.62322998 0 0 0 0 20476646.387936115 1450492.8450241089 0 1450492.8450241089 -180747657.63101196 0 0 0 0 12596906.943952328 -20094301.251462936 0 -20094301.251462936 -285838834.79937744 0 0 0 0 46488282.434034109 -37490733.800018311 0 -37490733.800018311 -277888614.58050537 0 0 0 0 39276371.081608713 -56609128.815338135 0 -56609128.815338135 -145902372.57341003 0 0 0 0 35771043.789084196 21173466.337661743 0 21173466.337661743 -116527912.45306396 0 0 0 0 26977050.223741718 -5966646.4124140739 0 -5966646.4124140739 -76144007.897735596 0 0 0 0 26159695.45285802 -25180668.966896534 0 -25180668.966896534 -74742594.856567383 0 0 0 0 872289.06861002406 -5379410.2289444581 0 -5379410.2289444581 -14069172.256345704 0 0 0 0 11352840.251185089 -13391372.399711609 0 -13391372.399711609 -52704577.766082764 0 0 0 0 41979.623338699341 1938292.4514770508 0 1938292.4514770508 -8298850.0495586395 0 0 0 0 -1913092.1869416237 2457034.2323608398 0 2457034.2323608398 -7455229.2778015137 0 0 0 0 -5221701.3324589729 1657165.0363044739 0 1657165.0363044739 -32431742.219787598 0 0 0 0 -2609787.7351956367 6127406.46276474 0 6127406.46276474 -40062473.448699951 0 0 0 0 -777767.59924928774 229052.29479057342 0 229052.29479057342 -10596109.339317858 0 0 0 0 80681.00804571039 -1985952.9499952197 0 -1985952.9499952197 -6034937.5510915611 0 0 0 0 2510746.4307346344 2993961.7597885132 0 2993961.7597885132 -24617828.794885635 0 0 0 0 -3001334.9104550183 6827843.7588500977 0 6827843.7588500977 -41152278.537979126 0 0 0 0 -5441916.3051203489 8274089.6792221069 0 8274089.6792221069 -37962321.208724976 0 0 0 0 2961919.6254428625 2104811.8479499817 0 2104811.8479499817 -73229136.945327759 0 0 0 0 1532341.949529699 -2428210.3610072099 0 -2428210.3610072099 -32839011.075729713 0 0 0 0 1105300.4853634834 10370158.299499512 0 10370158.299499512 -86381481.937347412 0 0 0 0 2479780.3072815686 2933089.4075984955 0 2933089.4075984955 -17842669.60357666 0 0 0 0 6354710.1020551259 -444313.53197748587 0 -444313.53197748587 -44123404.086153798 0 0 0 0 2865594.9913581312 3743899.8003540039 0 3743899.8003540039 -29520612.745697021 0 0 0 0 -6252531.5541311605 15553322.441731431 0 15553322.441731431 -25566115.833359227 0 0 0 0 -3975429.3334383965 7436124.8608551025 0 7436124.8608551025 -28763400.155258179 0 0 0 0 -22345653.017524242 3726508.2551879883 0 3726508.2551879883 -106985203.75042343 0 0 0 0 -11542139.022396088 10519471.611053467 0 10519471.611053467 -27981089.214797974 0 0 0 0 -6034086.5399069786 -9898536.1308517456 0 -9898536.1308517456 -98842580.567165375 0 0 0 0 -728789.47847124934 2328228.7272047997 0 2328228.7272047997 -52507511.14414978 0 0 0 0 -1262404.9079579166 -3932127.6297378577 0 -3932127.6297378577 -12507505.188351933 0 0 0 0 25246078.264324188 6490493.9881591797 0 6490493.9881591797 -80198757.557563782 0 0 0 0 -15920607.344163656 5697827.062713623 0 5697827.062713623 -53240047.349716187 0 0 0 0 54720.693699819851 -1034752.1851704754 0 -1034752.1851704754 -1903081.0439969599 0 0 0 0 8728476.987336874 1123500.2405548096 0 1123500.2405548096 -78510749.357805252 0 0 0 0 -3437525.7805361748 2704922.1507415771 0 2704922.1507415771 -24817891.670791626 0 0 0 0 1097528.2832918167 14936384.653366089 0 14936384.653366089 -82752050.077102661 0 0 0 0 21334834.290336609 23251342.886886597 0 23251342.886886597 -80537700.434677124 0 0 0 0 -4048171.0463453531 28476148.777580261 0 28476148.777580261 -81908244.186248779 0 0 0 0 98426283.753913879 90597246.423477173 0 90597246.423477173 -133072523.60357666 0 0 0 0 48713510.868839264 9575605.4039916992 0 9575605.4039916992 -95743330.221481323 0 0 0 0 -3773183.0950729847 31827514.758741379 0 31827514.758741379 -74893528.94128418 0 0 0 0 21618438.713182449 24161380.971282959 0 24161380.971282959 -100774724.35798645 0 0 0 0 -11704808.454381466 6709281.2281990051 0 6709281.2281990051 -53018240.985046387 0 0 0 0 -112972383.8794117 50504056.222679138 0 50504056.222679138 -64030868.940673828 0 0 0 0 42208176.686380386 7229086.6222991943 0 7229086.6222991943 -61852114.903488159 0 0 0 0 1849597.4341679551 -5743814.5252370257 0 -5743814.5252370257 1651975.9613866732 0 0 0 0 8738405.1559143066 -2541522.1539382935 0 -2541522.1539382935 -56545215.81439209 0 0 0 0 28425915.702048302 17948699.394561768 0 17948699.394561768 -72993627.514801025 0 0 0 0 9323539.0364789963 15816848.286224365 0 15816848.286224365 -49814955.121414185 0 0 0 0 13420761.532430649 29588589.728046417 0 29588589.728046417 -55586464.317108154 0 0 0 0 3275664.9625482559 14377822.516998291 0 14377822.516998291 -71283553.406051636 0 0 0 0 4690556.050590992 17088475.473810196 0 17088475.473810196 -83022812.493225098 0 0 0 0 6926081.4746742249 48977097.764358521 0 48977097.764358521 -34864738.657962799 0 0 0 0 -43989482.094964027 26698640.756958008 0 26698640.756958008 -42417730.931442261 0 0 0 0 -37033824.7832582 30812414.577785492 0 30812414.577785492 -54585763.880630493 0 0 0 0 -6638148.0952651501 2910828.0462188721 0 2910828.0462188721 -25885398.012191772 0 0 0 0 -4278212.3658891916 9370287.0269889832 0 9370287.0269889832 -34940638.59072876 0 0 0 0 -30715766.855566502 18686374.988479614 0 18686374.988479614 -36177070.979614258 0 0 0 0 -286802.40819191933 -960550.49744415283 0 -960550.49744415283 -57203924.697845459 0 0 0 0 -115164.83238220215 676500.73872375488 0 676500.73872375488 -4985619.8304138184 0 0 0 0 187005.05530530214 -10217588.024440289 0 -10217588.024440289 -14052974.876464844 0 0 0 0 663205.71762021445 -3270657.0925645828 0 -3270657.0925645828 -11676701.663297113 0 0 0 0 -435189.00592899323 8556519.7425613403 0 8556519.7425613403 -27191727.638061523 0 0 0 0 104405.17233644472 222289.06170799211 0 222289.06170799211 -1718396.0491470881 0 0 0 0 -5337716.4963493347 4809204.547088623 0 4809204.547088623 -18347266.506286621 0 0 0 0 -2601181.9473434086 1095305.4401099756 0 1095305.4401099756 -15582659.499713551 0 0 0 0 1197152.7647797097 -1267370.6344290599 0 -1267370.6344290599 -6543578.4387342334 0 0 0 0 -4157285.6196022034 964203.1273651123 0 964203.1273651123 -42171564.906860352 0 0 0 0 -668159.83111656224 -3628856.8395467997 0 -3628856.8395467997 -14249132.245792583 0 0 0 0 -11773676.555428982 12028704.690643311 0 12028704.690643311 -71688211.093170166 0 0 0 0 -29936425.272526264 18357447.004852295 0 18357447.004852295 -55465448.85836792 0 0 0 0 21140.535192810115 -378962.71957271546 0 -378962.71957271546 -3339619.3320088312 0 0 0 0 -5247927.8443660736 3735365.8383636475 0 3735365.8383636475 -36488468.819133759 0 0 0 0 8298989.1475296021 4896949.9248771667 0 4896949.9248771667 -33240515.228500366 0 0 0 0 10774194.078705788 240016.80386924744 0 240016.80386924744 -31169530.626861572 0 0 0 0 50421925.222364426 -1428039.3364286423 0 -1428039.3364286423 -55490584.425079346 0 0 0 0 10104932.962753296 43106128.219640732 0 43106128.219640732 -8050836.1723861694 0 0 0 0 7686687.7697477341 -3468589.7374315262 0 -3468589.7374315262 -21689789.16960907 0 0 0 0 11194790.975145068 3565796.2883909047 0 3565796.2883909047 -28237055.897271924 0 0 0 0 -16182116.16312027 81691002.359012604 0 81691002.359012604 -39861115.925926208 0 0 0 0 7344169.220068885 3211238.3419003794 0 3211238.3419003794 -9276792.5551003069 0 0 0 0 -44150010.229545593 -40994862.089336395 0 -40994862.089336395 113889364.78087044 0 0 0 0 -13620563.296220779 79120014.958166122 0 79120014.958166122 -39338872.528839111 0 0 0 0 8128739.8480286114 11503963.238665797 0 11503963.238665797 -27072824.703540239 0 0 0 0 14804030.662074089 -10606903.459487915 0 -10606903.459487915 -28758700.440612793 0 0 0 0 5611037.2486343384 1062395.0479316711 0 1062395.0479316711 -26592786.717895508 0 0 0 0 147862071.95825195 -72479142.099517822 0 -72479142.099517822 -57515609.105194092 0 0 0 0 11513869.753069354 -6197608.9268932696 0 -6197608.9268932696 -33159179.295655712 0 0 0 0 267559334.58640862 -32201095.262641907 0 -32201095.262641907 -344911481.05065918 0 0 0 0 26791854.543136597 -28457389.013244629 0 -28457389.013244629 52810891.458816528 0 0 0 0 -541103.21954189613 -646016.56803349778 0 -646016.56803349778 1460526.4602757897 0 0 0 0 269102401.75389671 40490594.160179138 0 40490594.160179138 -143379717.88589478 0 0 0 0 -2445418.301410675 32867195.093597412 0 32867195.093597412 2519088.3805866241 0 0 0 0 45625166.973174095 57818216.127857208 0 57818216.127857208 -100997326.70104218 0 0 0 0 -2194642.2809636593 28917435.68983984 0 28917435.68983984 -79140995.15512085 0 0 0 0 21766148.473428726 17612469.052619934 0 17612469.052619934 -94259951.380992889 0 0 0 0 -2263151.4342636149 11984921.383693177 0 11984921.383693177 -13847577.197209831 0 0 0 0 499220.64090871811 6647321.5773696899 0 6647321.5773696899 -99764702.494926453 0 0 0 0 -636473.4894964695 1175991.1843543053 0 1175991.1843543053 -50995058.77481842 0 0 0 0 -969798.83986850083 -4241873.5468084589 0 -4241873.5468084589 -17597255.198776536 0 0 0 0 -370702298.12931824 -50785746.44152832 0 -50785746.44152832 -213958297.74465942 0 0 0 0 -13412659.896495819 223233035.50306702 0 223233035.50306702 -144945609.86193848 0 0 0 0 162997345.12563705 -83869649.052444458 0 -83869649.052444458 -43686075.760421753 0 0 0 0 -161606448.46634197 -105103920.89036942 0 -105103920.89036942 85558160.930969238 0 0 0 0 -139978690.82277107 200726520.30243683 0 200726520.30243683 -62699870.88482666 0 0 0 0 1605891.7850110475 -430983.87330415007 0 -430983.87330415007 -723350.63635323197 0 0 0 0 -25369037.003128052 -78382037.595859528 0 -78382037.595859528 81830629.127471924 0 0 0 0 8731242.9618058279 -3289407.8552152477 0 -3289407.8552152477 -29708442.872239776 0 0 0 0 11200722.547392845 3631159.8089790344 0 3631159.8089790344 -35354437.455942154 0 0 0 0 15597676.247766495 -14877200.388576508 0 -14877200.388576508 -30483386.230399132 0 0 0 0 7936729.6502670981 -5558125.1183841638 0 -5558125.1183841638 -29232073.565816067 0 0 0 0 9143518.4256298542 3845422.6337723732 0 3845422.6337723732 -32398383.161766052 0 0 0 0 1866971.1078567505 -3780915.7748203278 0 -3780915.7748203278 -40309429.916168213 0 0 0 0 6994029.6843777774 -9977568.1446394194 0 -9977568.1446394194 -20534299.785979405 0 0 0 0 799369.31673395634 13187796.640812755 0 13187796.640812755 -52025408.941802979 0 0 0 0 -20267707.706807613 20076729.354251862 0 20076729.354251862 -66050593.205417633 0 0 0 0 488946132.7456131 124861693.53457642 0 124861693.53457642 -174782951.44075203 0 0 0 0 180231445.28326988 185096583.02461815 0 185096583.02461815 46019730.569923401 0 0 0 0 210064756.96037388 37296738.429140091 0 37296738.429140091 -153617853.86027145 0 0 0 0 248414509.97400665 55924339.180812836 0 55924339.180812836 -178262202.25882196 0 0 0 0 167472515.01594448 -73990005.731836319 0 -73990005.731836319 -117448194.63691711 0 0 0 0 60992876.782226562 31286143.257962227 0 31286143.257962227 -150043414.55567932 0 0 0 0 9126443.0773690008 -8839011.4243763741 0 -8839011.4243763741 -20856419.68616705 0 0 0 0 3222537.8823442459 15543876.507061005 0 15543876.507061005 -54666932.912855148 0 0 0 0 83885436.12564826 61891904.493832588 0 61891904.493832588 -158379136.64161301 0 0 0 0 47925740.286366463 27925386.414419651 0 27925386.414419651 -148094485.60079575 0 0 0 0 67101457.207431793 74629561.782831192 0 74629561.782831192 -62880130.091621399 0 0 0 0 57864873.355115891 37826327.234294891 0 37826327.234294891 -71186782.18417263 0 0 0 0 -26245483.336420298 51856709.830078125 0 51856709.830078125 -116361182.83490944 0 0 0 0 489304.8154566884 -3471612.4864580631 0 -3471612.4864580631 -39317480.728843689 0 0 0 0 16021351.798076823 -13351421.92937851 0 -13351421.92937851 -33080358.024749756 0 0 0 0 -826126.70788908005 2655022.9355812073 0 2655022.9355812073 -30285122.142822266 0 0 0 0 8278160.5710198879 10095454.195285797 0 10095454.195285797 -49203363.160736084 0 0 0 0 10010663.138354177 -6115244.5488999411 0 -6115244.5488999411 -23410933.216918491 0 0 0 0 -14106263.910360619 28685641.788600445 0 28685641.788600445 -88346392.74477005 0 0 0 0 -2027289.5821127892 18332035.678619385 0 18332035.678619385 -33517374.345832825 0 0 0 0 12673868.625918388 14986031.544971466 0 14986031.544971466 -61596657.368314743 0 0 0 0 12797498.625474691 21649459.172996521 0 21649459.172996521 -45748708.007369995 0 0 0 0 234663.15399042377 6736799.9105867241 0 6736799.9105867241 -5477109.0791844707 0 0 0 0 9048009.3332548141 50787676.86825943 0 50787676.86825943 -47740215.735748291 0 0 0 0 56406951.19606781 39458350.588565826 0 39458350.588565826 -78584490.768800735 0 0 0 0 5680182.7134566261 5248648.0346504971 0 5248648.0346504971 -2517084.1955844155 0 0 0 0 10338135.238721609 -11233630.68138504 0 -11233630.68138504 -45721015.884857178 0 0 0 0 27288156.089382768 -22209173.201229095 0 -22209173.201229095 -38802102.422805786 0 0 0 0 -1171264.5830187798 -20791513.632984161 0 -20791513.632984161 -20106371.057342529 0 0 0 0 -10986463.942208886 128215863.6705637 0 128215863.6705637 -39887401.28894043 0 0 0 0 -6799207.9072458744 -9884460.4830551147 0 -9884460.4830551147 -29455775.358283997 0 0 0 0 3426774.9591401829 -1478115.1538825948 0 -1478115.1538825948 -18406359.033944618 0 0 0 0 24174290.088638306 150656515.48339081 0 150656515.48339081 -56357831.878734589 0 0 0 0 88038576.787021637 133049023.53624344 0 133049023.53624344 -84014655.771583557 0 0 0 0 181195118.04895782 -255246823.42111206 0 -255246823.42111206 -175900145.45172119 0 0 0 0 126446975.03468013 152733290.03993607 0 152733290.03993607 -77114267.984100342 0 0 0 0 306863380.6000061 90125576.421226501 0 90125576.421226501 -67154339.853546143 0 0 0 0 51180.16814988479 -114614.62784150988 0 -114614.62784150988 -333769.40375368437 0 0 0 0 -109243016.09627533 37861280.039962769 0 37861280.039962769 18687508.794944763 0 0 0 0 2120756.0669444557 3068359.9649312356 0 3068359.9649312356 -2193364.2359074131 0 0 0 0 776659439.13510132 -150265217.74526215 0 -150265217.74526215 3200424.0669784546 0 0 0 0 905458423.44137287 174082694.58881569 0 174082694.58881569 -138977663.6464386 0 0 0 0 -140859963.97745991 172223508.96214294 0 172223508.96214294 -59058948.014663696 0 0 0 0 14401566.540859222 -25188759.532661438 0 -25188759.532661438 114675080.87013245 0 0 0 0 62049063.600143433 1362495.1038818359 0 1362495.1038818359 -310253570.81091309 0 0 0 0 -106473592.6480251 251656762.35588837 0 251656762.35588837 -231560737.31173706 0 0 0 0 -984123.44920581102 126435.89728812873 0 126435.89728812873 -641727.49204295129 0 0 0 0 -44404471.560945988 -139977155.21766663 0 -139977155.21766663 41801137.272861481 0 0 0 0 13463356.072611332 78463310.708211899 0 78463310.708211899 -35877222.424987793 0 0 0 0 -217666471.21058142 24295811.051040649 0 24295811.051040649 10546891.048736572 0 0 0 0 -59365579.64645195 3748828.7466278076 0 3748828.7466278076 -4038016.6607131958 0 0 0 0 -79488799.539919615 69029767.638069153 0 69029767.638069153 -17890902.419174194 0 0 0 0 2266702.6334834099 45072600.046607971 0 45072600.046607971 -33063546.907958984 0 0 0 0 17742776.50743866 31202997.192276001 0 31202997.192276001 -30681324.77507019 0 0 0 0 143654578.91883183 -37692465.725341797 0 -37692465.725341797 -28826306.995911837 0 0 0 0 6256870.0573928915 -8388845.8746412229 0 -8388845.8746412229 -10242451.174104728 0 0 0 0 4814901.2347912081 -1086655.0714888684 0 -1086655.0714888684 -17155161.146294661 0 0 0 0 9564272.6570531651 -1105380.5779689923 0 -1105380.5779689923 -30505456.569174863 0 0 0 0 24104738.97697401 -17549384.858436584 0 -17549384.858436584 -2373061.4596252441 0 0 0 0 11393117.277053595 -7901833.4238471985 0 -7901833.4238471985 -26434617.416107178 0 0 0 0 3303375.5077934265 5740401.5342025757 0 5740401.5342025757 -29266720.164111137 0 0 0 0 81230683.33010149 108345063.72471237 0 108345063.72471237 -59831830.811050415 0 0 0 0 7498684.1692386214 -4842125.9844372626 0 -4842125.9844372626 -11828196.806014583 0 0 0 0 11591650.717209816 -11396165.941413879 0 -11396165.941413879 8716819.8475494385 0 0 0 0 1326192.1297614558 5706292.2237010114 0 5706292.2237010114 -24971984.719267424 0 0 0 0 17036123.828228951 -11956721.166658401 0 -11956721.166658401 -10019514.381965637 0 0 0 0 986144.29962801933 5188123.6901359558 0 5188123.6901359558 -25557477.355712891 0 0 0 0 10281372.651306152 81110561.818840027 0 81110561.818840027 -159508523.20072174 0 0 0 0 15833542.916757006 -975163.89260471426 0 -975163.89260471426 -29279052.684436493 0 0 0 0 481401.31262021512 2513299.7609557658 0 2513299.7609557658 -6136265.1716973297 0 0 0 0 -11684891.584504247 49424245.190638781 0 49424245.190638781 -115477050.87681198 0 0 0 0 -48349624.613189697 44230568.030555725 0 44230568.030555725 -98887158.891525269 0 0 0 0 -26503122.262767792 17476185.221073151 0 17476185.221073151 -80446222.818675995 0 0 0 0 -6149947.7267053761 11484707.155499389 0 11484707.155499389 -12328743.170274168 0 0 0 0 -19854759.479095459 27743717.210334778 0 27743717.210334778 -81220742.781833649 0 0 0 0 -5198045.0198249817 16449789.369224548 0 16449789.369224548 -32677391.681493759 0 0 0 0 2457460.9305634499 7459886.0181121826 0 7459886.0181121826 -18191867.628599167 0 0 0 0 2202993.485649405 7856942.713098716 0 7856942.713098716 -17858122.166085474 0 0 0 0 562451.46300649643 -2452633.5499191284 0 -2452633.5499191284 -27353043.561355591 0 0 0 0 -1860615.9991772701 7809447.2485366389 0 7809447.2485366389 -19276919.408774383 0 0 0 0 1250006.5214614868 4204019.3498382568 0 4204019.3498382568 -8322808.2596359253 0 0 0 0 3272418.043091381 2707557.6275108494 0 2707557.6275108494 -15568609.051522791 0 0 0 0 12873024.21390041 3384750.9040664341 0 3384750.9040664341 -25800313.523738518 0 0 0 0 3988056.7986359596 12227826.401145935 0 12227826.401145935 -31794680.378479004 0 0 0 0 103414.9853745813 -126742.60099646822 0 -126742.60099646822 -2775850.967092244 0 0 0 0 3859436.1636695862 7503891.9131317139 0 7503891.9131317139 -34868115.060874939 0 0 0 0 815297.61041927338 11950535.390937805 0 11950535.390937805 -30621382.370103836 0 0 0 0 224756046.75900698 -313676875.55054474 0 -313676875.55054474 -77532120.803375244 0 0 0 0 258256687.81210417 67643391.05124712 0 67643391.05124712 -243143550.04318237 0 0 0 0 3009319.7631754261 -4093184.5059666336 0 -4093184.5059666336 -12686739.571867168 0 0 0 0 -305803886.62272 17564899.27355957 0 17564899.27355957 -82261479.282272339 0 0 0 0 -35593680.653143167 -78948058.522735596 0 -78948058.522735596 -140081934.80447388 0 0 0 0 109461927.63966095 64482798.448429108 0 64482798.448429108 -255410165.49311829 0 0 0 0 -519611.45259481191 160746.1858965978 0 160746.1858965978 -509131.31866177917 0 0 0 0 -222166422.31419802 -203401191.83429718 0 -203401191.83429718 368717581.28099823 0 0 0 0 3675831.9881211296 1381483.7459835187 0 1381483.7459835187 -29705428.077298909 0 0 0 0 2282694.9619102478 5080477.0962982178 0 5080477.0962982178 -38033866.097229004 0 0 0 0 620961.52619188151 1902042.9828873016 0 1902042.9828873016 -24051651.126977801 0 0 0 0 13187505.808378816 -1086281.6495361328 0 -1086281.6495361328 -43336896.906295776 0 0 0 0 -1965014.9469209313 -14610963.625396729 0 -14610963.625396729 -34674998.225440979 0 0 0 0 10647110.751086175 -12414392.589927673 0 -12414392.589927673 -57712255.013778687 0 0 0 0 -18032871.895365596 11228669.036811829 0 11228669.036811829 -7347095.7490539551 0 0 0 0 -10490898.312336802 280729057.4996109 0 280729057.4996109 1075027.8238525391 0 0 0 0 -80168151.493644238 -312819063.55957031 0 -312819063.55957031 16883624.26322031 0 0 0 0 -354166366.48994952 -193320742.29541969 0 -193320742.29541969 93961634.267211914 0 0 0 0 -80764.599187984451 -251427.16106827138 0 -251427.16106827138 -369529.32607965171 0 0 0 0 18818441.671710134 13987196.735321045 0 13987196.735321045 -25367018.545013428 0 0 0 0 29226888.592847824 -48829872.085281372 0 -48829872.085281372 -97758275.859016418 0 0 0 0 -114790288.50337076 -19566949.982727051 0 -19566949.982727051 -67411269.24307251 0 0 0 0 231973965.34391785 -143611158.60717964 0 -143611158.60717964 -119990302.48980713 0 0 0 0 -2129785.4980180133 4874784.5548863485 0 4874784.5548863485 -19513349.745641552 0 0 0 0 49137207.532616138 11816550.601501465 0 11816550.601501465 50388469.945953369 0 0 0 0 196227555.73181731 50641608.863460541 0 50641608.863460541 -77056041.952880859 0 0 0 0 7130781.2500966787 29379572.183685303 0 29379572.183685303 -29671384.572471619 0 0 0 0 62663916.661736727 25512265.906761169 0 25512265.906761169 -14146490.316314697 0 0 0 0 24936740.401865244 -39225987.48822403 0 -39225987.48822403 -26017048.257476807 0 0 0 0 10952945.51321578 -10025573.463531494 0 -10025573.463531494 -23811717.159477234 0 0 0 0 49287632.990747213 1163013.996761322 0 1163013.996761322 -27052580.998779297 0 0 0 0 5346187.105463028 3108579.3786010742 0 3108579.3786010742 -17634387.090362549 0 0 0 0 421842.77390972199 555025.73564771563 0 555025.73564771563 -2504646.1483284794 0 0 0 0 -5497400.5846951008 -20131223.349006653 0 -20131223.349006653 870163.13918304443 0 0 0 0 -88507.715216620971 -1436990.0681341328 0 -1436990.0681341328 -1335510.3127781451 0 0 0 0 -131360.38356039405 -947760.76863911748 0 -947760.76863911748 -2814363.3979020417 0 0 0 0 -75305202.09658587 -62410461.284488678 0 -62410461.284488678 -12064495.978515625 0 0 0 0 -17355326.019538879 -24308796.187591553 0 -24308796.187591553 -17457463.825508118 0 0 0 0 4181.2162574529648 -1063720.6400299072 0 -1063720.6400299072 -8465975.875869751 0 0 0 0 -305598.85411213303 2437955.4960282072 0 2437955.4960282072 -6965404.429780975 0 0 0 0 -3916826.2812888175 3089675.8738021851 0 3089675.8738021851 -23333028.231719971 0 0 0 0 743767.0963165164 209438.53675842285 0 209438.53675842285 -8122295.0151977539 0 0 0 0 721221.84842574596 -229804.99684143066 0 -229804.99684143066 -8488918.1770629883 0 0 0 0 3880845.0843634903 5379668.9120330811 0 5379668.9120330811 -27597583.410312653 0 0 0 0 -304514.55192079651 3042912.9477710798 0 3042912.9477710798 -9400023.5289937779 0 0 0 0 -185810.40648170246 459324.84940335527 0 459324.84940335527 -5575932.3663906157 0 0 0 0 229116.86624443531 -373180.14471435547 0 -373180.14471435547 -8015960.8924560547 0 0 0 0 4614831.1672770381 4998183.1036529541 0 4998183.1036529541 20573014.398651123 0 0 0 0 1337808.1363956055 2729117.3068701699 0 2729117.3068701699 -24308878.426081866 0 0 0 0 2948305.1683893329 3048350.2918556221 0 3048350.2918556221 -8402573.3486754298 0 0 0 0 13158904.230044246 7806504.8195724487 0 7806504.8195724487 -19552657.023864746 0 0 0 0 5424012.6830504835 3747085.1353340149 0 3747085.1353340149 -14268214.922851562 0 0 0 0 5862677.4094637334 20997378.953086853 0 20997378.953086853 -41861511.145080566 0 0 0 0 -6097318.9877618551 12402474.699111938 0 12402474.699111938 -8810860.2052307129 0 0 0 0 1021626.6514516026 8359468.3472290039 0 8359468.3472290039 -25598263.19442749 0 0 0 0 471797.24023958924 859396.4173816964 0 859396.4173816964 -2097516.5952012986 0 0 0 0 -7576610.2412233055 -7762398.4898223877 0 -7762398.4898223877 -18370269.310066223 0 0 0 0 -5349653.8227362372 -16002861.615167618 0 -16002861.615167618 -52707005.437957764 0 0 0 0 3063376.403033793 292801.43769836426 0 292801.43769836426 -91342827.455215454 0 0 0 0 -22213049.56408304 22346561.562450409 0 22346561.562450409 -57257845.303375244 0 0 0 0 -7842514.921920836 32577434.468597412 0 32577434.468597412 -84721041.599060059 0 0 0 0 7682922.0749858022 4946080.3572387695 0 4946080.3572387695 -90302785.939491272 0 0 0 0 -7532759.3504808247 -7571570.3808059692 0 -7571570.3808059692 -66148921.733703613 0 0 0 0 -5314256.2379191369 -13346157.15026474 0 -13346157.15026474 4217629.0186920166 0 0 0 0 -18971.641408339987 -65688.549725219607 0 -65688.549725219607 -61196.250482976437 0 0 0 0 -1064445.8239158392 7366370.6649017334 0 7366370.6649017334 -13404233.375137329 0 0 0 0 -35089.284881103667 -125904.34212344885 0 -125904.34212344885 -120087.75764803216 0 0 0 0 -4462315.8442021608 -14898783.590576172 0 -14898783.590576172 -26987110.097190857 0 0 0 0 -2945916.6732262522 2379046.3797302246 0 2379046.3797302246 -42034298.869056702 0 0 0 0 2511641.2431156039 13001219.628555298 0 13001219.628555298 -54342466.585494995 0 0 0 0 -4371339.2800138993 1235117.6081809998 0 1235117.6081809998 -20155727.252593994 0 0 0 0 6828698.489271529 -4545307.9026489258 0 -4545307.9026489258 -68617188.77633667 0 0 0 0 9403295.7834453136 -128591.36534118652 0 -128591.36534118652 -63258211.292724609 0 0 0 0 11970161.941999897 -1400226.2579498291 0 -1400226.2579498291 -63547942.404937744 0 0 0 0 12152287.191842139 -555117.30659484863 0 -555117.30659484863 -87871643.304718018 0 0 0 0 3131541.4256414492 5594276.1526641846 0 5594276.1526641846 -47678892.208820343 0 0 0 0 -3343643.7579320432 11297960.797939301 0 11297960.797939301 -16152678.447937012 0 0 0 0 2052502.1104134228 -277399.70540618896 0 -277399.70540618896 -45032601.797222137 0 0 0 0 -3018453.6361572938 2090399.2542610168 0 2090399.2542610168 -44903412.804840088 0 0 0 0 -8847441.9712101817 -10453418.989562988 0 -10453418.989562988 -68428253.90826416 0 0 0 0 -19079557.708712328 698941.34573364258 0 698941.34573364258 -58814112.76272583 0 0 0 0 -7484052.5979307434 13316550.481140137 0 13316550.481140137 -48377514.824332237 0 0 0 0 19191.615954303288 7552208.5041420022 0 7552208.5041420022 -74656529.668518066 0 0 0 0 -2174442.4252755381 -26152912.604446411 0 -26152912.604446411 -51615675.379310608 0 0 0 0 121056.39962288448 190017.09015771002 0 190017.09015771002 -712457.31265322119 0 0 0 0 -80081.84255451709 -12024455.385375977 0 -12024455.385375977 -6100265.0652770996 0 0 0 0 -1649430.9550879858 -3074011.1531677246 0 -3074011.1531677246 -108793791.3550415 0 0 0 0 -5815996.5427476466 6803880.0485229492 0 6803880.0485229492 -65789814.588634491 0 0 0 0 -24368694.088864733 12972423.955029488 0 12972423.955029488 -46452552.430725098 0 0 0 0 -26562706.012174308 49441009.58605957 0 49441009.58605957 -103636019.93679047 0 0 0 0 6253232.6067322819 6729326.9107618332 0 6729326.9107618332 -10185856.601379395 0 0 0 0 6743246.15628816 2290251.0650749207 0 2290251.0650749207 -13361870.682617188 0 0 0 0 5355413.0537285879 2740132.809967041 0 2740132.809967041 -12190259.706298828 0 0 0 0 -3346150.6000927771 -378838.81665802002 0 -378838.81665802002 -13431398.565307617 0 0 0 0 -22693.277423541993 3851353.8110046387 0 3851353.8110046387 -11494597.096435547 0 0 0 0 2866639.5443176404 3261460.1757202148 0 3261460.1757202148 -13233609.063537598 0 0 0 0 -14141.378696033313 6027544.2964401245 0 6027544.2964401245 -15985237.954681396 0 0 0 0 4514065.5846753102 1850631.3255310059 0 1850631.3255310059 -34218075.743217468 0 0 0 0 -557361.20490965247 983066.28564453125 0 983066.28564453125 -34983636.721832275 0 0 0 0 567240.80299323797 5704358.5287475586 0 5704358.5287475586 -30594758.082748413 0 0 0 0 9648798.3877767175 4398425.9778022766 0 4398425.9778022766 -57988811.77130127 0 0 0 0 9076710.9493372329 2971902.9284667969 0 2971902.9284667969 -59289682.70526123 0 0 0 0 9069536.6122243106 4947577.1368408203 0 4947577.1368408203 -65108381.98084259 0 0 0 0 2840833.3623027913 -4898288.4963912964 0 -4898288.4963912964 -79439907.824920654 0 0 0 0 4261857.5205302984 22726817.930328369 0 22726817.930328369 -71314670.41129303 0 0 0 0 4891771.5461555123 12948281.210403442 0 12948281.210403442 -46590069.107177734 0 0 0 0 9891165.2417865396 20898812.103790283 0 20898812.103790283 -40467336.922149658 0 0 0 0 1167339.4039801061 6976029.3817062378 0 6976029.3817062378 -31019776.835998535 0 0 0 0 -2084630.1097042859 26035069.148406982 0 26035069.148406982 -7898788.2559204102 0 0 0 0 -12855617.329737186 12575208.473861694 0 12575208.473861694 -28824819.939361572 0 0 0 0 322665.48105117859 66236.894911669195 0 66236.894911669195 -1872089.2551546842 0 0 0 0 -6023309.2575866282 5172455.1683807373 0 5172455.1683807373 -3521726.2156639099 0 0 0 0 626178.09582575562 574670.15691298246 0 574670.15691298246 -2510050.024985075 0 0 0 0 12521137.509719491 32135543.122619629 0 32135543.122619629 -15400902.055786133 0 0 0 0 19575230.258010313 5333264.7786560059 0 5333264.7786560059 -54587449.180725098 0 0 0 0 15219818.199597463 38804931.380767822 0 38804931.380767822 -32479993.671630859 0 0 0 0 2600818.8818645179 -121082.89440917969 0 -121082.89440917969 -14587405.86618042 0 0 0 0 1442301.9551703185 -694188.11471557617 0 -694188.11471557617 -10091446.182739258 0 0 0 0 48263.718943841348 -17153.767022177577 0 -17153.767022177577 -411933.53919618577 0 0 0 0 -205150.25413159054 136595.24066473544 0 136595.24066473544 331157.51306904852 0 0 0 0 1942079.3772727996 -13407185.442230225 0 -13407185.442230225 -26850155.892303467 0 0 0 0 -53026023.99276948 -7530871.1865234375 0 -7530871.1865234375 -11853940.721435547 0 0 0 0 -5789628.7205102146 9316727.8417053223 0 9316727.8417053223 320660.60180664062 0 0 0 0 39786075.654714823 10112097.416809082 0 10112097.416809082 -13053547.138717651 0 0 0 0 1307694.7782298177 -2097766.2526293993 0 -2097766.2526293993 -1947229.3790041804 0 0 0 0 -284134.92550450732 2158068.0092375651 0 2158068.0092375651 -3910813.5366052054 0 0 0 0 258882.42945867777 373838.54809570312 0 373838.54809570312 -3071283.5556030273 0 0 0 0 1576219.2062479281 -2088951.6777353585 0 -2088951.6777353585 -9759347.8706645146 0 0 0 0 -1896028.3539060652 10129024.038208008 0 10129024.038208008 -17203685.323669434 0 0 0 0 -724535.21132230759 5827181.0897827148 0 5827181.0897827148 -29762743.987945557 0 0 0 0 -557084.26619239058 2298907.119506225 0 2298907.119506225 -9138509.9369323775 0 0 0 0 2867867.5106956214 3964351.0610809326 0 3964351.0610809326 -23650021.545593262 0 0 0 0 -1152521.5238935128 12276304.332698822 0 12276304.332698822 -26582935.59967041 0 0 0 0 812611.9544854972 -1113995.6477373019 0 -1113995.6477373019 -7921915.1759489365 0 0 0 0 2683170.461358428 -6088058.8697738647 0 -6088058.8697738647 7792482.9042739868 0 0 0 0 -1212970.9192421436 7620117.314956665 0 7620117.314956665 -46552304.568237305 0 0 0 0 1532964.0887301154 -9126924.6843414307 0 -9126924.6843414307 2119175.6197357178 0 0 0 0 -937454.4437122345 4549717.2924041748 0 4549717.2924041748 -17918048.757156372 0 0 0 0 -935369.24391458638 -1390388.3762830049 0 -1390388.3762830049 1365880.3490034118 0 0 0 0 392080.44773523859 -127064.54934048653 0 -127064.54934048653 -6504267.3142783493 0 0 0 0 1180033.2758329511 -2824823.6105804443 0 -2824823.6105804443 -5494298.7979660034 0 0 0 0 36626644.261229783 -35502695.356414795 0 -35502695.356414795 -46866273.623451233 0 0 0 0 5336650.5196774974 -23193359.860940933 0 -23193359.860940933 -48335345.739761353 0 0 0 0 22503344.789508283 -4639744.2123718262 0 -4639744.2123718262 -64726553.409393311 0 0 0 0 5876449.7868222892 4115569.1226806641 0 4115569.1226806641 -52653137.736480713 0 0 0 0 13283441.10873279 -1078888.069732666 0 -1078888.069732666 -49711566.213722229 0 0 0 0 46906443.029375993 -9902080.5887756348 0 -9902080.5887756348 -82417079.774353027 0 0 0 0 -24833978.396558605 37689631.772842407 0 37689631.772842407 -83152336.610168457 0 0 0 0 -37242.975524431 -309468.41320116818 0 -309468.41320116818 -1861345.6968179494 0 0 0 0 -4223944.9145141169 1619829.2357330322 0 1619829.2357330322 638362.1015625 0 0 0 0 813047.97893460118 -2159501.7235336304 0 -2159501.7235336304 -6291373.6278495789 0 0 0 0 16587.437982336625 -293111.50201580673 0 -293111.50201580673 -2413299.3270243779 0 0 0 0 1585922.3769189939 3866053.8811950684 0 3866053.8811950684 -10606543.156570435 0 0 0 0 -13572683.729341514 -25581060.632976532 0 -25581060.632976532 -40303119.480712891 0 0 0 0 813047.9789341432 -188941.69917297363 0 -188941.69917297363 -4880349.327091217 0 0 0 0 215710.05260798242 -745532.26189404353 0 -745532.26189404353 -1405850.476377964 0 0 0 0 -6394.0671746825938 548631.87170410156 0 548631.87170410156 -1647359.4582672119 0 0 0 0 4000.2285292973893 552783.02758026123 0 552783.02758026123 -1649921.050945282 0 0 0 0 -222789.73257494436 -396997.29256952181 0 -396997.29256952181 -503761.86995540559 0 0 0 0 -42797304.359018445 -61712683.792884827 0 -61712683.792884827 -72296633.881607056 0 0 0 0 -37844001.408640802 -39519809.272187233 0 -39519809.272187233 -24018340.75491333 0 0 0 0 6557540.5454274938 -1716733.6284599304 0 -1716733.6284599304 -55433401.91444397 0 0 0 0 -14642724.793762188 -31133814.022003174 0 -31133814.022003174 -89891409.604888916 0 0 0 0 -117036.14461792661 -30214939.920586608 0 -30214939.920586608 -108938530.32006836 0 0 0 0 -21456520.100869365 -25169308.054290771 0 -25169308.054290771 -80621412.273532867 0 0 0 0 103032.81585416531 -109834.10653375089 0 -109834.10653375089 -2026868.0301994877 0 0 0 0 28345824.995393038 -37153024.880233765 0 -37153024.880233765 -21292926.42532444 0 0 0 0 19870070.19754976 -16091141.664993286 0 -16091141.664993286 -48331920.235229492 0 0 0 0 42192458.762210622 -36899873.793392181 0 -36899873.793392181 -59025307.423629761 0 0 0 0 31320398.651865333 7413586.2560806274 0 7413586.2560806274 -79207971.717971802 0 0 0 0 37524067.061398476 -16798452.701972961 0 -16798452.701972961 -34077269.761642456 0 0 0 0 2987324.638191402 -14992595.277793884 0 -14992595.277793884 -33639317.183288574 0 0 0 0 -608844.38493187039 -1061253.3579048216 0 -1061253.3579048216 -3624026.4405603036 0 0 0 0 14145309.076874018 11527426.061634064 0 11527426.061634064 -10441282.388824463 0 0 0 0 1527371.8371946812 -16956430.608474731 0 -16956430.608474731 -24165325.970794678 0 0 0 0 -125888627.54043782 -92222082.708435059 0 -92222082.708435059 18498866.479307175 0 0 0 0 22897456.617329061 43181882.151210785 0 43181882.151210785 -132528195.37188721 0 0 0 0 16644020.731199265 -8231348.0107955933 0 -8231348.0107955933 -60406848.389801025 0 0 0 0 394151.24277083291 -645464.9077590704 0 -645464.9077590704 -6906820.2304027798 0 0 0 0 -46420.342630147934 -5223250.3258056641 0 -5223250.3258056641 -58446108.301467896 0 0 0 0 -7880227.1901344061 -2393953.0707550049 0 -2393953.0707550049 -33484230.90246582 0 0 0 0 -762861.88951553567 -5258258.7035309225 0 -5258258.7035309225 -5831316.1016087309 0 0 0 0 777876.23302141018 -2088142.3929574788 0 -2088142.3929574788 -9942004.6376640648 0 0 0 0 32636027.19759059 47900756.059814453 0 47900756.059814453 -3561004.6460418701 0 0 0 0 -154542.80325555801 -3764788.8375720978 0 -3764788.8375720978 -33876840.475967407 0 0 0 0 1445559.7114448447 3771397.580360122 0 3771397.580360122 -11677729.34974996 0 0 0 0 3431057.7158712596 827515.17658472061 0 827515.17658472061 -37047777.837615967 0 0 0 0 4220130.2761135101 -13405547.089996338 0 -13405547.089996338 -59749323.715316772 0 0 0 0 171907.62720577064 89508.203759431839 0 89508.203759431839 -1415854.611128591 0 0 0 0 -19696799.961567283 -26361539.743255615 0 -26361539.743255615 -53632696.517364502 0 0 0 0 -11164538.97578302 -26260584.901733398 0 -26260584.901733398 -53687201.310913086 0 0 0 0 -1880094.4704329073 -34762306.949691772 0 -34762306.949691772 -90609284.508508682 0 0 0 0 -3359146.4338485003 -25262857.980285645 0 -25262857.980285645 -62526135.57421875 0 0 0 0 10370996.424652338 -36302030.851409912 0 -36302030.851409912 -61431107.688505173 0 0 0 0 5586520.7468435168 -38477574.612854004 0 -38477574.612854004 -75802520.625053406 0 0 0 0 78016.827896952629 -34389489.040008545 0 -34389489.040008545 -48626074.682281494 0 0 0 0 -950804.47909042239 -30715121.325992584 0 -30715121.325992584 -28438679.760437012 0 0 0 0 7313297.814036727 -27465029.859466553 0 -27465029.859466553 -59028086.714874268 0 0 0 0 7335245.3226427436 -28325659.030456543 0 -28325659.030456543 -67378195.212356567 0 0 0 0 920550.96436804533 -19827281.833190918 0 -19827281.833190918 -45682986.695541382 0 0 0 0 751232.27655249834 -17947044.568206787 0 -17947044.568206787 -40295097.858093262 0 0 0 0 343043.18803068757 -4028976.9651018828 0 -4028976.9651018828 -13317859.94755524 0 0 0 0 -6854015.3074697256 -17619557.245422363 0 -17619557.245422363 -4560033.3858032227 0 0 0 0 832067.18508465472 -1906171.6191110769 0 -1906171.6191110769 -4498711.891389519 0 0 0 0 3009953.2832353115 -1954671.5046691895 0 -1954671.5046691895 -3716788.5661315918 0 0 0 0 2770822.6370195746 -2458687.6939315796 0 -2458687.6939315796 -3854602.7406005859 0 0 0 0 1666413.6421194142 -3147641.241369687 0 -3147641.241369687 -5897537.312987864 0 0 0 0 2402172.0907554626 724568.57572937012 0 724568.57572937012 -7965486.8693847656 0 0 0 0 -4710780.0059165955 -5789218.0506591797 0 -5789218.0506591797 -12906910.2943573 0 0 0 0 216705.02756595612 833341.19650268555 0 833341.19650268555 -13734118.577911377 0 0 0 0 -10269521.724571228 -31316156.440368652 0 -31316156.440368652 -32695895.252624512 0 0 0 0 -10499521.797303319 -27537849.024139404 0 -27537849.024139404 -28842554.089099884 0 0 0 0 13228041.33150655 -8115340.2151031494 0 -8115340.2151031494 -26782984.567504883 0 0 0 0 1368836.6422908809 -1837853.5988350697 0 -1837853.5988350697 -2100804.988735497 0 0 0 0 2480617.7627665251 -14682074.664945602 0 -14682074.664945602 -31770150.626098633 0 0 0 0 2117363.0717738867 -1405088.4294185638 0 -1405088.4294185638 -12083109.708618164 0 0 0 0 2172899.946133852 -2276146.5698242188 0 -2276146.5698242188 -8088799.0036907196 0 0 0 0 1197129.8281970711 -2650631.5741104037 0 -2650631.5741104037 -10795086.314997032 0 0 0 0 -502415.16260116099 -4294635.537040323 0 -4294635.537040323 -12317500.65241028 0 0 0 0 52736.553305217123 -97756.021082378924 0 -97756.021082378924 -106423.22580981255 0 0 0 0 20684534.140151143 -2684480.5955734253 0 -2684480.5955734253 -47448643.490844727 0 0 0 0 14794624.721284032 -5018066.301071167 0 -5018066.301071167 -29742199.350280762 0 0 0 0 3578303.6240828037 -1023517.8373031616 0 -1023517.8373031616 -7172518.7492675781 0 0 0 0 4617669.2560830591 800225.67936878093 0 800225.67936878093 -15508074.541547045 0 0 0 0 1755892.3450304335 -1126183.5315174535 0 -1126183.5315174535 -9047510.5867976919 0 0 0 0 -189680.3346311897 1707205.4290161133 0 1707205.4290161133 -13611500.078140259 0 0 0 0 1378900.1153421046 -5880971.7199714221 0 -5880971.7199714221 -9599228.9612401128 0 0 0 0 -691972.66084460798 -4082538.7271266207 0 -4082538.7271266207 -13454702.932182129 0 0 0 0 15207062.586081743 -17625598.424575806 0 -17625598.424575806 -21929870.987640381 0 0 0 0 22105097.905238986 -15952330.231910706 0 -15952330.231910706 -38328898.4190979 0 0 0 0 -1546755.5961183528 2444267.1402314752 0 2444267.1402314752 -8373959.3833627254 0 0 0 0 1158594.4430189133 -775645.12733459473 0 -775645.12733459473 -2091518.9026794434 0 0 0 0 -357988.79793167114 1419514.7757568359 0 1419514.7757568359 -3097809.5711669922 0 0 0 0 -98626.658570054919 -1784549.1621463001 0 -1784549.1621463001 -17392394.396304473 0 0 0 0 -16565.849209785461 1451564.9032592773 0 1451564.9032592773 -7730213.6057739258 0 0 0 0 670251.07606925198 -1868882.4017495066 0 -1868882.4017495066 -15261534.257597707 0 0 0 0 16430.949618816376 1194616.5701637268 0 1194616.5701637268 -6463853.9382324219 0 0 0 0 625823.56801964995 3020779.9213861376 0 3020779.9213861376 -10790553.048812415 0 0 0 0 2193974.2535533905 -96160.241760253906 0 -96160.241760253906 -6041173.3743743896 0 0 0 0 1897951.282310009 -1505205.8567504883 0 -1505205.8567504883 -5263146.5575561523 0 0 0 0 1432701.6047239304 -2101405.9473876953 0 -2101405.9473876953 -11974910.353149414 0 0 0 0 1520430.5580191473 -4788156.3665414173 0 -4788156.3665414173 -3880311.9153284431 0 0 0 0 1466425.1203887397 -5626170.8469567113 0 -5626170.8469567113 -6363655.3679265678 0 0 0 0 4065386.9235062599 -5110661.1699066162 0 -5110661.1699066162 -3607290.4133300781 0 0 0 0 3734194.3437461853 -1725483.8039550781 0 -1725483.8039550781 -6663011.6830749512 0 0 0 0 2497550.5927761137 -3338607.1387497447 0 -3338607.1387497447 -8453594.7504240572 0 0 0 0 2062176.7070397492 -3857701.4356880561 0 -3857701.4356880561 -9368734.5416178852 0 0 0 0 312544.80683267815 1710904.1236458719 0 1710904.1236458719 -8063367.4714522995 0 0 0 0 592144.27904231788 2597662.0982409939 0 2597662.0982409939 -12283051.157100022 0 0 0 0 2207136.1238040924 -3214443.5499267578 0 -3214443.5499267578 -4361447.2104797363 0 0 0 0 2624318.0743293762 -2736920.6700973511 0 -2736920.6700973511 -4522517.9288330078 0 0 0 0 3276228.8376626968 -774648.41763305664 0 -774648.41763305664 -4551315.0168609619 0 0 0 0 1608870.5187168755 1286418.7227700278 0 1286418.7227700278 -15377197.983027905 0 0 0 0 993586.84799844958 -5147342.2015555007 0 -5147342.2015555007 -3403318.8626837134 0 0 0 0 1728948.2769374847 -894709.62530517578 0 -894709.62530517578 -4310164.6622467041 0 0 0 0 5242722.6248686314 -5285229.8046112061 0 -5285229.8046112061 -4466011.1124267578 0 0 0 0 1416451.6141785481 -6009153.5372652672 0 -6009153.5372652672 -6572191.756135568 0 0 0 0 300621.27599471807 1014864.0261970609 0 1014864.0261970609 -19716373.549588215 0 0 0 0 -1139577.9756446593 693.01902762055397 0 693.01902762055397 -2924212.9991569519 0 0 0 0 3839289.1085145473 -18697931.78868866 0 -18697931.78868866 -16014854.654346466 0 0 0 0 1601018.6775483403 -6351789.8002746068 0 -6351789.8002746068 -1904092.1218497753 0 0 0 0 1364966.415147501 -3382120.8050089441 0 -3382120.8050089441 -6771637.859112151 0 0 0 0 -27490625.655059814 -24327424.697052002 0 -24327424.697052002 -2537648.2932128906 0 0 0 0 8951588.3747200668 -2572508.189912796 0 -2572508.189912796 -3715968.0709228516 0 0 0 0 1453258.3217802991 -2559677.8103998681 0 -2559677.8103998681 -8960447.0206255764 0 0 0 0 18786183.673560858 -55889733.873970032 0 -55889733.873970032 -31564315.843927622 0 0 0 0 60899.969788656454 2263923.4378060699 0 2263923.4378060699 -5245574.3181616068 0 0 0 0 235702.06784948305 -2375263.6497379169 0 -2375263.6497379169 -7028275.2507348359 0 0 0 0 1093008.5215853453 2419077.1054801941 0 2419077.1054801941 -9056296.8663787842 0 0 0 0 35634.522640095907 768724.21184361726 0 768724.21184361726 -14148553.173535936 0 0 0 0 1059810.2849318981 811970.79847717285 0 811970.79847717285 -8984364.1704559326 0 0 0 0 4164407.2029242516 -1045465.2744750977 0 -1045465.2744750977 -18219325.522949219 0 0 0 0 682487.59535420942 1374632.7797082365 0 1374632.7797082365 -9747405.5774886794 0 0 0 0 1373806.4938583374 2229149.395614624 0 2229149.395614624 -8519481.8711547852 0 0 0 0 -165014.51832096145 -2876570.7521071732 0 -2876570.7521071732 -9593354.0801622346 0 0 0 0 -9087.7418930716813 1262868.5522910282 0 1262868.5522910282 -9829833.5226888508 0 0 0 0 -6833436.3546061516 10779317.060604095 0 10779317.060604095 -19718368.287963867 0 0 0 0 8171821.832019031 10318833.754364014 0 10318833.754364014 63532869.845031738 0 0 0 0 -9507306.8321424723 -29514825.22543335 0 -29514825.22543335 16297480.031677246 0 0 0 0 -27116.915585339069 -516112.69871520996 0 -516112.69871520996 -3556600.9494628906 0 0 0 0 118461.10326589071 332440.22217077762 0 332440.22217077762 -6540015.7348370627 0 0 0 0 289526.47287440422 -1004991.1380797103 0 -1004991.1380797103 -16547228.578327972 0 0 0 0 10284239.193934053 -20898217.401153564 0 -20898217.401153564 11845912.512786865 0 0 0 0 251412.54483050108 1580604.8381652832 0 1580604.8381652832 -18432235.433868408 0 0 0 0 1457292.0695046869 -1023126.4451367706 0 -1023126.4451367706 -2173619.1258916408 0 0 0 0 -32406653.610072762 -52095677.142929077 0 -52095677.142929077 47676741.573730469 0 0 0 0 -34410714.13329038 5501370.7832641602 0 5501370.7832641602 7854312.2682037354 0 0 0 0 -10843105.421895131 78292545.550800323 0 78292545.550800323 -119957927.91958618 0 0 0 0 -346457.45515582367 -416316.16295973957 0 -416316.16295973957 415127.25936863571 0 0 0 0 18343790.448462952 22233448.265838623 0 22233448.265838623 12831554.789915085 0 0 0 0 90654754.004675508 68491176.352073669 0 68491176.352073669 -216265372.34075928 0 0 0 0 -73955947.265572548 -80269808.534820557 0 -80269808.534820557 -12120128.426147461 0 0 0 0 -5133223.4575773478 -97300845.950286865 0 -97300845.950286865 -112237631.7598114 0 0 0 0 31288242.031842858 -31901087.450469971 0 -31901087.450469971 -31222117.246826172 0 0 0 0 -25226597.527131081 -47686846.739227295 0 -47686846.739227295 21453496.39213562 0 0 0 0 -8327149.2316514254 -34062765.266265869 0 -34062765.266265869 -3584881.1688232422 0 0 0 0 -117127251.91603661 -100585146.4899807 0 -100585146.4899807 -208951184.44997025 0 0 0 0 -117478897.15593433 -136443659.61627388 0 -136443659.61627388 -185510315.80560398 0 0 0 0 -163698147.20982194 -70847276.655252457 0 -70847276.655252457 -144843066.66706467 0 0 0 0 -187783486.54519653 -49058653.412790298 0 -49058653.412790298 -201071520.27199364 0 0 0 0 -88997429.08854866 -23616287.757619858 0 -23616287.757619858 -195295896.30411625 0 0 0 0 -148127369.21525669 -23568448.47910881 0 -23568448.47910881 -138878817.86262131 0 0 0 0 -147296444.71329856 60433035.573156834 0 60433035.573156834 -243665632.36119843 0 0 0 0 -250245095.46752357 -1309881.2074794769 0 -1309881.2074794769 -227760617.80771637 0 0 0 0 -307404668.22219086 39647312.051692963 0 39647312.051692963 -311257995.43314695 0 0 0 0 -197794562.8897891 2401033.6250019073 0 2401033.6250019073 -302507438.57373428 0 0 0 0 -275870763.48702717 -71841918.479341507 0 -71841918.479341507 -302699722.06640959 0 0 0 0 -204958382.53433681 -122517351.83796096 0 -122517351.83796096 -210172084.49855232 0 0 0 0 -174879946.75517607 -43768640.705889702 0 -43768640.705889702 -297337652.48852348 0 0 0 0 -162046008.36623812 -57899244.688624382 0 -57899244.688624382 -289310240.68337631 0 0 0 0 -203077623.9707942 -154737474.05202484 0 -154737474.05202484 -177431093.0712862 0 0 0 0 -102686998.07502604 -142562007.6417284 0 -142562007.6417284 -196496850.83297348 0 0 0 0 26396620.146370411 -167537900.19476891 0 -167537900.19476891 -185027560.78895378 0 0 0 0 -17399698.61846447 -213778094.83290768 0 -213778094.83290768 -139393570.41565514 0 0 0 0 -114869104.26057547 -195584627.21846986 0 -195584627.21846986 -98771837.274642944 0 0 0 0 -96286378.91895628 -207862883.73021507 0 -207862883.73021507 -120053905.71926117 0 0 0 0 21337869.201835632 -269202485.08944893 0 -269202485.08944893 -157247759.261024 0 0 0 0 15347025.352605462 -308708703.98494864 0 -308708703.98494864 -302145251.57131767 0 0 0 0 -30203986.804286957 -173271342.60599709 0 -173271342.60599709 -173397733.80091822 0 0 0 0 -155287055.31764627 -151959372.5832901 0 -151959372.5832901 -175821327.82906151 0 0 0 0 -84938817.446522713 -211288029.04317474 0 -211288029.04317474 -164494839.08698511 0 0 0 0 -85368066.530600786 -100966978.97990084 0 -100966978.97990084 -146911011.47223282 0 0 0 0 -45271577.989799261 -201842624.16184044 0 -201842624.16184044 -223642752.66906929 0 0 0 0 53000332.784049511 -157555511.54855633 0 -157555511.54855633 -203806968.29545403 0 0 0 0 63110096.686561942 -209281402.54966354 0 -209281402.54966354 -312877985.31595039 0 0 0 0 69624320.80843854 22123600.453024864 0 22123600.453024864 -82266386.519647598 0 0 0 0 -15992007.844634891 -49563366.770353436 0 -49563366.770353436 -48207836.585624695 0 0 0 0 9417238.0513443947 -107103831.04327488 0 -107103831.04327488 -235497088.73019791 0 0 0 0 -72172604.554753542 -17561391.550351143 0 -17561391.550351143 -5501924.046037674 0 0 0 0 -5467934.7603111267 -72518187.628884315 0 -72518187.628884315 -113825888.87035179 0 0 0 0 -102627936.89099884 -115870571.47307587 0 -115870571.47307587 -125929705.90182161 0 0 0 0 -37250982.498401165 -61023487.392943382 0 -61023487.392943382 -144372427.97169685 0 0 0 0 -42541612.688991547 -12308365.489923477 0 -12308365.489923477 -137693593.19420815 0 0 0 0 -30346840.136894226 -49821816.770137787 0 -49821816.770137787 -77787779.250080585 0 0 0 0 -97923339.269212723 -34251162.275152206 0 -34251162.275152206 -80855025.107524872 0 0 0 0 -89587011.755914688 -21311665.534803391 0 -21311665.534803391 -73823388.449069977 0 0 0 0 -39289224.539653599 26176246.557257056 0 26176246.557257056 -49637072.964473724 0 0 0 0 8101308.2838697433 -39032376.351327896 0 -39032376.351327896 180441.90067815781 0 0 0 0 9609076.130610466 70858597.005945206 0 70858597.005945206 42128292.176728249 0 0 0 0 -58939060.149857044 45070042.992069244 0 45070042.992069244 165416900.7235651 0 0 0 0 -1573509516.5550404 2263306004.0372791 0 2263306004.0372791 105398361.85562515 0 0 0 0 -14803044.256376266 42051323.166679382 0 42051323.166679382 -46645827.097438812 0 0 0 0 -42679340.708184242 -24361924.146430969 0 -24361924.146430969 11997337.800690174 0 0 0 0 775496.05972671509 -23234663.549308777 0 -23234663.549308777 46854526.110958099 0 0 0 0 50007797.119098663 -59245622.129743576 0 -59245622.129743576 55763578.937238693 0 0 0 0 2085472557.0849571 -678452838.98759842 0 -678452838.98759842 1956138618.5525818 0 0 0 0 -81411795.352570534 67830032.464273453 0 67830032.464273453 26567274.207986832 0 0 0 0 -7461591.601099669 3080028.8680585884 0 3080028.8680585884 -785940.67029268434 0 0 0 0 -19779381.026717663 113103607.37764168 0 113103607.37764168 24418459.477006912 0 0 0 0 -2122102.5599035639 275646.52363823354 0 275646.52363823354 -604839.21217593504 0 0 0 0 124496973.6288023 26136307.577440262 0 26136307.577440262 -33387919.886436462 0 0 0 0 42367617.832830191 76817612.996481419 0 76817612.996481419 -55160654.1860466 0 0 0 0 -6575614.1096916199 39524817.84901619 0 39524817.84901619 -74883077.708177567 0 0 0 0 -4212634.0923204422 90593385.833833694 0 90593385.833833694 -134595448.3675518 0 0 0 0 -17738323.348033905 15814061.061494827 0 15814061.061494827 -176262715.48640251 0 0 0 0 -6219598.107664939 118829254.30937709 0 118829254.30937709 -74047324.981277466 0 0 0 0 -36500336.803071976 139229273.06267166 0 139229273.06267166 -250230401.20858383 0 0 0 0 -14826499.342505038 132304736.87419212 0 132304736.87419212 -259111760.33235931 0 0 0 0 -3759360.0260453224 52784027.566692472 0 52784027.566692472 -173277847.03144073 0 0 0 0 -77178778.372493744 129695574.48606682 0 129695574.48606682 -212907877.89767838 0 0 0 0 -27520503.028597832 48722053.909915924 0 48722053.909915924 -145898574.43051243 0 0 0 0 -107884771.1438818 42574916.948020935 0 42574916.948020935 -143806944.60391331 0 0 0 0 -19072419.806320906 -2088687.5669699907 0 -2088687.5669699907 -71331121.756969452 0 0 0 0 -179337624.30540848 -62666939.75364399 0 -62666939.75364399 1176742811.0057878 0 0 0 0 -6414745.5687338412 1454311.6823147256 0 1454311.6823147256 -2339504.0466646473 0 0 0 0 91105748.030097961 40204803.869508743 0 40204803.869508743 1207075688.4613228 0 0 0 0 -281890761.32522297 670553638.54379654 0 670553638.54379654 2517882586.2307339 0 0 0 0 -53062102.998781204 5742817.1025867462 0 5742817.1025867462 -18477658.180441856 0 0 0 0 16682474.662203789 196352930.15242767 0 196352930.15242767 -354651751.81100845 0 0 0 0 -61716915.965466499 292224088.20962143 0 292224088.20962143 -464668450.17971015 0 0 0 0 -99058286.801709652 283785914.04328251 0 283785914.04328251 -408950848.29413605 0 0 0 0 78352714.240884304 -41761548.353487015 0 -41761548.353487015 -408416194.23537254 0 0 0 0 -229429550.80417562 523670545.68195915 0 523670545.68195915 -793670024.58083725 0 0 0 0 8056435.3880478144 158215194.25616646 0 158215194.25616646 -954755766.14815521 0 0 0 0 -606301668.05181694 550677924.89276791 0 550677924.89276791 -380203684.35325241 0 0 0 0 -3081982.2796333563 725688.63859278196 0 725688.63859278196 102528.73825445259 0 0 0 0 -307086365.99475133 238381956.65904593 0 238381956.65904593 -125396692.14417648 0 0 0 0 -225104955.16379976 392613978.19531155 0 392613978.19531155 -380240791.84555125 0 0 0 0 -152103584.49047863 296455512.30326438 0 296455512.30326438 -253620852.16921616 0 0 0 0 -154206988.75259471 285650352.36735654 0 285650352.36735654 -307431198.94741058 0 0 0 0 -61214177.941883087 274330269.49086952 0 274330269.49086952 -372588799.30644512 0 0 0 0 -156700985.96044302 252679171.24184704 0 252679171.24184704 -281610989.36114883 0 0 0 0 -160640015.15597868 257381775.50465488 0 257381775.50465488 -287196579.35933304 0 0 0 0 -143592259.94152021 209009319.90057468 0 209009319.90057468 -206902542.77050495 0 0 0 0 -177055724.02095276 186858204.99597454 0 186858204.99597454 -142044542.07022858 0 0 0 0 -166061461.64611244 115485144.66871071 0 115485144.66871071 -255037736.88351059 0 0 0 0 -118033875.98501849 134479075.7903266 0 134479075.7903266 -248437977.87603378 0 0 0 0 -163421012.33516693 40577976.311267853 0 40577976.311267853 -192236355.59280014 0 0 0 0 -75874454.035795689 50186334.161893845 0 50186334.161893845 -192556061.47064209 0 0 0 0 -35588656.440212727 81130819.845031738 0 81130819.845031738 -225126602.56139755 0 0 0 0 -27337625.452787876 167821637.65496826 0 167821637.65496826 -301797134.57190323 0 0 0 0 -93809311.344743729 183891610.79424858 0 183891610.79424858 -274924773.66088104 0 0 0 0 -109003340.1807785 208675353.72805691 0 208675353.72805691 -296464948.25939655 0 0 0 0 -165365349.14131093 199195828.13119197 0 199195828.13119197 -289532991.40235329 0 0 0 0 -137002473.24466228 267975569.66875458 0 267975569.66875458 -289500272.33743477 0 0 0 0 -177745924.31474495 232637555.33533573 0 232637555.33533573 -304891172.90286541 0 0 0 0 -176274205.57901096 241229587.84114552 0 241229587.84114552 -338213783.26948357 0 0 0 0 -249217429.99306202 213178362.39763737 0 213178362.39763737 -288696517.4365387 0 0 0 0 -204172618.97367382 138939313.60930347 0 138939313.60930347 -317335551.72105598 0 0 0 0 -222327977.39567757 157115447.10073471 0 157115447.10073471 -282323359.50187397 0 0 0 0 -269853407.88228893 31170069.055252075 0 31170069.055252075 -249656995.12807178 0 0 0 0 -287698406.93616009 107159016.08478355 0 107159016.08478355 -421015626.96484375 0 0 0 0 -383667743.26918459 147625642.13332367 0 147625642.13332367 -311011472.01329422 0 0 0 0 -437839113.83967686 132094083.57650375 0 132094083.57650375 -423192977.12848473 0 0 0 0 -213857909.09665418 182604896.6642189 0 182604896.6642189 -327635821.88743973 0 0 0 0 -216922604.78311539 207162129.18557739 0 207162129.18557739 -443648702.0461998 0 0 0 0 -138720701.9185276 134521258.45196056 0 134521258.45196056 -696771271.32924938 0 0 0 0 -378910637.36674702 -80009544.893663883 0 -80009544.893663883 -397052443.88974953 0 0 0 0 -101471686.55038738 9990054.8155155182 0 9990054.8155155182 -348691096.22499418 0 0 0 0 -372521240.89600849 1473177.3814754486 0 1473177.3814754486 -1503657204.8512993 0 0 0 0 -820581429.12413454 113293467.72738171 0 113293467.72738171 -545987846.98669243 0 0 0 0 -470470464.89513052 21095975.779780686 0 21095975.779780686 -532416732.62088776 0 0 0 0 -442201579.8269968 230568688.66992474 0 230568688.66992474 -437828381.72589016 0 0 0 0 -97605604.045682311 130101844.12839961 0 130101844.12839961 -219347638.72008896 0 0 0 0 -4720800.7983193398 82722258.844283104 0 82722258.844283104 -221509422.29122543 0 0 0 0 -140640437.45203948 203643908.54165697 0 203643908.54165697 -426589155.67523384 0 0 0 0 -95852060.817137718 123445902.9709177 0 123445902.9709177 -286697836.00236416 0 0 0 0 -73048908.168847561 31640557.032531738 0 31640557.032531738 -332649469.69404316 0 0 0 0 -11683587.755669117 -46781167.988268852 0 -46781167.988268852 -233666834.59160757 0 0 0 0 -28711247.645741463 -68508803.308970451 0 -68508803.308970451 -125482460.33260345 0 0 0 0 -13159651.3859936 -96272416.12518239 0 -96272416.12518239 -144299531.7953701 0 0 0 0 -113740671.39594746 -182563922.07704163 0 -182563922.07704163 -276894330.04258347 0 0 0 0 584582.8787528947 -320600.44022049801 0 -320600.44022049801 -477533.98822004069 0 0 0 0 -100955494.12906933 -59780643.715041161 0 -59780643.715041161 -145138224.35804367 0 0 0 0 -384645943.38911247 -334301007.09971046 0 -334301007.09971046 -159596662.32479763 0 0 0 0 -26931367.942159653 -88141372.321581841 0 -88141372.321581841 -119473420.06269932 0 0 0 0 1506593.2195147465 -951571.39322462608 0 -951571.39322462608 -815649.15828897618 0 0 0 0 -604474173.13477612 -250704004.12083817 0 -250704004.12083817 -73260293.248155594 0 0 0 0 -318033.43956423691 -16285.717891693348 0 -16285.717891693348 -1343004.0541435499 0 0 0 0 -980850924.28131199 -673884542.09824848 0 -673884542.09824848 -525421930.24803638 0 0 0 0 -251237378.60767174 -365344336.25712395 0 -365344336.25712395 -669405139.51130581 0 0 0 0 -143669988.13587427 -95634838.53320837 0 -95634838.53320837 -125015864.69944 0 0 0 0 -295420082.79095936 -204247197.6095401 0 -204247197.6095401 -141179751.08615685 0 0 0 0 -286220326.60861206 -185801147.3565073 0 -185801147.3565073 -124082247.60480881 0 0 0 0 -890834.10451720748 234344.75318277418 0 234344.75318277418 -3518589.1911688875 0 0 0 0 68157580.327883959 55424500.437040269 0 55424500.437040269 -2186421.8586621284 0 0 0 0 -3386571.3966227849 840718.57694450871 0 840718.57694450871 -2674591.1556663392 0 0 0 0 -5177860.0228614807 12492555.73411274 0 12492555.73411274 -97461132.188997269 0 0 0 0 74649314.186821938 30021326.977367163 0 30021326.977367163 -158318903.88937426 0 0 0 0 12704757.992520332 135939509.94689536 0 135939509.94689536 -1117585675.6770954 0 0 0 0 78372706.248616219 -13461329.371981382 0 -13461329.371981382 -830726104.89297867 0 0 0 0 -170492915.38659382 -14023988.131188393 0 -14023988.131188393 -101706965.67767525 0 0 0 0 -31251703.850059867 430804889.3768959 0 430804889.3768959 -844388911.73598862 0 0 0 0 62255318.567113876 -110697326.89949131 0 -110697326.89949131 -1154981810.043273 0 0 0 0 -562149173.46564507 -264552210.01931787 0 -264552210.01931787 -747876707.82332611 0 0 0 0 -47271194.119041443 136207282.45421505 0 136207282.45421505 -910914017.30399036 0 0 0 0 -173808664.69749022 205628627.84920073 0 205628627.84920073 -667771329.86575127 0 0 0 0 -241900475.49051428 -3659337.841940403 0 -3659337.841940403 -446405739.49680901 0 0 0 0 -195495663.65363693 -19688726.755876541 0 -19688726.755876541 -520824643.61028099 0 0 0 0 -228918549.19557524 -80881458.39312458 0 -80881458.39312458 -296919076.15478325 0 0 0 0 -226140243.07741302 4608864.1082873344 0 4608864.1082873344 -442929241.27999115 0 0 0 0 -258888478.74828243 -64765233.923873901 0 -64765233.923873901 -663952443.55045033 0 0 0 0 -357528080.69944 -24686425.464502335 0 -24686425.464502335 -373120795.22232628 0 0 0 0 -478810302.53489399 -9223427.5362682343 0 -9223427.5362682343 -373735331.86087418 0 0 0 0 -107971654.79002154 -62510685.742893815 0 -62510685.742893815 -281543100.88518333 0 0 0 0 -123912191.36223575 -129779812.47983623 0 -129779812.47983623 -145606927.61290741 0 0 0 0 -176795015.87490606 -110450667.66178322 0 -110450667.66178322 -313832543.30343056 0 0 0 0 -307578919.55947876 63482476.555171013 0 63482476.555171013 -390678719.60378075 0 0 0 0 -455544848.9788394 179054575.44793653 0 179054575.44793653 -337666154.55173898 0 0 0 0 -250384156.09626484 340780300.30469775 0 340780300.30469775 -887084903.88396549 0 0 0 0 -189745028.60895622 -153607941.73764324 0 -153607941.73764324 -359767989.18637371 0 0 0 0 30971444.746799231 366258747.31488895 0 366258747.31488895 -648456625.90098524 0 0 0 0 -1680737.03491941 138829.05943151563 0 138829.05943151563 -521977.23944470193 0 0 0 0 -349718537.60959435 384777711.39211631 0 384777711.39211631 -267030565.17148304 0 0 0 0 -172233319.19351864 59676108.72942996 0 59676108.72942996 109260711.82126641 0 0 0 0 -143555238.14455843 607586931.40400863 0 607586931.40400863 -367211863.42624879 0 0 0 0 -48171127.751669824 791483686.33285546 0 791483686.33285546 -63974805.739539489 0 0 0 0 38519450.998147488 675637958.42860115 0 675637958.42860115 -826710649.13484621 0 0 0 0 148928677.99493247 43597053.346000433 0 43597053.346000433 -2414601.4418067932 0 0 0 0 1667062.2782393193 2766086.4321224419 0 2766086.4321224419 -14214202.642458709 0 0 0 0 743647327.06839585 281761523.99372101 0 281761523.99372101 -174456589.93185711 0 0 0 0 595229.69262657687 709859.05836745678 0 709859.05836745678 -5153543.3449020628 0 0 0 0 -1086651278.2097962 -1365886983.8879519 0 -1365886983.8879519 -970683764.41641223 0 0 0 0 -234755141.08719635 -224026449.58138227 0 -224026449.58138227 -244851146.67334604 0 0 0 0 51300562.548073769 -335438172.29101467 0 -335438172.29101467 -387139370.59039497 0 0 0 0 -12275629.00451546 13604585.161575809 0 13604585.161575809 -13195755.039856505 0 0 0 0 46428714.695827723 -256618703.37078241 0 -256618703.37078241 -655884989.64552498 0 0 0 0 -62007346.723907948 -318651203.98931313 0 -318651203.98931313 -370360795.93684959 0 0 0 0 2408422.5865016095 5733972.3319500666 0 5733972.3319500666 -20982436.541772835 0 0 0 0 133693101.58024979 66823310.225393295 0 66823310.225393295 -180250675.31940556 0 0 0 0 -20548873.295915604 38671930.695847511 0 38671930.695847511 -518383063.54404831 0 0 0 0 12078450.728625298 -73943316.354893684 0 -73943316.354893684 -204870142.32541466 0 0 0 0 -33801843.522567749 165909108.32449722 0 165909108.32449722 306422.97515869141 0 0 0 0 509757204.75195706 88137411.843872547 0 88137411.843872547 -84284468.618083954 0 0 0 0 376744501.25783551 -108979346.37744832 0 -108979346.37744832 -165658903.17647171 0 0 0 0 106763331.02931404 -155028935.11941051 0 -155028935.11941051 -283033158.85471857 0 0 0 0 202016089.84680581 -15774899.953532696 0 -15774899.953532696 -120718869.89269829 0 0 0 0 128552570.6612829 75707303.904447079 0 75707303.904447079 -253457089.75238323 0 0 0 0 164025865.28892922 -27206565.61198616 0 -27206565.61198616 -1382016.3698105812 0 0 0 0 337650479.49399185 340058345.39347839 0 340058345.39347839 66699009.261398315 0 0 0 0 173052745.51375961 184384908.55685806 0 184384908.55685806 18966287.535615921 0 0 0 0 -58289220.859172821 330362084.67664719 0 330362084.67664719 -13518434.91129303 0 0 0 0 147047766.80774307 270826893.46961212 0 270826893.46961212 -252692170.48249054 0 0 0 0 42939185.192502975 328937294.23862743 0 328937294.23862743 -27907549.086868286 0 0 0 0 69805125.056092262 272111547.71231079 0 272111547.71231079 -54841129.008392334 0 0 0 0 279575832.70198822 362678713.63354492 0 362678713.63354492 -70411000.030944824 0 0 0 0 87242421.888252258 265144279.42103195 0 265144279.42103195 -52264437.134044647 0 0 0 0 -43840382.180435181 197278113.15448761 0 197278113.15448761 -13619091.335906506 0 0 0 0 -52749022.611579895 323541544.88566017 0 323541544.88566017 -10551295.234817505 0 0 0 0 16258959.382633209 245486462.15097427 0 245486462.15097427 -10232164.992591858 0 0 0 0 -47113741.643978119 171884507.86668396 0 171884507.86668396 90940435.319384098 0 0 0 0 -122281130.91462708 251390786.61701965 0 251390786.61701965 82614232.031680107 0 0 0 0 -120691569.55456161 271618108.46055603 0 271618108.46055603 40488134.775375366 0 0 0 0 -99375212.254066467 428400057.0765419 0 428400057.0765419 -247452779.62376404 0 0 0 0 -310306623.95870972 294697638.70149612 0 294697638.70149612 74479810.696451187 0 0 0 0 -122985603.35033113 89221220.051132306 0 89221220.051132306 239585406.69372177 0 0 0 0 -137393216.88356018 478245084.1205101 0 478245084.1205101 127218128.74919748 0 0 0 0 196796985.22938156 80885561.142606735 0 80885561.142606735 82292670.903877258 0 0 0 0 216428206.52276611 249299727.58452606 0 249299727.58452606 146417866.49299622 0 0 0 0 -305772118.93254471 -43495187.815452576 0 -43495187.815452576 -426917830.92946625 0 0 0 0 -463874967.93667984 -197316948.06160164 0 -197316948.06160164 -420608564.7100296 0 0 0 0 -147968459.65021229 -193234490.34243107 0 -193234490.34243107 -594221865.21133041 0 0 0 0 -193716178.06723213 -10089536.905750275 0 -10089536.905750275 51919761.929023743 0 0 0 0 -188365303.80822372 198685477.7580204 0 198685477.7580204 -240957818.65064621 0 0 0 0 192902409.15351486 -64235771.949234009 0 -64235771.949234009 14236929.012653351 0 0 0 0 -204882781.2705934 -148605809.80713803 0 -148605809.80713803 168315736.32655334 0 0 0 0 -2543762.8810566491 2264672.8362586908 0 2264672.8362586908 5046825.0629484765 0 0 0 0 902823944.03263474 1375762030.2906189 0 1375762030.2906189 691734589.96085453 0 0 0 0 -4402586.8804960549 4381627.2907634974 0 4381627.2907634974 -4292262.4407619517 0 0 0 0 -40982021.908550262 -1170634561.0944247 0 -1170634561.0944247 -2084181178.0102501 0 0 0 0 2504041013.6122055 1534679762.2250061 0 1534679762.2250061 -2076304751.889946 0 0 0 0 -3441695387.4677734 399193948.60891724 0 399193948.60891724 1584285778.6767578 0 0 0 0 -138553020.72378922 551479909.22448158 0 551479909.22448158 -566359994.483284 0 0 0 0 -65495048.996398926 115287257.12803268 0 115287257.12803268 -1906172228.3102493 0 0 0 0 -64149477.523857504 405440340.61407864 0 405440340.61407864 -540662814.13562775 0 0 0 0 15591550.905677795 244804918.76063919 0 244804918.76063919 -341780194.131464 0 0 0 0 -225611643.77714729 -681849570.12132645 0 -681849570.12132645 -1375988178.5323639 0 0 0 0 -1641753764.643219 -2071207871.7653961 0 -2071207871.7653961 -2412499545.1449728 0 0 0 0 -586033557.58257675 -386355439.50178909 0 -386355439.50178909 258580652.57735443 0 0 0 0 -249245.41833753511 720675.23828356201 0 720675.23828356201 -664115.8565100017 0 0 0 0 -168214268.03543091 -295701836.77094269 0 -295701836.77094269 190804366.20140696 0 0 0 0 -384402881.25053787 -376471893.06754398 0 -376471893.06754398 243446536.46675587 0 0 0 0 148385033.58472824 -37348082.913227081 0 -37348082.913227081 -40124863.65448761 0 0 0 0 173011314.60303497 -149470199.08263779 0 -149470199.08263779 -265078313.9274025 0 0 0 0 359200949.60612679 -40664996.80662632 0 -40664996.80662632 -290985595.53665161 0 0 0 0 -58264742.627155304 -231729984.42804718 0 -231729984.42804718 -189961752.76814651 0 0 0 0 31412306.193086624 299237697.42921638 0 299237697.42921638 -255586993.64390564 0 0 0 0 285616548.02663803 -86992788.877304077 0 -86992788.877304077 -688782135.40537643 0 0 0 0 390487322.22766685 -60895081.741773605 0 -60895081.741773605 -182352387.86999512 0 0 0 0 297323643.12297821 -10525938.50806427 0 -10525938.50806427 -205365700.9230957 0 0 0 0 -3185828.8290290833 12544428.328790665 0 12544428.328790665 -36329137.74395752 0 0 0 0 -1733328.2827358246 112088.30139350891 0 112088.30139350891 -35522521.172111511 0 0 0 0 -59923554.671337128 -150761559.28805351 0 -150761559.28805351 -41887628.278734207 0 0 0 0 -18676795.142530918 38061175.628901958 0 38061175.628901958 41855708.976331711 0 0 0 0 768764.73336791992 18902192.908541679 0 18902192.908541679 -26823389.843803406 0 0 0 0 -4457033.2746734619 -8972379.2800617218 0 -8972379.2800617218 30461561.390556335 0 0 0 0 -20283078.612056732 -19004037.632395744 0 -19004037.632395744 42358912.657599457 0 0 0 0 2674256.8897619359 -8828445.5267541409 0 -8828445.5267541409 -20910678.89047635 0 0 0 0 17022.142150878906 12816366.401634216 0 12816366.401634216 -45279625.536987305 0 0 0 0 24014476.659013748 31091337.538057327 0 31091337.538057327 -58598579.857616305 0 0 0 0 82007007.038192749 -70229274.220880508 0 -70229274.220880508 -42099740.748944283 0 0 0 0 548041.73877724633 -9397.0613915391732 0 -9397.0613915391732 -1591063.0735726461 0 0 0 0 -796995.94983660756 -204469.70347956102 0 -204469.70347956102 -5255917.8627414927 0 0 0 0 -99159843.504039764 -85009044.441728592 0 -85009044.441728592 115810761.73431969 0 0 0 0 -5504366.895456424 9630678.4350886736 0 9630678.4350886736 -1084536.9789251294 0 0 0 0 -7752118.190196991 9266317.3077087402 0 9266317.3077087402 2413328.6432924271 0 0 0 0 18235116.403529167 35701224.931917191 0 35701224.931917191 61296095.659481049 0 0 0 0 -6375690.4498023987 -7949225.7984809875 0 -7949225.7984809875 46016985.057723999 0 0 0 0 -35779336.075069427 -22416191.479249954 0 -22416191.479249954 44904180.28841269 0 0 0 0 16443989.866632462 -59250299.519567251 0 -59250299.519567251 44609671.495510101 0 0 0 0 5684689.7580223083 3775794.1810927391 0 3775794.1810927391 53216685.156329155 0 0 0 0 -96992278.061238527 18185630.896332264 0 18185630.896332264 55605246.925413132 0 0 0 0 -83608554.993302107 -79287579.392084599 0 -79287579.392084599 45168844.40689373 0 0 0 0 566954.62592846714 902435.38321505906 0 902435.38321505906 -3910695.2932902491 0 0 0 0 -94045818.10695076 551853610.37902737 0 551853610.37902737 -722389263.33349657 0 0 0 0 -300595642.9017067 230560755.68622541 0 230560755.68622541 -170532651.55198789 0 0 0 0 498010620.1916008 175846039.86564255 0 175846039.86564255 -551066787.44554365 0 0 0 0 825956665.95882988 240870784.51152563 0 240870784.51152563 -1133558174.5280104 0 0 0 0 -1229755.8329679994 -1954780.1242434094 0 -1954780.1242434094 -1565954.9837567676 0 0 0 0 -275777128.2760663 -278920243.55848932 0 -278920243.55848932 222165547.54528809 0 0 0 0 535765367.50682259 6700724.2826461792 0 6700724.2826461792 -1297820331.67803 0 0 0 0 -709947908.89105988 -1724912469.3115177 0 -1724912469.3115177 -743742537.58645344 0 0 0 0 -239563362.34626102 -326100717.00531816 0 -326100717.00531816 705270048.76660156 0 0 0 0 19942020.104469299 -282510603.14231682 0 -282510603.14231682 -555332946.93106234 0 0 0 0 26258508.440093994 -57939998.712351799 0 -57939998.712351799 -42353953.122321129 0 0 0 0 -29237692.939182281 -10905297.156924725 0 -10905297.156924725 -37335822.608083725 0 0 0 0 3472683.3311882466 -1016624.0397925312 0 -1016624.0397925312 -5593198.6810572855 0 0 0 0 -7754.7477802336216 324344190.53214294 0 324344190.53214294 586605298.90460396 0 0 0 0 -4646739.391418457 6632722.9289665222 0 6632722.9289665222 -29955120.785018921 0 0 0 0 1495977.8124627792 9019481.0893066637 0 9019481.0893066637 -25245833.516467929 0 0 0 0 688972.46923065186 4381394.7355575562 0 4381394.7355575562 -37769980.159675598 0 0 0 0 3099812.0149796829 7136226.7564735794 0 7136226.7564735794 -25493218.727111325 0 0 0 0 -2801792.0240216255 94858052.992236018 0 94858052.992236018 -311681136.63492775 0 0 0 0 -5812338.2595062256 2471558.3184452057 0 2471558.3184452057 -35425345.982429504 0 0 0 0 -1251163.3407769785 4185666.4318827353 0 4185666.4318827353 973204.81538475957 0 0 0 0 266902813.45988274 -395874318.01612043 0 -395874318.01612043 -2427987006.2219048 0 0 0 0 3519491.7121372223 1372134.4855308533 0 1372134.4855308533 -23040512.300672531 0 0 0 0 13217593.903629143 6146647.6134934481 0 6146647.6134934481 -24541492.663540635 0 0 0 0 -22212.396405210719 318833.07654280914 0 318833.07654280914 -1427445.3218137128 0 0 0 0 5189447.0158252716 7803317.9573707581 0 7803317.9573707581 -29815844.769237518 0 0 0 0 239129870.87363267 70147338.491629601 0 70147338.491629601 371275632.93674278 0 0 0 0 291749208.76693386 -74062190.229411602 0 -74062190.229411602 -7965657.3074169159 0 0 0 0 -658104557.33238792 1239917511.2643471 0 1239917511.2643471 -285537136.50244808 0 0 0 0 -142378875.51347017 -722519524.24334145 0 -722519524.24334145 819441354.99885178 0 0 0 0 6206610.0745761395 -607415044.68344307 0 -607415044.68344307 -592555945.45881271 0 0 0 0 32090402.69631958 -416681869.65284729 0 -416681869.65284729 23504603.199163437 0 0 0 0 43115540.189359426 -205771288.3174963 0 -205771288.3174963 -56586028.480358601 0 0 0 0 42874738.77944345 -186563088.35054663 0 -186563088.35054663 73013694.42345047 0 0 0 0 145997120.72614121 -159147045.88918209 0 -159147045.88918209 -118149100.67737888 0 0 0 0 -19577306.96011734 -214087547.93273544 0 -214087547.93273544 -36067291.475658417 0 0 0 0 74287978.404765606 -91814222.594675064 0 -91814222.594675064 -79794418.269630432 0 0 0 0 282004070.06213892 -54899744.440767288 0 -54899744.440767288 -62353599.106622696 0 0 0 0 253557951.68338501 -50706299.46955204 0 -50706299.46955204 -122955332.7126441 0 0 0 0 274255084.04627901 -99059034.919800401 0 -99059034.919800401 -26151195.333011627 0 0 0 0 2873218.3174852286 10518818.901548233 0 10518818.901548233 -25236377.046150513 0 0 0 0 178299605.26135468 -71592733.502696037 0 -71592733.502696037 15085506.293447495 0 0 0 0 -936691.78758467734 12972191.105689809 0 12972191.105689809 -4956100.2997095566 0 0 0 0 80743627.574741364 125537940.20043564 0 125537940.20043564 14381150.185733795 0 0 0 0 -26169722.118135452 21758981.231212616 0 21758981.231212616 98331687.733459473 0 0 0 0 9582449.0133285522 6820993.741322875 0 6820993.741322875 -5483503.9445762634 0 0 0 0 -276957.19885303266 5605117.9889655318 0 5605117.9889655318 -8535296.583585307 0 0 0 0 56836163.177116394 -18962104.959629536 0 -18962104.959629536 8578853.4064888954 0 0 0 0 1754197.4024277045 4030357.7886801613 0 4030357.7886801613 -3799495.6271181488 0 0 0 0 192063585.18972397 -21332575.218938828 0 -21332575.218938828 -184293629.8571701 0 0 0 0 -411796515.35882187 124057773.99932098 0 124057773.99932098 640834711.83628559 0 0 0 0 227158290.51477373 -120431437.71963072 0 -120431437.71963072 45567714.920015335 0 0 0 0 190685196.07373333 176661363.71199989 0 176661363.71199989 -420865968.45725632 0 0 0 0 165610468.17261791 -258865790.21022081 0 -258865790.21022081 -181438508.84832835 0 0 0 0 114534085.8341732 -493282056.51526546 0 -493282056.51526546 -1122560741.3080082 0 0 0 0 225168085.96218491 -11007503.766942739 0 -11007503.766942739 -370085301.69592953 0 0 0 0 -266282429.43897581 -429722394.4321512 0 -429722394.4321512 -249003176.93122768 0 0 0 0 -455405099.80202675 -713890484.65657187 0 -713890484.65657187 -635639678.93063354 0 0 0 0 -135682277.45533752 -249804962.18642938 0 -249804962.18642938 -409812664.45628715 0 0 0 0 205162263.81740189 -279315722.70300722 0 -279315722.70300722 -515002201.9599905 0 0 0 0 206026482.83641624 -319364975.36205435 0 -319364975.36205435 206094040.04472661 0 0 0 0 233864.60573865846 232953.91306188935 0 232953.91306188935 -734801.68325798446 0 0 0 0 -451940591.24212658 -689647788.38243294 0 -689647788.38243294 -1019902309.9560871 0 0 0 0 412412.43052563694 -661157.53430890781 0 -661157.53430890781 -3267507.0814912748 0 0 0 0 -309877778.77834672 515069395.58229488 0 515069395.58229488 -706884443.26216316 0 0 0 0 273252341.30557358 -1408023520.760268 0 -1408023520.760268 -878873040.21307373 0 0 0 0 419553636.40111375 -47636646.535622597 0 -47636646.535622597 -2016693391.0486498 0 0 0 0 190306300.26374507 144958205.95595264 0 144958205.95595264 -1721026591.6529408 0 0 0 0 181491670.02712011 -200912305.93682575 0 -200912305.93682575 -429687075.78714943 0 0 0 0 299359472.02228904 -253507174.2772913 0 -253507174.2772913 -541948478.03019691 0 0 0 0 76154997.766553402 16284172.628341675 0 16284172.628341675 -404435184.12280071 0 0 0 0 -122068737.54021358 57169838.637160778 0 57169838.637160778 -39524708.017885208 0 0 0 0 545788.12361973617 234882.43555571605 0 234882.43555571605 -4249899.8799136812 0 0 0 0 -419394.88327646255 395177.34215736389 0 395177.34215736389 -6048091.0615768433 0 0 0 0 2249219.4638600349 353745.56122970581 0 353745.56122970581 -7520533.5441179276 0 0 0 0 4536044.2806574386 4008454.07110433 0 4008454.07110433 -10856350.801232077 0 0 0 0 3025014.0383303165 264791.15732765198 0 264791.15732765198 -8006085.8216962814 0 0 0 0 225484565.53170323 86986137.448570728 0 86986137.448570728 21769039.83360672 0 0 0 0 5252572.4532146454 -1727297.9172706604 0 -1727297.9172706604 -6931906.0417828858 0 0 0 0 2503692.3945649853 -779955.82108540891 0 -779955.82108540891 -10891654.036463363 0 0 0 0 1570537.8058881422 -3253015.6589214224 0 -3253015.6589214224 -6977591.6081433389 0 0 0 0 362877424.5867213 -60135933.534183025 0 -60135933.534183025 -208292654.68481159 0 0 0 0 3067965.161968708 1219132.3336763382 0 1219132.3336763382 -6717966.1501350403 0 0 0 0 15618248.978311539 -130794054.94162869 0 -130794054.94162869 -291214158.12118864 0 0 0 0 209257366.1642046 72295402.003098488 0 72295402.003098488 -506654667.15652847 0 0 0 0 1755319.2061116695 221703527.66162455 0 221703527.66162455 -119547473.40824318 0 0 0 0 216607852.68430233 3550656.2301793098 0 3550656.2301793098 -13852198.625297546 0 0 0 0 7062023.8265460134 -290746630.907224 0 -290746630.907224 -1256956026.5770431 0 0 0 0 -228070966.26470566 500709697.73731256 0 500709697.73731256 -927736985.89457345 0 0 0 0 -42588419.427808762 75896646.858603477 0 75896646.858603477 -267740331.84427452 0 0 0 0 -331506855.81600189 69678087.881552696 0 69678087.881552696 212515850.55622101 0 0 0 0 -135721432.78172588 266732643.12996817 0 266732643.12996817 -52361678.901906967 0 0 0 0 107221590.13640404 81693596.199175835 0 81693596.199175835 57541081.445899963 0 0 0 0 -73719428.082434654 -20013765.823195934 0 -20013765.823195934 248109052.5081749 0 0 0 0 56002868.185134888 198066017.46837139 0 198066017.46837139 113049115.82333374 0 0 0 0 -43988260.184356689 -98640289.556918621 0 -98640289.556918621 274330443.93492126 0 0 0 0 -148712034.9091835 -118551894.0622797 0 -118551894.0622797 353014977.04943085 0 0 0 0 177504075.72752285 163483697.26072788 0 163483697.26072788 -98400732.434426785 0 0 0 0 134662066.15193939 174357129.50178242 0 174357129.50178242 -103644572.45740891 0 0 0 0 68152487.451538086 165749977.42568016 0 165749977.42568016 80895071.632683665 0 0 0 0 122332838.41562843 160234900.57651377 0 160234900.57651377 80867722.66891861 0 0 0 0 -28512581.018638611 116999150.23271179 0 116999150.23271179 261610191.9004364 0 0 0 0 3233377.9552547545 2879314.6223458392 0 2879314.6223458392 -12457792.014691066 0 0 0 0 84561352.887171745 118893651.83078194 0 118893651.83078194 82021755.046295166 0 0 0 0 288444501.11408234 263401108.72229767 0 263401108.72229767 316283492.80612564 0 0 0 0 70927809.374126434 190022247.45664406 0 190022247.45664406 293071701.17242813 0 0 0 0 136073142.18091869 240256361.66448879 0 240256361.66448879 393787030.66250229 0 0 0 0 209566889.51297569 96586805.024663925 0 96586805.024663925 177750400.76906586 0 0 0 0 228317.15031958558 392282.13537618751 0 392282.13537618751 -313473.15214873757 0 0 0 0 252264667.48180008 -295098723.87605667 0 -295098723.87605667 467691064.83688641 0 0 0 0 1270855.5769786825 551125.00998243317 0 551125.00998243317 -1975889.9894726924 0 0 0 0 122640097.76121521 -297027376.05072784 0 -297027376.05072784 459336369.93113136 0 0 0 0 439856553.96959496 -85277335.354047775 0 -85277335.354047775 226891535.81674242 0 0 0 0 416292909.01970291 189918107.4885025 0 189918107.4885025 212555440.1311779 0 0 0 0 -215229533.25807762 -263354956.06269646 0 -263354956.06269646 588619696.0123558 0 0 0 0 -930944.0949039869 -1101039.3619122605 0 -1101039.3619122605 -141234.6210421212 0 0 0 0 -302678495.64200211 227130984.00529289 0 227130984.00529289 -13630447.647033215 0 0 0 0 444332763.4308424 21106205.427806616 0 21106205.427806616 -117639996.3758297 0 0 0 0 -69907.685012088856 -4652695.6290103756 0 -4652695.6290103756 -5781162.6613926403 0 0 0 0 10727255.15971756 -2083398.2071785927 0 -2083398.2071785927 -6657314.6275959015 0 0 0 0 356859790.16227913 -298347223.6654191 0 -298347223.6654191 -13496.079517364502 0 0 0 0 91840435.889002323 353126599.37706661 0 353126599.37706661 156282728.82966805 0 0 0 0 86795424.88553524 249008750.65379143 0 249008750.65379143 194218646.44674969 0 0 0 0 456351628.60929394 195147818.05622864 0 195147818.05622864 48923892.736959457 0 0 0 0 2530619.0368719408 -2704641.5912716263 0 -2704641.5912716263 -12383420.295350749 0 0 0 0 7296736.8646993637 -3095576.7578592366 0 -3095576.7578592366 -3853236.215890035 0 0 0 0 194229895.63745689 -174905377.50778198 0 -174905377.50778198 -425688217.06399345 0 0 0 0 69651866.914149284 51257461.487996101 0 51257461.487996101 -201692163.89058685 0 0 0 0 -102212627.73395157 -291233844.280303 0 -291233844.280303 -374444093.22278976 0 0 0 0 -8022019.472906705 11839010.835094899 0 11839010.835094899 -3826855.795584172 0 0 0 0 20695458.436496735 -214719126.87385654 0 -214719126.87385654 -236132884.48146057 0 0 0 0 -56934873.545337677 -72450289.596529007 0 -72450289.596529007 -406670928.37042141 0 0 0 0 -194748985.25291824 -101342422.43595314 0 -101342422.43595314 -289344495.24575996 0 0 0 0 -157626766.85990906 -368221104.61796761 0 -368221104.61796761 -332779382.01797366 0 0 0 0 -459425913.31271744 -282736614.21158218 0 -282736614.21158218 -2856655.4270019531 0 0 0 0 -198299076.0238871 -12418824.250128806 0 -12418824.250128806 142351000.1724472 0 0 0 0 -242257634.04196739 176842726.64899635 0 176842726.64899635 -79814117.63189888 0 0 0 0 -2117151.532831395 904937.99829498306 0 904937.99829498306 -3602303.8518328648 0 0 0 0 -153420235.20454979 -241186387.74844742 0 -241186387.74844742 -329459627.52787447 0 0 0 0 -86228887.006212234 115623787.4079752 0 115623787.4079752 -194654490.2168045 0 0 0 0 424727169.05273676 -766311483.8345232 0 -766311483.8345232 -540837515.97155571 0 0 0 0 -2494137.2508442542 -3995887.5146212024 0 -3995887.5146212024 -2923376.1227866104 0 0 0 0 -246502001.35363579 248442114.6080842 0 248442114.6080842 280993221.11702347 0 0 0 0 -407690626.67675114 -133935023.22859859 0 -133935023.22859859 417043941.27389908 0 0 0 0 627743249.16673756 679407922.25702977 0 679407922.25702977 -956755670.63001966 0 0 0 0 -682493621.85765457 -1084282388.1525116 0 -1084282388.1525116 99757339.709265709 0 0 0 0 -1090246511.6728191 270846887.99302673 0 270846887.99302673 29851945.782810211 0 0 0 0 682062932.44875336 -953435303.91745472 0 -953435303.91745472 -167728168.56008053 0 0 0 0 9188016.6609973907 27556557.245308876 0 27556557.245308876 279993045.05837822 0 0 0 0 -134920029.22887039 -147947039.68079472 0 -147947039.68079472 73223781.394393921 0 0 0 0 -150323484.99586868 -139955181.24933434 0 -139955181.24933434 428393810.85720062 0 0 0 0 -239520360.20586395 -103786153.56031799 0 -103786153.56031799 503470262.18784904 0 0 0 0 436607732.51984406 27052767.848160744 0 27052767.848160744 -109903733.79603195 0 0 0 0 -2205656.8269778173 -3112814.1144771157 0 -3112814.1144771157 -1524038.8026440125 0 0 0 0 -16581051.16822052 83161939.448490143 0 83161939.448490143 -13637174.744046211 0 0 0 0 34619939.014223099 137987851.54341888 0 137987851.54341888 -83142795.747121811 0 0 0 0 -5353471.6665291786 79504681.232335091 0 79504681.232335091 -93276667.447235107 0 0 0 0 -196103508.09127998 358182583.38639736 0 358182583.38639736 192671210.4856987 0 0 0 0 -448818873.26745033 -164200148.18396044 0 -164200148.18396044 -71203026.174884796 0 0 0 0 -76091955.393348694 85680238.091967583 0 85680238.091967583 -20732346.535180092 0 0 0 0 -109260810.92531848 -79551197.706126332 0 -79551197.706126332 -293168249.42659378 0 0 0 0 -65427566.552965164 24328462.573756218 0 24328462.573756218 -14558397.426449776 0 0 0 0 -576420.85824924987 64788.406703090761 0 64788.406703090761 203729.57301581092 0 0 0 0 -57367877.125232697 -148340768.70928574 0 -148340768.70928574 -241250011.59942627 0 0 0 0 -92395509.133337021 32820456.221721649 0 32820456.221721649 -137162553.77563095 0 0 0 0 18663257.161487103 176895491.34377003 0 176895491.34377003 -656494.54928207397 0 0 0 0 -102226700.39923382 -116621596.74905205 0 -116621596.74905205 -278560279.44526672 0 0 0 0 -26989066.718759537 77510765.43844223 0 77510765.43844223 -127781882.13204765 0 0 0 0 325582.46173477173 63617248.91534996 0 63617248.91534996 -139291307.87931252 0 0 0 0 -1190301.4948945725 7115.5695813023485 0 7115.5695813023485 282354.31504218746 0 0 0 0 -1707878.9953308105 91399748.299934387 0 91399748.299934387 -97064053.041926861 0 0 0 0 -38886027.76951158 20353761.060088038 0 20353761.060088038 -20781418.698820114 0 0 0 0 30414526.140341759 -23576375.066357613 0 -23576375.066357613 -80854761.333621025 0 0 0 0 7686051.035733223 61372686.958232403 0 61372686.958232403 -175064709.19276047 0 0 0 0 12253585.048735619 66383955.462069511 0 66383955.462069511 -202830644.97866154 0 0 0 0 -59788152.054487467 -77359177.476563692 0 -77359177.476563692 -98155356.552585602 0 0 0 0 -1294150.4116525119 -108455.90764879156 0 -108455.90764879156 182424.26192141883 0 0 0 0 -48637420.9680897 -134856757.40110958 0 -134856757.40110958 -475853538.13473129 0 0 0 0 -7686052.3264083862 -347711493.19927025 0 -347711493.19927025 -740069864.4335556 0 0 0 0 -153641859.32415295 -291207710.60465813 0 -291207710.60465813 -551090977.1139431 0 0 0 0 -65762944.374177933 -191204139.73633194 0 -191204139.73633194 -454285472.43834305 0 0 0 0 -340732948.92723846 -148285161.94480705 0 -148285161.94480705 -300420469.75829887 0 0 0 0 -114246356.74488926 -180382478.12343788 0 -180382478.12343788 -599578134.73321915 0 0 0 0 -94152150.616821289 23572712.670202255 0 23572712.670202255 -141038473.20701599 0 0 0 0 -30446579.508568764 -42537528.73206234 0 -42537528.73206234 -336067420.54020119 0 0 0 0 -90145080.050016403 -6570027.6069641113 0 -6570027.6069641113 -334633424.75738716 0 0 0 0 -26816636.766200542 39158736.166560292 0 39158736.166560292 -368693619.68969154 0 0 0 0 -88808933.243755341 -44319324.505478859 0 -44319324.505478859 54232692.104160547 0 0 0 0 -583780.00173427165 2493485.9871933628 0 2493485.9871933628 -4581877.6583621465 0 0 0 0 533390500.54469967 -363751855.47149658 0 -363751855.47149658 -208231958.05231476 0 0 0 0 239597897.15351391 -293329608.45302391 0 -293329608.45302391 -141222827.91109848 0 0 0 0 656544854.75511169 123669511.23661804 0 123669511.23661804 275724227.44377136 0 0 0 0 -10742.533182339044 -1463127.0884484658 0 -1463127.0884484658 328623.36749690771 0 0 0 0 -311099446.78911883 -967705663.80199385 0 -967705663.80199385 -2736147219.4546552 0 0 0 0 -329744531.72161865 -133519849.83129644 0 -133519849.83129644 836873944.7186079 0 0 0 0 -407524593.57229376 -150871845.62622118 0 -150871845.62622118 251858277.88731098 0 0 0 0 1171047.6319003862 -1428379.9238737738 0 -1428379.9238737738 -8665745.7884231769 0 0 0 0 17535859.177886128 -10635996.509955689 0 -10635996.509955689 -1465016.4057569504 0 0 0 0 205552.82723465731 -8348351.2139082402 0 -8348351.2139082402 -7076211.4045634829 0 0 0 0 1416028001.9646816 136254550.51222888 0 136254550.51222888 -1090956174.6976204 0 0 0 0 11234072.510442734 -335145060.11413288 0 -335145060.11413288 103844493.39513206 0 0 0 0 191736352.17156601 218111728.63226318 0 218111728.63226318 -294249076.43760109 0 0 0 0 532970580.40524292 -54084908.928257942 0 -54084908.928257942 -187865589.33604431 0 0 0 0 19217579.973384857 -96932312.435998917 0 -96932312.435998917 -386978945.82343102 0 0 0 0 45564465.944101334 124099768.76968241 0 124099768.76968241 -171908457.97060776 0 0 0 0 -699443.04446906224 -35374.312916554511 0 -35374.312916554511 108263.76443100907 0 0 0 0 -147232922.52130699 142901979.20745087 0 142901979.20745087 48562863.219572067 0 0 0 0 -340183818.94808865 185459699.53454494 0 185459699.53454494 39365292.206775665 0 0 0 0 -221267338.28983498 -2931088.7137203217 0 -2931088.7137203217 -17447921.338306427 0 0 0 0 68842313.78200984 109105207.24910498 0 109105207.24910498 -1299961163.9111862 0 0 0 0 95851436.362825394 -31484526.461734772 0 -31484526.461734772 -604721696.40434265 0 0 0 0 -8855242.8884134293 -56454600.2670784 0 -56454600.2670784 -560189474.18817139 0 0 0 0 95775889.539283752 -257990185.5508976 0 -257990185.5508976 -908872356.99290276 0 0 0 0 92101628.31055069 -241763406.22134495 0 -241763406.22134495 -648170065.7886467 0 0 0 0 129222346.15585518 -381083658.00161934 0 -381083658.00161934 -719304745.30576706 0 0 0 0 128286058.97692299 -442397054.47304916 0 -442397054.47304916 -1059578902.980381 0 0 0 0 372590968.01348305 -296624147.18447304 0 -296624147.18447304 -975540203.28496933 0 0 0 0 -262442888.3476162 -1430294591.2189255 0 -1430294591.2189255 -1675713079.9895058 0 0 0 0 406021013.94550371 -403051563.14698279 0 -403051563.14698279 -2673358846.8228512 0 0 0 0 -525994848.0164662 231364073.28271288 0 231364073.28271288 -122633566.44378281 0 0 0 0 -44046683.963352203 443144897.4984684 0 443144897.4984684 -227612287.40571594 0 0 0 0 -1198317.7885505739 -4412005.5156412693 0 -4412005.5156412693 -4735090.429297369 0 0 0 0 206522944.10634518 668521270.70373631 0 668521270.70373631 -1816896636.1889133 0 0 0 0 -917733820.5287962 -1656376699.1305618 0 -1656376699.1305618 -790635834.06493378 0 0 0 0 -912730124.37331343 -1696117109.0035133 0 -1696117109.0035133 -597988545.07098198 0 0 0 0 394983993.23233128 1099768176.6849995 0 1099768176.6849995 -1965229513.4707603 0 0 0 0 -87398864.02723515 87074012.432188332 0 87074012.432188332 -64087987.381067038 0 0 0 0 -114805.92354690265 -3910221.9412661544 0 -3910221.9412661544 -12212393.492947528 0 0 0 0 1097034234.2280283 250303680.3848958 0 250303680.3848958 -1010957294.3549423 0 0 0 0 -164802478.60060704 47363763.879582524 0 47363763.879582524 -60009980.591325521 0 0 0 0 -326383748.84843862 217350285.04549193 0 217350285.04549193 -80002876.398545265 0 0 0 0 -87376704.321826935 100881110.08237368 0 100881110.08237368 -71923978.927745104 0 0 0 0 -185770379.37283373 170901740.18013895 0 170901740.18013895 -121700074.33949304 0 0 0 0 255271838.91367769 -344174451.03580952 0 -344174451.03580952 -729641771.50730014 0 0 0 0 -66480683.872529984 347337984.0952282 0 347337984.0952282 -465714177.95978403 0 0 0 0 -1317902970.3057914 -1777850820.0079939 0 -1777850820.0079939 -362199593.92937279 0 0 0 0 -113797.78925308138 -2558636.8777897554 0 -2558636.8777897554 -4976003.6936353855 0 0 0 0 -285290314.23844647 110737314.98001456 0 110737314.98001456 -50220742.562366664 0 0 0 0 -683995693.6117363 468049045.45059013 0 468049045.45059013 -361646427.86811447 0 0 0 0 100468695.13888693 -146250186.36929095 0 -146250186.36929095 -142415336.36405659 0 0 0 0 130887760.15501595 87138893.690564722 0 87138893.690564722 -322729857.61479914 0 0 0 0 209599672.51006985 182830273.51925206 0 182830273.51925206 -233269109.6785655 0 0 0 0 -87352025.360107899 112803914.43976629 0 112803914.43976629 -161986348.51658177 0 0 0 0 116020541.61619091 160417234.17877853 0 160417234.17877853 -220818394.32719308 0 0 0 0 105648536.84614563 122148414.4529779 0 122148414.4529779 -207421793.58460605 0 0 0 0 237220511.70180321 -204083914.42600191 0 -204083914.42600191 -272078416.94334722 0 0 0 0 92200768.317267895 137017555.40705836 0 137017555.40705836 -108157512.66654301 0 0 0 0 170095318.66250539 -358788254.30193281 0 -358788254.30193281 123260490.23895073 0 0 0 0 127094722.32481384 10025643.30198881 0 10025643.30198881 -5224147.1138739586 0 0 0 0 145081278.29533577 -119228654.62067342 0 -119228654.62067342 63144650.158036232 0 0 0 0 6595044.5705223083 -65373341.572033644 0 -65373341.572033644 27729353.231813058 0 0 0 0 39779120.718120575 121121127.7466073 0 121121127.7466073 -17958150.201786041 0 0 0 0 -315529525.26272583 -313787380.77653408 0 -313787380.77653408 -400398140.66057444 0 0 0 0 631023.57736901427 1407568.4676824007 0 1407568.4676824007 272655.90036672528 0 0 0 0 44140051.713098526 -299229775.81642103 0 -299229775.81642103 337398516.87818146 0 0 0 0 -610553194.46461391 -509125413.8220191 0 -509125413.8220191 -197392876.26218605 0 0 0 0 181153979.20278013 -722039522.83179903 0 -722039522.83179903 -1321023658.6796227 0 0 0 0 -491695357.29705429 -242669912.04679489 0 -242669912.04679489 -74519460.011745453 0 0 0 0 -2222137.1269421531 -1248756.1670785125 0 -1248756.1670785125 500370.08703734726 0 0 0 0 54451001.719096184 67698508.150782585 0 67698508.150782585 -1529908836.7995796 0 0 0 0 -134303847.67085484 -724199687.51170206 0 -724199687.51170206 -2506442661.9016304 0 0 0 0 -2428677878.7806315 -377244060.88767481 0 -377244060.88767481 -95290563.991853714 0 0 0 0 -57882807.031835802 -300243304.28619242 0 -300243304.28619242 -191195113.37538242 0 0 0 0 57742427.481580734 -997687548.25448704 0 -997687548.25448704 -1136991312.395402 0 0 0 0 -205258390.61209297 -216047621.93208981 0 -216047621.93208981 -168029727.14370203 0 0 0 0 -757883794.73889279 -615292438.43384314 0 -615292438.43384314 -356752469.44939804 0 0 0 0 -229684744.81898314 -30776490.45833683 0 -30776490.45833683 73275959.193187714 0 0 0 0 -92240729.41708982 -2861785.104393959 0 -2861785.104393959 -340210658.21732712 0 0 0 0 146869247.59969616 209712805.02230453 0 209712805.02230453 79645319.583231807 0 0 0 0 -15849265.61570406 151745028.59024429 0 151745028.59024429 -96546051.509896755 0 0 0 0 -360332838.03062367 -111394112.25976372 0 -111394112.25976372 -52860191.306767941 0 0 0 0 -201476982.9255476 -411590095.52331376 0 -411590095.52331376 -592618180.42276764 0 0 0 0 -629100806.40528297 9549627.4123859406 0 9549627.4123859406 -941601669.00233316 0 0 0 0 -380549602.50161994 -919171255.82998347 0 -919171255.82998347 -1119181905.4073238 0 0 0 0 -112700019.32692337 -495264531.39843369 0 -495264531.39843369 -635068583.16936588 0 0 0 0 16625635.976390839 -616144543.30879402 0 -616144543.30879402 -594477166.05290985 0 0 0 0 -388737245.36672783 -412519794.76312923 0 -412519794.76312923 -186142928.33118057 0 0 0 0 -84445722.972104073 -12689000.306196213 0 -12689000.306196213 -294975751.02981377 0 0 0 0 -133231563.12075925 -136212525.92936325 0 -136212525.92936325 7172156.3624153137 0 0 0 0 -44313959.390884876 -105520139.60469627 0 -105520139.60469627 302363913.60066605 0 0 0 0 172463139.29999328 111163001.83503723 0 111163001.83503723 98496083.596054077 0 0 0 0 56869274.600988865 49449723.852491379 0 49449723.852491379 748516537.39176559 0 0 0 0 270917345.31917763 -118983985.60926056 0 -118983985.60926056 -150051835.92865705 0 0 0 0 -3749807.790719986 -298979070.11993694 0 -298979070.11993694 19035852.699245453 0 0 0 0 643555688.30270338 -110197893.87932873 0 -110197893.87932873 -121816855.93555069 0 0 0 0 -4701213.3821398336 5686742.4290281273 0 5686742.4290281273 -5896120.3806021772 0 0 0 0 126352034.78931808 288030159.20596313 0 288030159.20596313 578660870.53813934 0 0 0 0 -31255978.376615524 14716520.211730003 0 14716520.211730003 81011711.112462997 0 0 0 0 244053609.64968491 323328182.73864937 0 323328182.73864937 519005788.22745132 0 0 0 0 -26821.095570765436 209362.3091621967 0 209362.3091621967 -493994.8742724536 0 0 0 0 -20501586.086093307 -37508672.577430725 0 -37508672.577430725 -516028.72651290894 0 0 0 0 -935189.81244805176 91522.564988356549 0 91522.564988356549 -3950020.2976564621 0 0 0 0 13646375.954805851 -21308376.302535057 0 -21308376.302535057 -48237383.591509223 0 0 0 0 -344159.65626001358 1879487.2353482246 0 1879487.2353482246 -9554668.3535089493 0 0 0 0 -137855457.47009122 23049129.230228424 0 23049129.230228424 337840855.4462471 0 0 0 0 -53167054.446441174 317178927.22537613 0 317178927.22537613 442162949.00208855 0 0 0 0 -365094.055522813 5391540.2568774531 0 5391540.2568774531 -6196261.1132504521 0 0 0 0 -394574366.67273712 -390123549.5180645 0 -390123549.5180645 843614574.86449909 0 0 0 0 -1711949.8498928323 -288886.52653750312 0 -288886.52653750312 -292791.5471815099 0 0 0 0 -696576806.68420076 -216898671.94999552 0 -216898671.94999552 -1282439885.4156036 0 0 0 0 11171351.434420586 -112416279.58702469 0 -112416279.58702469 -2298119220.0162888 0 0 0 0 -161208848.6267643 -431887349.17994118 0 -431887349.17994118 -2863827017.0434589 0 0 0 0 -276081177.01555634 318871597.27558899 0 318871597.27558899 -386757622.31283277 0 0 0 0 -205681811.22081757 -785769667.70102692 0 -785769667.70102692 -2693309713.693119 0 0 0 0 -1430453.2178632654 -166254.7528579291 0 -166254.7528579291 224213.08260615543 0 0 0 0 157360695.8818264 -400190521.21455383 0 -400190521.21455383 -1871927631.1292648 0 0 0 0 -507035054.78411102 -770136334.12548447 0 -770136334.12548447 -1687515762.4316254 0 0 0 0 63836767.916014194 198974621.35026813 0 198974621.35026813 -1372121507.1655045 0 0 0 0 -107229080.92964935 473504547.39491272 0 473504547.39491272 -1437289136.0927007 0 0 0 0 -247930875.33972931 338948887.01708603 0 338948887.01708603 -1304158431.1798096 0 0 0 0 -190582498.64504242 658413389.94325256 0 658413389.94325256 -1180489306.0539474 0 0 0 0 -275461100.56650066 422844757.60025024 0 422844757.60025024 -854529916.9190979 0 0 0 0 -237475237.78695488 -40514634.691093445 0 -40514634.691093445 -958752134.53183699 0 0 0 0 -173002986.81121254 30723742.711874008 0 30723742.711874008 1012826682.9532394 0 0 0 0 -7899218.5370451398 5109747.5730616748 0 5109747.5730616748 -3013001.4831663966 0 0 0 0 -213432284.02863383 579042348.62262845 0 579042348.62262845 -421395125.31671143 0 0 0 0 270142142.88896084 -447664813.39557362 0 -447664813.39557362 -550843351.28155899 0 0 0 0 -205406821.35993385 -243063478.05351639 0 -243063478.05351639 67765824.365686417 0 0 0 0 -197642354.6799221 -877718348.95592499 0 -877718348.95592499 -1145924661.1532056 0 0 0 0 -432226091.15049744 66859417.819830894 0 66859417.819830894 -1006316500.6039238 0 0 0 0 -134411530.1786232 -560608646.5938549 0 -560608646.5938549 -507291622.7008667 0 0 0 0 -147472454.83346939 -567580215.09581947 0 -567580215.09581947 -503694371.92608261 0 0 0 0 -139251538.04565716 -572460073.64821053 0 -572460073.64821053 -364247797.83784389 0 0 0 0 -74079499.768197536 -569515819.20304871 0 -569515819.20304871 -561369998.87087822 0 0 0 0 7976572.1353168488 -261878680.00512695 0 -261878680.00512695 -751668327.15864658 0 0 0 0 -333774923.63739491 -392303250.97891808 0 -392303250.97891808 -186407154.8930397 0 0 0 0 -10776164.752391815 -164508383.52039719 0 -164508383.52039719 -302926554.23573208 0 0 0 0 -55188567.735273361 -154248869.04544449 0 -154248869.04544449 -186159054.7191391 0 0 0 0 -616217042.97893238 -820756965.47598934 0 -820756965.47598934 66337168.548801422 0 0 0 0 -128138386.23617363 -239357474.86893272 0 -239357474.86893272 -73476859.033714294 0 0 0 0 -128468449.83541203 -254555149.78093529 0 -254555149.78093529 106016034.28784943 0 0 0 0 210104995.49409199 -269746943.42095757 0 -269746943.42095757 63758919.928310394 0 0 0 0 92623363.500320435 -11178445.241373062 0 -11178445.241373062 287475919.6363163 0 0 0 0 -5310439.9484665394 -298667942.08202875 0 -298667942.08202875 59943347.81495285 0 0 0 0 27167968.69890976 -106610804.95881081 0 -106610804.95881081 -105383138.67593765 0 0 0 0 -27798874.325622559 -105467437.72161484 0 -105467437.72161484 -101283236.81930637 0 0 0 0 -48992781.723293304 -79051962.188329697 0 -79051962.188329697 -134052137.72003365 0 0 0 0 3061890.6999111176 -3279039.2608547211 0 -3279039.2608547211 -4973979.3672704697 0 0 0 0 -7223008.5215110779 -31412600.432861805 0 -31412600.432861805 -108290541.24370193 0 0 0 0 2437168.1644924246 -1330415.4604856046 0 -1330415.4604856046 -1366855.3944801018 0 0 0 0 2351823.9359147334 -2856150.9961523386 0 -2856150.9961523386 -3892747.5856924318 0 0 0 0 37558998.845928192 -60661045.457061768 0 -60661045.457061768 -194413444.85051119 0 0 0 0 602349.61834907532 -741531.4898891449 0 -741531.4898891449 -2340983.2401885986 0 0 0 0 -25747812.718220711 9628898.6013441086 0 9628898.6013441086 29925572.239589691 0 0 0 0 2307215.2869796753 -1117018.2553987503 0 -1117018.2553987503 -3067917.7012090683 0 0 0 0 1691479.8141593933 -443122.57706546783 0 -443122.57706546783 -3620555.61176157 0 0 0 0 1976578.0367711373 -3433044.9745440837 0 -3433044.9745440837 -2082434.0779200839 0 0 0 0 31242930.746708155 52809868.809384704 0 52809868.809384704 -330311026.69448662 0 0 0 0 -36869938.63227272 -123390020.24811935 0 -123390020.24811935 -226340099.46696472 0 0 0 0 -3807958.398311615 -125018352.50078154 0 -125018352.50078154 -232764230.42527771 0 0 0 0 1845866.7724070111 -705709.40992983617 0 -705709.40992983617 -2994346.3562989347 0 0 0 0 950639.12742614746 314977.32397460938 0 314977.32397460938 -6270266.0133514404 0 0 0 0 -46703906.203680038 37683598.379981995 0 37683598.379981995 -76565467.30985117 0 0 0 0 582253.84548377991 -379185.48662948608 0 -379185.48662948608 -5314012.3367700577 0 0 0 0 3249142.9708152208 1624270.8732612431 0 1624270.8732612431 -504588.07504728483 0 0 0 0 121108040.62741661 49448380.955453992 0 49448380.955453992 20805017.022086143 0 0 0 0 -1945111.7769422531 -91663419.75284481 0 -91663419.75284481 -216545841.76588774 0 0 0 0 -3865420.2532619126 -3971051.0231474331 0 -3971051.0231474331 -289689.81909885164 0 0 0 0 -10545127.320663452 847461.37810850143 0 847461.37810850143 23052434.651276588 0 0 0 0 1738349.8027314572 456943.32609314122 0 456943.32609314122 -1781281.4477639869 0 0 0 0 14827110.457092285 2693274.6006817818 0 2693274.6006817818 -22318894.815336227 0 0 0 0 13218862.812328339 -10596156.768312693 0 -10596156.768312693 -32835538.646848083 0 0 0 0 9102122.9918708801 8321569.168618679 0 8321569.168618679 -27092947.123588085 0 0 0 0 3218153.7818145752 -3412184.7617025375 0 -3412184.7617025375 7227914.9014215469 0 0 0 0 832344.12190951034 -343615.85928803985 0 -343615.85928803985 -561191.12249999237 0 0 0 0 13410889.692296982 6984545.473213315 0 6984545.473213315 -49106650.745362759 0 0 0 0 -4793200.8863067627 644762.90512537956 0 644762.90512537956 -10080976.387622356 0 0 0 0 8942158.8199834824 -6411514.2944612503 0 -6411514.2944612503 -18231664.910503387 0 0 0 0 11277794.944511414 -17458908.666049957 0 -17458908.666049957 32107263.238883972 0 0 0 0 997902.1783864107 -530665.24329081236 0 -530665.24329081236 2644381.3177599367 0 0 0 0 -762708.26390427444 -606584.82722985675 0 -606584.82722985675 2464302.6153532043 0 0 0 0 -2017874.7498855591 42753673.72134757 0 42753673.72134757 -55109900.964104414 0 0 0 0 -728846.46300983429 42537674.972837806 0 42537674.972837806 -55769829.834733486 0 0 0 0 20176934.389427185 53269824.496740341 0 53269824.496740341 -124715232.5865612 0 0 0 0 44541622.6015625 42491093.795966268 0 42491093.795966268 -142566107.17915958 0 0 0 0 27950242.699627876 39898075.204390407 0 39898075.204390407 -107641086.74871254 0 0 0 0 118286371.16142368 283523.68673691154 0 283523.68673691154 -360082291.7784059 0 0 0 0 14790360.081096649 -13971422.256231785 0 -13971422.256231785 -65153830.120883465 0 0 0 0 54844074.217763901 29061343.596887231 0 29061343.596887231 -160767153.91040516 0 0 0 0 54725838.285755157 32118198.570868134 0 32118198.570868134 -132943298.29552662 0 0 0 0 14468906.200176239 -52709838.143360496 0 -52709838.143360496 -139867553.08774996 0 0 0 0 1217675.2847576141 -1421016.4413504601 0 -1421016.4413504601 -1760824.8725242615 0 0 0 0 1228818.1623306274 -3027696.0249919891 0 -3027696.0249919891 3346418.125399828 0 0 0 0 522557.21827298403 -106076.47053172538 0 -106076.47053172538 -853507.88018797454 0 0 0 0 558014.5603427887 -2289277.2112667561 0 -2289277.2112667561 9086574.7624082565 0 0 0 0 872736.30495643616 -5463046.9351115227 0 -5463046.9351115227 5249805.6432771683 0 0 0 0 -17898279.195389748 4403177.0415518582 0 4403177.0415518582 -28667458.475349903 0 0 0 0 437754.77346420288 -5828386.0217137337 0 -5828386.0217137337 7968957.0284244418 0 0 0 0 -397453.28032010514 -171411.88121323683 0 -171411.88121323683 908900.8886708708 0 0 0 0 -35260433.933427811 89713790.7711896 0 89713790.7711896 -118288184.15514874 0 0 0 0 -93245343.623273849 48318138.36533916 0 48318138.36533916 -22335162.60356608 0 0 0 0 -40236666.484083176 -18202524.343056381 0 -18202524.343056381 20170388.916930199 0 0 0 0 -46685614.083417416 -65751376.736313164 0 -65751376.736313164 -11909472.471783161 0 0 0 0 20385218.472326279 -9152900.5708155632 0 -9152900.5708155632 -20737904.695953369 0 0 0 0 1443462.6787222517 -1814473.2896542856 0 -1814473.2896542856 -3406623.7942745779 0 0 0 0 -79930646.642419815 -31233163.881241798 0 -31233163.881241798 -20697208.208090782 0 0 0 0 -212448463.53953838 -160917981.67964396 0 -160917981.67964396 -135865743.2370441 0 0 0 0 537619.04851848609 -788354.77845939854 0 -788354.77845939854 -1266010.7724417804 0 0 0 0 -92526334.877438545 195201295.04296196 0 195201295.04296196 -214376267.82330656 0 0 0 0 -193897066.37535667 96886899.491773278 0 96886899.491773278 -55576271.200839728 0 0 0 0 -20480232.617476463 -101156359.94175541 0 -101156359.94175541 -227300951.32830667 0 0 0 0 3728326.8404502869 -49370397.582481205 0 -49370397.582481205 -379796758.39808738 0 0 0 0 -59018654.491159439 155368099.52357697 0 155368099.52357697 -266895424.826159 0 0 0 0 -67782144.69562149 -4301161.1723413467 0 -4301161.1723413467 -27749746.89478159 0 0 0 0 -13480359.286383629 85954320.84334904 0 85954320.84334904 -120482737.81299639 0 0 0 0 25607091.234959602 39886211.426300645 0 39886211.426300645 -134573534.5534544 0 0 0 0 -230759321.64105606 91826138.472299099 0 91826138.472299099 -81150293.649962902 0 0 0 0 -197039068.33432579 -80710605.383706242 0 -80710605.383706242 -4856565.3642663956 0 0 0 0 280282.86117076874 -78600700.63840127 0 -78600700.63840127 -57638420.995453596 0 0 0 0 -37857181.831492662 -52820102.746792555 0 -52820102.746792555 -64460264.495038986 0 0 0 0 -10444972.178356171 -4536575.9569969177 0 -4536575.9569969177 -34178616.870969296 0 0 0 0 -9190250.7061579227 46983012.313141704 0 46983012.313141704 -40255667.735117912 0 0 0 0 -5761938.7058353424 110797707.74342203 0 110797707.74342203 -122356190.3928709 0 0 0 0 -68330604.244959831 227745038.4576962 0 227745038.4576962 -306663843.81833649 0 0 0 0 870476.59753119014 -1052533.8726821521 0 -1052533.8726821521 -668448.84114901442 0 0 0 0 -3223733.8180675507 -6744020.1891641617 0 -6744020.1891641617 1249337.2632446289 0 0 0 0 47317635.623835564 172634881.1704545 0 172634881.1704545 -115581881.24218369 0 0 0 0 -603206.45351530844 -697773.52386197448 0 -697773.52386197448 118199.58833843283 0 0 0 0 -23953147.471376419 182117854.31254411 0 182117854.31254411 -150889518.01099586 0 0 0 0 16603678.512033463 -145984553.83165121 0 -145984553.83165121 75706106.822106123 0 0 0 0 39457069.963306427 29139394.781988859 0 29139394.781988859 -27973802.991625786 0 0 0 0 -996449.80389165366 -1224453.7001011707 0 -1224453.7001011707 81235.070576770464 0 0 0 0 120901605.16323662 -56332759.958508015 0 -56332759.958508015 -44916540.601413965 0 0 0 0 27969863.641664505 96215681.428974152 0 96215681.428974152 -170551848.81111622 0 0 0 0 -166221927.13121986 -14144209.826177597 0 -14144209.826177597 79360442.193794727 0 0 0 0 192339364.65818548 -88203328.247026265 0 -88203328.247026265 -115730207.17152548 0 0 0 0 36138580.097450256 81036700.859924257 0 81036700.859924257 -331755144.35120803 0 0 0 0 41248652.230476379 22454995.605109364 0 22454995.605109364 -50860948.826426588 0 0 0 0 20231983.314062119 94891770.91546008 0 94891770.91546008 -170943638.55807376 0 0 0 0 20526122.131118774 91036558.934910804 0 91036558.934910804 -131904722.1650508 0 0 0 0 40110479.773485184 126818594.54723114 0 126818594.54723114 -136101693.90231168 0 0 0 0 31736819.149606705 161373892.48813671 0 161373892.48813671 -249676443.78623921 0 0 0 0 214004650.10368013 -119638559.29408562 0 -119638559.29408562 -97943061.50755477 0 0 0 0 -587851.15804802207 -692103.42685716832 0 -692103.42685716832 146297.00969877385 0 0 0 0 162181474.27391505 -8319121.7083986253 0 -8319121.7083986253 -264625246.10831544 0 0 0 0 21994131.344768435 55126462.903830953 0 55126462.903830953 -131885247.38696194 0 0 0 0 -84598747.572689533 60927942.965149403 0 60927942.965149403 -78151891.142167091 0 0 0 0 28394175.195475578 9062268.3665078878 0 9062268.3665078878 -80052033.992535591 0 0 0 0 -15415876.681326866 36231985.953229725 0 36231985.953229725 -27400129.184861183 0 0 0 0 -23447605.591390252 68425210.573320985 0 68425210.573320985 -98255742.480270386 0 0 0 0 -118412484.51805329 68003245.361491203 0 68003245.361491203 -39150101.38965416 0 0 0 0 7357259.2040281296 94646228.393280983 0 94646228.393280983 -47933289.946577191 0 0 0 0 66828356.658899069 84804926.916674197 0 84804926.916674197 5013332.5858941078 0 0 0 0 45290574.556174278 -35257596.733578444 0 -35257596.733578444 72414133.660283089 0 0 0 0 47484231.657984734 28762785.953601837 0 28762785.953601837 -94387430.302336454 0 0 0 0 -159293962.21432185 70044834.149911046 0 70044834.149911046 15629272.281676292 0 0 0 0 -159988146.26893571 60882185.117263995 0 60882185.117263995 -93891840.563025236 0 0 0 0 -84468248.883748531 60502939.81092906 0 60502939.81092906 -131218300.70897055 0 0 0 0 -34163103.960444927 -6800804.9274036884 0 -6800804.9274036884 8533691.7620897293 0 0 0 0 -150918575.5273447 118780765.40489531 0 118780765.40489531 -84959751.149824142 0 0 0 0 -700525.30863000755 -1145548.4018825756 0 -1145548.4018825756 909249.72750560706 0 0 0 0 49579142.005420133 162210216.40336025 0 162210216.40336025 331509619.06529236 0 0 0 0 45118226.510839105 -7556177.9528894424 0 -7556177.9528894424 -37901411.063547134 0 0 0 0 -427135.53399209899 -3816978.7484540194 0 -3816978.7484540194 -15775638.345067225 0 0 0 0 8567251.6305860281 -58183450.243262768 0 -58183450.243262768 -104188247.22651482 0 0 0 0 -2024714.9309361705 -5112066.4337008493 0 -5112066.4337008493 -7256833.7644126955 0 0 0 0 1446819.2095936537 -1685879.081908226 0 -1685879.081908226 -4825339.9704036713 0 0 0 0 -13143726.74077785 -28301459.639190674 0 -28301459.639190674 18320703.375617027 0 0 0 0 -1755531.9676632558 -726918.44239319768 0 -726918.44239319768 -10483139.144846756 0 0 0 0 -1869480.6450266838 -6468540.3332562447 0 -6468540.3332562447 15284906.018330574 0 0 0 0 -1939908.0368081126 -3466457.9912645603 0 -3466457.9912645603 2694627.7364065708 0 0 0 0 1770490.2967226505 -4257223.9685707092 0 -4257223.9685707092 2545671.1409931183 0 0 0 0 -1303214.5741779583 -199830.25293627102 0 -199830.25293627102 -8537154.6423078142 0 0 0 0 -1786412.2563531399 -505862.65116596222 0 -505862.65116596222 -6680845.3364105225 0 0 0 0 -467919.96489429474 -1436626.2582230568 0 -1436626.2582230568 -6027011.0862617493 0 0 0 0 -2439116.1992866695 -12210156.359050155 0 -12210156.359050155 -4995683.2503585815 0 0 0 0 -164170.72718505561 -362881.73904705048 0 -362881.73904705048 -5735599.9283485413 0 0 0 0 8416279.2462291718 66258362.158539772 0 66258362.158539772 -103807093.59828186 0 0 0 0 -10934711.035598755 69941093.491038322 0 69941093.491038322 -52986286.315392494 0 0 0 0 31182750.086914062 38264637.848546982 0 38264637.848546982 -54188662.309404373 0 0 0 0 -42144495.902231216 65602252.569820404 0 65602252.569820404 -55453448.897109985 0 0 0 0 -57659283.256099224 64910371.706943035 0 64910371.706943035 -48920839.865611553 0 0 0 0 -42268088.482653618 65609212.342854023 0 65609212.342854023 -50846793.290782928 0 0 0 0 -43494821.214618683 49428105.216479301 0 49428105.216479301 -63177747.020828247 0 0 0 0 -7309563.1605129242 72612687.702768326 0 72612687.702768326 -56264595.37175256 0 0 0 0 -12558362.410621643 18987320.108557224 0 18987320.108557224 -47316277.860494137 0 0 0 0 -1150951.2581618233 119481.00261546019 0 119481.00261546019 -2338491.3887534752 0 0 0 0 -729489.8548784256 128250.51828670502 0 128250.51828670502 -453673.90399360657 0 0 0 0 -890562.63168336102 -1725627.3039194457 0 -1725627.3039194457 -2285393.8569449168 0 0 0 0 1257584.8992496836 -357354.26178089576 0 -357354.26178089576 -5541244.8989252802 0 0 0 0 4757775.9017925262 -8506017.5924358368 0 -8506017.5924358368 -4836865.6857213974 0 0 0 0 23947759.765956879 -1058976.2392644882 0 -1058976.2392644882 -210987479.73120499 0 0 0 0 1077641.1948846965 -401918.76512714894 0 -401918.76512714894 -3469159.9596468066 0 0 0 0 925341.13576658489 767213.71578047634 0 767213.71578047634 -2229663.900720506 0 0 0 0 -6740742.6423559189 14777345.739981651 0 14777345.739981651 -106688950.42334506 0 0 0 0 2722462.9929046631 -3323170.4055480957 0 -3323170.4055480957 -1264859.3722572327 0 0 0 0 168196.39914912917 97193.899652200402 0 97193.899652200402 -255192.80130413268 0 0 0 0 1118539.7271642466 1096888.7716005184 0 1096888.7716005184 -3410026.4068236882 0 0 0 0 1594847.302447319 1331217.0110883713 0 1331217.0110883713 -2474900.0734357834 0 0 0 0 7419842.7214813232 -3369855.1612186432 0 -3369855.1612186432 -3162850.305346489 0 0 0 0 1709842.0580267906 1125699.720500946 0 1125699.720500946 -3685063.5409221649 0 0 0 0 1004465.713271189 976603.30501532136 0 976603.30501532136 -4811721.3742129598 0 0 0 0 1889436.5945615768 1806097.8429355621 0 1806097.8429355621 -1919134.5706176758 0 0 0 0 2805413.3892636178 2724948.9011019324 0 2724948.9011019324 -8918240.5205470789 0 0 0 0 1878446.4705877304 1032386.249048233 0 1032386.249048233 -3814975.6582183838 0 0 0 0 638571.64534497261 -887941.71302652359 0 -887941.71302652359 -8845314.8915691376 0 0 0 0 859844.92818080354 1017438.5004734783 0 1017438.5004734783 -4471852.261553172 0 0 0 0 88084.823589920998 9152142.794074297 0 9152142.794074297 11549382.982236862 0 0 0 0 2219243.4135311842 7675267.9790387154 0 7675267.9790387154 7215510.3230695724 0 0 0 0 1147051.9008543491 3332003.5006067753 0 3332003.5006067753 -1976196.1921882629 0 0 0 0 1571859.3697376251 2765677.893517971 0 2765677.893517971 -1572687.2075097561 0 0 0 0 167288.96562281228 2289705.8928141049 0 2289705.8928141049 -212847.36827318743 0 0 0 0 -245111.0695713493 4326893.6839712709 0 4326893.6839712709 595253.65748552792 0 0 0 0 2535595.3524303436 -2298040.1246032715 0 -2298040.1246032715 -8967295.7273006439 0 0 0 0 -214520.28204497992 -2545515.438534345 0 -2545515.438534345 -9683271.831760997 0 0 0 0 12353729.589962006 -9107182.7430076599 0 -9107182.7430076599 -50441831.595077515 0 0 0 0 -754330.98265886307 -1764623.8168087006 0 -1764623.8168087006 -5537474.0648572445 0 0 0 0 1018979.5591932796 -1275115.5907802973 0 -1275115.5907802973 -8045955.3038438596 0 0 0 0 749683.02272407443 2555355.0694893822 0 2555355.0694893822 -36094.396762691438 0 0 0 0 -793379.29956197739 -2269801.9750022888 0 -2269801.9750022888 -8207656.9069824219 0 0 0 0 267851.5303735733 -1719060.8374786377 0 -1719060.8374786377 -8660067.4325184822 0 0 0 0 -73095.639051762642 -341860.43039815594 0 -341860.43039815594 -7977659.3278563982 0 0 0 0 1177711.6786477566 663944.26071500778 0 663944.26071500778 -8878625.2475204468 0 0 0 0 -2600092.0038001537 6037781.7700476646 0 6037781.7700476646 9159578.1082463264 0 0 0 0 -1939189.0959708691 41433204.240699768 0 41433204.240699768 -21144047.798929214 0 0 0 0 2610062.0530101345 2108613.9367423235 0 2108613.9367423235 -11968055.642981716 0 0 0 0 1050634.1602625847 -38843.638736724854 0 -38843.638736724854 -8765881.1761474609 0 0 0 0 10020891.604418755 23987217.840209007 0 23987217.840209007 3885907.6168384552 0 0 0 0 3119167.3137674332 3560003.2830085754 0 3560003.2830085754 -1413328.1434593201 0 0 0 0 653251.23793227307 3405237.7423740388 0 3405237.7423740388 -2836484.5268448088 0 0 0 0 1865168.193500485 1559597.2523499127 0 1559597.2523499127 -8362739.9614771381 0 0 0 0 3005740.0430246736 -167176.95881762961 0 -167176.95881762961 -20786722.601749498 0 0 0 0 13704233.325526685 2994078.9938194565 0 2994078.9938194565 14643956.054199219 0 0 0 0 2997257.7945547104 3524988.9928092957 0 3524988.9928092957 -1159930.8927154541 0 0 0 0 1185499.7593392981 -1539547.1782616228 0 -1539547.1782616228 -14442718.020884022 0 0 0 0 104598897.68519831 27157776.162479401 0 27157776.162479401 -66745868.265594482 0 0 0 0 2118162.7974453783 -3194489.8917464735 0 -3194489.8917464735 -21733462.074118499 0 0 0 0 806250.70847660373 4345602.4002070576 0 4345602.4002070576 84996.624185416847 0 0 0 0 45943481.871974647 12013029.741198808 0 12013029.741198808 -34789474.010053635 0 0 0 0 72442249.950836182 -11733229.055815697 0 -11733229.055815697 30237191.839776993 0 0 0 0 35543769.858792305 32812998.538469315 0 32812998.538469315 -59119312.744661331 0 0 0 0 35679615.234223366 29784884.481702805 0 29784884.481702805 -29531541.582211971 0 0 0 0 52648617.971795559 38165551.128107071 0 38165551.128107071 -112662674.87605667 0 0 0 0 -22312823.270352304 25575102.823364556 0 25575102.823364556 -41979177.895130157 0 0 0 0 -18909914.647057176 54796485.668505371 0 54796485.668505371 -17729139.121171951 0 0 0 0 53225863.448794842 6898451.089430809 0 6898451.089430809 28718899.674511909 0 0 0 0 85166870.059594154 64731458.357316971 0 64731458.357316971 -41835753.308114052 0 0 0 0 21637968.64131546 12003389.773535728 0 12003389.773535728 -21300246.922314644 0 0 0 0 51151961.048765182 -22201077.948099136 0 -22201077.948099136 -38486172.049190521 0 0 0 0 1200972.8038337487 -652530.84713972884 0 -652530.84713972884 -1871679.1641261778 0 0 0 0 -510886.2909226449 -732634.71428898117 0 -732634.71428898117 -2020419.4988201419 0 0 0 0 19935491.683493614 12669781.110148311 0 12669781.110148311 15820308.542256355 0 0 0 0 3086119.478134538 904700.01247400965 0 904700.01247400965 -4726174.0396050103 0 0 0 0 932094.73989677429 1209018.396607399 0 1209018.396607399 -427898.16976928711 0 0 0 0 -1017380.4040890912 1773439.7889055547 0 1773439.7889055547 -25954.844086446799 0 0 0 0 16624063.587172508 -10752231.417488337 0 -10752231.417488337 6008179.992565155 0 0 0 0 970361.18224038696 3290300.7146044811 0 3290300.7146044811 -1341165.7637732828 0 0 0 0 -51598158.548271179 22147050.189323425 0 22147050.189323425 -4239153.5247144699 0 0 0 0 -13757766.328548908 14742345.536503792 0 14742345.536503792 -12131122.879933357 0 0 0 0 1096388.7291431427 5638253.0325162411 0 5638253.0325162411 5515996.0930633545 0 0 0 0 463101.13000835164 1471004.1427672417 0 1471004.1427672417 -119832.90187168343 0 0 0 0 -124938063.91784716 61110307.850440025 0 61110307.850440025 -6125030.5208775997 0 0 0 0 -4676523.7844383717 -12992069.167564392 0 -12992069.167564392 -18041193.430324554 0 0 0 0 5679322.7205958366 14178245.419233322 0 14178245.419233322 40783496.153524399 0 0 0 0 -59898619.306811333 1714385.2513122559 0 1714385.2513122559 47846514.669980049 0 0 0 0 -383219089.93612862 -237646942.62850475 0 -237646942.62850475 -122406308.12206459 0 0 0 0 -702284.72845507343 -762935.84529875964 0 -762935.84529875964 -260447.80558287445 0 0 0 0 -265324102.09338284 -172855658.47930336 0 -172855658.47930336 -56541598.961803436 0 0 0 0 39237473.31581974 33842638.136258602 0 33842638.136258602 -32450903.888638973 0 0 0 0 -107244171.02502441 13416132.429363251 0 13416132.429363251 27355306.252844334 0 0 0 0 -78712761.938528061 -9631194.6976778507 0 -9631194.6976778507 -8693526.065220356 0 0 0 0 -37262246.169841766 -11790746.593753934 0 -11790746.593753934 -16948959.760106444 0 0 0 0 -58172710.965334415 -68459173.856252789 0 -68459173.856252789 -35822479.793997765 0 0 0 0 13838677.218917847 -4133648.4816298485 0 -4133648.4816298485 -21359126.835350513 0 0 0 0 -98039210.219141006 -104264438.1918869 0 -104264438.1918869 -67945860.402652904 0 0 0 0 67165824.506649017 -38814555.992813945 0 -38814555.992813945 -66847934.124343008 0 0 0 0 39835737.15104866 -97810429.546977639 0 -97810429.546977639 -191397263.73727429 0 0 0 0 39301219.754886627 -206116519.99281788 0 -206116519.99281788 -96742054.685127258 0 0 0 0 -98870789.952156067 -159104781.32082558 0 -159104781.32082558 -109201571.57950211 0 0 0 0 -81867030.93217659 -125312792.95641899 0 -125312792.95641899 -255045042.48036766 0 0 0 0 -93652420.671022892 -137014514.69155693 0 -137014514.69155693 -83717784.018447876 0 0 0 0 -114027371.1771965 132433083.22070789 0 132433083.22070789 -339829644.73368645 0 0 0 0 -116550503.6076355 166125810.06062698 0 166125810.06062698 368225971.58022881 0 0 0 0 -338302686.01307297 -146979030.55039787 0 -146979030.55039787 69541417.307854652 0 0 0 0 -221187718.48570633 -594332979.587183 0 -594332979.587183 1243979489.4969287 0 0 0 0 209478895.71000099 -650332652.9473474 0 -650332652.9473474 212406484.60874939 0 0 0 0 152663504.42974472 -420054013.95143747 0 -420054013.95143747 -294014696.12646198 0 0 0 0 153231137.40542603 -385786814.66967535 0 -385786814.66967535 -105682592.808218 0 0 0 0 -89872005.961418152 -293804535.27727699 0 -293804535.27727699 153043933.40536594 0 0 0 0 219235330.68790555 -504691908.47266173 0 -504691908.47266173 -325822286.50899518 0 0 0 0 -186098709.72917557 143922640.34852424 0 143922640.34852424 57007570.185978234 0 0 0 0 227124.28096268652 432339.96354869008 0 432339.96354869008 -3080829.730050405 0 0 0 0 2746144.1202545166 54554864.168423295 0 54554864.168423295 -94074516.118693352 0 0 0 0 7604373.8168106079 11375091.405501962 0 11375091.405501962 -53323811.765919924 0 0 0 0 -2894195.7537612915 54105251.002839208 0 54105251.002839208 -93428455.167814136 0 0 0 0 -3744086.2047576904 65470482.964169383 0 65470482.964169383 -66111002.430157661 0 0 0 0 5586011.8201217651 12241608.243963361 0 12241608.243963361 -5032417.4795470024 0 0 0 0 -13759582.559120178 112064413.62797023 0 112064413.62797023 -163072717.22505021 0 0 0 0 18641973.385189056 102498712.84084302 0 102498712.84084302 -227537024.34518135 0 0 0 0 -25735201.692893982 653710285.77631319 0 653710285.77631319 850531828.3561095 0 0 0 0 42367392.650665283 128351815.55739617 0 128351815.55739617 -232806375.83727169 0 0 0 0 101693921.0747757 200865524.17004991 0 200865524.17004991 -402409786.90424663 0 0 0 0 263249528.82866669 -320722245.1740694 0 -320722245.1740694 -821102863.89926291 0 0 0 0 292116635.30901337 10632965.924226999 0 10632965.924226999 -1087237889.6471958 0 0 0 0 44871975.910491943 -239751026.10468793 0 -239751026.10468793 -250885942.73932362 0 0 0 0 240619967.31459808 -134045735.97466908 0 -134045735.97466908 -200548542.4656305 0 0 0 0 244415847.77586746 -184414448.73757088 0 -184414448.73757088 -615792316.60501313 0 0 0 0 273324650.5978508 -399156514.00203276 0 -399156514.00203276 -311619781.93976188 0 0 0 0 300319735.10228729 -95101216.900168911 0 -95101216.900168911 -498852195.12645018 0 0 0 0 -89081074.543599129 65252968.791460514 0 65252968.791460514 82037306.273736954 0 0 0 0 -696289.44122430682 6264509.6098371781 0 6264509.6098371781 -2772811.6057147323 0 0 0 0 78432474.048459053 205183409.80832142 0 205183409.80832142 19982126.572066069 0 0 0 0 204226777.67053604 353245570.74553418 0 353245570.74553418 -568652160.26091146 0 0 0 0 -2466521.2126522064 43201179.432483196 0 43201179.432483196 55187264.830682755 0 0 0 0 -374630082.95201206 -90893097.937753439 0 -90893097.937753439 284693046.0530293 0 0 0 0 205651636.47562408 363203042.70993328 0 363203042.70993328 -830026742.77599943 0 0 0 0 2139471.512714386 -3462760.5660843849 0 -3462760.5660843849 -47695688.410508156 0 0 0 0 30778945.766066074 48310307.641615272 0 48310307.641615272 -9434067.4751434326 0 0 0 0 22191826.534035206 -1669508.5191384852 0 -1669508.5191384852 -76829430.288006783 0 0 0 0 -45255630.30922699 -104180489.11017895 0 -104180489.11017895 -39199066.566913605 0 0 0 0 53232860.0716362 -7603950.832447052 0 -7603950.832447052 -258236220.85587263 0 0 0 0 161473558.14129066 -37025945.295061111 0 -37025945.295061111 -5497124.5646791458 0 0 0 0 10766.750537278596 2547248.4162066076 0 2547248.4162066076 -1568847.3037531041 0 0 0 0 40072172.131650925 -60022364.793359756 0 -60022364.793359756 -48188070.136872292 0 0 0 0 54744782.102561951 11933029.51202774 0 11933029.51202774 -9520718.2152490616 0 0 0 0 67152036.570390701 -18164718.028424025 0 -18164718.028424025 16471884.815597534 0 0 0 0 -1484657.2072191238 -26885539.501810074 0 -26885539.501810074 79458268.202589035 0 0 0 0 -27037875.287158012 -57131480.665213108 0 -57131480.665213108 58131527.425158501 0 0 0 0 1995065.5968464138 5780828.8585209204 0 5780828.8585209204 -3849983.65150978 0 0 0 0 -102103587.36339378 -221337688.17124939 0 -221337688.17124939 -369113171.0344696 0 0 0 0 -188129486.98665428 -155752793.88598633 0 -155752793.88598633 -150499748.32974648 0 0 0 0 -361115114.1778307 -134527518.3979435 0 -134527518.3979435 -47825539.138996124 0 0 0 0 -202849267.3021698 -198596098.74563217 0 -198596098.74563217 -259404872.24837875 0 0 0 0 -237080683.1631546 -258786175.33556366 0 -258786175.33556366 -261929532.95495617 0 0 0 0 -414943875.09081459 -530701113.4547348 0 -530701113.4547348 -664700709.12064362 0 0 0 0 -46491190.439455032 -181216806.81580734 0 -181216806.81580734 -364165013.73269129 0 0 0 0 -111948548.86337185 -321473650.64268875 0 -321473650.64268875 -645597236.65459442 0 0 0 0 -68027638.992966652 -43375207.435012817 0 -43375207.435012817 -618934504.16647339 0 0 0 0 -20260759.613945007 -124029694.67717266 0 -124029694.67717266 -491689868.11016464 0 0 0 0 -187426392.08607864 -172756741.12746811 0 -172756741.12746811 -554239087.19480228 0 0 0 0 -61539846.107348442 23141115.262717247 0 23141115.262717247 -619966767.02780914 0 0 0 0 -389425588.40577221 114376675.04165459 0 114376675.04165459 -945943714.63864517 0 0 0 0 -36829691.828172684 -312972047.55912495 0 -312972047.55912495 -1437174242.2994423 0 0 0 0 -1673565.9336319482 287756.26238192618 0 287756.26238192618 104601.8909128746 0 0 0 0 -626617861.57110786 -433763623.66177511 0 -433763623.66177511 -592564762.9206543 0 0 0 0 -16521791.163342953 -175300069.45179605 0 -175300069.45179605 -620147741.73117828 0 0 0 0 29262565.020956516 -76200089.487632751 0 -76200089.487632751 -73763542.509162903 0 0 0 0 -228265137.45144463 102909120.367033 0 102909120.367033 92437698.048686028 0 0 0 0 -601435782.08804488 -204450880.52186918 0 -204450880.52186918 -50032943.104972839 0 0 0 0 -190917758.69540596 37414337.304115295 0 37414337.304115295 -27658314.612375498 0 0 0 0 -23213492.084946156 34813690.776966095 0 34813690.776966095 -71577540.801345825 0 0 0 0 -146139415.7451334 -17392934.828699112 0 -17392934.828699112 -23240468.140464783 0 0 0 0 22402864.366847992 -10880928.78090477 0 -10880928.78090477 -9996093.5110778809 0 0 0 0 22679371.807138443 -16971055.723392487 0 -16971055.723392487 -37204946.406443596 0 0 0 0 15926469.933018684 23577966.992488861 0 23577966.992488861 -47735663.684704781 0 0 0 0 25745191.596453428 -8811427.7499885559 0 -8811427.7499885559 -15018813.170398712 0 0 0 0 19281077.906799316 7879089.9489402771 0 7879089.9489402771 7877573.9663619995 0 0 0 0 -7283893.4356043339 -1278410.3443946838 0 -1278410.3443946838 1318599.5149459839 0 0 0 0 1338688.6166007477 -1044928.2880605999 0 -1044928.2880605999 -2233451.5468501113 0 0 0 0 25474497.315916874 -5935569.9996550083 0 -5935569.9996550083 -4755898.9912147522 0 0 0 0 -6831595.941540027 580957.6227548616 0 580957.6227548616 1174679.8163720821 0 0 0 0 22145910.424128771 -13891312.986558914 0 -13891312.986558914 -2822294.117855072 0 0 0 0 -2957900.3049852848 -8759615.513458252 0 -8759615.513458252 15637172.788938522 0 0 0 0 -7985272.5511713028 -56615516.651302338 0 -56615516.651302338 84721277.468168259 0 0 0 0 20987021.947081566 -17300991.195958138 0 -17300991.195958138 -12146348.861869812 0 0 0 0 -4465962.8468559701 257409.44585295767 0 257409.44585295767 419132.29482009821 0 0 0 0 -28600896.384838104 -184026285.47008896 0 -184026285.47008896 -597307608.23412561 0 0 0 0 33136760.842595339 -316658567.70715857 0 -316658567.70715857 -599728098.18663406 0 0 0 0 33305143.719413757 -306362295.14390564 0 -306362295.14390564 -767294049.84211922 0 0 0 0 -66542421.9585495 -386189611.89247894 0 -386189611.89247894 -471542366.38312149 0 0 0 0 -94269936.300323486 -658756512.40426445 0 -658756512.40426445 -538782277.64619064 0 0 0 0 -40369041.259820938 -317276035.08532333 0 -317276035.08532333 -298797549.67868614 0 0 0 0 -30948349.447229385 -46553827.17269516 0 -46553827.17269516 -83300741.246936798 0 0 0 0 23981218.681183815 -72169812.699134827 0 -72169812.699134827 -364269601.66457748 0 0 0 0 -196911467.63648605 -330625606.61789131 0 -330625606.61789131 42563951.662567139 0 0 0 0 -120193285.34792614 -78639553.678239822 0 -78639553.678239822 -53908166.299190521 0 0 0 0 17823072.088989258 16258227.859956741 0 16258227.859956741 -41391521.599590302 0 0 0 0 -3276980.8527024388 352134.8479309082 0 352134.8479309082 -2578837.9053039551 0 0 0 0 -1062072.8249375881 -1305894.6635507615 0 -1305894.6635507615 -2081831.0052062683 0 0 0 0 96767385.07711792 154314239.87656403 0 154314239.87656403 217282108.12995911 0 0 0 0 -1175391.7536088647 947755.12528100982 0 947755.12528100982 903423.67187169567 0 0 0 0 -58288979.048484802 -34740342.61378479 0 -34740342.61378479 27982672.822742462 0 0 0 0 -40982171.615213394 -53438206.438484192 0 -53438206.438484192 -56749057.014099121 0 0 0 0 -1131004247.279397 -1428309146.8671074 0 -1428309146.8671074 -30036269.282287598 0 0 0 0 -258420355.89453316 -492006143.2003212 0 -492006143.2003212 -217746892.07439041 0 0 0 0 -1300768.2295477914 -191897.38092250656 0 -191897.38092250656 1460763.9512538631 0 0 0 0 -475088518.53710651 -24894575.828364849 0 -24894575.828364849 758865603.77143097 0 0 0 0 -104511276.16114187 -644691456.39234591 0 -644691456.39234591 -89324398.282112122 0 0 0 0 -401390963.26540661 160798714.42214012 0 160798714.42214012 540445795.69423676 0 0 0 0 -357206019.40101624 -130798131.25684738 0 -130798131.25684738 831743109.85295486 0 0 0 0 -1521408937.5158749 815050479.65632439 0 815050479.65632439 64103440.361206055 0 0 0 0 76382937.088396072 84991697.511890411 0 84991697.511890411 -7470775.7201919556 0 0 0 0 -6360278.1443595886 -6020661.6553268433 0 -6020661.6553268433 -7121870.2952919006 0 0 0 0 -6421700.668734625 1227208.5914829243 0 1227208.5914829243 -4079261.62081041 0 0 0 0 -5729458.6286211014 -287702171.63537025 0 -287702171.63537025 237711554.82668304 0 0 0 0 -4127026.2313876152 -4304735.317232132 0 -4304735.317232132 -7143526.4238128662 0 0 0 0 -8050179.0968551636 -6779103.7052154541 0 -6779103.7052154541 -6944986.1580047607 0 0 0 0 -6376696.8969688416 -7885377.4320487976 0 -7885377.4320487976 -6248312.6650619507 0 0 0 0 -8047774.6462717056 -6560886.0450401306 0 -6560886.0450401306 -5559990.344833374 0 0 0 0 -13312812.886013031 -6710699.1020126343 0 -6710699.1020126343 -2259729.9542694092 0 0 0 0 -11052419.266667366 -3941020.2976112366 0 -3941020.2976112366 -7021810.6734237671 0 0 0 0 -222029.28889219137 671969.86213186942 0 671969.86213186942 90590.295918644406 0 0 0 0 -7226044.6186599731 -6261555.4372329712 0 -6261555.4372329712 -11248604.402114868 0 0 0 0 -3855023.2715580463 -3197704.8951301575 0 -3197704.8951301575 -9271554.5333099365 0 0 0 0 -4879988.5986378193 20233.151268005371 0 20233.151268005371 -5444131.9842529297 0 0 0 0 -1336932.1596133735 -3380067.9093592651 0 -3380067.9093592651 -3175471.75047547 0 0 0 0 -12708707.729868889 -1600848.8080291748 0 -1600848.8080291748 4256896.4901275635 0 0 0 0 291062.23490487272 -656.13304298184812 0 -656.13304298184812 -253496.78730129823 0 0 0 0 -14726413.731747627 -5237325.7507133484 0 -5237325.7507133484 -2958984.4960327148 0 0 0 0 -13563754.103002548 -7403287.9149475098 0 -7403287.9149475098 -6795732.1727371216 0 0 0 0 -9977611.5390472412 -3988757.8824310303 0 -3988757.8824310303 -4389413.5960617065 0 0 0 0 -13702581.313132286 -4714514.6112289429 0 -4714514.6112289429 -866616.1708984375 0 0 0 0 -12057022.833300591 -2983960.5480079651 0 -2983960.5480079651 -4080335.6746826172 0 0 0 0 -13854747.383419037 -5230748.529510498 0 -5230748.529510498 -3100216.5834503174 0 0 0 0 -13551655.735294342 -4982349.4489746094 0 -4982349.4489746094 -2902798.3532562256 0 0 0 0 -12897018.539628506 -5342319.8409519196 0 -5342319.8409519196 -6361554.7079467773 0 0 0 0 -6311643.9311435446 1602323.0250673294 0 1602323.0250673294 -7317255.2383117676 0 0 0 0 170619.28076213226 -1997261.6583036962 0 -1997261.6583036962 -2670686.8159847967 0 0 0 0 -15270672.915348053 -4381740.903553009 0 -4381740.903553009 -2973725.1079559326 0 0 0 0 -11401368.251721382 -4845638.7982635498 0 -4845638.7982635498 -3552553.2908172607 0 0 0 0 -13077240.16280365 -5697307.9439239502 0 -5697307.9439239502 -3092712.1045799255 0 0 0 0 -5810411.7374382019 -5544494.9816894531 0 -5544494.9816894531 -5269251.2222900391 0 0 0 0 -10381247.427118301 -7474324.4380645752 0 -7474324.4380645752 831875.3592376709 0 0 0 0 -9434942.7114677429 -2285318.2530708313 0 -2285318.2530708313 -6864782.6175842285 0 0 0 0 -12713110.358889639 4056385.1622066498 0 4056385.1622066498 -3452630.9371185303 0 0 0 0 -14616926.993341446 -2790711.6235389709 0 -2790711.6235389709 -6687310.1609039307 0 0 0 0 -10986240.128298044 -425671.98894882202 0 -425671.98894882202 -9235695.1516876221 0 0 0 0 -12949138.238800049 -4035904.2110900879 0 -4035904.2110900879 -15176915.083248796 0 0 0 0 -15618298.56710434 -5751680.7856369019 0 -5751680.7856369019 -6220664.4522476196 0 0 0 0 -13520822.275712013 -2560227.2048339844 0 -2560227.2048339844 -10094500.09324646 0 0 0 0 -17507985.284781456 -2225956.5939788818 0 -2225956.5939788818 -4928328.516242981 0 0 0 0 -12986073.046197891 -4962469.3555072546 0 -4962469.3555072546 -17461459.54498291 0 0 0 0 -14934238.843744278 -9343980.0303993225 0 -9343980.0303993225 7496543.2770805359 0 0 0 0 -15756736.795442581 -6064036.5840492249 0 -6064036.5840492249 -2427555.3518943787 0 0 0 0 -12943255.059434891 -9596060.4012413025 0 -9596060.4012413025 -587927.10842895508 0 0 0 0 -7819786.7502527237 -13798773.140342712 0 -13798773.140342712 -42621928.889518738 0 0 0 0 -6462380.8653717041 -19066635.72000885 0 -19066635.72000885 -39057845.460094452 0 0 0 0 -7935319.0051136017 -17698845.209461212 0 -17698845.209461212 -36151840.443786621 0 0 0 0 -24586149.459181935 -22350226.267691765 0 -22350226.267691765 -30402300.697128296 0 0 0 0 -14138927.438165665 -25799213.921829224 0 -25799213.921829224 -46728292.28635025 0 0 0 0 -3715174.1049995422 -4891987.8792648315 0 -4891987.8792648315 -59759527.40304184 0 0 0 0 -7747724.6589841843 14427237.26351738 0 14427237.26351738 -14399408.7527771 0 0 0 0 -5752183.2608954906 -3603030.7637081146 0 -3603030.7637081146 -28172048.724487305 0 0 0 0 -13749855.945446014 -7407012.4103012085 0 -7407012.4103012085 -17699420.564922333 0 0 0 0 -13937301.558099747 -6613226.8759231567 0 -6613226.8759231567 -15175860.817331139 0 0 0 0 -14422768.903741837 -11725896.740268707 0 -11725896.740268707 -25655519.358428955 0 0 0 0 -14486277.886473656 -7417820.6336135864 0 -7417820.6336135864 -19221313.9453125 0 0 0 0 -19180895.297811568 -143433.71060180664 0 -143433.71060180664 2038516.6967163086 0 0 0 0 -17041638.038651943 -10125748.905273438 0 -10125748.905273438 -14765020.857254028 0 0 0 0 -21628016.170552731 -5423893.5632324219 0 -5423893.5632324219 -3814630.6687240601 0 0 0 0 -16464748.15189743 -19972693.027374268 0 -19972693.027374268 -34825011.339706421 0 0 0 0 -20395827.615880013 -14014621.175281525 0 -14014621.175281525 -24357616.440048218 0 0 0 0 -9174842.036948204 -12025296.290725708 0 -12025296.290725708 -26342556.731742859 0 0 0 0 -10684017.893666267 -23659110.343799591 0 -23659110.343799591 -44094803.062576294 0 0 0 0 -9704048.6854324341 -20879477.126533508 0 -20879477.126533508 -37443118.480667114 0 0 0 0 -27202655.704312965 -24137586.538187027 0 -24137586.538187027 -29834127.277709961 0 0 0 0 -1606751.6962227821 -14735778.611923218 0 -14735778.611923218 -37349876.629043579 0 0 0 0 -5780813.0438015461 -10714035.400279999 0 -10714035.400279999 -38348360.112607956 0 0 0 0 -5064580.3516578674 -8615053.5001373291 0 -8615053.5001373291 -25630743.69543457 0 0 0 0 -11588422.632531166 -17598978.023231506 0 -17598978.023231506 -35796941.184829712 0 0 0 0 -19187251.291093826 -14624757.644294739 0 -14624757.644294739 -19457510.636154175 0 0 0 0 897652.56919844635 -671148.49539186247 0 -671148.49539186247 -6349747.5986876972 0 0 0 0 -241467.74108628533 -11170266.971556997 0 -11170266.971556997 -33386933.813056946 0 0 0 0 -13127708.079423904 -6762075.0264053345 0 -6762075.0264053345 -18150264.763008118 0 0 0 0 3944618.3070384283 -1919384.9246709235 0 -1919384.9246709235 -9113792.5397657733 0 0 0 0 26901069.611361146 -32326715.178527832 0 -32326715.178527832 -6449233.9056625366 0 0 0 0 -12645968.490592957 -9856770.7122192383 0 -9856770.7122192383 -33222581.121248245 0 0 0 0 26432934.645081546 -34591216.147241779 0 -34591216.147241779 2217782.6749725342 0 0 0 0 11155149.149382293 -17313811.671508789 0 -17313811.671508789 -2219359.3419036865 0 0 0 0 19332172.081221074 -33729704.561929703 0 -33729704.561929703 23060939.852806091 0 0 0 0 12848170.347335935 -63010617.338485718 0 -63010617.338485718 9035322.1736221313 0 0 0 0 15410249.341105103 -139032689.00149536 0 -139032689.00149536 -26690170.542327881 0 0 0 0 23696562.911435246 -98844462.863353729 0 -98844462.863353729 99778252.324253082 0 0 0 0 -672662.5319314003 -12704081.950588226 0 -12704081.950588226 58185247.44436264 0 0 0 0 -35060209.705347538 -21081874.341121674 0 -21081874.341121674 -25374516.757698059 0 0 0 0 578560.75221440359 4387.4077225252986 0 4387.4077225252986 -2274253.6731199641 0 0 0 0 34052457.110078692 -34864286.14610672 0 -34864286.14610672 -72553567.969161987 0 0 0 0 -13620597.649615347 -37127259.48714447 0 -37127259.48714447 -74052066.777389526 0 0 0 0 -112963686.84832454 -108025677.77101517 0 -108025677.77101517 -56960830.368995667 0 0 0 0 13643854.819846869 -10291483.636558533 0 -10291483.636558533 -58758302.576660156 0 0 0 0 17980623.617359161 34739134.188854218 0 34739134.188854218 -27847848.839886665 0 0 0 0 638657.46133528766 -810931.81464763731 0 -810931.81464763731 -1241480.2020796835 0 0 0 0 -14883223.597228348 -114437753.34145451 0 -114437753.34145451 -124908342.979599 0 0 0 0 209909613.68108416 -61072881.938934326 0 -61072881.938934326 -165206362.18762207 0 0 0 0 1396563.1092008268 -464119.10291475989 0 -464119.10291475989 -2707303.8654780835 0 0 0 0 -48962827.503123045 -14609679.779323578 0 -14609679.779323578 260821246.16580963 0 0 0 0 -73282574.458117962 -172527167.51383209 0 -172527167.51383209 211499535.07748222 0 0 0 0 -75414554.407761455 22761174.459720373 0 22761174.459720373 41559142.428596497 0 0 0 0 -143351799.32234383 174643681.74650192 0 174643681.74650192 164054719.71059608 0 0 0 0 -102183663.33554614 -122107973.8112402 0 -122107973.8112402 -70181766.773086548 0 0 0 0 -218431741.17308712 -93992491.289474487 0 -93992491.289474487 385765099.83535004 0 0 0 0 2292584.010343466 -1008448.4178629555 0 -1008448.4178629555 -2150307.0724132285 0 0 0 0 15202231.504437685 -16201034.976381302 0 -16201034.976381302 14137991.162496567 0 0 0 0 -7552206.633528024 -13352426.351337433 0 -13352426.351337433 -6394139.8413543701 0 0 0 0 -27176074.383996725 -23746090.688052177 0 -23746090.688052177 -35154515.840774536 0 0 0 0 -57023477.148160696 -27407161.056545258 0 -27407161.056545258 -34867130.220939636 0 0 0 0 1202060.0416329396 -206499.79835971911 0 -206499.79835971911 -1197432.3131952621 0 0 0 0 1143174.8448014259 -4143453.335735321 0 -4143453.335735321 -2243820.5497207642 0 0 0 0 -6436146.7977476567 -9452562.7956953049 0 -9452562.7956953049 -4062017.6294021606 0 0 0 0 1004492.046305883 -2290760.7382764285 0 -2290760.7382764285 -2320679.7448123135 0 0 0 0 37140489.489442825 48160196.327709198 0 48160196.327709198 -7259720.2680587769 0 0 0 0 1971975.1714105264 -555336.50109680276 0 -555336.50109680276 -2514947.5342666786 0 0 0 0 -5182397.2551964521 2971811.3036575317 0 2971811.3036575317 3925569.0056343079 0 0 0 0 43765323.12559855 6840409.8687987328 0 6840409.8687987328 -27105869.507156372 0 0 0 0 -37070036.195527434 -3693672.5038396716 0 -3693672.5038396716 -41095068.999721527 0 0 0 0 -13327544.469783783 -13803399.494529724 0 -13803399.494529724 5067572.0094223022 0 0 0 0 -102824070.41887093 24604739.794788361 0 24604739.794788361 -10867688.938747406 0 0 0 0 -38024120.550515175 18942042.866325378 0 18942042.866325378 -13535373.524459839 0 0 0 0 -174077624.90647602 -20447684.582128525 0 -20447684.582128525 20286411.181674957 0 0 0 0 -142899866.64519024 -34591850.502586365 0 -34591850.502586365 18417109.509204865 0 0 0 0 -65566964.42020607 -16243773.349473953 0 -16243773.349473953 -1892667.8446140289 0 0 0 0 -4346350.022397697 10725687.164179564 0 10725687.164179564 6257368.3958129883 0 0 0 0 -52162018.586447716 36667453.682594299 0 36667453.682594299 27037468.374691963 0 0 0 0 1909474.8361583496 -268939.55013542622 0 -268939.55013542622 -2283775.0907260701 0 0 0 0 7975814.3816709518 -13963732.000801086 0 -13963732.000801086 -15180481.420307159 0 0 0 0 2012395.6722262367 -648227.22802467272 0 -648227.22802467272 -1938014.9293101132 0 0 0 0 -23457072.064769745 -27549611.88142395 0 -27549611.88142395 -2864126.9098758698 0 0 0 0 -111755214.61983299 -47150244.824798584 0 -47150244.824798584 -13346815.66456604 0 0 0 0 -17489905.686217666 6764653.2426133156 0 6764653.2426133156 16369751.038520813 0 0 0 0 -165871963.51286316 -46427039.570703506 0 -46427039.570703506 20866732.801319122 0 0 0 0 1041738.9738235176 -101189.79287812486 0 -101189.79287812486 -1189541.727074869 0 0 0 0 13142129.912950158 21124725.606002092 0 21124725.606002092 5827110.4755477905 0 0 0 0 -123769443.13450146 -51094872.487104416 0 -51094872.487104416 37107145.491737366 0 0 0 0 -101172769.96957016 -69833004.547458649 0 -69833004.547458649 34440282.562244415 0 0 0 0 -143295549.21126842 -25805146.604372025 0 -25805146.604372025 17067006.027496338 0 0 0 0 -81120541.713132858 -15744146.529600143 0 -15744146.529600143 58697564.288730621 0 0 0 0 -143173342.19695854 -24820422.131816864 0 -24820422.131816864 27403854.685889244 0 0 0 0 -150163853.99297333 -64123273.134407043 0 -64123273.134407043 -6166867.4183599949 0 0 0 0 -92828346.247868538 -66652524.047935486 0 -66652524.047935486 -6064556.3397331238 0 0 0 0 -194510028.87816811 -37050559.363288879 0 -37050559.363288879 20294211.751779556 0 0 0 0 -144963757.94713879 -31032906.550234795 0 -31032906.550234795 15692678.42931366 0 0 0 0 -209475009.05643272 -34681679.073162079 0 -34681679.073162079 -9172530.0146884918 0 0 0 0 -154387680.67865753 -38665109.880434036 0 -38665109.880434036 -20276172.993911743 0 0 0 0 -142424185.38365555 -119212232.03014374 0 -119212232.03014374 -147534781.77081895 0 0 0 0 -236593417.59839582 -119258219.22330523 0 -119258219.22330523 -40682752.3179245 0 0 0 0 -145865771.85367775 -133519057.08603668 0 -133519057.08603668 -106833133.79473877 0 0 0 0 -143542167.27653694 -68833278.528812408 0 -68833278.528812408 -40325366.049125671 0 0 0 0 -208429777.2811451 118124124.25629425 0 118124124.25629425 110559325.70929337 0 0 0 0 -215370915.07345963 163099930.70190811 0 163099930.70190811 45602924.901008606 0 0 0 0 -117291916.86587238 -35454994.596710205 0 -35454994.596710205 201757568.26887894 0 0 0 0 -278187149.70374393 -117610075.184021 0 -117610075.184021 159817462.40065765 0 0 0 0 -181810242.19972229 -86490120.395423889 0 -86490120.395423889 23269970.918106079 0 0 0 0 -3936036.5761298346 973914.32950611413 0 973914.32950611413 710421.35977761075 0 0 0 0 -34422286.12379992 -199518606.01207435 0 -199518606.01207435 325549346.29523468 0 0 0 0 -295715936.26557064 14750147.021162987 0 14750147.021162987 288600092.98882294 0 0 0 0 -1036823.7586345673 97735303.615680695 0 97735303.615680695 54725640.212711334 0 0 0 0 -20448408.38523674 -71627859.748968124 0 -71627859.748968124 -406485427.64051437 0 0 0 0 -1827456.3953139493 759323.99435488135 0 759323.99435488135 634448.42052092031 0 0 0 0 -151838283.01194191 -89823588.146286011 0 -89823588.146286011 122615943.34632301 0 0 0 0 -168029921.36776066 -256927649.80684048 0 -256927649.80684048 -77867186.541404724 0 0 0 0 -137988529.36043739 -118077186.72729588 0 -118077186.72729588 -22967223.558738708 0 0 0 0 -77330956.635742188 -83909369.057323456 0 -83909369.057323456 -86459358.391021729 0 0 0 0 -18730896.279664516 -24946402.578164101 0 -24946402.578164101 -64375063.279998779 0 0 0 0 2758921.2442827225 -15534864.243247986 0 -15534864.243247986 -38805762.681102753 0 0 0 0 9374977.4130840302 -7509732.7870349884 0 -7509732.7870349884 -115925468.29674911 0 0 0 0 1089553.3093215171 -275636.52012951858 0 -275636.52012951858 -1084182.2769970931 0 0 0 0 -29261151.989229202 -26696318.227298737 0 -26696318.227298737 -26778601.07406044 0 0 0 0 -23192318.895486832 21191367.208919525 0 21191367.208919525 41107731.004108429 0 0 0 0 42137844.817238808 40430326.084749222 0 40430326.084749222 -68250766.31199646 0 0 0 0 -11780832.672517061 -20657161.171749115 0 -20657161.171749115 -28120118.926544189 0 0 0 0 -5481754.543264389 -24618150.059761047 0 -24618150.059761047 -47393505.409197807 0 0 0 0 -4726326.1614931524 490005.15885479003 0 490005.15885479003 -231678.48912846297 0 0 0 0 -7959389.0678157806 -12761574.275337219 0 -12761574.275337219 -36507527.406654358 0 0 0 0 112531087.4303596 -197117658.35944748 0 -197117658.35944748 84551487.874801636 0 0 0 0 -225254241.20104122 -220527564.54495239 0 -220527564.54495239 86271075.233207703 0 0 0 0 331913.40007716371 -1266893.4627607651 0 -1266893.4627607651 -6691205.9384751953 0 0 0 0 126212186.38324794 -159401343.99763298 0 -159401343.99763298 95298891.794654846 0 0 0 0 393455964.15683651 -130374723.38568115 0 -130374723.38568115 -927706.67119979858 0 0 0 0 274585151.83206034 777464193.10468674 0 777464193.10468674 -1381849111.7799683 0 0 0 0 -2694487.5806327332 286076.29603967629 0 286076.29603967629 -1296445.9899801612 0 0 0 0 -627606199.15746737 -579626842.34827042 0 -579626842.34827042 631496104.08143425 0 0 0 0 267752124.88985682 -312784717.98303223 0 -312784717.98303223 -290169689.39075089 0 0 0 0 -1158626.4921223982 -33982.316225009039 0 -33982.316225009039 -430947.28635817021 0 0 0 0 -89903006.362547174 63631932.519924641 0 63631932.519924641 -30403530.789733887 0 0 0 0 -80850299.553270102 33158433.967327118 0 33158433.967327118 -18081780.405221939 0 0 0 0 -7269254.4936828613 -10155238.285020828 0 -10155238.285020828 -28594485.842605591 0 0 0 0 -84480.599277759437 -1070746.5939654643 0 -1070746.5939654643 -2953954.0165229179 0 0 0 0 -76861908.700172901 28289874.561180115 0 28289874.561180115 -14511717.066978455 0 0 0 0 -42418066.363771439 -76715397.522665024 0 -76715397.522665024 -129437375.6709137 0 0 0 0 122248.31351919705 -479694.85330980737 0 -479694.85330980737 -1136858.968669828 0 0 0 0 -61330574.480864525 117356981.18420792 0 117356981.18420792 -196300410.86585236 0 0 0 0 -33536760.36229223 -228707239.31250668 0 -228707239.31250668 -12283421.691497803 0 0 0 0 29317610.360105753 -45647398.118488312 0 -45647398.118488312 -284362843.61453247 0 0 0 0 -286500992.2791751 77976195.981079102 0 77976195.981079102 -26369768.435554504 0 0 0 0 -124189530.53201641 -7653943.5814065933 0 -7653943.5814065933 74242145.961769104 0 0 0 0 -132026249.14305186 17402300.476636887 0 17402300.476636887 -4979100.4190635681 0 0 0 0 -7236004.3096399903 -9033418.3800811768 0 -9033418.3800811768 -48130690.77033329 0 0 0 0 36375350.382625461 -103012320.84025955 0 -103012320.84025955 -40904222.506592035 0 0 0 0 7687084.1011532545 -87193900.575316429 0 -87193900.575316429 -19734969.480026245 0 0 0 0 70934097.227325678 -61397993.633880615 0 -61397993.633880615 129232.73928070068 0 0 0 0 162960154.4125489 -120217495.11099434 0 -120217495.11099434 -16853813.071609497 0 0 0 0 21024104.806084275 -68869474.190365791 0 -68869474.190365791 12378306.747955322 0 0 0 0 404093731.64387059 -117615622.42286873 0 -117615622.42286873 -45536986.046791077 0 0 0 0 -31245872.633384086 -211555548.68701172 0 -211555548.68701172 69969062.63646698 0 0 0 0 -237991502.43205833 77189972.746688843 0 77189972.746688843 31828805.768886566 0 0 0 0 -360078119.2330035 -140320837.74183297 0 -140320837.74183297 73273008.409736633 0 0 0 0 -284240248.8315767 220703948.24932861 0 220703948.24932861 -133515004.33394241 0 0 0 0 646875389.54434407 -57284611.958658218 0 -57284611.958658218 -379653424.66416931 0 0 0 0 -255032434.04611677 147068909.45602226 0 147068909.45602226 51084507.009422302 0 0 0 0 -339376623.18555057 -77749007.155514717 0 -77749007.155514717 -299894547.67301178 0 0 0 0 -78684245.419278622 235375603.25792694 0 235375603.25792694 -48123549.723575592 0 0 0 0 -518298011.77653223 512581147.69410276 0 512581147.69410276 -200981874.65149689 0 0 0 0 528801834.52338755 236590551.63964081 0 236590551.63964081 -174797733.01307106 0 0 0 0 -1008512071.1571937 1200005586.1144753 0 1200005586.1144753 -522251853.2841835 0 0 0 0 -341866384.11054659 -50409709.674355507 0 -50409709.674355507 37618362.395069122 0 0 0 0 305375086.02631164 1355264200.2450562 0 1355264200.2450562 -4719790809.6175232 0 0 0 0 -1018781109.7043333 1765111657.8012028 0 1765111657.8012028 -2085340816.3148155 0 0 0 0 672224199.59386051 328982239.79775333 0 328982239.79775333 -4710180131.2642593 0 0 0 0 576905353.38091683 387093511.86934662 0 387093511.86934662 -2450412697.1570587 0 0 0 0 84182822.019349813 630474394.68959427 0 630474394.68959427 -881032912.348629 0 0 0 0 341865579.68623972 -772694173.5396452 0 -772694173.5396452 678528391.27715302 0 0 0 0 473256.45078381163 236198.88811901957 0 236198.88811901957 -7253632.1716726013 0 0 0 0 532833029.19804925 -723382353.68483353 0 -723382353.68483353 -1142649842.6773672 0 0 0 0 248723688.99214464 1565926787.5780945 0 1565926787.5780945 -4724219757.4157991 0 0 0 0 285521887.72748291 818616910.65462112 0 818616910.65462112 -1876865084.861496 0 0 0 0 516717958.62820292 -238130198.6644516 0 -238130198.6644516 -433986286.30750275 0 0 0 0 257227368.88966131 130086033.02706909 0 130086033.02706909 -226344216.08855629 0 0 0 0 402988934.08604097 -29718298.446159363 0 -29718298.446159363 -95479888.584754944 0 0 0 0 357819695.97737658 234292418.27868652 0 234292418.27868652 -396652699.03862 0 0 0 0 -42131964.844734192 358364933.04887009 0 358364933.04887009 -289089177.80345154 0 0 0 0 427551811.4576363 -126026704.49666023 0 -126026704.49666023 -1089274527.5548935 0 0 0 0 271014525.55423188 435860321.8210392 0 435860321.8210392 -774933817.98730087 0 0 0 0 245445277.80332041 520804891.63217545 0 520804891.63217545 -128714823.13620758 0 0 0 0 470014.0741435088 158014.65886544995 0 158014.65886544995 -3769479.0663566515 0 0 0 0 -1414160706.8138762 -1749446684.9393196 0 -1749446684.9393196 -53697999.147014618 0 0 0 0 139612826.79828787 -259411325.67118835 0 -259411325.67118835 108526795.76774597 0 0 0 0 131185254.43422186 -207906288.41237354 0 -207906288.41237354 -132476666.22860718 0 0 0 0 -86605300.95493412 -140944371.26842499 0 -140944371.26842499 -39577286.874649048 0 0 0 0 -53002857.296726227 -93293609.08398056 0 -93293609.08398056 -589211470.2848053 0 0 0 0 -157001162.69249535 -344754813.31282043 0 -344754813.31282043 -621551225.83454895 0 0 0 0 266664557.83795071 230583774.52305603 0 230583774.52305603 229392141.82918549 0 0 0 0 241009146.11857033 19306607.844421387 0 19306607.844421387 -685836748.93922424 0 0 0 0 622177487.66130829 469856664.46043015 0 469856664.46043015 -1039522362.0680847 0 0 0 0 470580731.88625526 338339047.92918396 0 338339047.92918396 -440813454.17051697 0 0 0 0 315600415.92707634 -88595392.499454498 0 -88595392.499454498 -1485470083.8262939 0 0 0 0 556926297.07699299 700159836.92211914 0 700159836.92211914 -1110754832.1649857 0 0 0 0 506062392.00972748 623763724.09796143 0 623763724.09796143 -316238784.08590698 0 0 0 0 -680833527.25106275 -925181079.56331444 0 -925181079.56331444 -657919649.78694153 0 0 0 0 639107859.15957785 579594919.80263901 0 579594919.80263901 -514150334.45078278 0 0 0 0 936557.90431011142 1001020.2108358741 0 1001020.2108358741 -10367874.411719136 0 0 0 0 749502.35124019824 -819355.67048169114 0 -819355.67048169114 -3826437.9492984414 0 0 0 0 581201083.54491854 -290848204.17051697 0 -290848204.17051697 -1840807880.8382797 0 0 0 0 430037860.66187847 10297426.13907814 0 10297426.13907814 -52376713.18662262 0 0 0 0 454629995.87603128 -299680860.69244289 0 -299680860.69244289 89495566.869232178 0 0 0 0 364541.1471661196 -195907.75098020956 0 -195907.75098020956 -9184217.4972347002 0 0 0 0 -369130360.84958738 -1207837324.1064606 0 -1207837324.1064606 -3194226710.9268799 0 0 0 0 -557865266.91249657 -1080565253.7180634 0 -1080565253.7180634 -1536615155.6572647 0 0 0 0 345873082.06478822 -186704524.59020615 0 -186704524.59020615 -4715945543.7364655 0 0 0 0 -1469830558.6027708 3266730256.4445448 0 3266730256.4445448 -2266623263.6478577 0 0 0 0 -836162.14600690745 -1081256.0538504981 0 -1081256.0538504981 -7091102.5091589876 0 0 0 0 -1750887659.2665296 1337702756.8212471 0 1337702756.8212471 -703584938.3802948 0 0 0 0 515425224.32580566 -1789178033.2874451 0 -1789178033.2874451 1098553373.3696671 0 0 0 0 -1593213.1670768161 20139.915285676718 0 20139.915285676718 -5573418.5764185712 0 0 0 0 -1178797936.4060922 -1220659292.8891525 0 -1220659292.8891525 -347447164.72039962 0 0 0 0 1354076249.2301743 554281201.77371788 0 554281201.77371788 -3894349209.497406 0 0 0 0 -2325585861.5434179 -1163270253.9988022 0 -1163270253.9988022 2175790791.4220581 0 0 0 0 -1153800066.9243875 1806339886.1264191 0 1806339886.1264191 -2870279980.2934837 0 0 0 0 -2344714507.0663819 2063901542.3178673 0 2063901542.3178673 -3893748964.3444748 0 0 0 0 -720798815.98129785 1741956910.0777054 0 1741956910.0777054 -4714885404.2232542 0 0 0 0 -517363555.46874529 1052636479.7144547 0 1052636479.7144547 -3805106488.1891327 0 0 0 0 9896007.2473989874 1134741290.0542374 0 1134741290.0542374 -3286707916.4314346 0 0 0 0 -396821346.85158944 1500099617.8040009 0 1500099617.8040009 -3559985392.7970924 0 0 0 0 -563877848.44632387 1104909061.9809952 0 1104909061.9809952 -3395806433.461235 0 0 0 0 -1022372386.1218786 1326725808.1870232 0 1326725808.1870232 -1127671765.1989899 0 0 0 0 -510327946.14966226 267036671.34246063 0 267036671.34246063 -200672311.84868622 0 0 0 0 -2276310671.161602 -490412764.21865082 0 -490412764.21865082 1074264591.6190796 0 0 0 0 -2123650.5563104199 -2393065.6056584679 0 -2393065.6056584679 -5178820.5298991352 0 0 0 0 -2066082.008346187 -531423.47104421631 0 -531423.47104421631 -1677993.3273165338 0 0 0 0 397532250.19001102 290986510.10390854 0 290986510.10390854 -2155462207.5376892 0 0 0 0 -1851373317.9944782 -1741969025.6503143 0 -1741969025.6503143 1977213610.5803375 0 0 0 0 -572337570.05945587 -896633826.85257721 0 -896633826.85257721 -1831052743.6309662 0 0 0 0 -523699470.47914505 -1104179634.273468 0 -1104179634.273468 -1244455795.1608276 0 0 0 0 -769092801.13785744 1385207302.5244293 0 1385207302.5244293 -103170032.52320099 0 0 0 0 -1970460541.0761261 -367800908.43069839 0 -367800908.43069839 -236354873.82704163 0 0 0 0 -369583625.59486198 136222371.61722565 0 136222371.61722565 -137339624.67746544 0 0 0 0 -734929202.97678185 -144229784.23387527 0 -144229784.23387527 19640779.885299683 0 0 0 0 -373097821.97764397 99932574.828239441 0 99932574.828239441 28861804.114936829 0 0 0 0 64147203.810889244 -42453353.096710205 0 -42453353.096710205 -648506680.83590698 0 0 0 0 262901231.79432297 83198752.711715698 0 83198752.711715698 -436432208.04660034 0 0 0 0 -4771588.4834041372 -5827528.6722614635 0 -5827528.6722614635 -13390983.911794469 0 0 0 0 564819104.84261727 540931039.52588797 0 540931039.52588797 167577409.44742775 0 0 0 0 443752672.49235535 442622568.46587372 0 442622568.46587372 319137607.75649643 0 0 0 0 643267.85277245753 2453628.4013389801 0 2453628.4013389801 -7266371.814132072 0 0 0 0 352152105.75996411 264854807.59428078 0 264854807.59428078 38910638.076892853 0 0 0 0 350202671.57327843 65513274.023637772 0 65513274.023637772 10107690.242759705 0 0 0 0 381283510.57187653 380181692.85998726 0 380181692.85998726 598278341.53470421 0 0 0 0 180016248.13867378 120131087.95326042 0 120131087.95326042 -23054638.307243347 0 0 0 0 227580802.11871147 142458745.75740051 0 142458745.75740051 18084695.518501282 0 0 0 0 80215919.906730652 79674677.569732666 0 79674677.569732666 32134371.46583128 0 0 0 0 128530009.35382795 16094069.580636978 0 16094069.580636978 -77249191.374713898 0 0 0 0 61658424.041200638 44917480.906774521 0 44917480.906774521 17556096.242164612 0 0 0 0 40036025.341712832 -119400517.92517912 0 -119400517.92517912 -70404210.95652771 0 0 0 0 38802760.967915058 -21771117.276245117 0 -21771117.276245117 44451415.862548828 0 0 0 0 150918961.99299192 -9718262.0102005005 0 -9718262.0102005005 23261587.798477173 0 0 0 0 233774766.31781006 64695692.538452148 0 64695692.538452148 6769391.1920404434 0 0 0 0 195889319.02368164 107861565.47828293 0 107861565.47828293 161507723.1016922 0 0 0 0 206946470.0177803 112091335.99907494 0 112091335.99907494 103287755.83357239 0 0 0 0 379832439.40548134 165384990.85802841 0 165384990.85802841 32239828.06819725 0 0 0 0 181177314.70278245 -36358056.095847011 0 -36358056.095847011 -4115464.7941436768 0 0 0 0 222297986.37568665 36641305.796403885 0 36641305.796403885 35084521.447259903 0 0 0 0 119340759.85677576 115898396.33436871 0 115898396.33436871 -143319210.02847958 0 0 0 0 480174144.68411446 -4639681.6915960312 0 -4639681.6915960312 -535220245.24436259 0 0 0 0 898044.37242521858 4037405.005961529 0 4037405.005961529 -11149790.904159948 0 0 0 0 231280938.81917763 41470622.433720589 0 41470622.433720589 134952263.35004425 0 0 0 0 613946976.7314949 109758076.81903601 0 109758076.81903601 331181071.02282715 0 0 0 0 -276781681.04615021 -39694064.834783554 0 -39694064.834783554 663104126.78754306 0 0 0 0 -37069.663718070835 197267.76959476038 0 197267.76959476038 -180002.76432959014 0 0 0 0 40073387.611507416 -514017309.38298798 0 -514017309.38298798 -328940157.33541107 0 0 0 0 -340556452.09538269 -371883475.21506023 0 -371883475.21506023 -685258185.14430714 0 0 0 0 41380496.714393616 -59688191.811591625 0 -59688191.811591625 -522122222.74486732 0 0 0 0 -95301779.814281464 65700711.885316849 0 65700711.885316849 -247913646.23965454 0 0 0 0 60074740.41462326 -179696798.17562628 0 -179696798.17562628 -499356267.50200224 0 0 0 0 2701678.3978584139 -1181896.7027816973 0 -1181896.7027816973 -405283.01799591503 0 0 0 0 -80004551.706268311 -26575757.276151657 0 -26575757.276151657 -149439021.81352139 0 0 0 0 20150187.210315704 -18745629.117617607 0 -18745629.117617607 -437868953.87898445 0 0 0 0 -7974978.1755123138 -7028977.9281003475 0 -7028977.9281003475 -242200728.37480545 0 0 0 0 -17625245.115859985 -65034909.4960289 0 -65034909.4960289 -287077759.79918861 0 0 0 0 -4461938.7299194336 -4289173.3329353333 0 -4289173.3329353333 -309433690.1250906 0 0 0 0 894564.73837280273 -16536898.571146965 0 -16536898.571146965 -117694119.5192728 0 0 0 0 -24973384.062290192 -74506939.189198017 0 -74506939.189198017 -117028129.10351086 0 0 0 0 -17765326.293983459 -59290210.850954056 0 -59290210.850954056 -223502765.96428537 0 0 0 0 5680535.9263896942 -236357461.56582117 0 -236357461.56582117 -386209724.80097759 0 0 0 0 -27102238.371765137 -16454663.013473272 0 -16454663.013473272 -437041674.07951832 0 0 0 0 123710224.5148716 -18509166.596354008 0 -18509166.596354008 -198471647.097332 0 0 0 0 42409988.376907349 -122676290.66691732 0 -122676290.66691732 -247269355.31313133 0 0 0 0 -47029104.253807068 -27893669.04202795 0 -27893669.04202795 33244326.553691864 0 0 0 0 -4899677.3154907227 -160614486.3304019 0 -160614486.3304019 -54456412.46665287 0 0 0 0 -108492332.6404953 -209218832.1336658 0 -209218832.1336658 -199867457.51317537 0 0 0 0 -97679716.670632005 7660769.4482342303 0 7660769.4482342303 -194962364.02532625 0 0 0 0 9012386.4519462585 2766025.4905642271 0 2766025.4905642271 -2205486.6634079218 0 0 0 0 2430582.8749389648 -15890259.08737129 0 -15890259.08737129 14841106.145828724 0 0 0 0 12966189.421913147 -476476.88151264191 0 -476476.88151264191 -11503072.927192986 0 0 0 0 10408052.613197327 -2001887.3636253476 0 -2001887.3636253476 -5168320.9877803326 0 0 0 0 -511787.14696378633 2367334.7722769664 0 2367334.7722769664 -3655585.9028825052 0 0 0 0 207607245.40511322 980128541.28352737 0 980128541.28352737 -276641363.68118668 0 0 0 0 1180270875.9932003 -340022098.32774019 0 -340022098.32774019 489084638.11829567 0 0 0 0 605953.51359328767 488893.06972880941 0 488893.06972880941 -2655941.633652146 0 0 0 0 7707207.2676677704 805450.84702444077 0 805450.84702444077 9257089.7434396744 0 0 0 0 44003699.995471954 10334805.193911731 0 10334805.193911731 8355280.3345198482 0 0 0 0 9285238.0738601685 -26325903.154235125 0 -26325903.154235125 8993353.5278184414 0 0 0 0 30290067.815185547 -18760517.953187823 0 -18760517.953187823 -4421532.7134720087 0 0 0 0 38876036.729293823 -23818318.931148827 0 -23818318.931148827 -16459673.171469688 0 0 0 0 14571101.107430458 -30420579.462711245 0 -30420579.462711245 -12809976.005119801 0 0 0 0 34872787.465667725 -28006921.120885015 0 -28006921.120885015 -33514004.667245567 0 0 0 0 58425975.310516357 -15659471.685440898 0 -15659471.685440898 -32456384.496559858 0 0 0 0 36160619.928980827 -21637922.002664477 0 -21637922.002664477 -14190421.180458546 0 0 0 0 38340851.629356384 -34087596.476696968 0 -34087596.476696968 -4973009.5389823131 0 0 0 0 76024079.58083725 -36358431.230649829 0 -36358431.230649829 -34189850.457850933 0 0 0 0 8793099.9234848022 -8199437.359297514 0 -8199437.359297514 -24681684.512761116 0 0 0 0 43287486.520675659 -32290776.979522347 0 -32290776.979522347 -29785879.15807724 0 0 0 0 17655918.435050964 -14536177.836240292 0 -14536177.836240292 -28618468.868826687 0 0 0 0 17896205.873743057 6559171.8329194784 0 6559171.8329194784 -60501316.575724125 0 0 0 0 16762110.521697998 -19673076.515674829 0 -19673076.515674829 -41260715.643761635 0 0 0 0 87011663.220001221 -18306.617185592651 0 -18306.617185592651 -30575952.723349094 0 0 0 0 147319051.43570232 -131024031.21778893 0 -131024031.21778893 -642771225.39854622 0 0 0 0 681575352.57834625 837043010.56087494 0 837043010.56087494 -1215622514.4141388 0 0 0 0 -245386.6385617042 2056165.0011736089 0 2056165.0011736089 -5255514.8903261432 0 0 0 0 -789919648.806633 1082598645.0721111 0 1082598645.0721111 1551967800.9325192 0 0 0 0 -232939070.49599648 902201579.80104542 0 902201579.80104542 -830176917.41926956 0 0 0 0 207445859.44561386 130370794.23849964 0 130370794.23849964 -1097918793.0210953 0 0 0 0 123525846.7296257 13505756.675088882 0 13505756.675088882 -488021340.98647594 0 0 0 0 82648558.775415421 -81348901.19677639 0 -81348901.19677639 -585684508.96113014 0 0 0 0 -58197685.173786163 -193474224.48710823 0 -193474224.48710823 -299170643.59217834 0 0 0 0 85616334.764622688 -38473278.794959188 0 -38473278.794959188 -547910458.30118179 0 0 0 0 188007840.06726837 -114963702.56136322 0 -114963702.56136322 -494024402.07272148 0 0 0 0 220278182.25749969 -59020842.724256516 0 -59020842.724256516 -704938713.83674049 0 0 0 0 219107010.99118948 45634819.459520817 0 45634819.459520817 -581228278.02955627 0 0 0 0 150765774.44232488 -175868034.89233422 0 -175868034.89233422 -254513087.14403534 0 0 0 0 128646831.13243103 -198066841.88875961 0 -198066841.88875961 -189381084.18323517 0 0 0 0 109669029.31422043 3772958.8744316101 0 3772958.8744316101 -367937177.60536385 0 0 0 0 4346746.3048744202 8626683.0044212341 0 8626683.0044212341 54802766.108154297 0 0 0 0 94546449.524845123 56841277.787460327 0 56841277.787460327 -43862684.442008972 0 0 0 0 86586285.021091461 -163813981.23268318 0 -163813981.23268318 116598803.21737671 0 0 0 0 100343842.02368927 238088256.05024338 0 238088256.05024338 258199551.22304916 0 0 0 0 1745215.9055480957 -30141400.175106049 0 -30141400.175106049 303106223.4913044 0 0 0 0 -76092546.408380508 -69231989.934851646 0 -69231989.934851646 -81110890.85817337 0 0 0 0 -46258984.573272586 -152869242.67743134 0 -152869242.67743134 -304555616.5338707 0 0 0 0 -89633530.708562851 -29084046.506401062 0 -29084046.506401062 -64191227.508473635 0 0 0 0 52119815.21089077 25035115.043707848 0 25035115.043707848 -218252657.0250721 0 0 0 0 8751233.8166928291 -126193850.11384058 0 -126193850.11384058 -301211940.96979141 0 0 0 0 -344707987.49635625 -199028861.03289509 0 -199028861.03289509 -296110078.44612885 0 0 0 0 12258393.320895195 11122827.220134258 0 11122827.220134258 -566649242.7682991 0 0 0 0 -191194821.73778439 78201997.035385132 0 78201997.035385132 -491136361.45145607 0 0 0 0 84451681.729284078 -72290218.346516788 0 -72290218.346516788 -786367178.34070969 0 0 0 0 -130827730.47110558 -356782373.68964529 0 -356782373.68964529 -654221568.85172081 0 0 0 0 -42384347.362164617 -167356937.02059126 0 -167356937.02059126 -504350056.53496552 0 0 0 0 10192112.693650246 -185037106.5257988 0 -185037106.5257988 -500852643.65985966 0 0 0 0 -38306096.847587585 -312337426.90550232 0 -312337426.90550232 -696696202.78352547 0 0 0 0 -69246084.108008504 114018074.79707718 0 114018074.79707718 -121223382.83020973 0 0 0 0 595529.01643380919 -560720.14374072338 0 -560720.14374072338 -939499.4973659059 0 0 0 0 -76632398.406050086 -242123440.17881203 0 -242123440.17881203 -188782691.68632984 0 0 0 0 -190109046.59064627 -212232430.05087042 0 -212232430.05087042 -147120338.4188118 0 0 0 0 -134193152.45875525 -262461223.95842838 0 -262461223.95842838 -195853587.5945034 0 0 0 0 -100171534.1373291 -100756005.25164413 0 -100756005.25164413 -386971135.86177635 0 0 0 0 -83294688.53147468 -216603125.39676309 0 -216603125.39676309 -130099583.90277863 0 0 0 0 150834617.14865446 -27546536.97013855 0 -27546536.97013855 -93217578.742183685 0 0 0 0 1074861.129988505 -3585508.6021720693 0 -3585508.6021720693 -20714521.895517431 0 0 0 0 80685060.607758045 14154818.321360588 0 14154818.321360588 -80976054.695659637 0 0 0 0 9996316.9300330877 -52344220.346982002 0 -52344220.346982002 -381431026.30758762 0 0 0 0 9075043.4208364487 -22200376.06797123 0 -22200376.06797123 -54376205.046379089 0 0 0 0 -75167211.610353947 -155954764.01687145 0 -155954764.01687145 -73268473.127945364 0 0 0 0 -146305451.57817888 -114423474.28960323 0 -114423474.28960323 -17935636.659513474 0 0 0 0 501468.54793287808 -3418961.2032936867 0 -3418961.2032936867 -19240636.081430092 0 0 0 0 -11830515.327626321 -119236942.84914722 0 -119236942.84914722 -65669114.030506134 0 0 0 0 -54761180.906871691 -183526095.70634317 0 -183526095.70634317 -43363123.036880493 0 0 0 0 -187745874.26611906 -220607557.15106034 0 -220607557.15106034 -49991165.810995102 0 0 0 0 -331663706.28336382 -107902333.04675579 0 -107902333.04675579 49870955.748334885 0 0 0 0 8743.9937948030729 -2690577.8436340662 0 -2690577.8436340662 -16924498.617595043 0 0 0 0 93700168.025574684 -175602811.79345131 0 -175602811.79345131 -56747656.210098267 0 0 0 0 -95013564.809537411 -130634399.76484299 0 -130634399.76484299 -43582447.986675262 0 0 0 0 -59007739.358159974 -251323544.85082531 0 -251323544.85082531 -88939008.898021698 0 0 0 0 -119810540.28062767 -178987011.7392807 0 -178987011.7392807 -132859418.74697304 0 0 0 0 -39134773.266371727 -198639543.24874687 0 -198639543.24874687 -44511435.843429565 0 0 0 0 -119968633.09404719 -286410012.76570129 0 -286410012.76570129 3330588.917930603 0 0 0 0 -125290276.28433168 -235673647.93602943 0 -235673647.93602943 -7252063.4152321815 0 0 0 0 206320589.60568333 -173661530.78018188 0 -173661530.78018188 -31259189.631467819 0 0 0 0 -53650830.885615349 -199759369.02506638 0 -199759369.02506638 -14313105.232299805 0 0 0 0 151503750.76142681 -130823150.12146044 0 -130823150.12146044 -47658229.868991852 0 0 0 0 423023497.03206158 -35185780.746427536 0 -35185780.746427536 -45681804.772735596 0 0 0 0 -79326855.613341689 -301569365.42850876 0 -301569365.42850876 9354636.9168395996 0 0 0 0 253698907.66138855 -328076158.13266039 0 -328076158.13266039 -82600619.096767426 0 0 0 0 262256812.98069477 -227158072.05379677 0 -227158072.05379677 -60484517.061722279 0 0 0 0 -235244228.96317208 -605560345.59182453 0 -605560345.59182453 -23754411.594112396 0 0 0 0 1459613198.2429376 -289568954.52473068 0 -289568954.52473068 -207394377.57694054 0 0 0 0 717330436.4100678 145170777.9512291 0 145170777.9512291 -36016150.181753159 0 0 0 0 1410499933.6724398 746822999.36771548 0 746822999.36771548 323939404.65542603 0 0 0 0 475508024.14333725 -382320052.36003876 0 -382320052.36003876 -138361086.46591187 0 0 0 0 -474457453.19337285 -28388759.291361809 0 -28388759.291361809 10690694.681192398 0 0 0 0 -395488789.90701544 -333513978.75354862 0 -333513978.75354862 106932274.17323685 0 0 0 0 -411900538.72380304 -190695066.73447037 0 -190695066.73447037 -68599580.733381271 0 0 0 0 -650008.32248856197 -1713896.4872026355 0 -1713896.4872026355 -13317164.13145256 0 0 0 0 -491138304.2258358 -93060123.800486565 0 -93060123.800486565 -79778537.24874115 0 0 0 0 -975353147.97575533 24331477.282251358 0 24331477.282251358 60352864.277620316 0 0 0 0 -941105584.88750482 -740101782.88428438 0 -740101782.88428438 -638383706.51900482 0 0 0 0 -82688999.351126432 -133427899.14343071 0 -133427899.14343071 -2040031313.7382889 0 0 0 0 460569192.52367175 -55326604.313408852 0 -55326604.313408852 -2037167784.3559113 0 0 0 0 -2220826442.7231307 -1663369023.1858253 0 -1663369023.1858253 -1574875135.1306324 0 0 0 0 -56949330.874527097 -1254711218.622283 0 -1254711218.622283 -4716564662.4503746 0 0 0 0 -1422734.3643903199 -968956.69865578203 0 -968956.69865578203 -5574542.8319843002 0 0 0 0 1722449223.0973158 85950261.912460327 0 85950261.912460327 -345391266.26073074 0 0 0 0 596353074.24910438 579144315.10076714 0 579144315.10076714 232562848.77503967 0 0 0 0 4542412.139877242 -1149879.6309463005 0 -1149879.6309463005 -9105398.3467189074 0 0 0 0 552876920.19796813 -104426236.30179787 0 -104426236.30179787 -1243429116.677083 0 0 0 0 1708077051.5385487 -71147197.931408405 0 -71147197.931408405 -20775076.152908325 0 0 0 0 1232030.9861635813 278960.07038350217 0 278960.07038350217 -1621756.2373127276 0 0 0 0 415153798.60656929 -271393347.7748642 0 -271393347.7748642 353550284.63006592 0 0 0 0 394634066.01149654 -116865976.66517448 0 -116865976.66517448 -803074195.43310165 0 0 0 0 -130736369.84748459 -36392363.029066086 0 -36392363.029066086 -658477970.17538071 0 0 0 0 1172626356.9137545 422376789.15955067 0 422376789.15955067 -4718748809.2781258 0 0 0 0 1018533317.4904472 2043848863.8466778 0 2043848863.8466778 -2267875379.7706642 0 0 0 0 673861076.05549765 390764842.22682953 0 390764842.22682953 -2201820895.2815704 0 0 0 0 3208589.1685760575 -940068.73691721633 0 -940068.73691721633 -4962057.7432151176 0 0 0 0 8796103.5481805336 -1844499907.2266021 0 -1844499907.2266021 -4720111774.5595798 0 0 0 0 896196953.72955203 2103697600.3939381 0 2103697600.3939381 -763915425.14870453 0 0 0 0 330799618.95415014 -100422369.84974957 0 -100422369.84974957 -1236552748.0731506 0 0 0 0 293267130.73957235 -247502096.56459618 0 -247502096.56459618 -1215047271.9733047 0 0 0 0 336880557.34409934 713332503.99495125 0 713332503.99495125 -4714535563.0181427 0 0 0 0 -708688133.65699852 958686408.78955269 0 958686408.78955269 -647736368.62427902 0 0 0 0 13385845.978862464 -127459821.78443432 0 -127459821.78443432 -635062870.21880722 0 0 0 0 -441854950.83301342 360210504.02026701 0 360210504.02026701 110881840.56296444 0 0 0 0 463982316.32062459 -231748426.74041557 0 -231748426.74041557 -1217426744.4671724 0 0 0 0 64738278.197864532 -41506136.593775511 0 -41506136.593775511 976053.83161664009 0 0 0 0 9236062.4066376854 -5799141.4097446781 0 -5799141.4097446781 -2767825.8733134763 0 0 0 0 564110499.26997232 192652119.05746746 0 192652119.05746746 -266965.90262794495 0 0 0 0 2427298.8055634974 4757886.4571188223 0 4757886.4571188223 -14165110.214310214 0 0 0 0 -23325244.079814911 35992936.3068977 0 35992936.3068977 24232774.475228786 0 0 0 0 -5881605.0102934837 -30859590.031497002 0 -30859590.031497002 49836512.852967739 0 0 0 0 -16641657.686690807 25812453.999903738 0 25812453.999903738 -15697293.315373421 0 0 0 0 -17345984.706970215 49836029.059495449 0 49836029.059495449 -135433081.69943178 0 0 0 0 291059650.39137363 29923415.726686478 0 29923415.726686478 22005059.892177582 0 0 0 0 353929888.94267654 20445853.378448486 0 20445853.378448486 -11597321.45778656 0 0 0 0 10997694.923221588 632531.89799696207 0 632531.89799696207 8936329.96544981 0 0 0 0 157565678.68642998 25549137.45218581 0 25549137.45218581 -29378997.922614098 0 0 0 0 915970.45668136748 -379130.13355660718 0 -379130.13355660718 -27479.091235170141 0 0 0 0 -62772601.8125 43498805.322835922 0 43498805.322835922 -57818129.671613693 0 0 0 0 -58316681.576030731 34161611.818101883 0 34161611.818101883 36238008.54735136 0 0 0 0 10580568.623746779 -6614819.8305905405 0 -6614819.8305905405 -2334986.6382911233 0 0 0 0 -13598928.945606232 -31053979.509446144 0 -31053979.509446144 7220219.7704839706 0 0 0 0 -88135775.87727356 6034811.3461546898 0 6034811.3461546898 -13778754.041125298 0 0 0 0 91176729.805955887 -95783369.294986725 0 -95783369.294986725 98276970.682136536 0 0 0 0 4642738.7336478299 3804407.2105388008 0 3804407.2105388008 -12811372.847026246 0 0 0 0 12946100.1790483 6388682.5815946758 0 6388682.5815946758 -11683055.742583752 0 0 0 0 7792018.4159345627 4960588.1809321642 0 4960588.1809321642 -8256401.2184593678 0 0 0 0 14230210.264097214 863471.78280001879 0 863471.78280001879 -15211933.189799964 0 0 0 0 2869790.5509623224 4353740.5139230415 0 4353740.5139230415 -9405662.7795466986 0 0 0 0 347796392.49293852 228893980.00901604 0 228893980.00901604 -547579061.13207626 0 0 0 0 -40971758.033193111 -133735532.11449146 0 -133735532.11449146 104277841.06207943 0 0 0 0 -353599651.66382468 82761179.596155643 0 82761179.596155643 487321225.33570862 0 0 0 0 5052654.5282507287 1862426.8895585914 0 1862426.8895585914 300672.02086333325 0 0 0 0 -752214.28022013349 662233.44706149725 0 662233.44706149725 -8399082.3093166314 0 0 0 0 1038842.0377255054 1794805.192150116 0 1794805.192150116 -4718492551.1695299 0 0 0 0 9606066.0682754517 3069283.512521565 0 3069283.512521565 -14803942.175078869 0 0 0 0 5664208.5624274947 425310.45126357587 0 425310.45126357587 -7968120.1487473128 0 0 0 0 -525266334.8237645 -1487045456.7112019 0 -1487045456.7112019 -4198612645.3167148 0 0 0 0 -13328485.871084545 -846865300.42474151 0 -846865300.42474151 -4717959007.2480659 0 0 0 0 5539572.1664230656 534660.86725673091 0 534660.86725673091 -7035891.1795516843 0 0 0 0 1455482.7798824608 -387818692.79358244 0 -387818692.79358244 -3305666913.8079095 0 0 0 0 -333272176.23118931 -1672397808.2188206 0 -1672397808.2188206 -4724268100.6394081 0 0 0 0 543401.54732684942 280066.97550360416 0 280066.97550360416 -4672861.7991591496 0 0 0 0 -510981957.62758744 -651368546.380023 0 -651368546.380023 -2608214597.0912523 0 0 0 0 2121905.6068744659 -3136477.5813792944 0 -3136477.5813792944 -20929609.194375753 0 0 0 0 5814862.625629425 -1309583.7770540714 0 -1309583.7770540714 -21613026.009845376 0 0 0 0 4351600.6166071892 -2630437.4806747437 0 -2630437.4806747437 -14533967.618926048 0 0 0 0 9242839.0275888443 4585190.6658294201 0 4585190.6658294201 -18910747.77816391 0 0 0 0 895285978.68059146 -374660786.18717575 0 -374660786.18717575 -4722891090.3212957 0 0 0 0 869459435.45004165 176996311.76570988 0 176996311.76570988 -4270315047.9368448 0 0 0 0 699816921.19648266 -1495534320.1893501 0 -1495534320.1893501 -4948413833.8434181 0 0 0 0 -268192260.20015234 -1405433323.4359145 0 -1405433323.4359145 -4751903024.821312 0 0 0 0 268142.3738154454 337199.87708835583 0 337199.87708835583 -2387303.3047211627 0 0 0 0 257106843.24335647 35840018.238882065 0 35840018.238882065 -3169446646.9577036 0 0 0 0 47336593.090974331 -937429944.8655653 0 -937429944.8655653 -3317708616.176302 0 0 0 0 8625560.3364057541 4041488.5511279106 0 4041488.5511279106 -30748582.799930096 0 0 0 0 5753917.8781768735 1985800.5620798685 0 1985800.5620798685 -7903879.1226301137 0 0 0 0 -857421.44094181061 3692683.7399175167 0 3692683.7399175167 -26395792.471248984 0 0 0 0 7719838.2009460926 -1626907.7852636278 0 -1626907.7852636278 -25636846.597223997 0 0 0 0 -810403402.80583858 428904931.56412888 0 428904931.56412888 -2101944088.5258331 0 0 0 0 6672395.3847467508 3497558.1236616224 0 3497558.1236616224 -9903111.4023305289 0 0 0 0 5426263.5671901703 2357689.0609849691 0 2357689.0609849691 -17565485.334866524 0 0 0 0 2117272.9669914246 -7348253.1383953094 0 -7348253.1383953094 -5722883.6962428093 0 0 0 0 7481038.0914554596 -9742318.3236327171 0 -9742318.3236327171 -20935258.187103987 0 0 0 0 686863.0579368684 -158782.75181774609 0 -158782.75181774609 -134377.25097454083 0 0 0 0 7888572.6230602264 -716766.92862129211 0 -716766.92862129211 -3329507.8509668112 0 0 0 0 2092972.9251739648 -293594.87389193149 0 -293594.87389193149 -306601.81232489413 0 0 0 0 6660674.067278862 3465846.5115427971 0 3465846.5115427971 -1339742.8762683868 0 0 0 0 20153194.159168243 -8008063.0855748653 0 -8008063.0855748653 -5977692.8765907288 0 0 0 0 4598376.9180894075 2881443.8577629104 0 2881443.8577629104 -4799136.3551477706 0 0 0 0 20997169.627128959 41934523.755112439 0 41934523.755112439 -73963761.292203903 0 0 0 0 5692229.8012943268 6474595.8691730499 0 6474595.8691730499 -9940508.1235303879 0 0 0 0 6352378.6101903915 7731030.2249987125 0 7731030.2249987125 -29567411.832028151 0 0 0 0 -3938651.6946268082 12586981.762916565 0 12586981.762916565 -5604043.0198321342 0 0 0 0 1816396.5404510498 4975176.4838898182 0 4975176.4838898182 -272141.97612047195 0 0 0 0 4889224.7017040253 2213014.2884206772 0 2213014.2884206772 -1642920.5953104496 0 0 0 0 7161470.5701398849 6822969.6218662262 0 6822969.6218662262 -10244829.978516459 0 0 0 0 7162934.5683460236 6300440.4248304367 0 6300440.4248304367 -6066921.9947309494 0 0 0 0 6318861.6334193368 2111344.4871078366 0 2111344.4871078366 -6669611.4318123478 0 0 0 0 -44427940.81584549 -6472519.9547805786 0 -6472519.9547805786 8142495.5090865493 0 0 0 0 36082474.981588364 -41253173.017328799 0 -41253173.017328799 -193337415.03836727 0 0 0 0 1998738.3854414467 -773952.44431519997 0 -773952.44431519997 -218474.26276163838 0 0 0 0 2311381.2532978058 -20333781.192262173 0 -20333781.192262173 28038828.814429402 0 0 0 0 -87517091.254238129 -107858205.57751983 0 -107858205.57751983 -157382619.48953062 0 0 0 0 35173868.774719238 -100046081.13028336 0 -100046081.13028336 -407292115.63762295 0 0 0 0 64872969.869451523 -82153513.860865116 0 -82153513.860865116 -328274604.29026669 0 0 0 0 49884073.430789948 -119001110.4851101 0 -119001110.4851101 -227233129.07972622 0 0 0 0 -2610669.2704353333 -75804193.291898966 0 -75804193.291898966 -106243600.74098182 0 0 0 0 -75050422.675867319 4184356.1201429442 0 4184356.1201429442 -188664554.9449296 0 0 0 0 47181368.593315125 -51300465.043673515 0 -51300465.043673515 -234823809.32432628 0 0 0 0 53258294.713768005 -9876579.7573752403 0 -9876579.7573752403 -181159193.02219629 0 0 0 0 17190458.018222809 15804711.819288492 0 15804711.819288492 -77966178.851845741 0 0 0 0 15005846.527114868 -17992928.367556334 0 -17992928.367556334 -39994299.400600433 0 0 0 0 5632737.7247447968 4582034.2341175079 0 4582034.2341175079 -935765.37192940712 0 0 0 0 -9798950.6608390808 40617384.805686474 0 40617384.805686474 -70147257.628207207 0 0 0 0 5921935.4621877298 1492616.1218362669 0 1492616.1218362669 -5430899.2831312539 0 0 0 0 4844107.3175125122 -3083202.1814928055 0 -3083202.1814928055 -13238394.611029625 0 0 0 0 677474.46785474755 89395.3842084473 0 89395.3842084473 -664381.54875258426 0 0 0 0 6698139.1504478455 1876891.9644846916 0 1876891.9644846916 101909.18846750259 0 0 0 0 2412634.6932811737 1172807.2200791836 0 1172807.2200791836 -1695085.0841126442 0 0 0 0 20410814.942831039 18346060.354741693 0 18346060.354741693 -24319059.472389221 0 0 0 0 2591213.7279883577 2752304.3539250819 0 2752304.3539250819 -1618916.4394622894 0 0 0 0 2708460.7274492001 3041636.0480218949 0 3041636.0480218949 -2169786.9842430111 0 0 0 0 -12503668.157798767 18062714.189552784 0 18062714.189552784 -53071098.071142912 0 0 0 0 3804979.9264523424 1825481.8946079547 0 1825481.8946079547 -3528655.4337500315 0 0 0 0 -67141736.310405731 30699441.367845058 0 30699441.367845058 22903507.571595669 0 0 0 0 -57738248.767076492 97738251.235256642 0 97738251.235256642 -15322419.719949722 0 0 0 0 -74007391.630039215 50519209.50645566 0 50519209.50645566 -32349551.322585821 0 0 0 0 -109041057.43731594 68776147.206743479 0 68776147.206743479 -14277377.555930138 0 0 0 0 947651.64626499265 908063.76207238343 0 908063.76207238343 -983761.92878835788 0 0 0 0 -95429761.219885826 41445973.511890292 0 41445973.511890292 6231334.9182300568 0 0 0 0 1791856.4711354906 1359679.7462470289 0 1359679.7462470289 -2952357.5531966453 0 0 0 0 -146611246.66384792 -194093110.18938833 0 -194093110.18938833 -75813261.164908648 0 0 0 0 -29310479.697685242 -13376951.170626879 0 -13376951.170626879 -65832561.513432503 0 0 0 0 -112335472.44874191 -92718332.579365849 0 -92718332.579365849 -139017463.5094316 0 0 0 0 -20664024.468063354 -54279530.603726149 0 -54279530.603726149 -156831196.967659 0 0 0 0 60984729.634620667 -156056244.24108198 0 -156056244.24108198 -135977649.11946535 0 0 0 0 -406791137.35248089 -230547387.81112394 0 -230547387.81112394 -157088087.23460031 0 0 0 0 -12298392.909864426 -265527690.42611074 0 -265527690.42611074 -79195871.651516736 0 0 0 0 -139627091.51800537 142771336.51174784 0 142771336.51174784 137251330.62030858 0 0 0 0 96162550.095607758 -235080052.34732589 0 -235080052.34732589 -226306579.54518652 0 0 0 0 467177.53480757121 412468.7463718066 0 412468.7463718066 -887036.62897818384 0 0 0 0 -439215648.43319321 52737961.055183887 0 52737961.055183887 33410576.421451807 0 0 0 0 -180883933.87748659 123225274.72514877 0 123225274.72514877 10753132.016922951 0 0 0 0 -180249684.43868637 15753790.384202242 0 15753790.384202242 -198616.8785200119 0 0 0 0 -120162498.47348213 -186616016.66679716 0 -186616016.66679716 -504300498.9183917 0 0 0 0 -259377088.2802906 231819202.01995254 0 231819202.01995254 -108574336.53900051 0 0 0 0 57960930.551647186 19679352.61633873 0 19679352.61633873 -311852612.65486479 0 0 0 0 -81940971.13615036 117679047.68219876 0 117679047.68219876 -590828431.39738786 0 0 0 0 -45423303.24782753 -2591939.653260231 0 -2591939.653260231 -255710926.76827967 0 0 0 0 60105345.642745972 15931317.752821207 0 15931317.752821207 -262428595.22765088 0 0 0 0 67910969.616068363 -71997569.824146658 0 -71997569.824146658 -170693522.2151227 0 0 0 0 47715190.809516907 -49557979.476515889 0 -49557979.476515889 -131338768.50266588 0 0 0 0 56722352.089988708 -88777240.443238378 0 -88777240.443238378 -87902954.125447929 0 0 0 0 38200991.447071075 -5747186.6111593246 0 -5747186.6111593246 -136819166.10882735 0 0 0 0 57245966.311855316 -17577977.632198572 0 -17577977.632198572 -165224696.41615129 0 0 0 0 43961724.63861084 -35486974.414475322 0 -35486974.414475322 -97005347.52930069 0 0 0 0 15767089.636054993 25518272.707916975 0 25518272.707916975 -143233079.00873148 0 0 0 0 24062358.957695007 -8930488.6868622303 0 -8930488.6868622303 -79742910.044098973 0 0 0 0 9821928.2364654541 64452.668219685555 0 64452.668219685555 -65125569.637611151 0 0 0 0 10664627.522171021 -32761497.576566577 0 -32761497.576566577 -40465642.973764539 0 0 0 0 15685597.812666416 -24137914.365117878 0 -24137914.365117878 -33990707.162501574 0 0 0 0 14791575.153438568 -41279399.941085577 0 -41279399.941085577 -47416396.353859603 0 0 0 0 11239839.992867589 -14634071.350321375 0 -14634071.350321375 -59069487.758901119 0 0 0 0 5539817.7499103546 -54379261.52643466 0 -54379261.52643466 37352124.642804384 0 0 0 0 4711252.1649932861 -44533420.792829752 0 -44533420.792829752 1316573.5893663168 0 0 0 0 9551852.9075102806 -24986421.868010968 0 -24986421.868010968 9044975.1269006729 0 0 0 0 10732548.796722412 -31357811.324238658 0 -31357811.324238658 17744307.393597841 0 0 0 0 23154876.06992054 -9682209.821750313 0 -9682209.821750313 25348320.528449178 0 0 0 0 -52030218.677654266 -21085818.615405202 0 -21085818.615405202 265222160.4333086 0 0 0 0 822392.40804095566 -163056.27877427428 0 -163056.27877427428 -161642.63018742925 0 0 0 0 13277662.113351822 -234539968.6253112 0 -234539968.6253112 94405442.40129149 0 0 0 0 42452879.962964058 32475901.962510586 0 32475901.962510586 -11267468.80363512 0 0 0 0 82715415.010099411 13328447.249388337 0 13328447.249388337 -48615733.562857628 0 0 0 0 60781831.460987091 42229119.539603949 0 42229119.539603949 -50874461.89447175 0 0 0 0 115788221.1486187 62105513.662357092 0 62105513.662357092 -49744243.985286519 0 0 0 0 35940801.398682594 110587473.00688356 0 110587473.00688356 -64882143.685341358 0 0 0 0 379104.17475866713 703904.94514920842 0 703904.94514920842 -1476051.5708712712 0 0 0 0 78399788.056735992 21262263.194424152 0 21262263.194424152 -15371695.647637844 0 0 0 0 15525022.706279755 28640843.129800081 0 28640843.129800081 -3261968.4495604038 0 0 0 0 -74612225.917438507 -21627989.641156197 0 -21627989.641156197 93028229.594173908 0 0 0 0 325671163.57517624 28928387.005933404 0 28928387.005933404 -219368670.77568436 0 0 0 0 -25261999.712088823 31587960.983413093 0 31587960.983413093 29803400.217413902 0 0 0 0 -20287527.74641037 95301005.862697363 0 95301005.862697363 -80169838.653282166 0 0 0 0 397293.0480786073 860455.93133484107 0 860455.93133484107 -1232662.191601051 0 0 0 0 120195011.34401822 1652295.7895849347 0 1652295.7895849347 -30390400.01197958 0 0 0 0 -54507159.073757172 121022951.64567709 0 121022951.64567709 24365580.723148704 0 0 0 0 49080068.510486603 88360114.761260986 0 88360114.761260986 -31977891.41391468 0 0 0 0 -57250905.499332428 99122287.412291527 0 99122287.412291527 -6632684.0198755264 0 0 0 0 -64804327.076248169 71614342.059548378 0 71614342.059548378 -29311113.34632349 0 0 0 0 -51330350.091018677 98372370.833513021 0 98372370.833513021 -26622275.421022415 0 0 0 0 195711.29183231154 487583.61097901687 0 487583.61097901687 -500457.25070574321 0 0 0 0 -186672420.11553383 152041635.63193488 0 152041635.63193488 -62676152.805793762 0 0 0 0 124256196.81197548 -50529130.48317194 0 -50529130.48317194 -33395987.748016357 0 0 0 0 86900390.7155056 -6436876.8139822483 0 -6436876.8139822483 -8748884.5953022242 0 0 0 0 5237997.4662611298 4935971.4216158204 0 4935971.4216158204 -8148278.4022432892 0 0 0 0 88557874.464177132 -6552034.4342077971 0 -6552034.4342077971 -30519281.668105125 0 0 0 0 109435603.85763264 72823.086160540581 0 72823.086160540581 -28826308.861541748 0 0 0 0 4295029.4239368439 -35761178.668330669 0 -35761178.668330669 -73832087.567185879 0 0 0 0 3057662.663110272 -2607443.7403023886 0 -2607443.7403023886 -7017560.9150973316 0 0 0 0 115615094.62582731 -3364472.2693376541 0 -3364472.2693376541 -123468242.51427174 0 0 0 0 19170436.698478699 81411782.323059082 0 81411782.323059082 -102285291.72946227 0 0 0 0 8714599.2431638371 5868537.6194255548 0 5868537.6194255548 -13528848.906712249 0 0 0 0 57072491.056213379 35068786.687572479 0 35068786.687572479 -49004617.853837967 0 0 0 0 14853774.874889374 -8971786.1970586777 0 -8971786.1970586777 -58587460.323744297 0 0 0 0 -10604427.074504852 36024204.89593029 0 36024204.89593029 -16330312.576997757 0 0 0 0 -2917814.7564029694 85752628.826043129 0 85752628.826043129 -182817677.88624334 0 0 0 0 -52211316.204187393 -25749861.922833443 0 -25749861.922833443 -33231803.127184391 0 0 0 0 -1391165.2319685817 33681059.677380294 0 33681059.677380294 24512387.14276123 0 0 0 0 8257712.4628315689 2216333.7723115562 0 2216333.7723115562 -10470208.089903291 0 0 0 0 2211389.9499530792 -54270486.249278545 0 -54270486.249278545 319093.16493594646 0 0 0 0 -431093583.63443208 1292162882.9945984 0 1292162882.9945984 -2783383792.2901077 0 0 0 0 -890493052.64525962 477468883.42481613 0 477468883.42481613 484838647.5531311 0 0 0 0 12950897.463587467 5519853.7997814585 0 5519853.7997814585 -13224690.899062155 0 0 0 0 3157684.7782445052 -2276654.8668734971 0 -2276654.8668734971 -9382289.419942027 0 0 0 0 -1554736689.9107804 -610982558.98894405 0 -610982558.98894405 -5872865574.126255 0 0 0 0 -1228438623.4419544 -709533685.89042473 0 -709533685.89042473 -287561659.19586372 0 0 0 0 -400885286.64343566 1421163816.1311035 0 1421163816.1311035 -4667454322.8426628 0 0 0 0 -25826133.663776871 848184605.57756042 0 848184605.57756042 -4726358276.7745218 0 0 0 0 599170489.38994229 53012401.955170631 0 53012401.955170631 -3877575984.3353691 0 0 0 0 643667198.03439224 -440310071.78065681 0 -440310071.78065681 -3100395703.0014 0 0 0 0 -212049714.80852395 -697672769.1248436 0 -697672769.1248436 -631475168.66012383 0 0 0 0 357054476.69953322 -589595125.74287033 0 -589595125.74287033 -1800040367.4905243 0 0 0 0 -2175497182.736557 -597762569.1203661 0 -597762569.1203661 -4725849450.040699 0 0 0 0 844303887.304371 -1697275945.177002 0 -1697275945.177002 -5018058898.3851395 0 0 0 0 -1246896313.3938036 -2391894231.9921989 0 -2391894231.9921989 -2604803801.8022919 0 0 0 0 763859602.88658905 -946300484.82590485 0 -946300484.82590485 -3003867442.8921547 0 0 0 0 872183388.22769344 -705519623.78209305 0 -705519623.78209305 -4723896963.9435883 0 0 0 0 478952864.44708091 -52981737.190414429 0 -52981737.190414429 -3494390272.4889336 0 0 0 0 536242830.62390023 -733656674.37208319 0 -733656674.37208319 -3127239223.1196976 0 0 0 0 -259823698.59716126 461081447.01288795 0 461081447.01288795 -735283893.7819252 0 0 0 0 -489075620.69264245 -588205672.44591522 0 -588205672.44591522 -554672016.21518326 0 0 0 0 482357.07534101093 -679717.42798476107 0 -679717.42798476107 -4674189.1003008634 0 0 0 0 -272782160.90001833 856553539.54433441 0 856553539.54433441 -3569888405.5491924 0 0 0 0 350050524.03077078 -371432367.92071819 0 -371432367.92071819 -4112168520.2807999 0 0 0 0 171338452.72211379 917331162.25630569 0 917331162.25630569 -4028256379.3305206 0 0 0 0 -371964913.78867859 300156970.9380455 0 300156970.9380455 -4723671797.6986389 0 0 0 0 622070744.63180768 926326778.71287537 0 926326778.71287537 -4050864501.0004616 0 0 0 0 767049645.47095847 890409505.69148827 0 890409505.69148827 -4725268105.2828636 0 0 0 0 619373700.4325968 277015125.17102629 0 277015125.17102629 -3418216699.4351501 0 0 0 0 507805.10864698945 165768.9150323309 0 165768.9150323309 -3759480.4178025909 0 0 0 0 70794811.84164831 42508381.494110107 0 42508381.494110107 -1031556.2174682617 0 0 0 0 198164242.35452569 600671930.10949707 0 600671930.10949707 -1268327218.5003815 0 0 0 0 29115211.996165633 545482010.75313568 0 545482010.75313568 -658418813.7797699 0 0 0 0 207578937.69337893 -37571520.055160522 0 -37571520.055160522 -75874671.994018555 0 0 0 0 564108524.5355494 -593631632.53094864 0 -593631632.53094864 -3192844359.515995 0 0 0 0 649929.28920301481 -8680144.9002890047 0 -8680144.9002890047 -19518442.381722759 0 0 0 0 73221270.483255863 271181393.76684189 0 271181393.76684189 10786096.738105774 0 0 0 0 -236180358.85194659 179053326.02371979 0 179053326.02371979 475087361.82654572 0 0 0 0 31915103.835637808 -231144304.06327057 0 -231144304.06327057 -1134658366.6615582 0 0 0 0 -698186378.61472428 -261648206.14081955 0 -261648206.14081955 189293102.05885315 0 0 0 0 361122714.27193737 -212307000.46587372 0 -212307000.46587372 86689953.883489132 0 0 0 0 235166.82546723098 -277705.31283631548 0 -277705.31283631548 -1429641.7580731441 0 0 0 0 -100181107.33054376 -120296886.2793045 0 -120296886.2793045 167182762.46446228 0 0 0 0 131592242.97008491 -451324002.81874847 0 -451324002.81874847 -40960742.120700836 0 0 0 0 1718152.6695015749 -7902429.0003888756 0 -7902429.0003888756 -16714927.72267301 0 0 0 0 -73615874.383221865 11524566.066761017 0 11524566.066761017 71713676.013031006 0 0 0 0 47715647.324787974 -44895571.718276978 0 -44895571.718276978 -52816276.84664917 0 0 0 0 -10998520.714025617 -54922075.961210251 0 -54922075.961210251 -52766987.40814209 0 0 0 0 -31164277.221681595 -4861370.1583786011 0 -4861370.1583786011 9778798.6206550598 0 0 0 0 -1086785.2631947375 -286048.55734104849 0 -286048.55734104849 1706681.0579748973 0 0 0 0 22469246.94131422 -29013187.128501892 0 -29013187.128501892 -75844379.482788086 0 0 0 0 23260401.156037331 -32761654.783149719 0 -32761654.783149719 -64828299.343696594 0 0 0 0 17982784.46079731 -30511154.429718018 0 -30511154.429718018 -49849833.1847229 0 0 0 0 37546693.053899765 -18086542.61378479 0 -18086542.61378479 -50919047.049751282 0 0 0 0 2964631.5732479095 -28106396.027202606 0 -28106396.027202606 -31119112.63906002 0 0 0 0 18927025.100925446 -5437407.4430465698 0 -5437407.4430465698 -54484676.385879517 0 0 0 0 6476237.384271387 -10290179.726221533 0 -10290179.726221533 -41553457.597114265 0 0 0 0 21001761.406166077 -7570086.0522809029 0 -7570086.0522809029 -62119294.827115059 0 0 0 0 6680669.070306099 3821692.1492843339 0 3821692.1492843339 -17766264.627070446 0 0 0 0 14322651.661902428 -7759925.4770190716 0 -7759925.4770190716 -61081609.332865715 0 0 0 0 6169352.3688147711 -11984015.712393243 0 -11984015.712393243 -39909525.083155937 0 0 0 0 3072941.445695024 -9200453.219621582 0 -9200453.219621582 -22699339.561545074 0 0 0 0 9807223.919005394 -27989113.714782715 0 -27989113.714782715 -18106210.20728302 0 0 0 0 1427629.2974118032 783649.41263468564 0 783649.41263468564 -1188872.817876074 0 0 0 0 -857934278.40453434 -298907260.59033585 0 -298907260.59033585 126310877.26308441 0 0 0 0 207531818.88124657 198893514.45809937 0 198893514.45809937 -263810072.26383591 0 0 0 0 -1317337197.4755745 -644782023.68491673 0 -644782023.68491673 -67596672.283340454 0 0 0 0 -2984371.6047029546 -1814784.7330055051 0 -1814784.7330055051 -1531355.2857906744 0 0 0 0 -130237250.93854356 -34525261.610383034 0 -34525261.610383034 5232043.5615768433 0 0 0 0 102956615.59760876 13819204.29781723 0 13819204.29781723 -4704452037.4000978 0 0 0 0 248405003.21541309 86033077.791175842 0 86033077.791175842 19156441.420478821 0 0 0 0 225126429.4745388 72688221.385864258 0 72688221.385864258 15586118.5987854 0 0 0 0 244778298.74326897 90009693.351104736 0 90009693.351104736 17620596.166320801 0 0 0 0 -3787052.0578993494 -5487180.9164665956 0 -5487180.9164665956 -5612041.6730293185 0 0 0 0 1195455.1851341724 -4947421.5856933594 0 -4947421.5856933594 -220463.03053283691 0 0 0 0 1202649.6200433969 -4993530.2555770874 0 -4993530.2555770874 -6063598.6699304581 0 0 0 0 -996640420.636163 2638581273.7461433 0 2638581273.7461433 -4720803006.2495651 0 0 0 0 669345.29933424969 -1025106.8652910292 0 -1025106.8652910292 -3201503.896111533 0 0 0 0 -113717806.76994026 1266701494.1814613 0 1266701494.1814613 -2768187454.0797424 0 0 0 0 120105760.10116616 1335665567.2068329 0 1335665567.2068329 -4011798723.4124908 0 0 0 0 -174180987.20507315 683054311.45333481 0 683054311.45333481 -2788032683.3234453 0 0 0 0 -172611881.56512776 666688115.15185928 0 666688115.15185928 -2677740090.6780777 0 0 0 0 -1980255.8318114963 -3571631.5698758978 0 -3571631.5698758978 -2698920.6626639664 0 0 0 0 230188.72775304248 -3793076.5766137131 0 -3793076.5766137131 -11456103.895279024 0 0 0 0 231971.43723064015 -6178992.5934523009 0 -6178992.5934523009 -7375797.2659729049 0 0 0 0 -9681652.3873822689 -21390548.549705505 0 -21390548.549705505 -9057323.6927719116 0 0 0 0 4177192.630572468 -2352652.5086631775 0 -2352652.5086631775 -32505436.006729126 0 0 0 0 -3544883.4710136652 1653225.879447937 0 1653225.879447937 -29434868.937721252 0 0 0 0 396559.27925777435 -548153.28392028809 0 -548153.28392028809 -7175190.1508178711 0 0 0 0 175512.31757356535 -3485291.1807967424 0 -3485291.1807967424 -8600855.4969150126 0 0 0 0 -786904.91353954584 1544646.6508315988 0 1544646.6508315988 -8454845.7162018046 0 0 0 0 -5233282.0894584954 -825322.00773620605 0 -825322.00773620605 -39024352.416702271 0 0 0 0 -2358448.2380774161 2795551.6231953241 0 2795551.6231953241 -4845788.9924589749 0 0 0 0 -37897448.764731407 14470873.467834473 0 14470873.467834473 25163305.206266403 0 0 0 0 1448517.8379643559 -9677452.1442260742 0 -9677452.1442260742 -58565501.937210083 0 0 0 0 -131469.74027788639 -7365537.2715759277 0 -7365537.2715759277 -54158885.833709717 0 0 0 0 -359536.78689354658 -7365336.0291748047 0 -7365336.0291748047 -56801154.502380371 0 0 0 0 -3658445.7366161421 -12229205.556285679 0 -12229205.556285679 -51011200.907211304 0 0 0 0 -1127781.4419779778 -3392664.8603668213 0 -3392664.8603668213 -55447456.318130493 0 0 0 0 -873067.25601617876 -269997.95201924443 0 -269997.95201924443 1725302.4275339991 0 0 0 0 -7803780.9375605583 -2257693.3955993652 0 -2257693.3955993652 7500331.2205810547 0 0 0 0 7721932.001833166 -1031858.5728242658 0 -1031858.5728242658 -14534767.388993617 0 0 0 0 -230786845.28314209 -78739576.911132812 0 -78739576.911132812 -33245625.864624023 0 0 0 0 -7620040.6317698956 -13779108.253997803 0 -13779108.253997803 -54470183.733398438 0 0 0 0 989440.84965888225 190607.26028784364 0 190607.26028784364 -4940943.845061332 0 0 0 0 3388261.6133900285 4967906.293586731 0 4967906.293586731 -27228329.754043579 0 0 0 0 4241413.2095372677 -11873270.617630005 0 -11873270.617630005 -69153697.081237793 0 0 0 0 6835351.444606483 -2942654.433631897 0 -2942654.433631897 -70840162.364654541 0 0 0 0 5137452.602885793 -54411.749562297016 0 -54411.749562297016 -4591414.4021319896 0 0 0 0 3716255.3773016334 5303287.2152175903 0 5303287.2152175903 -55691683.953289986 0 0 0 0 5709928.4718904197 3268128.3698577881 0 3268128.3698577881 -67491659.586929321 0 0 0 0 -3656831.0427286299 3547324.0790489726 0 3547324.0790489726 -3351934.4443945829 0 0 0 0 -23779112.274692774 -7256549.6768875122 0 -7256549.6768875122 -36914353.419799805 0 0 0 0 6243084.2986622304 -6252385.9476618767 0 -6252385.9476618767 -32216295.630493164 0 0 0 0 31987256.061180115 -8152388.5182819366 0 -8152388.5182819366 -179362237.13934326 0 0 0 0 43150426.074881077 -31476347.332122803 0 -31476347.332122803 -170592974.23793793 0 0 0 0 53166776.030533314 -34429364.604759216 0 -34429364.604759216 -160655472.51200867 0 0 0 0 12323460.681753874 -1380430.9494838715 0 -1380430.9494838715 -31849151.02431488 0 0 0 0 29522164.150017262 16306046.140130997 0 16306046.140130997 -188384385.45723724 0 0 0 0 6793664.6976354122 -50147382.901054382 0 -50147382.901054382 -162325865.01052856 0 0 0 0 -4914450.2850399017 -40709877.632736206 0 -40709877.632736206 -167090007.59455872 0 0 0 0 -49577053.26447773 -164412653.99136353 0 -164412653.99136353 -315043656.37001324 0 0 0 0 5218822.9002859592 69384411.078073502 0 69384411.078073502 -264140066.1140976 0 0 0 0 -109834820.37315178 -71534781.877052307 0 -71534781.877052307 5220674.819683075 0 0 0 0 -732872.16052350728 528901.85835307837 0 528901.85835307837 1137202.4726030752 0 0 0 0 -64805351.114569724 81379916.723144531 0 81379916.723144531 -29804573.021774292 0 0 0 0 -43262920.39475131 34557185.663906097 0 34557185.663906097 24238495.764404297 0 0 0 0 -4708487.7267674208 10219541.309276581 0 10219541.309276581 -21726230.620422363 0 0 0 0 -20349750.064256191 4532025.6317901611 0 4532025.6317901611 12028802.081359863 0 0 0 0 5796739.0870706895 6236543.9677309133 0 6236543.9677309133 -13103108.189453514 0 0 0 0 4186824.0667648315 5832828.097366333 0 5832828.097366333 -7628444.3900432587 0 0 0 0 3169791.0271830559 4066017.5503311157 0 4066017.5503311157 -4333419.6633300781 0 0 0 0 -13081602.03905499 4559481.0313529968 0 4559481.0313529968 32831595.544380188 0 0 0 0 16501080.003371239 836882.87075042725 0 836882.87075042725 11394006.822059631 0 0 0 0 6027273.4851890355 7282130.0373662561 0 7282130.0373662561 -10039506.458529927 0 0 0 0 7491403.2167830467 8972549.6962270737 0 8972549.6962270737 -6719863.4277801514 0 0 0 0 9445457.8869652748 -3745416.4441604614 0 -3745416.4441604614 16201812.652496338 0 0 0 0 8380014.1704502106 5898322.9088745117 0 5898322.9088745117 -17095913.344806671 0 0 0 0 10582006.043453217 3563142.7415771484 0 3563142.7415771484 8748491.5061264038 0 0 0 0 27447070.62625885 2971919.0141830444 0 2971919.0141830444 8336253.7219638824 0 0 0 0 17010770.362195015 -8210927.910243988 0 -8210927.910243988 4465266.3098907471 0 0 0 0 -13286216.14679265 -34422720.797075272 0 -34422720.797075272 -163024123.9523468 0 0 0 0 14361292.061850071 16371582.271064758 0 16371582.271064758 13364151.887771606 0 0 0 0 -1028887.6655817032 -56324434.677978516 0 -56324434.677978516 -172237670.52695465 0 0 0 0 -1649268.2500392143 1988145.7086630519 0 1988145.7086630519 3529383.1358462796 0 0 0 0 2250224.1316338601 1053038.1623742431 0 1053038.1623742431 -12912514.682270546 0 0 0 0 5916540.7641889546 5770417.9417179972 0 5770417.9417179972 -11963305.466700122 0 0 0 0 6937972.5814940929 8144835.088224411 0 8144835.088224411 15024676.003875732 0 0 0 0 6233210.2202177048 5704806.8935623169 0 5704806.8935623169 -31305977.532897949 0 0 0 0 -1506611.3462939262 654170.28014755249 0 654170.28014755249 4782875.2060165405 0 0 0 0 -1937.5747012867359 1014485.0316024444 0 1014485.0316024444 240702.13712185621 0 0 0 0 62747.091356556397 294156.51103293896 0 294156.51103293896 -154996.50399648398 0 0 0 0 1239269.7633943558 1878904.5103302002 0 1878904.5103302002 -2204322.4253196716 0 0 0 0 395205.29561245441 -387390.11220741272 0 -387390.11220741272 -841143.86472702026 0 0 0 0 394549.74187362799 410203.37586395815 0 410203.37586395815 -944371.5721542798 0 0 0 0 22012089.801793098 -1233295.8252868652 0 -1233295.8252868652 -167627625.33403778 0 0 0 0 1884319.9908962781 2444590.2684996054 0 2444590.2684996054 -4067300.8160371566 0 0 0 0 7255680.6839952469 -11379385.600860596 0 -11379385.600860596 -141554960.41384888 0 0 0 0 37563359.910420418 -35616164.59992981 0 -35616164.59992981 19201161.995862961 0 0 0 0 19453067.434901714 5623287.8793563843 0 5623287.8793563843 -62316462.921325684 0 0 0 0 -3563260.7228503227 74543773.869392395 0 74543773.869392395 32195758.681999207 0 0 0 0 544604.51696968079 37800233.503058434 0 37800233.503058434 -26267132.369854689 0 0 0 0 78826519.189114094 -2755460.9843902588 0 -2755460.9843902588 -56294486.496505737 0 0 0 0 39910873.610982418 -544943.18553924561 0 -544943.18553924561 -53355038.86208725 0 0 0 0 3542424.7589129363 9091157.6197619364 0 9091157.6197619364 -32715739.234859988 0 0 0 0 15072786.686867714 -14161224.849014282 0 -14161224.849014282 -46364444.541870117 0 0 0 0 58925711.019225478 -26717997.482973099 0 -26717997.482973099 -73275231.974533081 0 0 0 0 17088704.093753815 -3219743.1140975952 0 -3219743.1140975952 -116677268.57383347 0 0 0 0 2541941.1829768103 -57118495.721046448 0 -57118495.721046448 -101646128.79051971 0 0 0 0 15316571.477236643 -16974634.605154991 0 -16974634.605154991 -84093768.948242188 0 0 0 0 -28116153.654346958 -71006064.436180115 0 -71006064.436180115 -49467173.807577133 0 0 0 0 -31455489.126666531 -119593705.07997513 0 -119593705.07997513 -172800227.44470215 0 0 0 0 36403060.155243546 -3093648.5100288391 0 -3093648.5100288391 -309829765.91875458 0 0 0 0 -14652554.378523588 116048461.06386566 0 116048461.06386566 -177204871.74291229 0 0 0 0 35680020.72482115 7244061.28170681 0 7244061.28170681 -113364765.84934998 0 0 0 0 9440335.6208734512 9196683.7210693359 0 9196683.7210693359 -37192589.685623169 0 0 0 0 4893885.0365047455 26757096.45274353 0 26757096.45274353 -80494420.404508591 0 0 0 0 18690331.914361477 30641195.832374573 0 30641195.832374573 -143761469.02990723 0 0 0 0 28422516.901680946 80297213.980354309 0 80297213.980354309 -149108112.79897213 0 0 0 0 25344673.344563246 86480648.784820557 0 86480648.784820557 -161330509.50575256 0 0 0 0 -8714482.4779639244 99096564.368286133 0 99096564.368286133 -81795289.48393631 0 0 0 0 -853946.93904131826 1664973.1469934396 0 1664973.1469934396 4312746.7713938914 0 0 0 0 35974442.015114494 5519130.3579444885 0 5519130.3579444885 -65756138.742889404 0 0 0 0 31221332.995846391 32275525.276187897 0 32275525.276187897 -161633461.27737427 0 0 0 0 148053859.93686771 -89145407.938735962 0 -89145407.938735962 193950685.47947693 0 0 0 0 12158.128869533539 38093172.74180603 0 38093172.74180603 -60306743.51758194 0 0 0 0 7798293.3134220392 43822729.566917419 0 43822729.566917419 -58043543.942199707 0 0 0 0 6183367.6570336372 78479677.564994812 0 78479677.564994812 -128576488.6025238 0 0 0 0 -3521796.1529539824 15886618.02923584 0 15886618.02923584 22116662.057785034 0 0 0 0 -31682707.64993155 19719034.551559448 0 19719034.551559448 7300136.5904541016 0 0 0 0 15790920.036895752 12570033.4451828 0 12570033.4451828 7475693.6080677509 0 0 0 0 -3427775.9269059147 5310925.483838968 0 5310925.483838968 14776266.346796058 0 0 0 0 3005947.8099517822 48542075.831680298 0 48542075.831680298 24102109.158564091 0 0 0 0 59370184.983397126 36729984.872753143 0 36729984.872753143 50941574.261260986 0 0 0 0 7984778.2010655347 7786728.9080921328 0 7786728.9080921328 -33344956.949369591 0 0 0 0 2709364.6773033142 3371437.9870986938 0 3371437.9870986938 -6813596.6161670685 0 0 0 0 -623283.88666061778 3358308.7501338171 0 3358308.7501338171 -3378207.4944244558 0 0 0 0 -2725120.1581764221 964904.0592918396 0 964904.0592918396 5308151.8162593842 0 0 0 0 -1174343.829453703 4133695.7845673785 0 4133695.7845673785 7947924.3513072822 0 0 0 0 -6551478.0428924561 12123385.548329353 0 12123385.548329353 -38794263.95513916 0 0 0 0 -4444976.3918991089 6397951.6705935001 0 6397951.6705935001 -74081187.321683645 0 0 0 0 4224346.0195529163 12151674.226848869 0 12151674.226848869 -24295296.424936272 0 0 0 0 14056528.516111851 106875025.11699677 0 106875025.11699677 66768801.066555023 0 0 0 0 5624110.1077747345 -3311910.9030575752 0 -3311910.9030575752 -56362501.983627319 0 0 0 0 -4305099.7279891968 -21660895.066214561 0 -21660895.066214561 -22180724.685937405 0 0 0 0 767203.56012392975 50879.196117614396 0 50879.196117614396 -2404961.5538395829 0 0 0 0 -305321.29849153757 -5473892.1781989345 0 -5473892.1781989345 -23331687.722253092 0 0 0 0 -1254377.3254032135 13327490.908855677 0 13327490.908855677 -45144794.358629227 0 0 0 0 6692166.761182785 15631032.236411095 0 15631032.236411095 -68211019.417510986 0 0 0 0 1834473.4172505531 -1219796.5792454833 0 -1219796.5792454833 -11314459.615510741 0 0 0 0 -4752998.0119161606 -1098.592292547226 0 -1098.592292547226 -27707907.616225243 0 0 0 0 15671571.109727859 9695755.4309530258 0 9695755.4309530258 -25366314.236507416 0 0 0 0 34664511.608599663 226171224.64494324 0 226171224.64494324 -206417426.88293457 0 0 0 0 3362897.0495812893 10786994.469773099 0 10786994.469773099 -28181285.790845651 0 0 0 0 21049741.18585968 18944419.689309597 0 18944419.689309597 -34707284.075441599 0 0 0 0 107485673.2831974 -8321617.775267601 0 -8321617.775267601 -76524113.833164215 0 0 0 0 11574261.522363663 -3691068.029081583 0 -3691068.029081583 -51363762.534871101 0 0 0 0 15699365.133155823 32468278.448854446 0 32468278.448854446 -3667507.8315458298 0 0 0 0 517963.89070124365 -158517.41012086312 0 -158517.41012086312 -3090932.223826353 0 0 0 0 40829214.84716177 -19846669.913407117 0 -19846669.913407117 -156675957.93555689 0 0 0 0 55628994.240580082 22273277.630515456 0 22273277.630515456 -111637388.51095772 0 0 0 0 -2750675.1870155334 4961533.7500870228 0 4961533.7500870228 -64187933.270632029 0 0 0 0 5756715.5164031982 17968719.698014975 0 17968719.698014975 -103627510.15310073 0 0 0 0 2496416.1600809097 16816193.499759316 0 16816193.499759316 -77962956.074454308 0 0 0 0 9013154.4843101501 11305781.273894072 0 11305781.273894072 -62063767.49934113 0 0 0 0 -8207781.2589588165 7452938.7541337013 0 7452938.7541337013 -25533068.466049194 0 0 0 0 4632270.1121864319 1697792.340015173 0 1697792.340015173 -51171014.469487667 0 0 0 0 8073851.4880714417 16964702.289493322 0 16964702.289493322 -31903840.84164238 0 0 0 0 -8851726.7489280701 5885558.0369977951 0 5885558.0369977951 -50502512.648095012 0 0 0 0 -1150727.8625340462 478240.76585197449 0 478240.76585197449 1316620.1347427368 0 0 0 0 2191124.9596466362 3929451.7524540443 0 3929451.7524540443 -7990378.1757255839 0 0 0 0 -1713155.870382078 1730293.9768833113 0 1730293.9768833113 4357384.0959975868 0 0 0 0 -2174664.3364048004 17286416.513549089 0 17286416.513549089 1166246.5914163589 0 0 0 0 4605428.3391647339 -7069854.3756504059 0 -7069854.3756504059 -30657201.142660618 0 0 0 0 17769588.973381042 4635112.4600534439 0 4635112.4600534439 -66710397.318531036 0 0 0 0 3789166.0480232239 5410074.9547901154 0 5410074.9547901154 -66394422.096501589 0 0 0 0 7747239.5064697266 13700737.677677155 0 13700737.677677155 -74259204.127837181 0 0 0 0 -4590419.5271987915 22847977.514963627 0 22847977.514963627 -77466973.682471275 0 0 0 0 4214463.7902252078 2428917.1160637662 0 2428917.1160637662 -70970111.592353821 0 0 0 0 -9428279.8648643494 8866243.5943040848 0 8866243.5943040848 -75619997.452003241 0 0 0 0 -4737218.2788763046 -3517638.4471870661 0 -3517638.4471870661 -52065254.754620552 0 0 0 0 694450.87200927734 5434704.412312746 0 5434704.412312746 -78519332.511328697 0 0 0 0 3150075.5824918747 8128088.158251524 0 8128088.158251524 -80120169.877148628 0 0 0 0 9094176.6265258789 -7640528.1093137264 0 -7640528.1093137264 -102565520.00159311 0 0 0 0 7296443.1405487061 -4423287.9154267311 0 -4423287.9154267311 -85826006.672337055 0 0 0 0 -3491395.3767242432 13687543.511639595 0 13687543.511639595 -78246737.300071239 0 0 0 0 4149007.8426818848 12780377.376659393 0 12780377.376659393 -75845777.072847366 0 0 0 0 7169276.7444419861 2559832.6866698265 0 2559832.6866698265 -75312059.519452095 0 0 0 0 3692362.5584335327 1848439.3817410469 0 1848439.3817410469 -98044249.497848868 0 0 0 0 7138343.3382225037 10903458.760099411 0 10903458.760099411 -96766339.150203705 0 0 0 0 1866623.7096977234 1304998.9490461349 0 1304998.9490461349 -99092007.793280602 0 0 0 0 1301455.7071819305 15790591.77126956 0 15790591.77126956 -122325125.4795599 0 0 0 0 -888959.19630551338 -8602670.6220795065 0 -8602670.6220795065 -141159651.10049152 0 0 0 0 20480311.818321228 -6836464.6500759125 0 -6836464.6500759125 -161953798.48302722 0 0 0 0 18236489.892764091 -12809586.459742665 0 -12809586.459742665 -100560555.00219727 0 0 0 0 7665347.3464918137 7399651.1925991774 0 7399651.1925991774 -106403204.51231098 0 0 0 0 17619030.463886261 -9068868.0675358772 0 -9068868.0675358772 -122670768.53373742 0 0 0 0 20417935.383892059 -7290298.1310431957 0 -7290298.1310431957 -125304160.59320831 0 0 0 0 21348424.405033112 -20019776.150045276 0 -20019776.150045276 -142339817.22116947 0 0 0 0 29562249.378396988 -23133484.063856602 0 -23133484.063856602 -142270192.90278649 0 0 0 0 13388655.7692132 -15809693.459879488 0 -15809693.459879488 -246013707.52477455 0 0 0 0 13698256.42804718 -25987178.636734247 0 -25987178.636734247 -145866204.07149422 0 0 0 0 1004665.9118826389 31289133.43024309 0 31289133.43024309 -170297373.16092575 0 0 0 0 -44935828.820899963 -125851100.43654561 0 -125851100.43654561 -185709950.83028197 0 0 0 0 2392301.3481783094 -4709772.1635317486 0 -4709772.1635317486 -2299668.2335894913 0 0 0 0 23987716.622934341 -45474175.472500384 0 -45474175.472500384 -202234557.3701508 0 0 0 0 31523937.172925949 -46244266.18035382 0 -46244266.18035382 -225744298.34392703 0 0 0 0 39852474.605653048 -53861540.027758524 0 -53861540.027758524 -199698884.09340692 0 0 0 0 33069363.068379641 -12001118.918374106 0 -12001118.918374106 -155908664.49501324 0 0 0 0 -31852629.81794548 -59600058.777747869 0 -59600058.777747869 -188123961.4551096 0 0 0 0 -41475059.071809769 13628129.834882021 0 13628129.834882021 -152755025.13604474 0 0 0 0 -9248113.955039978 -24191631.79311204 0 -24191631.79311204 -130315853.0187856 0 0 0 0 12301626.777218342 16936778.057235718 0 16936778.057235718 -25362783.592388153 0 0 0 0 15030777.89433229 11844750.604699135 0 11844750.604699135 -41318658.453285217 0 0 0 0 7779591.7905020714 -8815104.9895935059 0 -8815104.9895935059 -43184907.3751297 0 0 0 0 -5405227.4127054214 -323100.59214782715 0 -323100.59214782715 -36913805.176322937 0 0 0 0 7382458.6513413191 -3043919.7913908958 0 -3043919.7913908958 -42202588.811508179 0 0 0 0 5743224.8105974197 5705808.0121631622 0 5705808.0121631622 -25164403.92666626 0 0 0 0 2132452.8147883415 7298735.1679039001 0 7298735.1679039001 -9370989.4363708496 0 0 0 0 5644496.1457185745 3054484.3723602295 0 3054484.3723602295 -31562570.382873535 0 0 0 0 2906222.0366706848 -14390287.2212677 0 -14390287.2212677 -33028046.135528564 0 0 0 0 -2712738.8152871132 -11113931.260620117 0 -11113931.260620117 -18334576.674468994 0 0 0 0 7670245.407915473 12831924.561720848 0 12831924.561720848 3812734.6782836914 0 0 0 0 16556521.166053295 13493679.648086548 0 13493679.648086548 -25844597.226425171 0 0 0 0 5996991.0433630403 10743771.972678892 0 10743771.972678892 -12050325.736651707 0 0 0 0 11973874.293921947 7277251.3584289551 0 7277251.3584289551 -32658683.697113037 0 0 0 0 -51049042.470779419 -15325381.203838348 0 -15325381.203838348 29718116.954930186 0 0 0 0 -22915438.267822266 6936266.1060190201 0 6936266.1060190201 -71868016.43927145 0 0 0 0 4294756.176361084 -5779809.9930210114 0 -5779809.9930210114 -78138645.140039921 0 0 0 0 3529509.2948112488 109652763.06524992 0 109652763.06524992 53071913.335065961 0 0 0 0 -1844992.0262775421 -10111122.926854253 0 -10111122.926854253 -41692969.290250778 0 0 0 0 -1169985.338115165 1210428.193072394 0 1210428.193072394 4091634.9429965345 0 0 0 0 4621966.5639247987 5182188.7628693469 0 5182188.7628693469 -20073918.794004932 0 0 0 0 6295023.8242149353 8224943.7070083618 0 8224943.7070083618 -5766518.2828445435 0 0 0 0 5298913.0774139166 11830091.072050095 0 11830091.072050095 2400229.7184524536 0 0 0 0 2086486.5086197471 3001387.06501255 0 3001387.06501255 -12496239.907255564 0 0 0 0 1238128.3023589589 5346064.2392468229 0 5346064.2392468229 1906619.5074681155 0 0 0 0 -8472699.0748977661 63718281.024541855 0 63718281.024541855 26754235.886437416 0 0 0 0 5087091.948387146 9561061.7102813721 0 9561061.7102813721 -4032838.8628768921 0 0 0 0 -4435553.4404830933 1264341.6752090454 0 1264341.6752090454 10498691.4087677 0 0 0 0 1340899.367279551 5818429.7973221922 0 5818429.7973221922 985273.76848360151 0 0 0 0 6786908.4125442505 -33193994.728336811 0 -33193994.728336811 -11855070.367241859 0 0 0 0 -34946401.71245575 14718128.744857311 0 14718128.744857311 -57893403.192411423 0 0 0 0 14615336.959905624 -7559306.9620704651 0 -7559306.9620704651 -76747144.149561405 0 0 0 0 14435439.628959656 15801352.328548431 0 15801352.328548431 -35713074.928948879 0 0 0 0 6699991.7777442932 -7434814.1509842873 0 -7434814.1509842873 -54566968.291566133 0 0 0 0 42039837.276964188 -2167035.1071002483 0 -2167035.1071002483 -60619751.726259232 0 0 0 0 17769340.856304169 -5227995.9768800735 0 -5227995.9768800735 -73641196.136029243 0 0 0 0 7383721.876537323 -7358191.542529583 0 -7358191.542529583 -72430127.601366758 0 0 0 0 6797008.3106994629 -10976215.551462173 0 -10976215.551462173 -74718285.912590146 0 0 0 0 7099580.5998001099 -23819052.088197708 0 -23819052.088197708 -93825946.778788984 0 0 0 0 13907254.571235657 -14776580.481243372 0 -14776580.481243372 -95038311.317828178 0 0 0 0 8994053.8553037643 -20099604.744936705 0 -20099604.744936705 -87064394.15353632 0 0 0 0 17804782.109498978 -23384679.266914606 0 -23384679.266914606 -123282602.53666735 0 0 0 0 21363846.269575119 -40933816.814801574 0 -40933816.814801574 -138571706.32419801 0 0 0 0 30824531.18954134 -28579473.394223809 0 -28579473.394223809 -122476700.5974741 0 0 0 0 -108741745.9132843 -69784664.22685051 0 -69784664.22685051 -67639881.286300421 0 0 0 0 -18942511.162239075 -25277861.278784156 0 -25277861.278784156 -51144911.334616661 0 0 0 0 -20355117.544567108 -29687263.951021671 0 -29687263.951021671 -61394895.542437077 0 0 0 0 -9980757.4352378845 -19363880.258122921 0 -19363880.258122921 -79900129.582085609 0 0 0 0 -15690140.376356125 -49727827.26690197 0 -49727827.26690197 -102520690.44487715 0 0 0 0 -4195293.2977294922 -19095758.597071409 0 -19095758.597071409 -83382086.515566349 0 0 0 0 -3007795.1006157398 -5370161.0777056217 0 -5370161.0777056217 -64578055.295100212 0 0 0 0 -3600847.882027626 -21983791.662965298 0 -21983791.662965298 -55049768.818983078 0 0 0 0 2874791.2858586051 13198445.902246427 0 13198445.902246427 -6063905.6688909559 0 0 0 0 6941812.7988054752 30482055.691656709 0 30482055.691656709 -2537074.3985462189 0 0 0 0 6410908.7350121625 4850688.9082162008 0 4850688.9082162008 -25042732.931188077 0 0 0 0 -9354580.1419317722 -15654794.175488085 0 -15654794.175488085 -60975724.121891975 0 0 0 0 846126.78273757116 3561004.4776851968 0 3561004.4776851968 -2235735.7579737692 0 0 0 0 -41434087.945402145 36434941.087464809 0 36434941.087464809 -16618043.132202104 0 0 0 0 31039591.595762253 97007106.786093473 0 97007106.786093473 -76971800.244056702 0 0 0 0 17685012.343996048 27500480.995065689 0 27500480.995065689 -16581352.844976038 0 0 0 0 19593279.996594995 20177258.707582355 0 20177258.707582355 -45919313.966472626 0 0 0 0 -835716.92489242554 -3469359.890537262 0 -3469359.890537262 -14469338.476173401 0 0 0 0 32467941.693671227 -34206528.778251648 0 -34206528.778251648 69918375.519012451 0 0 0 0 1788906.131904887 -20782489.608394194 0 -20782489.608394194 -30361668.03338962 0 0 0 0 14416247.833230019 -15235688.663230896 0 -15235688.663230896 74083656.094329834 0 0 0 0 -4873950.143374498 -5092105.7134005949 0 -5092105.7134005949 17279806.198140964 0 0 0 0 -12152340.235767271 -11139531.202692905 0 -11139531.202692905 14050681.232128762 0 0 0 0 313559589.35687619 137453225.66827118 0 137453225.66827118 -870104216.45775604 0 0 0 0 316545530.91683388 -220854849.0185194 0 -220854849.0185194 -96343488.321828842 0 0 0 0 1549133.9380151136 -22194937.687783975 0 -22194937.687783975 -20075457.695448395 0 0 0 0 5655061.7843594551 -13387573.342794418 0 -13387573.342794418 -6096301.3234100342 0 0 0 0 -239459254.78866005 -236437378.92429465 0 -236437378.92429465 -148805582.88768721 0 0 0 0 -187033007.54287148 116704366.97424912 0 116704366.97424912 15123209.768490314 0 0 0 0 169316543.73099518 455924953.609308 0 455924953.609308 -1299393587.5640802 0 0 0 0 7459006.4046268463 -19007428.725452423 0 -19007428.725452423 -23539171.689059258 0 0 0 0 13580232.646781921 -9532633.7600364685 0 -9532633.7600364685 -45619882.184661865 0 0 0 0 165295.06486574002 -2691361.7902382873 0 -2691361.7902382873 -5334898.760787297 0 0 0 0 1871997.7563579008 -20172645.826111529 0 -20172645.826111529 -31813992.845458999 0 0 0 0 -718052284.95051575 -1103359708.9700146 0 -1103359708.9700146 1715646554.6580768 0 0 0 0 -1112262.6870651245 -2082451.0259780884 0 -2082451.0259780884 2852247.0499420166 0 0 0 0 -1454721.1795829888 -20923685.420312483 0 -20923685.420312483 -17038868.368410539 0 0 0 0 1830360.7053713445 -2096454.1453434192 0 -2096454.1453434192 -27579140.199563824 0 0 0 0 -49864861.717571259 -24221456.691726685 0 -24221456.691726685 -33452044.683952332 0 0 0 0 13249615.751777649 -7606141.4081573486 0 -7606141.4081573486 -65763138.346958637 0 0 0 0 994847.28115302511 -18832690.436428376 0 -18832690.436428376 -19969350.424126755 0 0 0 0 54525.430997140706 -863935.4862831682 0 -863935.4862831682 -1666163.5881965035 0 0 0 0 11922626.007593155 -7458475.2757797241 0 -7458475.2757797241 -90567612.903564453 0 0 0 0 6161116.4280090332 -13161759.008487701 0 -13161759.008487701 -46674675.104377747 0 0 0 0 -1336478.5106086731 1044988.1402053833 0 1044988.1402053833 -51158193.257328033 0 0 0 0 26454586.49871254 -104498952.55638897 0 -104498952.55638897 -203833029.04324079 0 0 0 0 -64867827.808831215 167262226.76428634 0 167262226.76428634 117220791.26390553 0 0 0 0 31878504.350772858 -27088460.115314484 0 -27088460.115314484 -82233296.460926056 0 0 0 0 25368823.923841476 -21584872.052432299 0 -21584872.052432299 -105167145.46191931 0 0 0 0 67880006.983905792 -28887357.490067363 0 -28887357.490067363 -135820063.40043223 0 0 0 0 1585837.0376699921 -18518883.963728584 0 -18518883.963728584 -9137542.6087733153 0 0 0 0 3881862.53099823 -21103592.364040375 0 -21103592.364040375 -55611613.09790802 0 0 0 0 6387406.0682735443 -13979040.462885857 0 -13979040.462885857 -52199248.470626831 0 0 0 0 4766910.7404088974 -8414615.5655426979 0 -8414615.5655426979 -32129976.268127441 0 0 0 0 736352.16498947144 -6451045.0933685303 0 -6451045.0933685303 -44562792.733283997 0 0 0 0 3144392.7871677876 -18814413.43076086 0 -18814413.43076086 -31713024.691833496 0 0 0 0 8322807.2102641631 -6782153.8417311069 0 -6782153.8417311069 -28428049.637502033 0 0 0 0 6705925.9473571777 -15470458.87355423 0 -15470458.87355423 -21723345.653446198 0 0 0 0 6291518.6172618866 -12630900.715557098 0 -12630900.715557098 -25402639.31401062 0 0 0 0 6990352.9992657686 -14884744.931234702 0 -14884744.931234702 -41545799.159819409 0 0 0 0 465398934.41187668 -229145926.47245789 0 -229145926.47245789 -29332825.810791016 0 0 0 0 495982024.06257629 -129196763.70599365 0 -129196763.70599365 81326187.461151123 0 0 0 0 240246884.7195015 -262648907.22622681 0 -262648907.22622681 244475924.16001129 0 0 0 0 756417.43611738458 -1017368.9044956788 0 -1017368.9044956788 -4243941.3412668947 0 0 0 0 11050904.750824451 -27159454.678179264 0 -27159454.678179264 -22454735.567070007 0 0 0 0 653485.08622360229 -10019286.54473114 0 -10019286.54473114 -23716829.604347229 0 0 0 0 4367975.7524261475 -18055258.52986145 0 -18055258.52986145 -46229396.421289444 0 0 0 0 -217718069.45823288 -341811590.91398621 0 -341811590.91398621 282791126.03582764 0 0 0 0 -292112328.4110136 -271557628.71018982 0 -271557628.71018982 -35935617.783996582 0 0 0 0 -360058140.04690933 52671427.665618896 0 52671427.665618896 35615689.668823242 0 0 0 0 513594685.25150681 44540873.939575195 0 44540873.939575195 -357750598.90386963 0 0 0 0 514469418.164505 -177784156.71115112 0 -177784156.71115112 -213109460.18969727 0 0 0 0 222110710.0434494 423886550.24780273 0 423886550.24780273 -473482717.78994751 0 0 0 0 30131483.228103638 -40556582.052642822 0 -40556582.052642822 21776769.084228516 0 0 0 0 34745663.91210556 -162199756.81208801 0 -162199756.81208801 117980733.27270508 0 0 0 0 157303603.6560936 -114459182.72996521 0 -114459182.72996521 22303028.304260254 0 0 0 0 153348949.83047485 -165610480.52227783 0 -165610480.52227783 111558892.84640503 0 0 0 0 295392510.82167816 -250098086.40562439 0 -250098086.40562439 158902421.80523682 0 0 0 0 115719807.29974747 -131558656.06915283 0 -131558656.06915283 69689965.002532959 0 0 0 0 144825192.7707901 -56242031.724380493 0 -56242031.724380493 229285643.53404999 0 0 0 0 -41978346.973804474 -137968241.60357666 0 -137968241.60357666 75196941.244049072 0 0 0 0 -4794423.3630905151 -67206928.426879883 0 -67206928.426879883 134943087.58420181 0 0 0 0 -84513495.980600357 -170173777.09527206 0 -170173777.09527206 40363707.686706543 0 0 0 0 -99112402.808773041 -105079935.68911743 0 -105079935.68911743 109559066.01467896 0 0 0 0 27565905.769658327 -78439513.634836197 0 -78439513.634836197 23709227.841308594 0 0 0 0 -107038648.57125092 -157886813.85263062 0 -157886813.85263062 33863163.484603882 0 0 0 0 -117211396.16742325 -210179265.7638855 0 -210179265.7638855 -31146754.304412842 0 0 0 0 -125873000.91111374 -166683611.29214478 0 -166683611.29214478 85261138.997894287 0 0 0 0 -92460506.991724014 -153461271.75338745 0 -153461271.75338745 18925669.555633545 0 0 0 0 -109272973.055233 -140448813.40888977 0 -140448813.40888977 62175495.074432373 0 0 0 0 -79514681.966598511 -114428683.26535034 0 -114428683.26535034 80525004.183380127 0 0 0 0 -129337827.16092873 -104585729.990448 0 -104585729.990448 36227179.095462918 0 0 0 0 -67245801.089575768 -120050424.0831871 0 -120050424.0831871 36353865.923156738 0 0 0 0 -55489515.17057991 -93399966.618629456 0 -93399966.618629456 -23688653.703720093 0 0 0 0 20178422.897443056 -35425877.80430603 0 -35425877.80430603 20173673.092437744 0 0 0 0 -12947981.124668121 -52518092.897315979 0 -52518092.897315979 67624824.582336426 0 0 0 0 31876267.604766846 -106516128.47329712 0 -106516128.47329712 -95482103.19480896 0 0 0 0 -23411717.33936882 -179394714.1761322 0 -179394714.1761322 -176578884.48368073 0 0 0 0 -886709.0503246896 -1890122.46850238 0 -1890122.46850238 4652613.2936026379 0 0 0 0 39513202.52973175 11130565.741961479 0 11130565.741961479 -12095127.220261335 0 0 0 0 36440729.929340363 7568303.6332492828 0 7568303.6332492828 -9508302.7164738178 0 0 0 0 16780343.542774394 -5540486.693809703 0 -5540486.693809703 -12983731.133202687 0 0 0 0 36073335.602714539 -1003598.5036487281 0 -1003598.5036487281 -23729291.829225004 0 0 0 0 13887254.020827495 -8759653.3848085795 0 -8759653.3848085795 -32461985.218870964 0 0 0 0 2188166.5802040789 -19070088.27195923 0 -19070088.27195923 -6878493.6144726407 0 0 0 0 -18942222.910409927 -56480670.991259933 0 -56480670.991259933 -91537229.520201087 0 0 0 0 13968477.380939484 -16725015.566524506 0 -16725015.566524506 -57875382.185714722 0 0 0 0 9228809.7754230499 -45751060.573133469 0 -45751060.573133469 -141296792.08626077 0 0 0 0 -6474066.7666978836 -24162456.982822418 0 -24162456.982822418 -45429830.330482483 0 0 0 0 3536777.9630661011 -32447587.667488098 0 -32447587.667488098 -69822320.449893951 0 0 0 0 9394889.5339546204 -6558545.4560394287 0 -6558545.4560394287 -36180196.035110474 0 0 0 0 3442663.9929542542 -7188287.068031311 0 -7188287.068031311 -36062166.868667603 0 0 0 0 30692945.242250443 -1654181.2651367188 0 -1654181.2651367188 -38971207.994484901 0 0 0 0 15302220.088001251 -12795138.178936005 0 -12795138.178936005 -29598482.559135437 0 0 0 0 9761732.0919289496 -7791807.1921654306 0 -7791807.1921654306 -28712407.835987404 0 0 0 0 12765990.8672328 -4013449.9730873108 0 -4013449.9730873108 -20018186.052642822 0 0 0 0 8435839.70911026 -14395408.361217499 0 -14395408.361217499 -25648175.183296204 0 0 0 0 1182047.2090034485 -20615855.223178864 0 -20615855.223178864 -42209291.065757751 0 0 0 0 12017159.786724091 -6440992.2385215759 0 -6440992.2385215759 -20968020.532411575 0 0 0 0 16224239.18347168 -9770580.8438949585 0 -9770580.8438949585 -18528993.939041138 0 0 0 0 9628852.3003115542 -11387904.362077538 0 -11387904.362077538 -27007939.229506738 0 0 0 0 117249952.86411667 -7391254.0850453377 0 -7391254.0850453377 -99189402.640272141 0 0 0 0 28144784.180843353 -2203976.1044960022 0 -2203976.1044960022 -22611436.33098793 0 0 0 0 77808034.381874084 12386100.560913324 0 12386100.560913324 -14547734.861862659 0 0 0 0 62188775.310207367 61184854.443444729 0 61184854.443444729 -166775698.92310524 0 0 0 0 87528146.338582993 34145390.379213691 0 34145390.379213691 -31295372.711287498 0 0 0 0 31301947.777894974 15779441.748732448 0 15779441.748732448 10729983.301803589 0 0 0 0 25986637.659265518 48215915.191184044 0 48215915.191184044 -1861578.7883710861 0 0 0 0 1828206.0170440469 94766.305554620922 0 94766.305554620922 -1670712.2568844757 0 0 0 0 50709279.867969513 -229678496.43914747 0 -229678496.43914747 -259259394.91378403 0 0 0 0 99571147.419998169 4632160.6721601486 0 4632160.6721601486 -127960197.46998882 0 0 0 0 31243426.912185669 55596378.170250893 0 55596378.170250893 -118404222.39824986 0 0 0 0 1024349.0783462524 121780826.83582973 0 121780826.83582973 -99945165.040392876 0 0 0 0 137245128.66932583 103449454.3747707 0 103449454.3747707 -140768215.71177387 0 0 0 0 -605853.5311126709 82117636.255927086 0 82117636.255927086 -83706487.913213491 0 0 0 0 37720707.817317963 55962494.181451797 0 55962494.181451797 -77745795.891301155 0 0 0 0 121995107.36418104 23592949.219297588 0 23592949.219297588 -112291614.95633268 0 0 0 0 4251603.9572541621 1158876.5307073686 0 1158876.5307073686 -3300624.0541243353 0 0 0 0 40351719.206432343 19832283.036939502 0 19832283.036939502 525320.36499047279 0 0 0 0 67996242.355125427 7744836.9204107523 0 7744836.9204107523 -110645171.82345973 0 0 0 0 68605453.163869858 17520481.525877688 0 17520481.525877688 -29931446.40039292 0 0 0 0 10062143.46276474 35709322.983822107 0 35709322.983822107 16873937.856487274 0 0 0 0 39752584.483898163 46083526.87048912 0 46083526.87048912 13243657.988600254 0 0 0 0 7106310.7549916487 3207546.7626241017 0 3207546.7626241017 -3687168.3271652739 0 0 0 0 26716525.486167908 10125583.210703671 0 10125583.210703671 -9377042.1609556675 0 0 0 0 14920617.225662231 8921968.6376877725 0 8921968.6376877725 3371597.6674096957 0 0 0 0 18096964.382888794 15735273.646475792 0 15735273.646475792 18554930.236140966 0 0 0 0 -19042469.904752731 -4665626.338185668 0 -4665626.338185668 10419427.845442295 0 0 0 0 2921120.0160140991 25150583.843777418 0 25150583.843777418 14909944.694397449 0 0 0 0 14902648.681686401 11498123.289923191 0 11498123.289923191 26768387.7194767 0 0 0 0 -25663907.62975502 8105528.0873314142 0 8105528.0873314142 6288808.6147674322 0 0 0 0 13208049.436141968 41755919.533889681 0 41755919.533889681 -11353772.735887885 0 0 0 0 -11543071.415596008 31467292.267920017 0 31467292.267920017 -13945039.866241813 0 0 0 0 -34419546.763572693 17818740.551768064 0 17818740.551768064 -2412368.7257199287 0 0 0 0 -10954302.110412598 -822008.19311380386 0 -822008.19311380386 -652654.22237551212 0 0 0 0 -17364618.585258484 -8886503.0933885574 0 -8886503.0933885574 -3251883.0652424097 0 0 0 0 -26822524.828422546 -17781116.214131594 0 -17781116.214131594 -10825838.203595638 0 0 0 0 -1382546.6889419556 -24342107.198349953 0 -24342107.198349953 -33110231.22591877 0 0 0 0 7293192.8062019348 -323022.72554707527 0 -323022.72554707527 -9622833.3400144577 0 0 0 0 -34210799.623298645 -16204324.808597803 0 -16204324.808597803 -11162292.923307896 0 0 0 0 -35207215.267944336 -48420777.081681252 0 -48420777.081681252 -29489497.359336853 0 0 0 0 -77741133.253883362 -35210274.641374111 0 -35210274.641374111 -8477796.1080684662 0 0 0 0 -82855302.618210316 19501875.861297369 0 19501875.861297369 -12293839.439101219 0 0 0 0 -159336782.12711716 -43555978.971952438 0 -43555978.971952438 -29471572.532133494 0 0 0 0 -52070154.457267761 66320610.415076256 0 66320610.415076256 -43665062.5982337 0 0 0 0 -66676434.643386841 7644862.4284291267 0 7644862.4284291267 -4173866.6173820496 0 0 0 0 -208714666.1456337 21890448.751207352 0 21890448.751207352 -9274866.7686705589 0 0 0 0 25879.148483276367 69452196.060404301 0 69452196.060404301 -55182623.0254035 0 0 0 0 123660.2833480835 108611561.82484245 0 108611561.82484245 -203572759.79422569 0 0 0 0 -160641664.70386505 158525219.24642563 0 158525219.24642563 -91555872.891222954 0 0 0 0 -201730819.97775269 103953194.76342964 0 103953194.76342964 -105463761.19510269 0 0 0 0 -162418092.62926483 36600038.936420441 0 36600038.936420441 -140408290.75122261 0 0 0 0 -152272669.04312897 130182147.88907337 0 130182147.88907337 -114443675.60961533 0 0 0 0 -162830995.73737717 -138659361.47030735 0 -138659361.47030735 -127169818.6843586 0 0 0 0 1365692.0507743265 -775655.4944391856 0 -775655.4944391856 -1649339.9444253836 0 0 0 0 1389080.2696251459 -45998.034298208542 0 -45998.034298208542 -1653330.5747894906 0 0 0 0 -201648609.13053131 -65695462.139801025 0 -65695462.139801025 -189025117.74906158 0 0 0 0 -203684985.25612807 -85452855.234457269 0 -85452855.234457269 -38365645.052542686 0 0 0 0 -197218863.23428345 -146101840.25604534 0 -146101840.25604534 -89283386.406263351 0 0 0 0 -177038611.70323181 -121253881.78193188 0 -121253881.78193188 -65425587.479276657 0 0 0 0 -171890538.13789272 -172303177.98285127 0 -172303177.98285127 -64639417.238958359 0 0 0 0 -133281713.07878494 -83286514.505680084 0 -83286514.505680084 -64595400.275248528 0 0 0 0 -298712511.86614609 -84777460.367997646 0 -84777460.367997646 -38092999.675508037 0 0 0 0 -652267.9061160963 -2153869.6817670176 0 -2153869.6817670176 -683720.59714256192 0 0 0 0 473044561.20303535 -38385645.230700731 0 -38385645.230700731 -284184093.12423277 0 0 0 0 -825472214.39904404 -209909978.72217607 0 -209909978.72217607 147250673.29693151 0 0 0 0 -2528976.3795909882 -500706.35539978743 0 -500706.35539978743 4342539.7153983116 0 0 0 0 2248976.3734205896 -1195269.401629963 0 -1195269.401629963 -2937112.1891209511 0 0 0 0 116586815.43501282 -81603141.673151016 0 -81603141.673151016 -142756375.82514274 0 0 0 0 2646918.3523762804 33821.055318170227 0 33821.055318170227 -3361439.9393016812 0 0 0 0 -6056861.8590784073 -13453778.413906343 0 -13453778.413906343 -20769612.328918695 0 0 0 0 -234595012.92049408 -172883254.94590068 0 -172883254.94590068 -40678880.626154661 0 0 0 0 85483175.250066757 11676538.763069868 0 11676538.763069868 36362592.826449394 0 0 0 0 24149717.428251266 -99430462.333658218 0 -99430462.333658218 -127698489.47706509 0 0 0 0 29036835.380049229 40880455.611401767 0 40880455.611401767 -92124141.404684782 0 0 0 0 324549600.13222122 -122837612.88824034 0 -122837612.88824034 5610310.8283064514 0 0 0 0 196264779.50091171 65920688.962884426 0 65920688.962884426 2402383.5822399035 0 0 0 0 386775667.48945236 94204256.606191158 0 94204256.606191158 -168185866.91539001 0 0 0 0 176179642.28477287 -3501984.0578620434 0 -3501984.0578620434 -193611832.0529741 0 0 0 0 92459895.992767334 86155514.592511654 0 86155514.592511654 -167368280.50103986 0 0 0 0 84625942.645401001 27444870.758892536 0 27444870.758892536 -170740021.79829049 0 0 0 0 191451474.35604382 -11174231.886257052 0 -11174231.886257052 -223121017.46694708 0 0 0 0 208211251.40995789 22371976.8209095 0 22371976.8209095 -177723187.1539607 0 0 0 0 280333715.56901169 -69608238.739947319 0 -69608238.739947319 -199712395.06270885 0 0 0 0 132852761.20126247 -104820222.98812006 0 -104820222.98812006 -206873238.80349541 0 0 0 0 5077963.9212379456 -178951558.76534605 0 -178951558.76534605 -14819223.204615593 0 0 0 0 126394546.72710609 -38682327.833845884 0 -38682327.833845884 -90898253.119000435 0 0 0 0 7901779.5633590221 35804022.974675298 0 35804022.974675298 -29743851.825208664 0 0 0 0 42001346.006771088 -173888.59873914719 0 -173888.59873914719 -13456422.920491219 0 0 0 0 36227581.641819 19555567.381832123 0 19555567.381832123 -68685148.226617575 0 0 0 0 63681886.532018661 13878092.58866334 0 13878092.58866334 -67520374.819223404 0 0 0 0 1822351.8004156966 -1269799.7129057758 0 -1269799.7129057758 -2235610.0847098515 0 0 0 0 -7550259.7751159668 -8688298.0606582165 0 -8688298.0606582165 -10340913.755651236 0 0 0 0 -13565384.369510651 -17217064.8987654 0 -17217064.8987654 -17142710.67158711 0 0 0 0 -210215703.19193172 -643892842.05813289 0 -643892842.05813289 -43707387.239454269 0 0 0 0 -38529598.558048248 136704022.44613791 0 136704022.44613791 -162448707.28645658 0 0 0 0 -757325517.58097839 321834950.14722252 0 321834950.14722252 -173673754.5037809 0 0 0 0 197788383.75956726 -224334168.39551306 0 -224334168.39551306 -396249146.47838783 0 0 0 0 2754067.9219875932 473951.35693556536 0 473951.35693556536 -3262510.5878278539 0 0 0 0 1094758.5685119629 1228680.0136380196 0 1228680.0136380196 -3515678.8453350067 0 0 0 0 2978847.274105072 -3878236.5209436417 0 -3878236.5209436417 862298.87286663055 0 0 0 0 -26651979.550468445 2351923.6784734726 0 2351923.6784734726 22307967.060792923 0 0 0 0 -18512895.235227585 -19180733.606587768 0 -19180733.606587768 -3998962.8137288094 0 0 0 0 -5490225.7887630463 -9511504.6797063351 0 -9511504.6797063351 30998459.609544754 0 0 0 0 -2573823.0079040527 4231136.8087644577 0 4231136.8087644577 -10104439.136665225 0 0 0 0 -14116501.799125671 17926641.100910664 0 17926641.100910664 56965396.080568314 0 0 0 0 4492135.5302625224 3841057.9039009796 0 3841057.9039009796 -2358758.9182673208 0 0 0 0 17199384.116703033 15500352.887721062 0 15500352.887721062 15344838.529539108 0 0 0 0 -23034014.257717371 -28515763.47936368 0 -28515763.47936368 14046300.994350433 0 0 0 0 1078682.9713900667 -707936.36917381175 0 -707936.36917381175 -1198000.4963008729 0 0 0 0 29051651.652565002 -26616393.651827812 0 -26616393.651827812 -11042680.592735291 0 0 0 0 19027785.865943909 46972387.591867208 0 46972387.591867208 -179598463.44480586 0 0 0 0 -55628941.571662903 28307275.694713652 0 28307275.694713652 15014412.989419103 0 0 0 0 -15736633.851705551 -38077634.733161092 0 -38077634.733161092 -85758945.440307856 0 0 0 0 18936090.887125015 11571548.550452232 0 11571548.550452232 3859155.2051897049 0 0 0 0 21788846.214454651 13796983.439693451 0 13796983.439693451 -21865062.662326336 0 0 0 0 1115760.3893317748 646038.68955018604 0 646038.68955018604 319334.50849594316 0 0 0 0 19821358.578971863 4599723.7275810242 0 4599723.7275810242 64847204.413332939 0 0 0 0 -21742498.747919083 -6255596.6380214691 0 -6255596.6380214691 30132667.781069756 0 0 0 0 2861096.27863729 4145007.5188267492 0 4145007.5188267492 14954074.828466415 0 0 0 0 405974.13702958822 4120797.3014125703 0 4120797.3014125703 -1563237.5722364527 0 0 0 0 4912929.036611557 -26655336.644497514 0 -26655336.644497514 -148689713.03814429 0 0 0 0 -24162395.540237427 39853794.425408959 0 39853794.425408959 -28402986.180430025 0 0 0 0 -2322430.1053224988 5910059.1226799116 0 5910059.1226799116 -2042460.3086003605 0 0 0 0 -488872.09058151953 -116262.72937221453 0 -116262.72937221453 2267512.4580445578 0 0 0 0 667270807.43513775 307134992.42582548 0 307134992.42582548 -1043275645.8117261 0 0 0 0 43631885.513145447 -85188093.488942742 0 -85188093.488942742 -453863860.49942732 0 0 0 0 3276152.5570144653 -50662217.228488892 0 -50662217.228488892 -356790549.05464995 0 0 0 0 29927140.115833282 50261111.258089602 0 50261111.258089602 -289231429.1119678 0 0 0 0 56348545.379335403 69578340.044792145 0 69578340.044792145 -458339146.41523576 0 0 0 0 129643497.54071426 98540439.866266489 0 98540439.866266489 -545058428.62981844 0 0 0 0 39967348.344739914 70350646.213669747 0 70350646.213669747 -269005992.22148466 0 0 0 0 9151084.8093986511 62518803.148205698 0 62518803.148205698 -292358481.97760999 0 0 0 0 30977633.672831535 41965176.846776664 0 41965176.846776664 -227699009.49081993 0 0 0 0 52208066.839906693 34922489.416767061 0 34922489.416767061 -259238257.27883673 0 0 0 0 38093954.28931427 49299437.611442208 0 49299437.611442208 -214962627.16229975 0 0 0 0 40945132.364147186 89259207.965290308 0 89259207.965290308 -273858274.07206154 0 0 0 0 33204002.069011688 77200500.734485567 0 77200500.734485567 -214554855.1601193 0 0 0 0 49338927.654914856 72217417.816891074 0 72217417.816891074 -273359318.9896121 0 0 0 0 27856035.470298767 64308642.19144702 0 64308642.19144702 -217729473.81232023 0 0 0 0 40394337.437732458 20177449.672532801 0 20177449.672532801 -151270698.20648098 0 0 0 0 3802608.3935256004 41537822.141523175 0 41537822.141523175 -116074576.09730959 0 0 0 0 15743918.725845337 39410219.227068424 0 39410219.227068424 -120411670.5697813 0 0 0 0 7092988.2689743042 81915842.885962546 0 81915842.885962546 -188639829.39865541 0 0 0 0 10863823.787528992 97257765.376012981 0 97257765.376012981 -183553290.84989619 0 0 0 0 35420544.586395264 100195618.96155262 0 100195618.96155262 -297875264.45759368 0 0 0 0 -79694473.786510468 -101333508.26743472 0 -101333508.26743472 -269979253.87656593 0 0 0 0 1709570.9167041779 40920174.836506605 0 40920174.836506605 -247661642.72538042 0 0 0 0 21107831.585997581 11565853.182299152 0 11565853.182299152 -216627532.35682392 0 0 0 0 -130459650.16606712 95850150.84781456 0 95850150.84781456 -256215138.51462483 0 0 0 0 38923031.361321449 47556036.230293989 0 47556036.230293989 -341180092.89432335 0 0 0 0 -81757837.944663525 -74073077.074674189 0 -74073077.074674189 -198739306.30823731 0 0 0 0 -525616923.53968239 9285088.5008783937 0 9285088.5008783937 -213978778.65914416 0 0 0 0 164603.61076615844 297621.34820640273 0 297621.34820640273 -732275.91759027122 0 0 0 0 80092278.716569901 -296973153.45010978 0 -296973153.45010978 -287337776.67556107 0 0 0 0 -56518703.678556442 -147642875.9695448 0 -147642875.9695448 -443702941.80960321 0 0 0 0 -206932103.58522034 -2430342.1002519131 0 -2430342.1002519131 -317266205.40551686 0 0 0 0 -170360485.86586046 -256392082.52319431 0 -256392082.52319431 -416108175.81420088 0 0 0 0 -38491066.260261536 -83502498.738119006 0 -83502498.738119006 -281753832.74335814 0 0 0 0 -128905386.91193962 -279421191.65601093 0 -279421191.65601093 -442372122.87311423 0 0 0 0 18258091.247840881 -47651299.794218063 0 -47651299.794218063 -535924209.37918735 0 0 0 0 16796164.094044894 29780281.355409384 0 29780281.355409384 -296099522.7179265 0 0 0 0 -15741852.907736778 135319673.7343331 0 135319673.7343331 -292460078.01243591 0 0 0 0 -72839925.386245728 127104094.42315483 0 127104094.42315483 -68144884.645471573 0 0 0 0 39473456.908784866 21550197.24980092 0 21550197.24980092 -47728267.790693372 0 0 0 0 40030164.844842911 -16577298.489167452 0 -16577298.489167452 -244583092.28295016 0 0 0 0 160354103.30363846 73550439.283104181 0 73550439.283104181 -105303700.96316648 0 0 0 0 150074642.05895805 -54704969.822477348 0 -54704969.822477348 -205759841.77723646 0 0 0 0 30958569.036056519 -74434956.481756568 0 -74434956.481756568 -190585427.3164193 0 0 0 0 39533099.291656494 -151321854.56359768 0 -151321854.56359768 -351047852.91147357 0 0 0 0 -23387769.671186447 -93417054.970103085 0 -93417054.970103085 -189096185.63711494 0 0 0 0 81792027.270675659 -16700670.340397716 0 -16700670.340397716 -167324456.37071192 0 0 0 0 82678888.007305145 -82639117.040232897 0 -82639117.040232897 -221302579.80528986 0 0 0 0 14557719.810154818 -1212567.6382281727 0 -1212567.6382281727 -7915122.1715290761 0 0 0 0 29197785.16553545 -59119431.802198902 0 -59119431.802198902 -167098445.63237822 0 0 0 0 -734637.90131378174 23981511.252888203 0 23981511.252888203 45865976.080642223 0 0 0 0 26913813.872749329 -8082869.8618570566 0 -8082869.8618570566 9746545.135181278 0 0 0 0 8912963.5079076327 3359017.2972342568 0 3359017.2972342568 -3778217.9539127047 0 0 0 0 5049792.4621937862 769644.05187561456 0 769644.05187561456 -1312578.476106022 0 0 0 0 20696434.020822525 -27515378.823558152 0 -27515378.823558152 -75703522.391549826 0 0 0 0 22394799.09310627 -13998053.582134843 0 -13998053.582134843 3677986.8239576817 0 0 0 0 53040210.193340778 67942529.418489501 0 67942529.418489501 -33387142.021849394 0 0 0 0 52109907.002826691 58977264.226042986 0 58977264.226042986 -113490020.67540312 0 0 0 0 -122714848.7780571 -149065938.73895311 0 -149065938.73895311 -197785360.51426077 0 0 0 0 1242517.8617829792 333167.43431744911 0 333167.43431744911 -150770.94449601497 0 0 0 0 -27886119.499005795 -109490968.94327071 0 -109490968.94327071 -182502754.39209557 0 0 0 0 -116467285.85243291 -164334840.50154877 0 -164334840.50154877 -408291027.57559204 0 0 0 0 84593834.826640591 32572521.719604492 0 32572521.719604492 -135496284.69985962 0 0 0 0 36667.140293666773 -11825.343477983028 0 -11825.343477983028 -389361.98488891125 0 0 0 0 -118988135.96810725 46471289.124046326 0 46471289.124046326 75070938.751525879 0 0 0 0 -153339290.1367951 -173415956.31066895 0 -173415956.31066895 -58328996.612483978 0 0 0 0 -116130.39919959841 -53705053.524208069 0 -53705053.524208069 -125066649.28936768 0 0 0 0 -25005930.472979143 -209110346.21316528 0 -209110346.21316528 -441357085.126297 0 0 0 0 -57822325.629921854 38095183.972946167 0 38095183.972946167 669552.83592605591 0 0 0 0 47207.918796386395 -43373.064117375761 0 -43373.064117375761 -625164.05757920444 0 0 0 0 -67339278.588195145 -17229923.570825577 0 -17229923.570825577 1085926.3642578125 0 0 0 0 -4938260.4524984416 26682478.339553833 0 26682478.339553833 -17088580.509368896 0 0 0 0 -8330107.2725161593 -28939860.604980469 0 -28939860.604980469 -15072085.879241943 0 0 0 0 -48656519.815468647 -73387507.514774323 0 -73387507.514774323 -35681738.79901123 0 0 0 0 -46835652.318717562 -58841280.252110481 0 -58841280.252110481 -45125402.751190186 0 0 0 0 -62913514.966085076 -69505953.458847046 0 -69505953.458847046 -31845735.651702881 0 0 0 0 -55772117.578857496 -76653881.007080078 0 -76653881.007080078 -25143992.012145996 0 0 0 0 -52916905.085268408 -67538574.155151367 0 -67538574.155151367 -43711484.435150146 0 0 0 0 -34787148.137555718 -55280359.645240784 0 -55280359.645240784 -53340584.434906006 0 0 0 0 -69244405.13432613 -36322585.096694946 0 -36322585.096694946 -60749715.893432617 0 0 0 0 5113868.6771097779 -24637478.707885742 0 -24637478.707885742 -47068195.051544189 0 0 0 0 3772501.2502157688 -10063910.821960449 0 -10063910.821960449 -80765806.420463562 0 0 0 0 -21903265.730048537 -24177017.852127075 0 -24177017.852127075 -84352530.902919769 0 0 0 0 -14479661.206043482 -49920792.039123535 0 -49920792.039123535 -130938702.36016846 0 0 0 0 14184790.52208358 -11116482.31350708 0 -11116482.31350708 -131558950.0930481 0 0 0 0 -56362284.947506607 -87322333.022689819 0 -87322333.022689819 -158476019.01418591 0 0 0 0 -32453805.375310034 -97277810.148948669 0 -97277810.148948669 -267016410.79970551 0 0 0 0 -60221984.592808723 -21085487.089416504 0 -21085487.089416504 -53829260.73853302 0 0 0 0 -68567161.86230284 34535836.927894592 0 34535836.927894592 -203692441.0982666 0 0 0 0 -29467839.450882405 862213.6060256958 0 862213.6060256958 -158924465.02462769 0 0 0 0 -7802977.3123233765 241524549.59312439 0 241524549.59312439 -214988563.93322754 0 0 0 0 17795.987055883379 -215826.10655467957 0 -215826.10655467957 -807512.58321113884 0 0 0 0 -197399662.25940827 -267731633.58792114 0 -267731633.58792114 -106060162.39581299 0 0 0 0 -54364806.522053719 -64889475.784645081 0 -64889475.784645081 -94908660.118667603 0 0 0 0 -46877330.040316567 -44318222.513980865 0 -44318222.513980865 -97072309.124694824 0 0 0 0 6226098.5797706842 -32709619.493606567 0 -32709619.493606567 -117401049.27908325 0 0 0 0 -30827453.333570004 -31494364.365249634 0 -31494364.365249634 -87643892.112792969 0 0 0 0 -52330423.273939788 -174277768.97975922 0 -174277768.97975922 -681322576.86010742 0 0 0 0 174740.0333156336 -1095056.6025235802 0 -1095056.6025235802 -2181305.9798215181 0 0 0 0 -160034531.04488611 -410353437.94230652 0 -410353437.94230652 -664312733.49963379 0 0 0 0 -119118978.82389969 -204990013.08685303 0 -204990013.08685303 -830490658.29321289 0 0 0 0 -75339940.69423534 -397127433.44424438 0 -397127433.44424438 -855228483.01878738 0 0 0 0 25522986.568266314 -399625247.76916504 0 -399625247.76916504 -675409830.64907837 0 0 0 0 -148994599.19327784 -126688648.83757019 0 -126688648.83757019 -740639730.20423126 0 0 0 0 -164652018.56232765 -62126099.692390442 0 -62126099.692390442 -488774232.5340271 0 0 0 0 28446.070134200505 -70662115.094337463 0 -70662115.094337463 -512348568.88205719 0 0 0 0 -40056565.72139179 -239346746.85875511 0 -239346746.85875511 -932502927.50559998 0 0 0 0 -239836331.95460927 -450727025.66825104 0 -450727025.66825104 -978082086.73090744 0 0 0 0 -1230341.2922290505 -218795981.63040161 0 -218795981.63040161 -1571117697.3948975 0 0 0 0 -197814128.07156873 -145114186.14379263 0 -145114186.14379263 -1154134175.5552826 0 0 0 0 -562879579.37778962 -482777451.93963242 0 -482777451.93963242 -1310053856.8590698 0 0 0 0 229245.45879301243 -463718.81289871037 0 -463718.81289871037 -3192372.1268272772 0 0 0 0 -222451485.00907594 -970818656.77458954 0 -970818656.77458954 -2279622875.290535 0 0 0 0 410516317.17992204 -1270032367.2472229 0 -1270032367.2472229 -4712949190.1504364 0 0 0 0 -2271878.4406035673 -213927103.09630328 0 -213927103.09630328 -2094722623.5295868 0 0 0 0 -946223817.80434847 -1890751464.6978378 0 -1890751464.6978378 -214380870.45352173 0 0 0 0 -1679762.3855423378 -2639386.2164248005 0 -2639386.2164248005 -1765233.688305676 0 0 0 0 -855962811.38939464 -2322162300.8233948 0 -2322162300.8233948 -1416071678.4214935 0 0 0 0 451887.76173734688 50491.596925415099 0 50491.596925415099 -2032359.6909267977 0 0 0 0 -323884898.26826167 -1163813402.59021 0 -1163813402.59021 -1716224431.2179565 0 0 0 0 1020649698.9989417 462968246.18647003 0 462968246.18647003 -933620005.29328918 0 0 0 0 -484384358.41093946 -707760572.78958321 0 -707760572.78958321 899644883.88400269 0 0 0 0 207845140.27207935 -273318348.96569824 0 -273318348.96569824 -1430693126.1040955 0 0 0 0 123920478.36095673 -391850753.42937851 0 -391850753.42937851 -1402758293.8730774 0 0 0 0 787555751.15067697 -395588716.81442261 0 -395588716.81442261 -1509163324.2315521 0 0 0 0 -170487991.1961436 -251835008.70573425 0 -251835008.70573425 -1429186661.9227104 0 0 0 0 -8402350.7557353005 -211594410.87823486 0 -211594410.87823486 -1367011530.6099968 0 0 0 0 -63810780.784849584 -480182629.19067383 0 -480182629.19067383 -1432358338.5240631 0 0 0 0 20207490.586569786 -319724393.13665771 0 -319724393.13665771 -1219401944.5619354 0 0 0 0 151312955.15845871 -366477297.15475464 0 -366477297.15475464 -1218239306.3107147 0 0 0 0 -373615416.73949122 -712936811.62820435 0 -712936811.62820435 -1080831011.1742096 0 0 0 0 113661072.74587023 -537808963.65379906 0 -537808963.65379906 -1480011654.5996094 0 0 0 0 434489.58057960996 -2624145.8271507621 0 -2624145.8271507621 -3902347.9393343851 0 0 0 0 -354133219.09503293 -794571524.81560516 0 -794571524.81560516 -762979181.48000813 0 0 0 0 -1666389596.5065103 -1861708659.8966064 0 -1861708659.8966064 -867998025.83611488 0 0 0 0 -32696395.205429882 -65331393.764629364 0 -65331393.764629364 -53339057.281143188 0 0 0 0 25961499.170056343 -385499.12707519531 0 -385499.12707519531 -51937712.985486984 0 0 0 0 -520721633.73476362 -586374517.76079178 0 -586374517.76079178 -755917217.67224121 0 0 0 0 2798503.8865041165 -5581910.2473552302 0 -5581910.2473552302 -7770663.7115148157 0 0 0 0 14050744.831133366 -30510186.333892822 0 -30510186.333892822 -51103128.60315609 0 0 0 0 -364601253.37646818 -609832636.7140274 0 -609832636.7140274 -3267142908.2219849 0 0 0 0 -460003846.98405504 -2044241551.2211609 0 -2044241551.2211609 -853054243.74902344 0 0 0 0 -1441259557.1812677 -1161307336.6776943 0 -1161307336.6776943 -592809226.15686035 0 0 0 0 -447325154.99534369 -2486041314.8520813 0 -2486041314.8520813 -93791072.038452148 0 0 0 0 1299913926.3965034 -446573862.296875 0 -446573862.296875 -1987096516.4582672 0 0 0 0 -1672392.0407439773 -2429910.4655799456 0 -2429910.4655799456 -2013053.5488177985 0 0 0 0 422231642.88816571 -1273260102.5256348 0 -1273260102.5256348 -2445328911.9514923 0 0 0 0 -1043237786.3049412 -466467822.05744934 0 -466467822.05744934 895637126.64427948 0 0 0 0 -972112375.81024051 -2315483189.5316467 0 -2315483189.5316467 444273596.1852417 0 0 0 0 -1377700614.9129212 -1938251887.7898865 0 -1938251887.7898865 99118069.733398438 0 0 0 0 -2195772410.2977166 -925903349.67965126 0 -925903349.67965126 -404718231.96688843 0 0 0 0 -1603272409.0696356 -2017893328.4174576 0 -2017893328.4174576 -1722071611.2544861 0 0 0 0 -1120401065.0462773 -2315863683.8687286 0 -2315863683.8687286 -4720261700.81604 0 0 0 0 877734179.50297117 -102948112.63187408 0 -102948112.63187408 -2305226586.5064392 0 0 0 0 1932876664.0557516 721727798.46818542 0 721727798.46818542 -3156339331.9254761 0 0 0 0 1199960876.076164 -885695791.60466003 0 -885695791.60466003 -4716953784.9149694 0 0 0 0 972237384.56717753 -256878686.92175293 0 -256878686.92175293 -4708007070.5694199 0 0 0 0 -557755295.47203505 666839536.62432861 0 666839536.62432861 -859419149.68493652 0 0 0 0 -1253896.5314207927 -4794017.3174615214 0 -4794017.3174615214 -4868312.2239292413 0 0 0 0 -5254533635.6065073 -2753982251.9225159 0 -2753982251.9225159 -1469113935.013443 0 0 0 0 -536011751.56666845 1363913562.2670135 0 1363913562.2670135 -1841655691.4684448 0 0 0 0 -215155.12405531446 -5908756.3933053883 0 -5908756.3933053883 -12050483.096753746 0 0 0 0 -1735035059.4869747 -1103770972.9971619 0 -1103770972.9971619 -336056489.36618805 0 0 0 0 25939481.846984863 -44152569.298408508 0 -44152569.298408508 16323393.274169922 0 0 0 0 2812910.7899247236 -2914122.7711167596 0 -2914122.7711167596 -6493274.44840087 0 0 0 0 -23582286.801475585 -361227955.6285553 0 -361227955.6285553 -312499008.8122406 0 0 0 0 -105901171.61924988 -237130371.93756866 0 -237130371.93756866 -110894562.85550308 0 0 0 0 667572.10447920172 -894566.06218831986 0 -894566.06218831986 -1895344.2597610652 0 0 0 0 -39131316.721804202 7694559.5269165039 0 7694559.5269165039 18975125.121795654 0 0 0 0 -62990663.981562853 31255084.194335938 0 31255084.194335938 -2362913.4100952148 0 0 0 0 -75923420.276693568 11830852.416191101 0 11830852.416191101 46325833.160217285 0 0 0 0 -91187898.977097273 28926307.798034668 0 28926307.798034668 31260906.426879883 0 0 0 0 -105920315.982692 -39164451.865813255 0 -39164451.865813255 -11482463.679626465 0 0 0 0 -34071643.001228809 20818180.459838867 0 20818180.459838867 -10930966.139129639 0 0 0 0 -34359016.970093839 25272525.329485416 0 25272525.329485416 -30187782.309936523 0 0 0 0 15404833.521227159 74931390.319946289 0 74931390.319946289 15193050.935394287 0 0 0 0 4052446.9280600548 -24285599.329498291 0 -24285599.329498291 -37980585.910064697 0 0 0 0 -23146967.865824699 14204013.648704529 0 14204013.648704529 -14679324.782424927 0 0 0 0 2704651.4260730483 -2200762.5970704146 0 -2200762.5970704146 -18272331.814435154 0 0 0 0 -37769104.960960388 11643606.409866333 0 11643606.409866333 10829648.725799561 0 0 0 0 -35077080.149986267 23347238.980331421 0 23347238.980331421 -21464990.044250488 0 0 0 0 1817364.813773632 -8401300.8922729492 0 -8401300.8922729492 -28519343.42256546 0 0 0 0 16763417.857722759 5210326.6976928711 0 5210326.6976928711 -16008748.860237122 0 0 0 0 -6653519.447539404 28294014.781791687 0 28294014.781791687 -30704660.438110352 0 0 0 0 -47258314.376485348 1914259.8464050293 0 1914259.8464050293 -24463085.771362305 0 0 0 0 -24683819.282078981 -2151942.1845397949 0 -2151942.1845397949 -55352467.971588135 0 0 0 0 -33993180.312877178 34269451.4425354 0 34269451.4425354 11890046.099945068 0 0 0 0 -688849.93558089004 186362.51148256287 0 186362.51148256287 -102628.0153862834 0 0 0 0 -5077098.5390505791 40921711.562667847 0 40921711.562667847 -50458725.617553711 0 0 0 0 13921028.485887915 31969244.974311829 0 31969244.974311829 -36934608.491821289 0 0 0 0 -10915630.765578747 32008690.525482178 0 32008690.525482178 4352502.0838928223 0 0 0 0 581808.47844466707 535649.11267830804 0 535649.11267830804 -1863545.5561178327 0 0 0 0 -21256797.369021416 1349657.7976074219 0 1349657.7976074219 -18576930.115478516 0 0 0 0 -1237706.2274688482 17321983.668624878 0 17321983.668624878 5247055.1244325638 0 0 0 0 -4472038.5246935245 4758569.4683227539 0 4758569.4683227539 -5837032.2601928711 0 0 0 0 -693455.47532970179 -260061.19444092363 0 -260061.19444092363 -29669436.297595665 0 0 0 0 -10562564.03616488 -5098263.1229133606 0 -5098263.1229133606 -11164289.052490234 0 0 0 0 37721392.942071319 -39517338.551815033 0 -39517338.551815033 -20020478.773254395 0 0 0 0 1664814.4383576855 -4067768.8626509532 0 -4067768.8626509532 -23371936.713574216 0 0 0 0 12951512.910342872 1445562.6918792725 0 1445562.6918792725 -10931212.898284912 0 0 0 0 10475737.599085838 -1351825.22706604 0 -1351825.22706604 -14084926.380409241 0 0 0 0 4347344.0795212388 4437701.4272003174 0 4437701.4272003174 -7879436.6586914062 0 0 0 0 -1823574.1440309761 2817717.670494305 0 2817717.670494305 -4419272.6928519234 0 0 0 0 14832706.434738249 5088977.5793581009 0 5088977.5793581009 -10066453.363922119 0 0 0 0 14148952.434338957 189300.47052764893 0 189300.47052764893 -10627862.596313477 0 0 0 0 16372841.435838461 -43573010.089385986 0 -43573010.089385986 -12658837.675445557 0 0 0 0 34561302.821649551 5371135.4870758057 0 5371135.4870758057 -6239419.8635864258 0 0 0 0 125715207.74598169 -31787696.648178101 0 -31787696.648178101 -95611226.270889282 0 0 0 0 2822116.7768068095 4004498.7663042853 0 4004498.7663042853 -25178940.752043039 0 0 0 0 31039969.627316475 20300516.196460724 0 20300516.196460724 -13039593.367279053 0 0 0 0 86449.265219412293 153453.1105902195 0 153453.1105902195 -317871.8811086826 0 0 0 0 47316030.949647129 19161209.926116943 0 19161209.926116943 -9117147.9439697266 0 0 0 0 -11323286.958125114 -119090537.12770081 0 -119090537.12770081 -85264322.339569092 0 0 0 0 -48726580.192892075 -38103317.620834351 0 -38103317.620834351 1705693.4545898438 0 0 0 0 20804352.711177588 -62439959.422210693 0 -62439959.422210693 5171736.0612182617 0 0 0 0 -104317.64633254231 -4939756.4033566788 0 -4939756.4033566788 -556151.8956348151 0 0 0 0 2741988.9824331123 384795.33004287933 0 384795.33004287933 -17586862.130617306 0 0 0 0 7274403.1519506574 -834690.43731307983 0 -834690.43731307983 -18241903.531494141 0 0 0 0 27130191.13257578 10242634.540709496 0 10242634.540709496 -31630210.699645996 0 0 0 0 11325163.48401618 -22866431.652702332 0 -22866431.652702332 -12463395.846130371 0 0 0 0 -387282.03747344087 -5510073.665603891 0 -5510073.665603891 -20631384.937967785 0 0 0 0 -4130935.7463579178 1992827.421585083 0 1992827.421585083 -3408508.602935791 0 0 0 0 81065740.998983204 -40189112.266094208 0 -40189112.266094208 -62280101.511184692 0 0 0 0 -1277249.8071722984 12440219.455200195 0 12440219.455200195 -8800526.3577423096 0 0 0 0 16117056.379289612 -45649647.923043728 0 -45649647.923043728 34879279.437240601 0 0 0 0 23785.533944173716 -833625.16639497876 0 -833625.16639497876 -3914202.6422793008 0 0 0 0 -59239293.384296656 -14024768.089866638 0 -14024768.089866638 -1967563.5797805786 0 0 0 0 49943019.703786373 35882373.75189209 0 35882373.75189209 -83124398.939193726 0 0 0 0 6791222.701836586 -3492406.1837158203 0 -3492406.1837158203 -112651235.4291687 0 0 0 0 71188121.386117578 -11167997.280807495 0 -11167997.280807495 -90502950.669586182 0 0 0 0 -20420730.131510258 -74104724.207427979 0 -74104724.207427979 15390919.408187866 0 0 0 0 -115141487.5437541 -4997333.0935516357 0 -4997333.0935516357 -18620440.714553833 0 0 0 0 -20775495.092869997 62883509.117370605 0 62883509.117370605 -140815854.74266052 0 0 0 0 54829407.236628294 4251729.673324585 0 4251729.673324585 -197689571.58753204 0 0 0 0 52700535.325829446 -8061370.6610889435 0 -8061370.6610889435 -124873124.05545044 0 0 0 0 40680636.738810539 -9862970.7979736328 0 -9862970.7979736328 -124586854.18937683 0 0 0 0 29217118.415854931 21047048.139404297 0 21047048.139404297 1909337.2775878906 0 0 0 0 37054866.469498992 -11200553.721328735 0 -11200553.721328735 -77810039.864864349 0 0 0 0 18333873.282839179 -28271477.950538635 0 -28271477.950538635 -80296665.786529541 0 0 0 0 38368390.23646915 -50157581.52822876 0 -50157581.52822876 -125555788.55135345 0 0 0 0 23337463.825632811 -41006360.942993164 0 -41006360.942993164 -44894641.119293213 0 0 0 0 363485.58737332642 458874.01605897024 0 458874.01605897024 -319319.97646057606 0 0 0 0 -7875931.6697645187 -3028615.0688476562 0 -3028615.0688476562 8383088.8420562744 0 0 0 0 -92434233.988885641 52266150.408927917 0 52266150.408927917 -18960559.592926025 0 0 0 0 1040159.9886651505 696269.80346358567 0 696269.80346358567 -22611303.835981399 0 0 0 0 2816293.0241159704 -6271749.420054907 0 -6271749.420054907 -25028057.294422932 0 0 0 0 21410922.816146135 -4024757.6192855835 0 -4024757.6192855835 -11274208.301746368 0 0 0 0 106398663.27682555 61328782.251502991 0 61328782.251502991 -100414003.81420898 0 0 0 0 120515598.77106071 42922499.527899742 0 42922499.527899742 -48943806.351699829 0 0 0 0 38176563.55005455 -11060363.718963623 0 -11060363.718963623 -15380174.628494263 0 0 0 0 4770627.0214118864 -13537264.120859075 0 -13537264.120859075 -27967979.359672472 0 0 0 0 51872288.339966774 39749795.503860474 0 39749795.503860474 -238740017.16159058 0 0 0 0 57429294.563464403 3551157.2358856201 0 3551157.2358856201 -17386122.622711182 0 0 0 0 3203517.775955677 -35488076.446327209 0 -35488076.446327209 -168109678.96798706 0 0 0 0 2002401.6579992771 -11534489.296813965 0 -11534489.296813965 -115779393.76507568 0 0 0 0 7598491.5892162323 22894393.989906311 0 22894393.989906311 -118081279.3039465 0 0 0 0 -11828861.082798481 32780529.431877136 0 32780529.431877136 -35231118.774116516 0 0 0 0 2732728.1920401952 7104428.0160553567 0 7104428.0160553567 -4760698.2667074054 0 0 0 0 19535018.914533138 -5456441.9629821777 0 -5456441.9629821777 -52830003.052246094 0 0 0 0 -11492237.456668377 40100853.806106567 0 40100853.806106567 -15242811.321281433 0 0 0 0 724456.27894020081 -12833129.499107361 0 -12833129.499107361 -63727929.384536743 0 0 0 0 23648393.442014694 -3794416.1489639282 0 -3794416.1489639282 -90225860.660614014 0 0 0 0 -93291483.310379505 -53392818.27709198 0 -53392818.27709198 -73544710.731048584 0 0 0 0 -378825287.88678932 -210134471.29753113 0 -210134471.29753113 40332199.354507446 0 0 0 0 605599.24027010484 1288485.5277024049 0 1288485.5277024049 -1323874.808420442 0 0 0 0 -149874603.49388838 90902507.023239136 0 90902507.023239136 30539556.476982117 0 0 0 0 290830714.49922085 -62451999.790115356 0 -62451999.790115356 -167198620.1997757 0 0 0 0 86725130.647768021 29364431.693511963 0 29364431.693511963 119918936.54114532 0 0 0 0 -13554266.202938318 -146991600.29062653 0 -146991600.29062653 -123396911.5256958 0 0 0 0 103418032.9847827 -89713709.826835632 0 -89713709.826835632 -140970616.15881348 0 0 0 0 84206885.797826216 2159400.9989881516 0 2159400.9989881516 -236244010.13601685 0 0 0 0 95735715.16849184 -148349305.91029358 0 -148349305.91029358 -64078216.728164673 0 0 0 0 230899570.95735753 -10793983.157190323 0 -10793983.157190323 -426542971.89144897 0 0 0 0 1271607.7780650854 380420.1035923548 0 380420.1035923548 -3268816.7571722679 0 0 0 0 -43623172.6862638 -169386533.0324707 0 -169386533.0324707 43270548.611499786 0 0 0 0 -493784836.16936255 75353273.500854492 0 75353273.500854492 346286999.93370056 0 0 0 0 173142852.97616184 165141460.28637266 0 165141460.28637266 -121704039.81298828 0 0 0 0 150395166.17112541 -280930921.48878479 0 -280930921.48878479 -117534870.28916931 0 0 0 0 -46329747.913147211 -258494596.26423645 0 -258494596.26423645 -74896847.155250549 0 0 0 0 -334841736.41786575 -361128155.62152863 0 -361128155.62152863 -106722107.68225098 0 0 0 0 12349545.1942892 -303426486.60126495 0 -303426486.60126495 -485696033.85582733 0 0 0 0 -11668627.532030106 251512422.73964691 0 251512422.73964691 -393990754.60811901 0 0 0 0 -49448398.499853134 34451688.553199768 0 34451688.553199768 -154177506.04245758 0 0 0 0 -72144770.471157759 -408054432.25879574 0 -408054432.25879574 -27772267.509506226 0 0 0 0 -758367.32541131251 419957.08075696975 0 419957.08075696975 -1578512.6543223709 0 0 0 0 147609548.16822207 -4783632.548828125 0 -4783632.548828125 42710867.757032394 0 0 0 0 141919399.70188618 143859154.74220276 0 143859154.74220276 31008886.874160767 0 0 0 0 2636533.0817592731 3882325.6629939228 0 3882325.6629939228 -10064661.965683784 0 0 0 0 177910080.42129946 173368995.08621216 0 173368995.08621216 -353531064.51746178 0 0 0 0 -425110773.09049416 18228833.496292114 0 18228833.496292114 252781306.58174896 0 0 0 0 -1689214.4089876693 4238872.2820160314 0 4238872.2820160314 -5586882.5395535976 0 0 0 0 -7990785.2854402661 -22785735.176761627 0 -22785735.176761627 -6687176.5379638672 0 0 0 0 24680769.470891356 6217302.8131408691 0 6217302.8131408691 -29624728.309745789 0 0 0 0 5743245.0936141852 -20434791.022218704 0 -20434791.022218704 -40624769.697471619 0 0 0 0 6809975.9698861837 11970982.994949341 0 11970982.994949341 -13093719.333999634 0 0 0 0 -2363995.1737844944 4481846.7281455994 0 4481846.7281455994 -19145876.029945374 0 0 0 0 3908830.5958230654 5544846.4129559975 0 5544846.4129559975 -11718277.217025891 0 0 0 0 308814.99830760085 381525.82102334499 0 381525.82102334499 -3714610.916937625 0 0 0 0 181701265.65573406 11450393.841060638 0 11450393.841060638 -41522191.069885254 0 0 0 0 12238561.204730988 21043.090148925781 0 21043.090148925781 -32004945.307918549 0 0 0 0 570467.50996790291 3799552.0510129393 0 3799552.0510129393 -532037.15352261811 0 0 0 0 1178533.6245861091 1190967.8272287734 0 1190967.8272287734 -8581710.9292372242 0 0 0 0 3675176.2293050289 4602651.0663986206 0 4602651.0663986206 -9857726.8777351379 0 0 0 0 1648294.9273165972 5998686.5362514528 0 5998686.5362514528 -5034685.5698957294 0 0 0 0 3762317.9576325417 4574165.53074646 0 4574165.53074646 -2693403.9501304626 0 0 0 0 3071241.3875778615 319258.19721001759 0 319258.19721001759 -22496688.628746644 0 0 0 0 -11929996.590136051 16034517.897037506 0 16034517.897037506 21578940.468551636 0 0 0 0 1459949.8114376245 2749361.6165255867 0 2749361.6165255867 -13697956.130013164 0 0 0 0 2346915.6433633184 6193351.5653602853 0 6193351.5653602853 -13181471.84148559 0 0 0 0 4965624.9533056021 5292051.0928421021 0 5292051.0928421021 -9956701.9950561523 0 0 0 0 -687031.77715390921 1148723.4973754883 0 1148723.4973754883 -8136431.8961791992 0 0 0 0 3163077.6977275205 5173368.2880294397 0 5173368.2880294397 -16441798.524566382 0 0 0 0 5707567.1276855469 3006335.8772583008 0 3006335.8772583008 -7036342.5433349609 0 0 0 0 -49285.106064663909 5226351.8886647876 0 5226351.8886647876 -7254381.9607982337 0 0 0 0 5058525.1603029966 4969580.7720184326 0 4969580.7720184326 -11455213.492767334 0 0 0 0 2176214.9736832958 -1117598.8143961281 0 -1117598.8143961281 -18401124.925196864 0 0 0 0 2653369.8307226487 4715032.8618011475 0 4715032.8618011475 -5549698.6917114258 0 0 0 0 -1197680.9056875897 -723250.11106082052 0 -723250.11106082052 -18227710.394726358 0 0 0 0 3337784.4882736206 853603.26812744141 0 853603.26812744141 -8331203.573638916 0 0 0 0 -22096.451798981303 5501847.250081935 0 5501847.250081935 -5525848.3724812344 0 0 0 0 2280376.6898694336 2256532.0555419922 0 2256532.0555419922 -7928230.856628418 0 0 0 0 24300746.084235519 16386874.951019287 0 16386874.951019287 -17893816.129486084 0 0 0 0 381065.81676885847 3783840.4610549826 0 3783840.4610549826 -885751.42362254858 0 0 0 0 26320380.935803309 41720599.887655258 0 41720599.887655258 -32516882.573455811 0 0 0 0 679139.73251975211 191629.8519543428 0 191629.8519543428 -10740015.840347946 0 0 0 0 3368637.6823067665 -412956.33050537109 0 -412956.33050537109 -4563090.0386257172 0 0 0 0 -55911.237604192342 -415242.01367816329 0 -415242.01367816329 -12378663.285548985 0 0 0 0 4288027.9678113461 -4324991.9930381775 0 -4324991.9930381775 -24955023.372879028 0 0 0 0 7111600.3170059919 -3654163.2011947632 0 -3654163.2011947632 -26712249.976882935 0 0 0 0 6403896.7942501307 -5022160.1709785461 0 -5022160.1709785461 -27834304.408859253 0 0 0 0 5164075.8348655701 -2792456.8022956848 0 -2792456.8022956848 -22918036.774887085 0 0 0 0 -3532407.4974961281 16153259.378768921 0 16153259.378768921 -27127291.66343689 0 0 0 0 9631918.390556097 9110108.3846054077 0 9110108.3846054077 -57104683.736923218 0 0 0 0 -577637.86059381964 701821.89089849126 0 701821.89089849126 -19334921.176975027 0 0 0 0 26896704.237437487 -11710237.996620178 0 -11710237.996620178 -64424259.559432983 0 0 0 0 195439089.97999728 69913824.945610046 0 69913824.945610046 -12863332.909210205 0 0 0 0 27312453.175042488 -14595.264350891113 0 -14595.264350891113 12261941.492927551 0 0 0 0 1903136.7956530759 -3166505.0869156606 0 -3166505.0869156606 -2630382.9511742443 0 0 0 0 20303608.783589005 144165521.82903671 0 144165521.82903671 168395154.80462646 0 0 0 0 6728045.133449316 12512634.868190765 0 12512634.868190765 -19223886.475799561 0 0 0 0 -148237839.61858606 -155845739.66720581 0 -155845739.66720581 195746682.57122993 0 0 0 0 -16560178.010401726 -3687447.2975387573 0 -3687447.2975387573 365737.82080078125 0 0 0 0 -5636061.0745511055 -4227745.8289794922 0 -4227745.8289794922 -50798796.823596954 0 0 0 0 -4522252.2147575617 5100742.6033744812 0 5100742.6033744812 -19863975.171264648 0 0 0 0 -4364183.3300629258 7996764.6371421814 0 7996764.6371421814 -20110288.45161438 0 0 0 0 -40129643.501411319 -418933571.65510273 0 -418933571.65510273 -4164332145.4685211 0 0 0 0 -4728391.2571532726 8417809.6553096771 0 8417809.6553096771 -17599190.643493652 0 0 0 0 -1845490.9875560328 3619627.7188035734 0 3619627.7188035734 -9102315.1687876768 0 0 0 0 65655768.965974972 617285295.9369812 0 617285295.9369812 -4719822695.2931547 0 0 0 0 134911912.50692421 -233287620.12899017 0 -233287620.12899017 -968864718.20617676 0 0 0 0 -610410.78478344413 2130946.1801848877 0 2130946.1801848877 -17501517.175220251 0 0 0 0 -1397174898.481374 -2142873595.2969055 0 -2142873595.2969055 -395282434.44247437 0 0 0 0 -3389232.7594333421 15411113.398797065 0 15411113.398797065 -4804816.6069347262 0 0 0 0 768595708.88539588 -525528654.69259644 0 -525528654.69259644 -1777018500.9138184 0 0 0 0 -2950105.5047636018 5602146.9489317685 0 5602146.9489317685 -1587120.0970789865 0 0 0 0 -12486882.348138668 13115597.083866119 0 13115597.083866119 -21032397.967834473 0 0 0 0 -1164805574.1300917 2406628873.3731976 0 2406628873.3731976 -2746286151.3827515 0 0 0 0 -2127915329.8317916 472931948.95798111 0 472931948.95798111 -109624838.88971519 0 0 0 0 3302258.1017142711 -11933478.272026185 0 -11933478.272026185 3570270.9070631219 0 0 0 0 -1607211.6299910787 -173919.37685548887 0 -173919.37685548887 -6138520.2218741924 0 0 0 0 -10421960.335009694 7652045.9270248413 0 7652045.9270248413 -7787834.5605258942 0 0 0 0 -45220182.010397032 -486291444.89339828 0 -486291444.89339828 -4759536945.6212158 0 0 0 0 -4823787.4105643034 14053202.162555695 0 14053202.162555695 -43697746.726699829 0 0 0 0 -5541489.4453493357 13388420.60344696 0 13388420.60344696 -21058252.934121132 0 0 0 0 -27210760.72728993 46534751.386013031 0 46534751.386013031 -54800393.480072021 0 0 0 0 -21628609.766701251 28899439.126440048 0 28899439.126440048 -35997790.106262207 0 0 0 0 7708563.1927139461 15007703.798664093 0 15007703.798664093 -47085655.174179077 0 0 0 0 21363994.822358012 5077909.335357666 0 5077909.335357666 -40637403.590194702 0 0 0 0 17209289.990773678 19125034.951480865 0 19125034.951480865 -51889167.554424286 0 0 0 0 -3437517.7368601952 27536457.904533386 0 27536457.904533386 -47554614.336914062 0 0 0 0 -5797951.5545357764 22873031.666156769 0 22873031.666156769 -48378260.903457642 0 0 0 0 -313433.8931485783 657821.66966164112 0 657821.66966164112 -873311.60974578559 0 0 0 0 -81262846.358856261 112545171.23030853 0 112545171.23030853 -132196207.74015045 0 0 0 0 47038078.428195238 -91429088.00188446 0 -91429088.00188446 -15016505.047836304 0 0 0 0 -197531901.87895274 -24969233.206619263 0 -24969233.206619263 -29746449.215560913 0 0 0 0 122304263.48540375 -260933548.2781105 0 -260933548.2781105 -164765898.13779449 0 0 0 0 -183117383.47602636 293425918.98959732 0 293425918.98959732 -99491605.354743481 0 0 0 0 -1270322.2818907034 2378603.3854800444 0 2378603.3854800444 -2090644.1968194023 0 0 0 0 -833154376.29824114 1274293815.4257584 0 1274293815.4257584 -490215982.02286625 0 0 0 0 175916788.02139843 -83514981.058311462 0 -83514981.058311462 -644384970.99237061 0 0 0 0 53158474.125381231 -139830816.12605286 0 -139830816.12605286 -1768225022.2105255 0 0 0 0 1057642507.9469793 -204709979.34764099 0 -204709979.34764099 -4726099333.1263151 0 0 0 0 615095893.58208382 714512636.99249363 0 714512636.99249363 -2067394017.8612213 0 0 0 0 577194085.14534974 961331347.6431942 0 961331347.6431942 -3128525632.0105133 0 0 0 0 462522182.11607754 1885692586.3499451 0 1885692586.3499451 -4716850184.0038166 0 0 0 0 -1307144672.2542198 -2097251991.8777339 0 -2097251991.8777339 -2012462880.0832062 0 0 0 0 743157091.82552385 -1577103047.3291588 0 -1577103047.3291588 -4716068733.2707291 0 0 0 0 942024817.52064443 -568952326.93535614 0 -568952326.93535614 -2430924956.9320068 0 0 0 0 301717206.18503726 -1101837524.094223 0 -1101837524.094223 -2057548885.4479561 0 0 0 0 -57560346.537085727 77237767.303377151 0 77237767.303377151 -504328172.56898499 0 0 0 0 279861110.27205074 -126646471.71999359 0 -126646471.71999359 -889223904.40518951 0 0 0 0 7817163.8676382303 11302868.856708527 0 11302868.856708527 -13934496.271202087 0 0 0 0 39731372.030967474 -97527685.593662262 0 -97527685.593662262 -337875479.2106781 0 0 0 0 -48835570.13598609 114763961.34729767 0 114763961.34729767 -93844037.87739563 0 0 0 0 11067999.582274914 109708719.33496094 0 109708719.33496094 -93840758.208101273 0 0 0 0 218038.12077918666 -37299.621309287846 0 -37299.621309287846 -1267866.0506819189 0 0 0 0 -38460160.478996158 60136127.634403229 0 60136127.634403229 70829862.057106018 0 0 0 0 55564007.314428329 -14545786.32686615 0 -14545786.32686615 -150110176.26348877 0 0 0 0 50610322.843610406 -17571249.684807301 0 -17571249.684807301 -225166149.26655579 0 0 0 0 94842091.025798798 25631440.068626404 0 25631440.068626404 -192077744.88399124 0 0 0 0 46646297.797896385 163949080.03314209 0 163949080.03314209 -554285700.61716175 0 0 0 0 73860759.846484184 -358791926.33774948 0 -358791926.33774948 -420633759.61550903 0 0 0 0 -4684014.4126448641 4052227.7516325191 0 4052227.7516325191 -2981405.2373295724 0 0 0 0 -22755528.651459694 -161563577.92446899 0 -161563577.92446899 193038372.78562164 0 0 0 0 -153292240.01740229 17044036.470275879 0 17044036.470275879 123585056.42794418 0 0 0 0 -343613910.5989399 398423848.60578918 0 398423848.60578918 182055994.58944702 0 0 0 0 -4301797.0472562909 4384910.0431595296 0 4384910.0431595296 -3622782.287433967 0 0 0 0 83383768.497788131 -22365609.01802063 0 -22365609.01802063 -156776646.24623489 0 0 0 0 237777036.70796537 -36838841.605867386 0 -36838841.605867386 -631037791.95884705 0 0 0 0 91777.144296729006 749557.17386815324 0 749557.17386815324 -807557.40564856678 0 0 0 0 -62498934.845519066 -362968485.41999054 0 -362968485.41999054 -408306327.18664169 0 0 0 0 -126634065.47536612 57692522.840991974 0 57692522.840991974 -25083675.914398193 0 0 0 0 7031805.2446116805 7024463.3252096176 0 7024463.3252096176 -6325184.8126449585 0 0 0 0 3922962.1658528512 2802418.6550157666 0 2802418.6550157666 -4227436.6587567758 0 0 0 0 -112381224.66215277 -9340826.3842515945 0 -9340826.3842515945 5889816.6602706909 0 0 0 0 4685011.6626669131 1521094.6643498875 0 1521094.6643498875 -8818886.5336116552 0 0 0 0 -1291309.1772241611 -319589.715474803 0 -319589.715474803 -1002336.5619290899 0 0 0 0 -3837317.4451494217 42471007.608581543 0 42471007.608581543 -48671088.417770386 0 0 0 0 9353682.1166520119 10923800.81678009 0 10923800.81678009 1007407.6224284172 0 0 0 0 6403320.9308716059 5824778.1606063843 0 5824778.1606063843 1313097.5884552002 0 0 0 0 1828142.3656251431 3924325.5731582642 0 3924325.5731582642 1583508.9629899561 0 0 0 0 2743047.9482798576 2832444.6387939453 0 2832444.6387939453 1587812.8471947908 0 0 0 0 2558860.0814223289 3611259.0299072266 0 3611259.0299072266 783152.51097023487 0 0 0 0 147303.80726838112 3720060.333896637 0 3720060.333896637 3468216.3311309814 0 0 0 0 1355562.861228466 4770019.1360397339 0 4770019.1360397339 813460.17849004269 0 0 0 0 1204111.3954706192 1202214.4037284851 0 1202214.4037284851 125276.91098022461 0 0 0 0 2762424.3770519542 2836623.1330067739 0 2836623.1330067739 -3295758.0636131931 0 0 0 0 29870419.17820549 45656013.766004086 0 45656013.766004086 -186523936.16469574 0 0 0 0 2418488.1671094894 4708414.6305503845 0 4708414.6305503845 -5208871.5159683228 0 0 0 0 -15881346.733105659 -26607672.335237503 0 -26607672.335237503 -57514641.228851318 0 0 0 0 -37034195.991506815 3318860.3177490234 0 3318860.3177490234 -37883891.580963135 0 0 0 0 5488406.6637539864 5798176.7077941895 0 5798176.7077941895 -49224608.154945374 0 0 0 0 55468.342807531357 12575970.597129822 0 12575970.597129822 -15632695.8671875 0 0 0 0 8603809.020616293 20263917.583251953 0 20263917.583251953 -69464696.203086853 0 0 0 0 144057.76364855957 128208.83779382892 0 128208.83779382892 -298646.13384515792 0 0 0 0 -117267.09829139709 -25775014.675830841 0 -25775014.675830841 -86304885.158666611 0 0 0 0 94319.923305945238 453387.53465752676 0 453387.53465752676 -313591.33776695374 0 0 0 0 -12232954.278514147 6823970.0447044373 0 6823970.0447044373 -3608724.444480896 0 0 0 0 38462.013734496664 213624.76419408992 0 213624.76419408992 -118817.63080580346 0 0 0 0 2590207.6847374439 8500693.3425655365 0 8500693.3425655365 15079879.777843475 0 0 0 0 10879139.425226808 13065459.958805084 0 13065459.958805084 -82125834.745063782 0 0 0 0 9099076.5761556625 7454682.5741043091 0 7454682.5741043091 -68083972.543571472 0 0 0 0 8587637.8850224018 12170471.993614197 0 12170471.993614197 -64288206.33026123 0 0 0 0 -2823875.1703023911 12837071.658447266 0 12837071.658447266 -36456464.634429932 0 0 0 0 8812190.038482666 -3830294.6120300293 0 -3830294.6120300293 -40072241.971405029 0 0 0 0 3336005.3575339913 814471.47217559814 0 814471.47217559814 -49444897.350067139 0 0 0 0 5048362.2177381516 -11706041.572242737 0 -11706041.572242737 -40678136.391101837 0 0 0 0 4278639.8012909889 -7849762.6966705322 0 -7849762.6966705322 -39311477.506958008 0 0 0 0 6086304.979675293 -12082261.106750488 0 -12082261.106750488 -33406522.527374268 0 0 0 0 5041162.7187039256 -5772832.6188335419 0 -5772832.6188335419 -35516204.912155151 0 0 0 0 7987605.2593979836 -8850010.0137786865 0 -8850010.0137786865 -37655805.307891846 0 0 0 0 7043240.5897464752 -8186792.9966659546 0 -8186792.9966659546 -32822696.348052979 0 0 0 0 6099406.4439082146 -12937430.284721375 0 -12937430.284721375 -85057756.96336174 0 0 0 0 8078484.1322822571 -4122814.0422973633 0 -4122814.0422973633 -55744229.121009827 0 0 0 0 7516106.7696928978 -4203756.7256088257 0 -4203756.7256088257 -53779606.486312866 0 0 0 0 4595770.2177515626 -7146753.77597332 0 -7146753.77597332 -55327040.0287323 0 0 0 0 -2331448.5508217812 -15760343.343742371 0 -15760343.343742371 -42529706.280693054 0 0 0 0 -4315875.9528045654 -7868868.1758499146 0 -7868868.1758499146 -36481579.995040894 0 0 0 0 -7007978.7456455231 -14230885.66078186 0 -14230885.66078186 -30141606.395095825 0 0 0 0 4461457.3820972443 -13264999.230998993 0 -13264999.230998993 -31225526.730178833 0 0 0 0 293235.35123181343 -9034884.6522979736 0 -9034884.6522979736 -32516240.616104126 0 0 0 0 8096522.1366662979 -6801220.0720329285 0 -6801220.0720329285 -20016483.021072388 0 0 0 0 -5143188.8277266026 -7500002.8487129211 0 -7500002.8487129211 -19973805.490386963 0 0 0 0 7666946.682844162 -11428437.072486877 0 -11428437.072486877 -24446439.81628418 0 0 0 0 8897453.6627721786 -11895326.243026733 0 -11895326.243026733 -29338347.192840576 0 0 0 0 5182273.6571087837 -11581462.928817749 0 -11581462.928817749 -28612107.486526489 0 0 0 0 8605002.7412309647 -14483919.255844116 0 -14483919.255844116 -25669813.718719482 0 0 0 0 7546254.6823863983 -10244441.712310791 0 -10244441.712310791 -30250910.45448494 0 0 0 0 4312679.6895649433 -8739580.4393081665 0 -8739580.4393081665 -29965636.935379028 0 0 0 0 11290974.001300812 -9640428.5729217529 0 -9640428.5729217529 -22657113.478336334 0 0 0 0 940024.52865803242 -13321423.366664886 0 -13321423.366664886 -23441757.270614624 0 0 0 0 6705310.4934556484 -13816102.008712769 0 -13816102.008712769 -22517093.19758606 0 0 0 0 8439232.0959529877 -16255449.366651535 0 -16255449.366651535 -20925483.851104736 0 0 0 0 -817274.02206850052 -28074516.268577576 0 -28074516.268577576 -13544545.520690918 0 0 0 0 27405421.669488907 -1668539.5906143188 0 -1668539.5906143188 -34497595.068557739 0 0 0 0 35920942.227903545 -43241107.668403625 0 -43241107.668403625 -8582387.7069854736 0 0 0 0 3671238.4575296203 -8007586.2489937246 0 -8007586.2489937246 -17769054.522453032 0 0 0 0 -822401.50152373314 -8938818.7365684509 0 -8938818.7365684509 -13540987.790756226 0 0 0 0 10791120.711793423 -12571793.948402405 0 -12571793.948402405 -13021094.92178154 0 0 0 0 4376843.8604801632 -8582680.1728152633 0 -8582680.1728152633 -17828199.13959676 0 0 0 0 4745383.3468003208 -7641057.7504144497 0 -7641057.7504144497 -21436900.255712047 0 0 0 0 5180657.4623211622 -4066865.1906929016 0 -4066865.1906929016 -13819068.059448242 0 0 0 0 7799290.1385698318 -10340286.263465881 0 -10340286.263465881 -19987495.579818726 0 0 0 0 8666885.1038039923 907822.55418014526 0 907822.55418014526 -21231667.449035645 0 0 0 0 871510.96273612976 -6045877.9294281006 0 -6045877.9294281006 -16315649.924293518 0 0 0 0 5183412.2643712675 -8658600.8733022735 0 -8658600.8733022735 -21968798.346525256 0 0 0 0 3815995.4481825829 -6156332.3877487183 0 -6156332.3877487183 -15000665.221679688 0 0 0 0 17567023.673871994 682763.5735168457 0 682763.5735168457 -21813366.892623901 0 0 0 0 14516611.497407913 -6220344.3592453003 0 -6220344.3592453003 -36118733.215026855 0 0 0 0 -4598754.6005444527 4594718.772342205 0 4594718.772342205 -19347304.858428955 0 0 0 0 3402448.9002361298 22184797.715843201 0 22184797.715843201 -12103287.605257034 0 0 0 0 2732826.5650307098 7810257.2345116884 0 7810257.2345116884 -27103993.479007315 0 0 0 0 4976764.0405954123 27371889.176680565 0 27371889.176680565 -17798304.553161621 0 0 0 0 7348975.2818112373 9974058.5349578857 0 9974058.5349578857 -7338818.9794921875 0 0 0 0 2787871.9179630461 1530336.5878227726 0 1530336.5878227726 -3369172.0826679841 0 0 0 0 10425517.35062903 -13390748.456725709 0 -13390748.456725709 -30180221.730815552 0 0 0 0 10410220.461390495 -16689320.127548218 0 -16689320.127548218 -9773365.6972808838 0 0 0 0 91788213.132191867 16283073.859196186 0 16283073.859196186 -51684595.271501541 0 0 0 0 2395218.9672441483 -10076029.118877411 0 -10076029.118877411 -9418628.9480631351 0 0 0 0 14511830.325502872 -10853258.794624329 0 -10853258.794624329 -58188309.209350586 0 0 0 0 2674857.2597122192 -8406752.7669677734 0 -8406752.7669677734 -10077117.097351074 0 0 0 0 1106967.9954218864 -7653380.3774032593 0 -7653380.3774032593 -10368204.458000183 0 0 0 0 97992.113211815245 -11334313.149746809 0 -11334313.149746809 -6353275.1110105403 0 0 0 0 -18209113.876212597 -9983208.8849143982 0 -9983208.8849143982 45680732.80531311 0 0 0 0 59931.563592242543 -1640804.1713378504 0 -1640804.1713378504 -3718411.2543947911 0 0 0 0 -17626907.254080772 -35210113.319442749 0 -35210113.319442749 2994645.7204661369 0 0 0 0 6715693.6838831902 -11092400.766967773 0 -11092400.766967773 -29304365.221488953 0 0 0 0 2391626.1466400358 -12012774.213897459 0 -12012774.213897459 -12482481.237639122 0 0 0 0 559741.56107740058 -4895023.192636881 0 -4895023.192636881 -21485058.936334562 0 0 0 0 -1363737.2609634399 -4134769.9797821045 0 -4134769.9797821045 -14078156.575798035 0 0 0 0 -880520.46450692159 -13383510.285086755 0 -13383510.285086755 10824679.91420161 0 0 0 0 365337.42420816422 -20034175.863637924 0 -20034175.863637924 26726808.249420166 0 0 0 0 -62064963.85111618 -11858563.862617493 0 -11858563.862617493 26407498.651561737 0 0 0 0 6362832.6406855583 -8580967.8203430176 0 -8580967.8203430176 14143325.56004715 0 0 0 0 1475763.8307473459 -1878669.8214498758 0 -1878669.8214498758 -267823.06430873275 0 0 0 0 -22847708.730827808 -1652724.5045928955 0 -1652724.5045928955 12519045.182723999 0 0 0 0 -19479302.103336811 -11018325.535736084 0 -11018325.535736084 2360220.5493392944 0 0 0 0 -57148986.80686152 17885730.521995544 0 17885730.521995544 34595733.465543747 0 0 0 0 -1668020.0924549103 -292742.93732070923 0 -292742.93732070923 28774560.757568359 0 0 0 0 -1897867.1156581719 -3532775.1969919391 0 -3532775.1969919391 5980082.2806467861 0 0 0 0 -4431773.205145359 -25571987.8934021 0 -25571987.8934021 49096098.750335693 0 0 0 0 30024301.342156172 -46787792.079185486 0 -46787792.079185486 -44038704.114906311 0 0 0 0 17612868.397253036 -15677981.795005798 0 -15677981.795005798 -80703476.050674438 0 0 0 0 -317099.66555573 -11132569.539988481 0 -11132569.539988481 -6088215.4603669457 0 0 0 0 -8146023.5542385578 -7070670.1089038849 0 -7070670.1089038849 -509812.83810424805 0 0 0 0 -15104919.25521493 -33572292.052940369 0 -33572292.052940369 -4516417.8547515869 0 0 0 0 -998970.678423248 -10384730.495776664 0 -10384730.495776664 -4113620.001220312 0 0 0 0 1392789.4674135786 -335372.40593855456 0 -335372.40593855456 -5330764.7020151317 0 0 0 0 -5258180.5711336136 -87291896.812911987 0 -87291896.812911987 -54963381.552280426 0 0 0 0 -85273473.996526361 -67266076.448448181 0 -67266076.448448181 43241662.151885986 0 0 0 0 -14593152.985448359 -16672965.258603096 0 -16672965.258603096 -17640218.022460938 0 0 0 0 -168155.70418976899 -4342516.667463664 0 -4342516.667463664 -11732256.293421805 0 0 0 0 27677971.935112 99117771.950668335 0 99117771.950668335 -95478271.244224548 0 0 0 0 -13762776.08264339 -61442399.649925232 0 -61442399.649925232 -34610317.383224487 0 0 0 0 21020939.857460499 -33359233.083007812 0 -33359233.083007812 -25490695.191574097 0 0 0 0 1848276.8284319043 52571724.040781975 0 52571724.040781975 -114279660.832901 0 0 0 0 -2810247.9838873008 -1437773.3376481533 0 -1437773.3376481533 5001581.9986397475 0 0 0 0 -42480145.375606775 -10146592.46541214 0 -10146592.46541214 23874888.360618591 0 0 0 0 -20082070.424432755 -1271267.0183792114 0 -1271267.0183792114 25505328.715774536 0 0 0 0 -4442032.1107264226 -10608761.666376621 0 -10608761.666376621 -2796467.7659118157 0 0 0 0 -3263458.6937122345 626006.82698059082 0 626006.82698059082 3148271.9137878418 0 0 0 0 9215536.6726493835 -65401452.413223267 0 -65401452.413223267 88920751.049957275 0 0 0 0 -56461918.065116882 -25749796.375061035 0 -25749796.375061035 65306218.117355347 0 0 0 0 -6137921.6240236163 -2509535.4573712535 0 -2509535.4573712535 -2347668.3381135613 0 0 0 0 -48695762.491577148 -159373997.74650574 0 -159373997.74650574 12799552.842010498 0 0 0 0 33932668.395748138 -93599471.761901855 0 -93599471.761901855 54535328.372131348 0 0 0 0 -7349401.5266756183 -8905239.1953447498 0 -8905239.1953447498 -5511818.3658452928 0 0 0 0 12053006.945057869 -28477082.790771484 0 -28477082.790771484 -21317541.731399536 0 0 0 0 -10375701.202684879 6045863.6273574829 0 6045863.6273574829 10623662.732131958 0 0 0 0 -23154097.281603813 -3305794.7294235229 0 -3305794.7294235229 -34708505.843322754 0 0 0 0 -8180818.6902676169 -8281553.8035684898 0 -8281553.8035684898 -7113547.0000689179 0 0 0 0 7040612.6546704769 -1539713.3681640625 0 -1539713.3681640625 -3927205.5706329346 0 0 0 0 -930114.37850057997 -2067294.0837564701 0 -2067294.0837564701 -14824967.094989687 0 0 0 0 49592100.930802822 11518162.061286926 0 11518162.061286926 -33231694.680847168 0 0 0 0 192434.33343791962 -1661177.3005523682 0 -1661177.3005523682 -3379237.3223571777 0 0 0 0 -2877429.2616371848 -8702641.3175462969 0 -8702641.3175462969 -9980548.8850368783 0 0 0 0 -34382104.122280121 -19066001.925895691 0 -19066001.925895691 102927036.24661255 0 0 0 0 -36284914.81672287 2186299.454788208 0 2186299.454788208 212467087.85754395 0 0 0 0 -8240855.4870989239 -2100108.4622452706 0 -2100108.4622452706 -8291227.7866645623 0 0 0 0 -1105829.8701711288 -514861.90803010017 0 -514861.90803010017 -61256.532076135278 0 0 0 0 29418438.457919598 12229829.735198975 0 12229829.735198975 -10470104.640380859 0 0 0 0 37567818.206424713 28683935.815307617 0 28683935.815307617 -57577789.712417603 0 0 0 0 -3706816.4280554336 -1194244.7850010581 0 -1194244.7850010581 -11269113.065615147 0 0 0 0 183884596.13270998 -36802590.780471802 0 -36802590.780471802 -29582511.075622559 0 0 0 0 2477437.2954422254 1666743.8470369801 0 1666743.8470369801 -3381332.9416295588 0 0 0 0 -1914903.3581184796 -4486724.4949134961 0 -4486724.4949134961 -17318429.585515782 0 0 0 0 17503824.444642067 -22919444.87109375 0 -22919444.87109375 -25977574.926300049 0 0 0 0 -4807877.1841430664 -11063802.639038086 0 -11063802.639038086 -18149751.904632568 0 0 0 0 -8609652.3350651264 -12561485.567871094 0 -12561485.567871094 -16999985.522964478 0 0 0 0 -14052646.950245857 -12685871.972442627 0 -12685871.972442627 -17437988.432044983 0 0 0 0 -3683486.7000582851 -7635816.7152089598 0 -7635816.7152089598 -24957067.176491946 0 0 0 0 457821.87086963654 -14255946.797130585 0 -14255946.797130585 -21610716.904556274 0 0 0 0 186125541.53163028 32495.997123718262 0 32495.997123718262 -45624268.37991333 0 0 0 0 -6417495.6576957703 -16876618.729469299 0 -16876618.729469299 -20251243.495437622 0 0 0 0 16744679.489888191 -21372026.91009903 0 -21372026.91009903 -26642989.059608459 0 0 0 0 -1580587.9005737004 -9616743.6331888754 0 -9616743.6331888754 -28946943.937929437 0 0 0 0 -5456399.2668819427 -28978951.637454987 0 -28978951.637454987 -24294515.335372925 0 0 0 0 12720624.81076622 -8418023.1462783813 0 -8418023.1462783813 -26323047.730224609 0 0 0 0 -22733106.816818953 -15458367.560512543 0 -15458367.560512543 -14490756.442825317 0 0 0 0 -24751907.20361805 -19863888.336685181 0 -19863888.336685181 -20252590.092330933 0 0 0 0 -27331468.947796822 -42710354.484825134 0 -42710354.484825134 -55499678.97253418 0 0 0 0 -47983600.843585968 -17281357.635559082 0 -17281357.635559082 -15689721.210708618 0 0 0 0 -18631123.13199234 -27619028.027008057 0 -27619028.027008057 -29504910.07768631 0 0 0 0 -5011905.4752502441 -28494709.46245575 0 -28494709.46245575 -29943565.653694153 0 0 0 0 -13580603.766457796 -16186798.296066284 0 -16186798.296066284 -14968962.015029907 0 0 0 0 -7003056.8369941711 -14544430.027366638 0 -14544430.027366638 -19042979.174880981 0 0 0 0 -10092102.248399734 -7472325.730884552 0 -7472325.730884552 -14455008.782516479 0 0 0 0 -15486195.046030521 -13200756.300865173 0 -13200756.300865173 -17843230.358733177 0 0 0 0 3640552.267084003 -7370762.9143725708 0 -7370762.9143725708 -12123349.334112316 0 0 0 0 1686719.5792007446 -3103229.0244445801 0 -3103229.0244445801 38516394.794678211 0 0 0 0 87441.105374395847 -18996585.34419632 0 -18996585.34419632 -14096080.297348022 0 0 0 0 5592460.0236160755 -7732635.2762145996 0 -7732635.2762145996 -19874407.34879303 0 0 0 0 15477454.986447811 -12196814.017974854 0 -12196814.017974854 -22308221.646141052 0 0 0 0 1099274.0377667039 -597257.70029501989 0 -597257.70029501989 -1646145.0225741751 0 0 0 0 8712339.0994251966 -12040968.601409912 0 -12040968.601409912 -28146628.153930664 0 0 0 0 -2102189.953226639 -9412757.3175702021 0 -9412757.3175702021 -4238503.8393458016 0 0 0 0 -11051125.991287231 -11613872.922164917 0 -11613872.922164917 -13741942.009040833 0 0 0 0 -14815502.192790747 8226463.7728843689 0 8226463.7728843689 -6012260.8428344727 0 0 0 0 12192253.022726834 282533.27104187012 0 282533.27104187012 -20493073.2695117 0 0 0 0 -98172298.596533507 2800454.6254172325 0 2800454.6254172325 -20188907.75201416 0 0 0 0 -51115691.650294393 -67298729.000176668 0 -67298729.000176668 -93315247.226425171 0 0 0 0 3367371.5720937145 5037864.1449979134 0 5037864.1449979134 -15962454.506978787 0 0 0 0 1324592.5970377536 -679865.68970765918 0 -679865.68970765918 -1997833.2701343596 0 0 0 0 515944.48571760044 9546.9587686918676 0 9546.9587686918676 -1244130.3328463659 0 0 0 0 -87122332.569774628 -38019220.115104675 0 -38019220.115104675 -67321468.560577393 0 0 0 0 -51540259.680039883 -59369144.340888977 0 -59369144.340888977 -117979992.67938232 0 0 0 0 10613865.641257823 -4266903.8359794617 0 -4266903.8359794617 -27689942.992805481 0 0 0 0 7667646.192235738 -10407690.94849968 0 -10407690.94849968 -25812084.747421265 0 0 0 0 8310919.0083379745 -2061264.6247634888 0 -2061264.6247634888 -29364298.996616364 0 0 0 0 12127792.292873085 22746637.811009884 0 22746637.811009884 -17897690.15776062 0 0 0 0 3305202.1495115757 1217981.6465797424 0 1217981.6465797424 -16186159.165290833 0 0 0 0 -95856918.017833948 -80481203.418296814 0 -80481203.418296814 -106444442.30315781 0 0 0 0 4116878.0577921001 3114285.4937459696 0 3114285.4937459696 -12486182.084594801 0 0 0 0 -50814417.194435596 -37138875.418022156 0 -37138875.418022156 -67521383.648742676 0 0 0 0 -30152974.846483231 -27105805.726745605 0 -27105805.726745605 -72398623.289093018 0 0 0 0 -15764780.745241165 -60209843.609191895 0 -60209843.609191895 -107849032.8052063 0 0 0 0 -4288808.7431311607 -38769132.173797607 0 -38769132.173797607 -103898824.48126221 0 0 0 0 5048050.5860273838 -7596232.9664325714 0 -7596232.9664325714 -77191472.25189209 0 0 0 0 -25765130.982188225 -1821727.1896095276 0 -1821727.1896095276 -36147229.427703857 0 0 0 0 3116382.8295418248 -956521.27665951103 0 -956521.27665951103 -9720530.0240346938 0 0 0 0 -42232326.771303177 -14989650.737670898 0 -14989650.737670898 -50140491.349853516 0 0 0 0 -1243772.1491222382 -19136659.868240356 0 -19136659.868240356 -52092084.593826294 0 0 0 0 946002.02484893799 -13781505.076660156 0 -13781505.076660156 -60442471.93662262 0 0 0 0 25807316.200828552 2240218.4472808838 0 2240218.4472808838 -58884325.098905563 0 0 0 0 5168867.8581426581 -4721325.6190594994 0 -4721325.6190594994 -18830695.852774553 0 0 0 0 -703500630.1099968 55525752.203109741 0 55525752.203109741 140089896.05834579 0 0 0 0 15408192.568586349 7605663.154876709 0 7605663.154876709 -30232770.888320923 0 0 0 0 313787003.3025651 35083881.296325684 0 35083881.296325684 -229495476.21012878 0 0 0 0 101023700.60162926 -535416719.53518677 0 -535416719.53518677 -218502356.75488281 0 0 0 0 10077539.892253876 2323691.5862731934 0 2323691.5862731934 -46444141.016563416 0 0 0 0 22405220.536962509 13764021.994997025 0 13764021.994997025 -50756100.420196533 0 0 0 0 21115921.338470608 -10117824.391779661 0 -10117824.391779661 -64280035.189666748 0 0 0 0 33919342.789833069 -9689913.7333068848 0 -9689913.7333068848 -50673727.788879395 0 0 0 0 21115103.178166032 -10025171.357682109 0 -10025171.357682109 -36839762.325805664 0 0 0 0 2760439.2138252258 -27036788.788665771 0 -27036788.788665771 -58984940.436218262 0 0 0 0 489162.98306083679 -14461063.124893188 0 -14461063.124893188 -49687953.42539978 0 0 0 0 -1404490.9160614014 -25122658.751304626 0 -25122658.751304626 -86494395.697769165 0 0 0 0 -29215419.006134033 -29639153.440368652 0 -29639153.440368652 -53426056.629177094 0 0 0 0 -101053476.50440788 -59224895.094910622 0 -59224895.094910622 -46449884.918579102 0 0 0 0 -35240435.547365189 -49333495.464904785 0 -49333495.464904785 -114166142.91412354 0 0 0 0 -29515247.792788506 -22137741.259471893 0 -22137741.259471893 -66269743.527679443 0 0 0 0 -38465794.757024765 -4227899.0424499512 0 -4227899.0424499512 -99945244.73651123 0 0 0 0 -1537978.622844696 -8631992.8391113281 0 -8631992.8391113281 -71068730.214920044 0 0 0 0 -85433.942947807591 -5768731.4118243959 0 -5768731.4118243959 -6633875.6647684425 0 0 0 0 15515809.695358515 -26504667.941757202 0 -26504667.941757202 -25693601.476478577 0 0 0 0 843156.26912950655 -10846948.525588082 0 -10846948.525588082 -32898644.23734583 0 0 0 0 11566034.870780945 319843.67740631104 0 319843.67740631104 -12989167.875980377 0 0 0 0 8819932.7203600407 -1926736.8004150391 0 -1926736.8004150391 -14355399.102050781 0 0 0 0 350616.74344319879 -9061226.0237279683 0 -9061226.0237279683 -24353160.673320271 0 0 0 0 -683366.29428078583 -8174818.014560299 0 -8174818.014560299 -22801452.493790656 0 0 0 0 20145321.09318924 26296343.027122498 0 26296343.027122498 3444535.0540370941 0 0 0 0 1317442.2661352581 -1416942.553566929 0 -1416942.553566929 -17924188.378653362 0 0 0 0 53271607.156146169 31153594.399749756 0 31153594.399749756 -11778097.041213989 0 0 0 0 -3175027.2349847555 9795153.7244873047 0 9795153.7244873047 2068449.0565338135 0 0 0 0 951537.63435772201 2441832.7784676105 0 2441832.7784676105 -422597.8781440258 0 0 0 0 46568214.453543544 56672490.933040619 0 56672490.933040619 49999417.1067276 0 0 0 0 328309.61694922257 -466263.44580881298 0 -466263.44580881298 -1752221.6548108272 0 0 0 0 7333843.8060887456 -14086913.420501709 0 -14086913.420501709 -20316109.219940186 0 0 0 0 311118.25586834579 -3991970.5313645303 0 -3991970.5313645303 -14696453.090836123 0 0 0 0 -30680204.602284476 -31843793.566473007 0 -31843793.566473007 -3332802.596496582 0 0 0 0 85407.075519248086 -2655776.6954441667 0 -2655776.6954441667 -1670589.1128010452 0 0 0 0 45701810.205448322 13418912.419921875 0 13418912.419921875 -49781191.040313721 0 0 0 0 6820304.5422888771 -17234299.428268433 0 -17234299.428268433 13170787.433624268 0 0 0 0 37968415.492842257 -29859750.943969727 0 -29859750.943969727 -9528997.9768753052 0 0 0 0 -13832919.31047181 59935881.549150467 0 59935881.549150467 -82965393.525115967 0 0 0 0 -88235.155603136169 -535078.44404432178 0 -535078.44404432178 -389774.27314604819 0 0 0 0 21302901.89379999 38272996.407226562 0 38272996.407226562 -166596629.75502777 0 0 0 0 -66081849.157802761 -44823599.15045929 0 -44823599.15045929 -26175984.066337585 0 0 0 0 -112426868.57542923 -86072423.899238586 0 -86072423.899238586 84867718.129943848 0 0 0 0 -747657.14678709942 -1837315.2492081095 0 -1837315.2492081095 -2959347.4817946851 0 0 0 0 -61616337.087166786 -27630819.58821106 0 -27630819.58821106 -41171682.446304321 0 0 0 0 -55881942.981132627 -55823073.097045898 0 -55823073.097045898 -50258836.116958618 0 0 0 0 -3758483.5591392517 -33436994.059082031 0 -33436994.059082031 -42610326.111618042 0 0 0 0 -17578668.467127919 -33451826.365631104 0 -33451826.365631104 -12454258.238494873 0 0 0 0 -57344031.404111981 -27799218.401672363 0 -27799218.401672363 -2097673.2871551514 0 0 0 0 -17519463.4787848 -33793005.644386292 0 -33793005.644386292 -15670525.377456665 0 0 0 0 93069306.147129297 -37779834.437744141 0 -37779834.437744141 -36867344.83883667 0 0 0 0 -2756098.288271904 -69630577.906646729 0 -69630577.906646729 -14982468.702528 0 0 0 0 187047917.72616103 -5401954.1174755096 0 -5401954.1174755096 -120655092.6036377 0 0 0 0 17702657.981212139 899332.52496337891 0 899332.52496337891 -1786849.3804092407 0 0 0 0 -17279858.208263397 -44332756.3099823 0 -44332756.3099823 -58765780.851379395 0 0 0 0 -78989665.57051897 22016716.64868927 0 22016716.64868927 -54130012.058959961 0 0 0 0 65715994.108116865 -82676352.530487061 0 -82676352.530487061 -131635412.96286011 0 0 0 0 -22292898.186643124 -15297706.332977295 0 -15297706.332977295 -124802387.72561646 0 0 0 0 28832946.905460596 -7355333.1575012207 0 -7355333.1575012207 -123783816.3916626 0 0 0 0 -7036052.3030685186 36272724.02482605 0 36272724.02482605 -176838499.82736206 0 0 0 0 10930182.132937968 -80274665.380989075 0 -80274665.380989075 -277543635.93695068 0 0 0 0 25643585.685995817 17656388.203323364 0 17656388.203323364 -131086825.23553467 0 0 0 0 -1928807.791656971 60440313.494049072 0 60440313.494049072 -194994310.2350769 0 0 0 0 31631972.513646126 52911650.451065063 0 52911650.451065063 -74541178.653015137 0 0 0 0 152039977.38302469 62478913.209747314 0 62478913.209747314 -183761268.32236481 0 0 0 0 110976030.24323559 -38376679.091812134 0 -38376679.091812134 30346819.01171875 0 0 0 0 -17696501.902584553 91266445.213684082 0 91266445.213684082 6786605.6677246094 0 0 0 0 185999109.61083889 21066695.955932617 0 21066695.955932617 -135063491.5218811 0 0 0 0 -187443463.90274811 28997686.857009888 0 28997686.857009888 30262117.177124023 0 0 0 0 -1560776.2390425703 1359502.9243730679 0 1359502.9243730679 636989.9012068361 0 0 0 0 -67152494.303896427 148424644.25654602 0 148424644.25654602 -61298018.518135071 0 0 0 0 107786571.37709713 72606295.15322876 0 72606295.15322876 -51447419.500610352 0 0 0 0 -68489108.16042614 2408409.4988098145 0 2408409.4988098145 2595217.4990844727 0 0 0 0 -82884377.056329787 97123260.864887238 0 97123260.864887238 -31288986.43359375 0 0 0 0 39996752.137568474 40532533.507263184 0 40532533.507263184 -19450817.330749512 0 0 0 0 -12233861.205001952 -866344.07080841064 0 -866344.07080841064 -11911730.994309358 0 0 0 0 -5063395.9737758636 16953066.419006348 0 16953066.419006348 -745687.88845825195 0 0 0 0 -14027715.305098057 16559298.995330811 0 16559298.995330811 -759141.38951873779 0 0 0 0 -22876129.688432693 -3310655.8017730713 0 -3310655.8017730713 147149845.81614685 0 0 0 0 -17047228.960806847 40910021.564208984 0 40910021.564208984 -18801032.848670959 0 0 0 0 -24083382.076298952 16473991.637313843 0 16473991.637313843 2562273.9595031738 0 0 0 0 -25797831.14048481 8174134.200592041 0 8174134.200592041 2865111.4716911316 0 0 0 0 -19294461.479912758 20508099.52746582 0 20508099.52746582 3811056.7952880859 0 0 0 0 -51731431.83714819 23414498.952713013 0 23414498.952713013 3670410.0310668945 0 0 0 0 -16586372.137140036 13410795.467750549 0 13410795.467750549 -1620045.6292724609 0 0 0 0 -1882517.0075290203 158392787.32002258 0 158392787.32002258 -58060786.700073242 0 0 0 0 -26877965.273487568 108021157.94390869 0 108021157.94390869 116491790.7480011 0 0 0 0 -5832515.8660325427 5626502.3864997253 0 5626502.3864997253 3099411.9461961538 0 0 0 0 858046.8837865591 109414667.30393982 0 109414667.30393982 37348077.693237305 0 0 0 0 15130394.437440634 101167709.13560486 0 101167709.13560486 -22501389.520568848 0 0 0 0 32502646.113873363 140677249.30828857 0 140677249.30828857 10391145.816101074 0 0 0 0 20400918.691718817 151242045.10769653 0 151242045.10769653 26721429.970336914 0 0 0 0 16148640.811539367 -22381746.184850693 0 -22381746.184850693 29834686.684906006 0 0 0 0 -4053905.9392452855 189609.10777777433 0 189609.10777777433 4087591.0673763976 0 0 0 0 116364979.33552933 177803847.09052277 0 177803847.09052277 51277380.949569702 0 0 0 0 -77772098.947460175 33484650.089027405 0 33484650.089027405 20769618.106002808 0 0 0 0 -8538088.3892904222 2823887.0185024086 0 2823887.0185024086 7264674.8853340596 0 0 0 0 -14010769.949690212 8530295.5784058869 0 8530295.5784058869 -9040032.8503702097 0 0 0 0 -826373.59491729736 -147642.42755126953 0 -147642.42755126953 5196546.299041748 0 0 0 0 -59939241.591602325 12992951.331100464 0 12992951.331100464 93606733.690322876 0 0 0 0 -97804808.057607651 47372550.448375702 0 47372550.448375702 144271283.94555664 0 0 0 0 -4069025.3313012999 3554973.8167492449 0 3554973.8167492449 -3026481.8147042468 0 0 0 0 -47716125.899200648 -15374611.036087036 0 -15374611.036087036 112694715.80369568 0 0 0 0 -2061371.393535614 3285816.7748947144 0 3285816.7748947144 -914248.00168991089 0 0 0 0 -2728460.5254838173 4709384.4927873537 0 4709384.4927873537 -6843833.8299526498 0 0 0 0 -3788581.0134972068 5406854.4311554134 0 5406854.4311554134 -5068226.9319927208 0 0 0 0 -1870687.9548988342 2648565.2423019409 0 2648565.2423019409 -501752.51062393188 0 0 0 0 -7318333.7202234166 6623999.9739518464 0 6623999.9739518464 -7784083.8589104339 0 0 0 0 -16890237.958227158 48870308.089679718 0 48870308.089679718 19779742.61907959 0 0 0 0 -69461685.618433416 55514261.552871704 0 55514261.552871704 155385079.4181366 0 0 0 0 27052629.933536686 26254711.756681442 0 26254711.756681442 49471510.500946045 0 0 0 0 -132201248.6777007 92341663.114868164 0 92341663.114868164 22252330.381164551 0 0 0 0 -116696664.61400574 -8121151.8109436035 0 -8121151.8109436035 51257282.129951477 0 0 0 0 16558296.075612575 -8075639.1463775635 0 -8075639.1463775635 48159294.697296143 0 0 0 0 -6285963.7362937629 -53535398.016334534 0 -53535398.016334534 -74493356.739318848 0 0 0 0 -38327051.43228665 -6666355.7284927368 0 -6666355.7284927368 -69521881.269165039 0 0 0 0 -99097019.350648701 -115275333.97533417 0 -115275333.97533417 -263470893.76461792 0 0 0 0 -9977995.7690203935 77614626.382400513 0 77614626.382400513 -153587537.58407593 0 0 0 0 -60710692.027668893 -6882272.5659255981 0 -6882272.5659255981 -44891912.2996521 0 0 0 0 -292281032.78953314 41261515.5597229 0 41261515.5597229 -54502436.912994385 0 0 0 0 -73848418.638811469 120272857.95713043 0 120272857.95713043 -414842692.18304443 0 0 0 0 -43912983.999103189 20172629.890396118 0 20172629.890396118 -119071981.83216095 0 0 0 0 -151643136.96615201 -189080946.29581451 0 -189080946.29581451 -265666953.66357422 0 0 0 0 -38436358.968959905 148102253.21618652 0 148102253.21618652 -180240104.90582275 0 0 0 0 -292384.5081046258 -447591.71012471803 0 -447591.71012471803 -961230.649886325 0 0 0 0 -112904989.35536277 -78098448.49848938 0 -78098448.49848938 -87789286.499313354 0 0 0 0 -15007150.583446175 59357395.811126709 0 59357395.811126709 -174662021.38952637 0 0 0 0 -48196830.595015734 117372717.5322113 0 117372717.5322113 -275996256.37380981 0 0 0 0 39886048.799582511 120539153.35597229 0 120539153.35597229 -112425407.30709839 0 0 0 0 -41040.551011745236 63884.784239403903 0 63884.784239403903 -66968.661271749064 0 0 0 0 8786800.4176624417 49331953.563964844 0 49331953.563964844 68650049.82235527 0 0 0 0 43218091.062185556 46861382.101852417 0 46861382.101852417 -327962480.25433826 0 0 0 0 13369706.480459571 4266125.7061309814 0 4266125.7061309814 -10626158.347488403 0 0 0 0 39101985.295226082 -9233843.2353134155 0 -9233843.2353134155 -5160109.244430542 0 0 0 0 38990382.312012076 -2933158.8475723267 0 -2933158.8475723267 -46472868.92855835 0 0 0 0 4657651.6646552682 -43940811.681045532 0 -43940811.681045532 -89757816.958452225 0 0 0 0 -16966325.140308127 -48328048.142566681 0 -48328048.142566681 23462134.721801758 0 0 0 0 22133182.213538229 -37721622.816268921 0 -37721622.816268921 24887316.191576004 0 0 0 0 -1635003.4852895087 2296859.2140790075 0 2296859.2140790075 -3568515.8496404067 0 0 0 0 -1055204.8668196041 1319526.4029000029 0 1319526.4029000029 -2123282.2057062387 0 0 0 0 -1699067.2668409678 7014120.9342842102 0 7014120.9342842102 -9271372.8388519287 0 0 0 0 -1431621.516365 7144529.7450714111 0 7144529.7450714111 -12653959.46244812 0 0 0 0 554111.82175378199 1527092.7475448996 0 1527092.7475448996 -1872163.441076465 0 0 0 0 6471060.1889908575 3344546.3942718506 0 3344546.3942718506 -32770318.182556152 0 0 0 0 6762787.4368745722 -2189940.868522644 0 -2189940.868522644 -17345090.42364502 0 0 0 0 -48855.986916635055 -896221.26170349121 0 -896221.26170349121 -13714790.828094482 0 0 0 0 6603950.5734748254 3346326.2917938232 0 3346326.2917938232 -25143899.495727539 0 0 0 0 394298.73631782131 2791574.4340209961 0 2791574.4340209961 -10924156.190761566 0 0 0 0 968687.20134523313 2219705.2451171875 0 2219705.2451171875 -11120565.474060059 0 0 0 0 16416.918886613683 -135250.52541351318 0 -135250.52541351318 -5350917.918548584 0 0 0 0 56721.229839765467 2210950.0190811157 0 2210950.0190811157 -5308238.4989318848 0 0 0 0 -193858.91472963995 -303893.56376647949 0 -303893.56376647949 -5214218.0607085228 0 0 0 0 -675825.15574020566 941510.14450900257 0 941510.14450900257 -1606996.068626374 0 0 0 0 -175223.16022016568 178885.72787301987 0 178885.72787301987 -154677.25813541934 0 0 0 0 -11116432.617026329 44437473.139419556 0 44437473.139419556 -154694270.94598579 0 0 0 0 8896913.9950502217 5067788.210308075 0 5067788.210308075 1939522.1307373047 0 0 0 0 48879.715326897211 444062.55740310997 0 444062.55740310997 -1085324.2109105764 0 0 0 0 -182718.75170809121 1205244.2578582764 0 1205244.2578582764 -1346924.8398132324 0 0 0 0 -14515553.494119108 47213744.560470581 0 47213744.560470581 -109189307.43896484 0 0 0 0 -1192.3158930227301 454168.80226135254 0 454168.80226135254 -897806.17295265198 0 0 0 0 -448719.81489658804 514688.17213081568 0 514688.17213081568 -552027.84945809841 0 0 0 0 -13091602.899444014 58638682.693206787 0 58638682.693206787 -121393173.58734131 0 0 0 0 47559.87693420412 69286973.915084839 0 69286973.915084839 -114523143.7593689 0 0 0 0 -38250376.262433484 36426647.532318115 0 36426647.532318115 -132313794.45162201 0 0 0 0 -479171.25236284244 46884696.071174622 0 46884696.071174622 -155490567.21829224 0 0 0 0 -25139692.335134521 63018950.592922211 0 63018950.592922211 -82821202.553131104 0 0 0 0 -27030167.719016373 24747901.92300415 0 24747901.92300415 -111929551.17822266 0 0 0 0 -13452696.577991664 64248232.35585022 0 64248232.35585022 -132784646.32759094 0 0 0 0 -15019450.411372155 65092003.556297302 0 65092003.556297302 -125382785.06512451 0 0 0 0 -3585647.8682820797 107708905.8451767 0 107708905.8451767 -133305917.43008423 0 0 0 0 107469015.00533679 54184043.753753662 0 54184043.753753662 -137984629.87133121 0 0 0 0 1871505.0488073677 112017147.52558899 0 112017147.52558899 -32589071.256439209 0 0 0 0 1587309.4853644371 69785179.459487915 0 69785179.459487915 -124571687.00043106 0 0 0 0 -23384802.508574724 -36829100.99671936 0 -36829100.99671936 -27642062.914199829 0 0 0 0 65394768.651571989 -53640957.124694824 0 -53640957.124694824 -30617272.727424622 0 0 0 0 -27183366.154995143 17147216.996490479 0 17147216.996490479 34185943.467048645 0 0 0 0 109659493.35417825 22428913.162330627 0 22428913.162330627 -52300593.943603516 0 0 0 0 41721064.339719772 10836793.427536011 0 10836793.427536011 -29382606.421783447 0 0 0 0 -21427801.509401798 -45870326.314285278 0 -45870326.314285278 -50149565.162391663 0 0 0 0 11032596.924616784 -58392173.390823364 0 -58392173.390823364 -50997112.544525146 0 0 0 0 -111225965.04724669 -66995466.487762451 0 -66995466.487762451 -49755372.419692993 0 0 0 0 -51429667.261867508 -76256567.898475647 0 -76256567.898475647 -63996197.987854004 0 0 0 0 -70156932.425962806 -69550343.738891602 0 -69550343.738891602 -43943330.767852783 0 0 0 0 -18504573.189275794 -36453777.738632202 0 -36453777.738632202 -64787005.17767334 0 0 0 0 -64263860.601294838 -52369806.768432617 0 -52369806.768432617 -47071553.056182861 0 0 0 0 -151248539.36464143 -144822376.07000732 0 -144822376.07000732 -150407318.82723999 0 0 0 0 -4882.8739811788892 -5676477.4206314087 0 -5676477.4206314087 8690803.2967834473 0 0 0 0 48152.974859385948 -160770.69114946574 0 -160770.69114946574 -363485.99428521097 0 0 0 0 -44845979.41124858 -42520154.603713989 0 -42520154.603713989 -235656309.19599915 0 0 0 0 -36535329.835591517 6651497.8014221191 0 6651497.8014221191 -84885503.135650635 0 0 0 0 -46573545.18297226 -76860086.094192505 0 -76860086.094192505 -122943649.56359863 0 0 0 0 3231454.8371030763 10252108.560821533 0 10252108.560821533 -30366923.614135742 0 0 0 0 1929618.5003797226 9981871.1654968262 0 9981871.1654968262 -29158173.512542725 0 0 0 0 3987128.4804789312 11465607.419372559 0 11465607.419372559 -30858841.516296387 0 0 0 0 1604491.195518218 12451524.577362061 0 12451524.577362061 -30193653.500617981 0 0 0 0 1796942.2128770351 11677879.619262695 0 11677879.619262695 -27382664.242431641 0 0 0 0 1645637.1614886145 9370900.111366272 0 9370900.111366272 -30407167.741378784 0 0 0 0 292.8888260945605 8974576.3610305786 0 8974576.3610305786 -27524258.787063599 0 0 0 0 2305133.0177749619 10117679.234710693 0 10117679.234710693 -30778690.341056824 0 0 0 0 3151769.6127590314 7935709.2485809326 0 7935709.2485809326 -32654482.981643677 0 0 0 0 2099827.2754627895 9877516.8127212524 0 9877516.8127212524 -30483265.105041504 0 0 0 0 4899901.9669089727 8269783.0234069824 0 8269783.0234069824 -33603072.491821289 0 0 0 0 1988985.2331892811 9803958.1878204346 0 9803958.1878204346 -33989168.085350037 0 0 0 0 5804755.0671305023 8598070.1893920898 0 8598070.1893920898 -33513052.407501221 0 0 0 0 9150794.3943668976 2237466.9115753174 0 2237466.9115753174 -29321618.419326782 0 0 0 0 9086197.7311751917 10561456.890930176 0 10561456.890930176 -32874919.284088135 0 0 0 0 5263065.5615498908 8376058.2317504883 0 8376058.2317504883 -24131614.270889282 0 0 0 0 7841753.8289921768 1341442.5941619873 0 1341442.5941619873 -37512170.206420898 0 0 0 0 8573321.4842963405 -183812.88315140456 0 -183812.88315140456 -12972756.300071597 0 0 0 0 7665129.7663056701 -4955589.8995246887 0 -4955589.8995246887 -18453365.467041016 0 0 0 0 2355439.5517711639 4665384.07472229 0 4665384.07472229 -11375733.00440979 0 0 0 0 6438056.1342964172 7222113.0983276367 0 7222113.0983276367 -19395200.271934509 0 0 0 0 10219883.904435825 7778496.1517395973 0 7778496.1517395973 -17289558.02767995 0 0 0 0 2757020.429685046 492814.34170465171 0 492814.34170465171 -2977952.5012289658 0 0 0 0 14196131.903325506 3418276.1570129395 0 3418276.1570129395 -30815806.942687988 0 0 0 0 2617057.5192039162 15118861.135612488 0 15118861.135612488 -24345955.990585327 0 0 0 0 -5503299.640712738 3492740.5402374268 0 3492740.5402374268 24173854.533752441 0 0 0 0 4832674.8400391303 9156227.4170327261 0 9156227.4170327261 -7566891.6498554274 0 0 0 0 16891981.416257858 16863005.933227539 0 16863005.933227539 -2386725.5330047607 0 0 0 0 -250547188.93652821 -415507821.4043808 0 -415507821.4043808 -128574848.38835144 0 0 0 0 311766.60317591392 3298972.6195919663 0 3298972.6195919663 196064.24307923368 0 0 0 0 -6771672.3199577332 18334398.475082397 0 18334398.475082397 6905807.9775085449 0 0 0 0 6625358.0753936768 6024942.3378601074 0 6024942.3378601074 14425172.235534668 0 0 0 0 21957086.281353951 36826645.21616745 0 36826645.21616745 24361483.068511963 0 0 0 0 83586324.740966797 34336318.261749268 0 34336318.261749268 -85979687.531906128 0 0 0 0 -53744400.811538696 11994556.756500244 0 11994556.756500244 22447745.621486664 0 0 0 0 13031256.060684547 2548256.8869820312 0 2548256.8869820312 -16757418.282503389 0 0 0 0 -551625002.4406476 -35187195.96339196 0 -35187195.96339196 -15941973.518600464 0 0 0 0 -316283.68084790558 -2377141.7057188489 0 -2377141.7057188489 -6310057.0765625536 0 0 0 0 -128579371.91042328 482216974.76753235 0 482216974.76753235 -1746229292.6008987 0 0 0 0 -565677680.91884995 -959174225.63085938 0 -959174225.63085938 -1007053990.1193237 0 0 0 0 329736400.89849472 -410445108.04031372 0 -410445108.04031372 -1415898121.1203947 0 0 0 0 175965621.06583405 -1147064290.3101578 0 -1147064290.3101578 -1943496483.6733398 0 0 0 0 356892922.87415314 -772258242.75430298 0 -772258242.75430298 -1422940453.6399169 0 0 0 0 103591607.00568581 -668792976.28555298 0 -668792976.28555298 -992519608.60235596 0 0 0 0 -62680273.738434792 -958901015.47483826 0 -958901015.47483826 -1498597413.0421295 0 0 0 0 333713910.19699097 -407445162.48750305 0 -407445162.48750305 -1863302474.6655502 0 0 0 0 1434480.2015851331 5679090.7165004238 0 5679090.7165004238 551096.708156473 0 0 0 0 7935091.4931628108 -8273789.899394989 0 -8273789.899394989 -8582805.8766479492 0 0 0 0 60645074.153767586 4811234.1292724609 0 4811234.1292724609 -903059256.20977783 0 0 0 0 118408.49352713674 9673442.8643341064 0 9673442.8643341064 -25605199.653923035 0 0 0 0 -983961.77321482787 5669994.3356136233 0 5669994.3356136233 -5401085.9909153357 0 0 0 0 -18072401.55749321 14289368.543670654 0 14289368.543670654 22782542.797180176 0 0 0 0 247786.15034504214 10031000.634082794 0 10031000.634082794 -25718282.815856934 0 0 0 0 -2627277.8339785682 4057102.0289243013 0 4057102.0289243013 -1829242.9086115062 0 0 0 0 -30806.916430182224 6896438.4597473145 0 6896438.4597473145 -3315260.9240493774 0 0 0 0 -125598.7248035159 4118416.1262563094 0 4118416.1262563094 -2496251.5294517106 0 0 0 0 -2915164569.1633353 -857882279.80903625 0 -857882279.80903625 -628879373.32836914 0 0 0 0 1771844.8557312617 366265152.00875092 0 366265152.00875092 -2349479573.5432129 0 0 0 0 159204957.28242397 -1497077261.4698792 0 -1497077261.4698792 -2969690587.7557354 0 0 0 0 -126226.4532905751 2442165.6592518352 0 2442165.6592518352 -4970006.7506866679 0 0 0 0 890803246.11376667 484823940.69906616 0 484823940.69906616 -3397957961.1937561 0 0 0 0 -183786957.01306397 168455489.46148872 0 168455489.46148872 42783755.140060425 0 0 0 0 64411136.46412316 2074241.0038299561 0 2074241.0038299561 -87994533.398658752 0 0 0 0 -2995209.1765270848 7174270.9952265881 0 7174270.9952265881 -10713505.542289659 0 0 0 0 74228684.019628301 56722641.69816494 0 56722641.69816494 2593691.5030517578 0 0 0 0 -703000.27784335299 -20650609.302986145 0 -20650609.302986145 -23559036.656265259 0 0 0 0 8094639.4788781311 -9703020.4108657837 0 -9703020.4108657837 -17396574.956268311 0 0 0 0 27437878.018104274 -7966372.7794036865 0 -7966372.7794036865 -18724161.619476318 0 0 0 0 20441481.929612819 7777638.7059402466 0 7777638.7059402466 -12065614.429840088 0 0 0 0 3754011.7212609225 -623650.56537628174 0 -623650.56537628174 -20960426.757644653 0 0 0 0 15622783.316960957 4320938.6367111206 0 4320938.6367111206 -18911256.622436523 0 0 0 0 201901.6137033923 -4671593.5296936035 0 -4671593.5296936035 -18116136.38923645 0 0 0 0 4476722.5111217014 14107400.342737198 0 14107400.342737198 -11977821.988311768 0 0 0 0 2563217.1164464094 8967187.039352417 0 8967187.039352417 -13226850.831344604 0 0 0 0 553008.25260568038 8640281.6041984558 0 8640281.6041984558 -12478020.998397827 0 0 0 0 11201304.424316678 13996843.836791992 0 13996843.836791992 -20797738.271133423 0 0 0 0 16757845.171789819 1506448.2848358154 0 1506448.2848358154 -16336362.061691284 0 0 0 0 12229503.717751812 18867971.213068008 0 18867971.213068008 -3774564.1734313965 0 0 0 0 30052798.606308836 26616867.367324829 0 26616867.367324829 -6153727.3309020996 0 0 0 0 124185738.4864769 -294678974.98458958 0 -294678974.98458958 -263693787.61709595 0 0 0 0 63105577.439540267 1022194672.9039214 0 1022194672.9039214 763595063.71522522 0 0 0 0 -7051945.2837029202 10046595.681019001 0 10046595.681019001 -11532745.390568048 0 0 0 0 28754552.13844195 7691964.2939453125 0 7691964.2939453125 -15016521.640106201 0 0 0 0 735485253.02349091 936353088.76060486 0 936353088.76060486 -671144572.32687378 0 0 0 0 945661803.07497692 470581974.19213486 0 470581974.19213486 -2615914652.3402405 0 0 0 0 -128712104.69348907 -950992936.88778687 0 -950992936.88778687 -2751789234.7304688 0 0 0 0 -1287003325.4909401 -163751616.62701416 0 -163751616.62701416 676903571.81609535 0 0 0 0 196450495.45981979 -482864257.08533096 0 -482864257.08533096 -1664030287.0856018 0 0 0 0 6151056.037940979 -361095205.06816864 0 -361095205.06816864 -908768620.8797493 0 0 0 0 187389549.4782486 -527781369.30846405 0 -527781369.30846405 -1864872305.8569489 0 0 0 0 96260290.115905762 -957501763.82649231 0 -957501763.82649231 -2634836498.2454758 0 0 0 0 -1271565.7148572318 1559123.7671965733 0 1559123.7671965733 -2026796.9328166023 0 0 0 0 53415999.342018127 -660968952.40621948 0 -660968952.40621948 -1632926124.9758301 0 0 0 0 83509568.157747269 106063888.74438477 0 106063888.74438477 -951640848.14080811 0 0 0 0 129501945.3090415 -74940169.943284988 0 -74940169.943284988 -2381100016.3190155 0 0 0 0 -364499936.93277359 185090400.6626358 0 185090400.6626358 220498086.5322876 0 0 0 0 -170026284.33256721 424504414.96760559 0 424504414.96760559 -1153388227.9300995 0 0 0 0 149534131.30014801 39193121.993759155 0 39193121.993759155 -744176314.24761963 0 0 0 0 -31605582.260604858 34113561.499420166 0 34113561.499420166 -907484039.97369385 0 0 0 0 -96859801.429344177 88068514.121673584 0 88068514.121673584 -142614449.19291687 0 0 0 0 -10074581.753124373 10912283.674032636 0 10912283.674032636 -9791454.1634509936 0 0 0 0 66480190.906105042 299546833.13731384 0 299546833.13731384 417882418.7747345 0 0 0 0 -142247207.33616638 -267634237.38011169 0 -267634237.38011169 223701163.7795105 0 0 0 0 -164138069.2895546 214319491.92251587 0 214319491.92251587 504934053.13826752 0 0 0 0 -309694970.97698593 -88405492.729465485 0 -88405492.729465485 364473726.90203857 0 0 0 0 -3982213.6159973145 47369037.823226929 0 47369037.823226929 392715689.52988434 0 0 0 0 -145017353.48207092 -181387117.83239746 0 -181387117.83239746 296120134.96046066 0 0 0 0 -34049430.52204895 -150395755.06747437 0 -150395755.06747437 264610194.14923096 0 0 0 0 7695917.2430515289 9954756.8290061951 0 9954756.8290061951 50834803.720108032 0 0 0 0 37395696.539413452 123438550.41925049 0 123438550.41925049 74381999.329307556 0 0 0 0 -4899956.8810024261 -116069483.53083038 0 -116069483.53083038 72679400.143341064 0 0 0 0 -71367900.936609268 -85161904.68208313 0 -85161904.68208313 159795619.730896 0 0 0 0 -14498021.056947708 51376531.046669006 0 51376531.046669006 -11595113.404449463 0 0 0 0 62128679.00276196 6596080.4861135483 0 6596080.4861135483 291148125.87329102 0 0 0 0 -559124.82290858589 672006.21814649925 0 672006.21814649925 -742764.30992682278 0 0 0 0 -199425349.34050751 68424319.881820679 0 68424319.881820679 76655782.650009155 0 0 0 0 -127548424.81279373 12037473.461614609 0 12037473.461614609 -67261686.940979004 0 0 0 0 -185528804.45060921 138592483.88833237 0 138592483.88833237 90311739.587921143 0 0 0 0 -2262727.8040213361 502142.68140401971 0 502142.68140401971 2051745.628385976 0 0 0 0 -56319128.265083313 209181861.22915649 0 209181861.22915649 -273010878.73652649 0 0 0 0 313955709.24346542 18088413.391433716 0 18088413.391433716 -195982573.20846558 0 0 0 0 -511193423.16370773 -139013658.31399536 0 -139013658.31399536 -49104582.801300049 0 0 0 0 304832776.82520008 -980486193.74676895 0 -980486193.74676895 -389937757.24212646 0 0 0 0 -130320486.09482956 -506449508.5222168 0 -506449508.5222168 -224100230.64425898 0 0 0 0 -669325198.84298897 -850474342.52687836 0 -850474342.52687836 -428977193.99751282 0 0 0 0 168685984.91565132 -264039524.09933472 0 -264039524.09933472 -1706398906.6632538 0 0 0 0 163188379.31118631 -57939427.310266495 0 -57939427.310266495 147704334.7754364 0 0 0 0 67264235.341125965 366091548.06119251 0 366091548.06119251 -344410572.19366455 0 0 0 0 70290721.635963678 342021670.47488213 0 342021670.47488213 -290031546.60205078 0 0 0 0 114445134.04337692 109456482.05202484 0 109456482.05202484 -195549158.83867502 0 0 0 0 -199158823.31289673 288427053.68595886 0 288427053.68595886 -179067794.3813715 0 0 0 0 -631822927.09352112 431517547.20804977 0 431517547.20804977 -39042993.900268555 0 0 0 0 -333582797.8694725 827125759.69270325 0 827125759.69270325 -819020031.364151 0 0 0 0 -44386494.453723907 110830108.83981323 0 110830108.83981323 -129440326.5383606 0 0 0 0 -447797327.81829453 106378347.53230286 0 106378347.53230286 147942129.61436462 0 0 0 0 159416699.41577724 -24454916.148386657 0 -24454916.148386657 -79615674.349853516 0 0 0 0 59557234.624404907 -613403446.78318024 0 -613403446.78318024 -1506620205.7862549 0 0 0 0 -145828095.36128616 393110955.674263 0 393110955.674263 -910087244.75389099 0 0 0 0 -981097.9680635538 4837757.35497237 0 4837757.35497237 -7632796.4595139921 0 0 0 0 160797995.2608031 125799602.94548506 0 125799602.94548506 -57348808.705062866 0 0 0 0 9554759.4148235321 5469963.4174499512 0 5469963.4174499512 -12257692.911422729 0 0 0 0 8942436.6850318909 -306012.81782531738 0 -306012.81782531738 -12543726.403594971 0 0 0 0 5921534.5789955929 5032369.8257218599 0 5032369.8257218599 -15345793.900468998 0 0 0 0 19829858.881654739 -30230882.972511292 0 -30230882.972511292 692431.90348815918 0 0 0 0 2044597.9910495779 -1332008.8698448054 0 -1332008.8698448054 183807.93036672473 0 0 0 0 168738439.95094299 1913534.8153762817 0 1913534.8153762817 -137564267.82115173 0 0 0 0 -121371089.1632309 410728.56385803223 0 410728.56385803223 -25502498.941772461 0 0 0 0 4480169.7644557953 -300650.68328094482 0 -300650.68328094482 -11715417.48865509 0 0 0 0 6410240.0574901141 1605822.8708340451 0 1605822.8708340451 -16767769.239911646 0 0 0 0 5575531.5891246796 3384722.4231948853 0 3384722.4231948853 -14668338.283737183 0 0 0 0 12841701.064636994 -5817510.371383667 0 -5817510.371383667 -26212728.74949646 0 0 0 0 -3705755.7394728661 25561117.892080307 0 25561117.892080307 53563418.176422119 0 0 0 0 814985.95022433624 2132948.2766996808 0 2132948.2766996808 -3695498.4587561041 0 0 0 0 8937777.8136651143 -1167361.519753702 0 -1167361.519753702 -12597945.754047155 0 0 0 0 209141150.86252975 -125628149.2508316 0 -125628149.2508316 -30095669.589004517 0 0 0 0 148902048.79134369 -27244461.109512329 0 -27244461.109512329 -57211114.531412125 0 0 0 0 62048298.399740219 -43290010.194442749 0 -43290010.194442749 -54937623.697128296 0 0 0 0 192499028.33729553 -37358338.588787079 0 -37358338.588787079 -254529281.15179443 0 0 0 0 132459930.65304089 125171847.31751251 0 125171847.31751251 -518441746.74230957 0 0 0 0 83949325.312763214 130723737.39314651 0 130723737.39314651 -165776889.89297485 0 0 0 0 16816796.838396072 54796718.904594421 0 54796718.904594421 8128507.1245269775 0 0 0 0 -222770550.7280035 -237476940.9658432 0 -237476940.9658432 -324032965.63298988 0 0 0 0 87187249.269006729 -20709421.885223389 0 -20709421.885223389 -938722712.08464813 0 0 0 0 86102489.732635498 68047615.381492615 0 68047615.381492615 -273254857.74889565 0 0 0 0 62946726.588048935 -81476970.662796021 0 -81476970.662796021 -324753234.0161171 0 0 0 0 -63441299.373689651 -80718453.364624023 0 -80718453.364624023 -277648822.87070084 0 0 0 0 -125922770.77973557 71750365.026054382 0 71750365.026054382 -123518259.44677734 0 0 0 0 -67772866.397947311 -127336819.95888519 0 -127336819.95888519 -296358830.83463669 0 0 0 0 -119841924.62028801 -40801893.819038391 0 -40801893.819038391 -60978045.913467407 0 0 0 0 -214601996.33436394 92512737.978485107 0 92512737.978485107 -529859283.20430756 0 0 0 0 316800163.53470039 -598989764.87673569 0 -598989764.87673569 -279775365.50041962 0 0 0 0 84039039.157672942 -248627932.3185482 0 -248627932.3185482 -641518716.68235779 0 0 0 0 49758057.99592495 -287649167.91070557 0 -287649167.91070557 -642531422.32951164 0 0 0 0 -79485219.877229095 -157979790.02695465 0 -157979790.02695465 -660570793.12404633 0 0 0 0 -42759234.671319962 -1052844.0564956665 0 -1052844.0564956665 -28919235.011558533 0 0 0 0 -142514708.17423248 528684220.80348587 0 528684220.80348587 -760197108.46784973 0 0 0 0 1672839.6808486423 480154.44815631583 0 480154.44815631583 -2871931.8062662333 0 0 0 0 26496440.279994965 255685936.23585129 0 255685936.23585129 -323421974.63945007 0 0 0 0 140102220.19047546 375835019.47991943 0 375835019.47991943 -393611191.45215988 0 0 0 0 399116262.61385155 371895386.3788681 0 371895386.3788681 -598714811.55578613 0 0 0 0 525045086.00047302 -26724840.563354492 0 -26724840.563354492 -260649041.85491371 0 0 0 0 2869988.0594944619 588618.70668280125 0 588618.70668280125 -5398463.5962747186 0 0 0 0 345059722.60852218 152970903.88930702 0 152970903.88930702 -477379496.48573303 0 0 0 0 439408433.18287277 -131670525.93769836 0 -131670525.93769836 -241595720.49478149 0 0 0 0 117403643.59590721 167329260.15738678 0 167329260.15738678 -297628932.60721207 0 0 0 0 165467703.15483427 236672897.79944611 0 236672897.79944611 -445632289.06971741 0 0 0 0 1601928.7240987532 342410.59320214763 0 342410.59320214763 -2946001.650725387 0 0 0 0 58700633.44689846 364459496.56442642 0 364459496.56442642 -873485849.824646 0 0 0 0 -121458332.04639816 -379387635.07806396 0 -379387635.07806396 -740996742.9194622 0 0 0 0 25338001.490582466 -4617997.6730155945 0 -4617997.6730155945 -87990789.208053589 0 0 0 0 17009536.577730179 -60956069.978542328 0 -60956069.978542328 -370431023.94638062 0 0 0 0 -225836727.84005547 -135894428.76856995 0 -135894428.76856995 -2826375.8019943237 0 0 0 0 -7408839.3822776675 23754573.903575897 0 23754573.903575897 -20617298.180747986 0 0 0 0 91336354.112706661 -68540665.696910858 0 -68540665.696910858 -211597943.44044495 0 0 0 0 -390275.28885708936 -784044.44602178782 0 -784044.44602178782 -5639523.2887700796 0 0 0 0 -2713085.9739465714 13950290.194297791 0 13950290.194297791 -799562.81555366516 0 0 0 0 16143162.543863297 276436660.06469345 0 276436660.06469345 -440311187.17938232 0 0 0 0 52645868.715281487 208190769.93193817 0 208190769.93193817 -435423837.39093781 0 0 0 0 21531509.893779069 9252466.7129402161 0 9252466.7129402161 -18974966.321434021 0 0 0 0 1297943.8003025423 -35145.495380014181 0 -35145.495380014181 -5126935.1681631058 0 0 0 0 -5513504.4288949966 184440526.73504639 0 184440526.73504639 -412820071.6568718 0 0 0 0 16416705.836506844 240788835.53268433 0 240788835.53268433 -303415426.33995056 0 0 0 0 -269476825.53899527 550395875.37260818 0 550395875.37260818 -890748164.45310974 0 0 0 0 -157494630.2907517 20630913.247184753 0 20630913.247184753 -753498337.72923279 0 0 0 0 -45646092.556755543 -248382929.05153656 0 -248382929.05153656 -628096547.85316467 0 0 0 0 -233238060.98595056 -226477601.82794189 0 -226477601.82794189 -77940260.720397949 0 0 0 0 962914.53901822865 192134.15810211003 0 192134.15810211003 -2350269.4061969295 0 0 0 0 -35985169.11169368 73301631.186256409 0 73301631.186256409 -90202288.211142063 0 0 0 0 -140176692.37914038 -123991596.33425903 0 -123991596.33425903 -159979882.9667511 0 0 0 0 13664815.204055548 -79727600.033542633 0 -79727600.033542633 55550202.549331665 0 0 0 0 -2809821.5245966911 51272359.462944031 0 51272359.462944031 -18017330.155990601 0 0 0 0 -148975188.00619388 25338123.610557079 0 25338123.610557079 8799915.4851837158 0 0 0 0 -290336561.88426208 8299387.1411514282 0 8299387.1411514282 6902605.7915039062 0 0 0 0 1083005.2412875886 -632042.50270262733 0 -632042.50270262733 -934688.44893573225 0 0 0 0 50595148.509358287 -200973541.42788506 0 -200973541.42788506 -204179856.83230591 0 0 0 0 -142142314.29713058 -189949333.08071136 0 -189949333.08071136 -202988788.78441238 0 0 0 0 25765014.807424545 -45593022.3256073 0 -45593022.3256073 -620830930.44439697 0 0 0 0 -997288.0267563737 -1094479.7015585676 0 -1094479.7015585676 616524.0932999216 0 0 0 0 -101821934.2355465 -173664942.50330114 0 -173664942.50330114 -196546033.47151184 0 0 0 0 -117106833.46795559 26555630.856811523 0 26555630.856811523 -268022118.81727982 0 0 0 0 -61625802.700183868 -101964420.45346832 0 -101964420.45346832 -657134757.99027252 0 0 0 0 60467892.000504494 9757202.7708587646 0 9757202.7708587646 -639832132.89982605 0 0 0 0 74143922.803324401 -5726966.8484897614 0 -5726966.8484897614 -723129393.11585999 0 0 0 0 -297639232.53420436 392810723.68839645 0 392810723.68839645 -610422359.1190362 0 0 0 0 -188869641.62948883 -102452374.48747635 0 -102452374.48747635 -649413347.65886688 0 0 0 0 -463548878.47838241 54363440.398197174 0 54363440.398197174 -623328788.296875 0 0 0 0 -467020587.41375244 53821661.073150635 0 53821661.073150635 -546447008.84082794 0 0 0 0 1346170.9379832607 527197.5256195832 0 527197.5256195832 -2278760.5949184224 0 0 0 0 -83354572.02905637 -341354828.55076981 0 -341354828.55076981 -276366166.69400024 0 0 0 0 -18705074.306868076 47864936.918205261 0 47864936.918205261 -63298978.546443939 0 0 0 0 25254861.30602026 18156686.073104858 0 18156686.073104858 -119289614.97224426 0 0 0 0 86854349.644764185 48671101.377944946 0 48671101.377944946 -87917535.504089355 0 0 0 0 103844569.24851914 14062336.74023056 0 14062336.74023056 -18001946.601867676 0 0 0 0 99222245.288835883 -13456056.908912659 0 -13456056.908912659 -5625704.7827148438 0 0 0 0 2192660.8508956241 199503.76377854683 0 199503.76377854683 -4174565.6606893837 0 0 0 0 -123832916.23233652 235825050.99428558 0 235825050.99428558 -412294883.50132751 0 0 0 0 -113497947.46428013 185091768.62128067 0 185091768.62128067 -231266357.01537704 0 0 0 0 -192151774.64200783 263973932.403862 0 263973932.403862 -135246312.78335571 0 0 0 0 -15317219.68164444 163669744.96821213 0 163669744.96821213 -405700862.74160767 0 0 0 0 -176954877.49507999 135422374.05897141 0 135422374.05897141 -78227755.984680176 0 0 0 0 -182043811.48228645 165000352.1027298 0 165000352.1027298 -230603257.07443237 0 0 0 0 28986349.344158173 19648839.397003174 0 19648839.397003174 6685803.1505737305 0 0 0 0 15085209.194127083 34998230.243881226 0 34998230.243881226 -8405770.9545135498 0 0 0 0 -7282610.8191590309 26282411.118877411 0 26282411.118877411 4930401.7872161865 0 0 0 0 25193022.94540596 28546598.62109375 0 28546598.62109375 -20310596.916992188 0 0 0 0 10392538.554046631 27252489.277587891 0 27252489.277587891 29344940.87512207 0 0 0 0 -250043.30929146614 -592204.99751151353 0 -592204.99751151353 -1115512.0190047137 0 0 0 0 9963508.5311431885 27187255.050933838 0 27187255.050933838 40333314.814117432 0 0 0 0 27217492.084760666 26223523.57006073 0 26223523.57006073 -17644928.528991699 0 0 0 0 7842413.5762154348 8009317.9721605871 0 8009317.9721605871 -2602157.2904274613 0 0 0 0 224587712.52931023 -11752615.400848389 0 -11752615.400848389 -85665629.658607483 0 0 0 0 -130633029.01791835 140839088.9000473 0 140839088.9000473 14839240.563873291 0 0 0 0 -100635257.27670145 413105989.2710228 0 413105989.2710228 -257593894.02415466 0 0 0 0 99436513.369210243 298016240.84851456 0 298016240.84851456 -196839512.11526489 0 0 0 0 -241199672.18828142 210759547.08500862 0 210759547.08500862 -18160288.680969238 0 0 0 0 -3615.0019939597696 -160775.68117599189 0 -160775.68117599189 -987590.73747731745 0 0 0 0 28065277.928377867 -5405564.8385162354 0 -5405564.8385162354 8150469.055770874 0 0 0 0 14202337.010467529 -9594859.9822692871 0 -9594859.9822692871 -45248247.224182129 0 0 0 0 827031.71183634037 -5602281.8647272252 0 -5602281.8647272252 -17351308.252874017 0 0 0 0 39047053.006136894 67457748.112586975 0 67457748.112586975 53521347.415634155 0 0 0 0 68577233.72188133 27454750.8151474 0 27454750.8151474 -16451489.035980225 0 0 0 0 58144143.904774427 60880660.46068573 0 60880660.46068573 -5295176.3767280579 0 0 0 0 1914985.4407982826 46747545.259857178 0 46747545.259857178 2645313.6864624023 0 0 0 0 9459345.7209222317 -2024602.020116806 0 -2024602.020116806 99004658.030670166 0 0 0 0 29165412.421480179 45099420.819244385 0 45099420.819244385 -9796192.9135284424 0 0 0 0 13940360.494258404 -13805779.023712158 0 -13805779.023712158 -72892831.298187256 0 0 0 0 -1704875.5128058707 -11445856.196674228 0 -11445856.196674228 -1254933.7487294786 0 0 0 0 6121575.2431495739 5136848.3348008394 0 5136848.3348008394 -25394767.953739189 0 0 0 0 20927642.024610519 25795065.04183197 0 25795065.04183197 -1121989.6193389893 0 0 0 0 43357743.059192657 23403303.009597778 0 23403303.009597778 -37255476.799438477 0 0 0 0 42249366.719211578 17888542.521652222 0 17888542.521652222 -34482141.832015991 0 0 0 0 17083197.432222366 30425705.942565918 0 30425705.942565918 -39902673.389816284 0 0 0 0 4871806.6724559544 6559391.0345641077 0 6559391.0345641077 -29623315.164178118 0 0 0 0 -34978559.65529871 -30833205.746299744 0 -30833205.746299744 -34106918.278961182 0 0 0 0 30211289.263557434 36655539.888595581 0 36655539.888595581 -48473916.303848267 0 0 0 0 23513121.045139313 23383570.061035156 0 23383570.061035156 -12591970.642822266 0 0 0 0 40817348.753866673 27207806.039600372 0 27207806.039600372 -33130404.243591309 0 0 0 0 38057748.331691742 19974168.061378479 0 19974168.061378479 -41187106.856506348 0 0 0 0 37910299.036683083 15963766.669101715 0 15963766.669101715 -25472361.479263306 0 0 0 0 132536.10650871022 793562.56185791735 0 793562.56185791735 -99423.46795347333 0 0 0 0 31438542.286361694 26314724.867408752 0 26314724.867408752 -46338760.443435669 0 0 0 0 34818166.415790558 19574617.716537476 0 19574617.716537476 -34859732.681251526 0 0 0 0 37789974.524791718 26655812.818588257 0 26655812.818588257 -38548608.646606445 0 0 0 0 36194576.891735077 17937748.552734375 0 17937748.552734375 -43550009.795074463 0 0 0 0 37083404.939509392 17428974.133655548 0 17428974.133655548 -43605016.117004395 0 0 0 0 34626439.808837891 11773209.845863342 0 11773209.845863342 -54434754.618438721 0 0 0 0 23103386.137462616 14294598.940414429 0 14294598.940414429 -44664997.333181381 0 0 0 0 4863438.4994659424 27635648.407173157 0 27635648.407173157 -54265459.095237732 0 0 0 0 20564871.423757553 37248969.337463379 0 37248969.337463379 -38085831.516651154 0 0 0 0 -3231451.2452421188 19909237.080059052 0 19909237.080059052 -19998445.658691406 0 0 0 0 3716823.5194530319 3716686.9828887228 0 3716686.9828887228 -702945.12998110056 0 0 0 0 -33963320.359315872 51797630.706058502 0 51797630.706058502 -47875141.314102173 0 0 0 0 4588902.8116660118 25520484.803826809 0 25520484.803826809 -70494463.594558716 0 0 0 0 -2031230.5308980942 27158449.332927704 0 27158449.332927704 -70672406.484306335 0 0 0 0 21897348.513737679 13992455.315799713 0 13992455.315799713 -119586441.83486938 0 0 0 0 24728971.708309174 1952134.7419967651 0 1952134.7419967651 -68966366.330318451 0 0 0 0 29151191.016011238 4967824.1369667053 0 4967824.1369667053 -71609441.471298218 0 0 0 0 28544114.836699247 11617856.752463341 0 11617856.752463341 -76939846.09916687 0 0 0 0 23334002.998907089 -35391546.789627075 0 -35391546.789627075 -113773308.43882751 0 0 0 0 23437679.742909707 -20616179.488151342 0 -20616179.488151342 -73779306.72833252 0 0 0 0 45106089.165189743 -17394647.075996399 0 -17394647.075996399 -99661324.756408691 0 0 0 0 51877953.890168667 -26474904.123212814 0 -26474904.123212814 -198465978.94369507 0 0 0 0 52006541.920542717 -73490406.73916626 0 -73490406.73916626 44269915.156356812 0 0 0 0 2893506.5263973251 74997.141468629241 0 74997.141468629241 -6275024.6349132471 0 0 0 0 -28614337.88211441 -77755536.645042419 0 -77755536.645042419 -95881624.404327393 0 0 0 0 3726359.2141914577 -5597864.459710259 0 -5597864.459710259 -4944840.6388662532 0 0 0 0 20019022.931118011 -34349923.669296265 0 -34349923.669296265 -86953011.489273071 0 0 0 0 935951.98389530182 -42435292.833694458 0 -42435292.833694458 -53691180.628601074 0 0 0 0 144251642.54022598 -3113255.636390686 0 -3113255.636390686 -103012740.35473633 0 0 0 0 17796093.902954053 -19643753.30605277 0 -19643753.30605277 -10134410.790767398 0 0 0 0 254035971.10006666 494772206.14944839 0 494772206.14944839 -1048373209.8148346 0 0 0 0 256137206.72390747 -93976108.554473877 0 -93976108.554473877 -31857773.747924805 0 0 0 0 8617127.5212967079 7034948.5508652441 0 7034948.5508652441 -40545166.065175302 0 0 0 0 -708884417.54402351 -192294438.10852051 0 -192294438.10852051 754361874.03487396 0 0 0 0 -1983294375.6458588 -33836887.915206909 0 -33836887.915206909 -707855561.54055786 0 0 0 0 3126989.8117790222 -1022092337.6427155 0 -1022092337.6427155 -364039789.63613129 0 0 0 0 -17618590.763191223 -44081430.719284058 0 -44081430.719284058 -16705925.935733795 0 0 0 0 15117207.422178203 -23450955.982292712 0 -23450955.982292712 -10978620.924412899 0 0 0 0 -28584200.740491509 -64321467.634127378 0 -64321467.634127378 63594382.276397705 0 0 0 0 -28884186.387748718 -55937293.815460205 0 -55937293.815460205 65374149.409423828 0 0 0 0 31005993.125171661 -18782639.944122314 0 -18782639.944122314 -64984470.418363571 0 0 0 0 17571693.625020504 -28697662.036177635 0 -28697662.036177635 -63421058.850479126 0 0 0 0 37647822.497945786 -23276314.6145401 0 -23276314.6145401 -65431821.412773132 0 0 0 0 9251926.265769897 -9703644.2892888449 0 -9703644.2892888449 -39166388.100736924 0 0 0 0 29527546.824329376 -12583305.224060059 0 -12583305.224060059 -43290776.458572388 0 0 0 0 44157144.153345108 8319866.5601959229 0 8319866.5601959229 -56291711.402938843 0 0 0 0 32354626.047048569 -12801906.142883301 0 -12801906.142883301 -74635775.766155243 0 0 0 0 25894767.735395432 -19518368.594680786 0 -19518368.594680786 -78426207.790489197 0 0 0 0 33257305.638324738 407942.66004943848 0 407942.66004943848 -66559359.628463745 0 0 0 0 33524875.539633512 6299517.0179438591 0 6299517.0179438591 -51855948.526947021 0 0 0 0 41194857.638887405 9159080.5650253296 0 9159080.5650253296 -56812299.004554749 0 0 0 0 28832883.027764559 14181977.971393585 0 14181977.971393585 -54586024.243209839 0 0 0 0 6429290.9880933566 -1445600.2101564927 0 -1445600.2101564927 -37406500.772418328 0 0 0 0 46359604.7459234 4982505.3823328018 0 4982505.3823328018 -51455950.572601318 0 0 0 0 41108080.697368622 5844453.9420852661 0 5844453.9420852661 -40209974.983338356 0 0 0 0 41620769.401607513 7535960.3571166992 0 7535960.3571166992 -35505756.44871521 0 0 0 0 33452114.479257941 -17607391.641340256 0 -17607391.641340256 -60566514.573638916 0 0 0 0 6415998.6962657422 -6240197.1041905433 0 -6240197.1041905433 -12321664.544916868 0 0 0 0 39218931.318325043 -119301978.12158203 0 -119301978.12158203 -11986216.024784088 0 0 0 0 56999961.193088531 -39785232.479354858 0 -39785232.479354858 -16233948.816230774 0 0 0 0 162546385.93153763 -7499280.8586425781 0 -7499280.8586425781 -6713788.3331756592 0 0 0 0 464903079.37035561 82409815.197128296 0 82409815.197128296 -77733932.735412598 0 0 0 0 206815075.07054543 -184526693.94816208 0 -184526693.94816208 -44452297.885162354 0 0 0 0 298789330.44482613 -223551003.12394333 0 -223551003.12394333 -155293995.78613281 0 0 0 0 -8434937.901594162 -139518257.5869751 0 -139518257.5869751 -35967735.872741699 0 0 0 0 1655444.2931669066 -1873504.656538561 0 -1873504.656538561 -3357834.0386613905 0 0 0 0 278351829.458745 -234255484.1743927 0 -234255484.1743927 -37125241.840566754 0 0 0 0 247944708.99823463 41787773.813651085 0 41787773.813651085 -29682464.414550781 0 0 0 0 -4769649.1823444366 -25658959.252456665 0 -25658959.252456665 -35309958.230224609 0 0 0 0 167330214.92914677 -43698629.390640259 0 -43698629.390640259 -37056215.143989563 0 0 0 0 55964519.971233904 12392637.970217705 0 12392637.970217705 -17047739.394622803 0 0 0 0 443407805.97120667 14182300.011299133 0 14182300.011299133 -159990093.68046951 0 0 0 0 157106095.22857845 -103664370.42985058 0 -103664370.42985058 -177645777.56958008 0 0 0 0 53646454.164169312 259894087.00750732 0 259894087.00750732 166792006.09859848 0 0 0 0 301143877.14885545 -532341664.75094795 0 -532341664.75094795 -99304964.686218262 0 0 0 0 235932153.50121117 -169486029.45367432 0 -169486029.45367432 43651284.895866394 0 0 0 0 454641.58819520753 -4624825.6239677295 0 -4624825.6239677295 -4246715.8557168916 0 0 0 0 200416715.62446499 120931754.85345459 0 120931754.85345459 54396155.179107666 0 0 0 0 -190369674.67077637 -125089507.78675842 0 -125089507.78675842 -70982211.753265381 0 0 0 0 -107168315.67400122 50976686.893676758 0 50976686.893676758 42632878.633575439 0 0 0 0 59000.958607255016 -531480.70946501195 0 -531480.70946501195 -1040371.3721755445 0 0 0 0 -1022169897.9548922 -335251903.03794861 0 -335251903.03794861 312501015.61616516 0 0 0 0 103995.36219955563 -324480.22889189702 0 -324480.22889189702 -1096800.1247716397 0 0 0 0 168692190.6805048 -75192588.702484131 0 -75192588.702484131 -210556925.05014038 0 0 0 0 -206642829.69724274 -221809444.66137695 0 -221809444.66137695 -79838428.224182129 0 0 0 0 -257429603.57694244 22965044.551223755 0 22965044.551223755 -231460247.65686035 0 0 0 0 -5866561.8091306686 14756287.412254333 0 14756287.412254333 53444046.512672424 0 0 0 0 10833684.963084221 -12398899.528839111 0 -12398899.528839111 -2744819.4055328369 0 0 0 0 2563980.5276422501 -21089908.528533936 0 -21089908.528533936 12561276.051361084 0 0 0 0 -2427726.5198750151 -3872096.3194215894 0 -3872096.3194215894 1310865.9845207632 0 0 0 0 -46614540.054439545 23390934.707519531 0 23390934.707519531 125140508.23931885 0 0 0 0 641713.47968128254 -1825390.5919859246 0 -1825390.5919859246 -3689523.9957889169 0 0 0 0 -437449396.20366955 -83048337.118400574 0 -83048337.118400574 130768012.1043396 0 0 0 0 -326369.87857470568 -157890.80495515466 0 -157890.80495515466 17010.197599671781 0 0 0 0 -247392084.07130814 -46596160.751449585 0 -46596160.751449585 166191678.99528503 0 0 0 0 -286658099.77906418 -173077242.56922913 0 -173077242.56922913 -208277602.22692871 0 0 0 0 -101204184.93822289 -56982452.684860229 0 -56982452.684860229 26227388.693695068 0 0 0 0 293180792.87689841 145519509.60077763 0 145519509.60077763 -145624597.70928955 0 0 0 0 -1404626.603222667 -2825562.7230065009 0 -2825562.7230065009 1678599.891906172 0 0 0 0 -289667834.62793732 66307574.65826416 0 66307574.65826416 41072555.838134766 0 0 0 0 -124308398.80818176 -260803019.92111206 0 -260803019.92111206 -50836548.312988281 0 0 0 0 -251488473.4082756 525812630.88079834 0 525812630.88079834 -197097699.21343994 0 0 0 0 -35270645.64699173 -125004234.50543213 0 -125004234.50543213 -12283682.741729736 0 0 0 0 -60740178.937850952 -47412515.494598389 0 -47412515.494598389 3205279.1988220215 0 0 0 0 -22412739.664618492 -67095395.256660461 0 -67095395.256660461 -66561900.396484375 0 0 0 0 -24995779.716193199 -63603506.019191742 0 -63603506.019191742 -24494496.642883301 0 0 0 0 -38606651.311203003 -39698816.068725586 0 -39698816.068725586 85753713.119506836 0 0 0 0 -86266739.157039642 -6657388.8565063477 0 -6657388.8565063477 63173236.67300415 0 0 0 0 -66936737.515865326 -118104494.91114807 0 -118104494.91114807 -113065212.93353271 0 0 0 0 -223647320.45783615 -112892229.27975464 0 -112892229.27975464 -4775434.2848205566 0 0 0 0 6270653.1892490387 -16346126.265800476 0 -16346126.265800476 -121552803.520154 0 0 0 0 -150419812.01504874 54337252.654074669 0 54337252.654074669 17161673.849502563 0 0 0 0 -86292147.643389225 -119496864.10824394 0 -119496864.10824394 -68817435.131027222 0 0 0 0 2330083.4513721438 -2457469.1267412677 0 -2457469.1267412677 -1188936.0679274574 0 0 0 0 36932816.858863831 -49452521.711044312 0 -49452521.711044312 17061530.642917633 0 0 0 0 17725252.531312406 -15054172.446953408 0 -15054172.446953408 -5697883.0385515988 0 0 0 0 12786720.120355606 -67163369.951507568 0 -67163369.951507568 9731826.982925415 0 0 0 0 177216693.18915653 173346840.55623627 0 173346840.55623627 -147320849.67834473 0 0 0 0 -43287559.811714172 16332253.797973633 0 16332253.797973633 175626235.50593567 0 0 0 0 39928627.559532166 -29244760.944458008 0 -29244760.944458008 60246128.60949707 0 0 0 0 212750849.40489578 -45030553.887931824 0 -45030553.887931824 5057256.2385864258 0 0 0 0 54070845.417328835 -109956140.35388947 0 -109956140.35388947 27705954.497329712 0 0 0 0 133119169.86250699 -90391421.951924324 0 -90391421.951924324 -11630843.12902832 0 0 0 0 -410651.00907347747 -1029893.8816816937 0 -1029893.8816816937 354527.6380033493 0 0 0 0 -129700264.70499802 -127486006.33074188 0 -127486006.33074188 291718455.46130371 0 0 0 0 -245231115.88214874 -340109941.21713257 0 -340109941.21713257 169015222.59786987 0 0 0 0 16078830.330436707 -46569492.96194458 0 -46569492.96194458 3173755.8822598457 0 0 0 0 49702134.802147388 -36761746.324169159 0 -36761746.324169159 -61296674.438583374 0 0 0 0 -3099607.2759037018 -33068413.135848999 0 -33068413.135848999 -8533791.1979683638 0 0 0 0 113829190.79564667 -66367138.880363464 0 -66367138.880363464 -8154641.6905517578 0 0 0 0 41837775.197724283 28245453.546581268 0 28245453.546581268 -7296790.7412109375 0 0 0 0 73579085.231682777 21270875.639579773 0 21270875.639579773 -7138171.2371520996 0 0 0 0 42069921.74326849 3213789.3933677673 0 3213789.3933677673 -61397689.129211426 0 0 0 0 -4777539.775015831 9314813.6144561768 0 9314813.6144561768 -2147210.4531097412 0 0 0 0 23347220.73623085 13123748.49974823 0 13123748.49974823 -117019576.0480957 0 0 0 0 27587337.939694881 -41474347.442699432 0 -41474347.442699432 -146357631.40353394 0 0 0 0 -6289017.0141527653 -5636374.0832595825 0 -5636374.0832595825 -56500119.805084229 0 0 0 0 10679910.018297907 -14494605.190207582 0 -14494605.190207582 718256.4012251012 0 0 0 0 -85682551.625938416 -47674593.60975647 0 -47674593.60975647 -62171758.530899048 0 0 0 0 101906719.02012062 -83674947.776184082 0 -83674947.776184082 -251605068.74981689 0 0 0 0 -93996307.851839066 -48248293.686935425 0 -48248293.686935425 158891607.46040344 0 0 0 0 84573344.804333687 9477309.0304260254 0 9477309.0304260254 70629213.898223877 0 0 0 0 4578308.328323002 -12450918.291244976 0 -12450918.291244976 1378883.114849817 0 0 0 0 -58123685.107483864 88238787.601257324 0 88238787.601257324 197740595.68986511 0 0 0 0 -35201631.152267456 77280703.976364136 0 77280703.976364136 1417103.3977966309 0 0 0 0 -40136751.964996874 -27897345.810438871 0 -27897345.810438871 -32316097.337036133 0 0 0 0 -209147944.37409353 -69260335.596824646 0 -69260335.596824646 -25880477.660324097 0 0 0 0 -126669314.14657784 22488510.830932617 0 22488510.830932617 72088382.891582489 0 0 0 0 -21996001.398629189 -52140740.413303375 0 -52140740.413303375 -26537063.780334473 0 0 0 0 -11000268.991786957 -116039729.81330109 0 -116039729.81330109 -45334725.626558304 0 0 0 0 -95540625.261322021 -75709977.403152466 0 -75709977.403152466 -33626770.284683228 0 0 0 0 751773.85363006592 -84356805.08449173 0 -84356805.08449173 24316901.045928955 0 0 0 0 51497903.145656586 -91520054.983718872 0 -91520054.983718872 21638951.162994385 0 0 0 0 1884193.5103759766 -102707446.50707626 0 -102707446.50707626 31167778.708297729 0 0 0 0 -2090463.735244751 -51112848.918029785 0 -51112848.918029785 66893958.396736145 0 0 0 0 -48477422.800484657 -69759030.421390533 0 -69759030.421390533 70785746.143386841 0 0 0 0 -107704743.18981361 -73135865.021892548 0 -73135865.021892548 71852297.269714355 0 0 0 0 61805260.604091644 32051059.792976379 0 32051059.792976379 -56058961.099334717 0 0 0 0 155385015.01479912 -19971053.80065155 0 -19971053.80065155 -69535479.088600159 0 0 0 0 8687943.7009449005 -10511042.525558472 0 -10511042.525558472 -35962755.880371094 0 0 0 0 18368932.01625061 23248417.953948975 0 23248417.953948975 -52898492.5233078 0 0 0 0 15803671.735267639 -23901016.088096619 0 -23901016.088096619 -29831681.36315155 0 0 0 0 153610282.91833115 -117277539.15823364 0 -117277539.15823364 -19250075.024044037 0 0 0 0 43710107.703231812 -68383462.843399048 0 -68383462.843399048 -40751777.576858521 0 0 0 0 24032783.476714611 -145868662.39600372 0 -145868662.39600372 64763449.827758789 0 0 0 0 200179142.78498077 -8203484.039932251 0 -8203484.039932251 -57187582.160606384 0 0 0 0 224162622.03944016 -170894244.38996887 0 -170894244.38996887 -21575443.409450531 0 0 0 0 341746.5352595821 1940373.2534712628 0 1940373.2534712628 -6383488.2087778822 0 0 0 0 158372656.21073914 -182852673.5181427 0 -182852673.5181427 16683880.327943802 0 0 0 0 13577692.807792664 31174967.25088501 0 31174967.25088501 -55682965.647567749 0 0 0 0 -17768961.042905807 15361138.390457153 0 15361138.390457153 -33345877.703353882 0 0 0 0 11710973.087636411 10781189.164901733 0 10781189.164901733 -48030738.544364929 0 0 0 0 13757727.341436371 616920.29888752103 0 616920.29888752103 -29188478.377560154 0 0 0 0 630644.86314469762 5133535.7211608887 0 5133535.7211608887 -28865467.901931763 0 0 0 0 14686098.422570782 -7889668.1768341064 0 -7889668.1768341064 -32866969.992950439 0 0 0 0 12775370.969897743 -2444587.3395080566 0 -2444587.3395080566 -48198315.817504883 0 0 0 0 630316.21886096755 1344633.8606341928 0 1344633.8606341928 -4647499.8801647499 0 0 0 0 12864775.936773084 -6494482.7466659546 0 -6494482.7466659546 -19210290.541412354 0 0 0 0 2064469.3372506201 4134098.8728637695 0 4134098.8728637695 -21289422.383228302 0 0 0 0 60776.804551954599 -2588920.3301397488 0 -2588920.3301397488 457994.17118695378 0 0 0 0 12898719.940948568 6938053.6864013672 0 6938053.6864013672 -21121598.688293457 0 0 0 0 -7385717.8733288422 -27233954.188329697 0 -27233954.188329697 6477502.7895507812 0 0 0 0 28190.193541192086 -15207.219331294298 0 -15207.219331294298 -31260.990066349506 0 0 0 0 -1046330.3890072703 -32601825.984786987 0 -32601825.984786987 6193033.7446985245 0 0 0 0 8630121.9569019135 -21049561.510437965 0 -21049561.510437965 -27574714.322692871 0 0 0 0 13717049.048378594 7231236.8708496094 0 7231236.8708496094 -31509168.618083954 0 0 0 0 3298658.5896696448 -9076150.8905334473 0 -9076150.8905334473 -29358110.074737549 0 0 0 0 11516038.259312153 -10398855.101623535 0 -10398855.101623535 -31297007.862365723 0 0 0 0 19302957.051733166 -11689161.666320801 0 -11689161.666320801 -37050989.864776611 0 0 0 0 -12486959.74414286 18514601.40788269 0 18514601.40788269 -40838546.809020996 0 0 0 0 -2362759.386211887 32344479.115348816 0 32344479.115348816 -56857643.061035156 0 0 0 0 34038624.062181473 -1238850.5001220703 0 -1238850.5001220703 -41039070.827362061 0 0 0 0 14389751.856012821 341098.39898681641 0 341098.39898681641 -34896761.278045654 0 0 0 0 1097485.415659219 17219578.448440552 0 17219578.448440552 -38721344.623657227 0 0 0 0 3222393.0552554522 -4233930.2381820679 0 -4233930.2381820679 -31498189.23046875 0 0 0 0 18979467.469514459 15627093.295425415 0 15627093.295425415 -29550162.040161133 0 0 0 0 15442679.285917372 7423283.0524597168 0 7423283.0524597168 -45804564.59197998 0 0 0 0 3075814.8083413988 1314391.1395158768 0 1314391.1395158768 -16684765.260742188 0 0 0 0 651424.4170208252 207312.57948010415 0 207312.57948010415 -831376.9332870841 0 0 0 0 90304959.391909659 -30770378.646514893 0 -30770378.646514893 -27013829.457710266 0 0 0 0 40469988.565112174 14981713.891967773 0 14981713.891967773 -6278177.5040283203 0 0 0 0 9.559223147953162 -136210.37575682998 0 -136210.37575682998 -501290.28938189894 0 0 0 0 27588070.523448557 -5532894.9946289062 0 -5532894.9946289062 -30925295.904418945 0 0 0 0 39197972.594852641 -30218460.810874939 0 -30218460.810874939 -21258979.235351562 0 0 0 0 39520034.922007203 -52176398.620330811 0 -52176398.620330811 28767737.153259277 0 0 0 0 16636485.154848248 -23597510.465484619 0 -23597510.465484619 -6090770.0767822266 0 0 0 0 1636321.5696187094 4478450.5814437866 0 4478450.5814437866 -54749145.176940918 0 0 0 0 -1461401.5065677464 13294807.218444824 0 13294807.218444824 -54926242.722076416 0 0 0 0 8204305.710899353 -7492976.7420959473 0 -7492976.7420959473 -7031525.5623245239 0 0 0 0 4458904.0847448884 1617647.9040642381 0 1617647.9040642381 -5718417.2152340412 0 0 0 0 7535020.4666624069 26065767.230453491 0 26065767.230453491 -78268344.401763916 0 0 0 0 5845189.5380945206 -13161570.807525635 0 -13161570.807525635 -73946381.656768799 0 0 0 0 5295606.6494345665 13072418.122772217 0 13072418.122772217 -60616995.108718872 0 0 0 0 9618682.0745105743 768968.99084472656 0 768968.99084472656 -13653266.145271301 0 0 0 0 3114904.2571485825 -10992271.67432785 0 -10992271.67432785 -29012227.789230347 0 0 0 0 6553899.3986244062 3434923.7513293996 0 3434923.7513293996 -9475342.5401297659 0 0 0 0 10558254.106563568 -2817252.9931488037 0 -2817252.9931488037 -17085866.698516846 0 0 0 0 8749376.8520523608 3286580.3415107727 0 3286580.3415107727 -31019234.910308838 0 0 0 0 26822578.722509697 -20460949.221336365 0 -20460949.221336365 -15364696.549194336 0 0 0 0 13559973.69825482 -8942697.4927869067 0 -8942697.4927869067 -21878587.215238243 0 0 0 0 2408429.4643787816 -7541065.087852478 0 -7541065.087852478 -19920644.067474365 0 0 0 0 19300162.096164703 -17505142.037147522 0 -17505142.037147522 -37452813.050741196 0 0 0 0 79514817.849010468 -49289089.971466064 0 -49289089.971466064 -30684293.816497803 0 0 0 0 14482691.16557298 -13150555.833147183 0 -13150555.833147183 -19263798.511597663 0 0 0 0 12524293.168082237 858325.89261627197 0 858325.89261627197 -19966603.788238525 0 0 0 0 12910344.776315689 3654378.4306869507 0 3654378.4306869507 -74833383.372161865 0 0 0 0 13192369.213932037 -1677456.3241882324 0 -1677456.3241882324 -26225180.471984863 0 0 0 0 6235791.284324646 -24773991.930419922 0 -24773991.930419922 -34124073.526603699 0 0 0 0 7446425.09653759 -16233297.490558624 0 -16233297.490558624 2819930.0078582764 0 0 0 0 7022893.4185390472 -4809399.0721435547 0 -4809399.0721435547 -12984861.528991699 0 0 0 0 10841354.693641663 -10289177.790100098 0 -10289177.790100098 -14777178.41708374 0 0 0 0 -2722628.7181137335 -6015857.9009272754 0 -6015857.9009272754 -4365667.3942947388 0 0 0 0 -2593928.4390409291 -20927903.612306833 0 -20927903.612306833 1794205.0805206299 0 0 0 0 -6020553.7896747589 -31399715.251464844 0 -31399715.251464844 8715110.9686889648 0 0 0 0 -2775997.7977056503 -12675143.624046326 0 -12675143.624046326 25271994.314613342 0 0 0 0 -3823430.1804167498 -4475451.1760126725 0 -4475451.1760126725 943577.48980989307 0 0 0 0 142450.13499307632 457865.16275024414 0 457865.16275024414 3519642.5980148315 0 0 0 0 -1413043.2554940777 -1410173.9354730025 0 -1410173.9354730025 -518689.53342190385 0 0 0 0 -1686678.5828327164 -1832905.3457162604 0 -1832905.3457162604 -1143181.5221454427 0 0 0 0 20208458.793966591 -3396262.9671630859 0 -3396262.9671630859 -5377034.5194015503 0 0 0 0 72812767.974881366 -38872258.906593323 0 -38872258.906593323 -107392015.9388504 0 0 0 0 -213925749.57255432 320750239.35638237 0 320750239.35638237 258469441.20632935 0 0 0 0 19706805.753709257 -469791790.18601036 0 -469791790.18601036 131145308.0899353 0 0 0 0 209320589.86998558 277656726.33584595 0 277656726.33584595 -36604162.379325867 0 0 0 0 -595761.2933462864 -397704.58091836423 0 -397704.58091836423 -420167.97740460932 0 0 0 0 -52691401.499320328 5510659.2974090576 0 5510659.2974090576 28466716.333137512 0 0 0 0 80066302.884239644 310767632.74169922 0 310767632.74169922 -364764062.82979584 0 0 0 0 20241966.997831106 -740079.43825531006 0 -740079.43825531006 -42336266.798400879 0 0 0 0 -97669661.4128066 77761487.126018524 0 77761487.126018524 -47266874.094268799 0 0 0 0 -111423.30972277373 1120756.1551017761 0 1120756.1551017761 -48327071.807525635 0 0 0 0 -3548847.5508564115 -3540725.252532959 0 -3540725.252532959 -27184093.233428955 0 0 0 0 -6504459.1076107323 -2733502.9529590607 0 -2733502.9529590607 -6587311.4398803711 0 0 0 0 18064123.683182001 -35207516.239334106 0 -35207516.239334106 4531809.0671691895 0 0 0 0 10770846.181375504 -11677420.685852051 0 -11677420.685852051 -9849775.5409851074 0 0 0 0 24963540.517956793 -35134522.130187988 0 -35134522.130187988 3095409.895111084 0 0 0 0 -1642887.1213503866 -5791400.8200747184 0 -5791400.8200747184 -4821594.6363213807 0 0 0 0 -5546625.2701080739 -5095865.0512695312 0 -5095865.0512695312 4712018.2501525879 0 0 0 0 12583055.931459449 5320444.0114974976 0 5320444.0114974976 -23414631.672119141 0 0 0 0 2748349.6492935121 -19058729.5210495 0 -19058729.5210495 1545753.7400512695 0 0 0 0 50911159.779497087 -29053384.350646973 0 -29053384.350646973 -6602659.3635253906 0 0 0 0 24420658.764056161 -38133949.987918854 0 -38133949.987918854 49310836.686950684 0 0 0 0 27815306.703888267 5579480.1887664795 0 5579480.1887664795 35974463.760131836 0 0 0 0 21055472.351119876 -10969176.642456055 0 -10969176.642456055 -4230215.8359375 0 0 0 0 -2108160.9501469433 -10449797.196868896 0 -10449797.196868896 16090244.681365967 0 0 0 0 -633193.54635360837 -7510729.2048950195 0 -7510729.2048950195 -13835973.59866333 0 0 0 0 -13447187.170120209 -729274.87954711914 0 -729274.87954711914 -3231940.4618682861 0 0 0 0 -147543.24687573314 3043989.8637390137 0 3043989.8637390137 -24117049.404754639 0 0 0 0 -14668880.184850644 3754374.9560546875 0 3754374.9560546875 -21214366.087524414 0 0 0 0 -9868034.1957220715 9717586.0220165253 0 9717586.0220165253 -37149307.163146973 0 0 0 0 -14986729.615985502 37373395.377372742 0 37373395.377372742 -68001886.898101807 0 0 0 0 -25034098.034684762 23529376.68447876 0 23529376.68447876 -37163259.704503104 0 0 0 0 -28616736.994176731 52543882.571975708 0 52543882.571975708 -68865415.693351746 0 0 0 0 -27281971.319389611 16450503.687149048 0 16450503.687149048 -17559686.518577576 0 0 0 0 -14609230.636685699 23090546.312019348 0 23090546.312019348 -56482696.884765625 0 0 0 0 -42074478.977882981 18927390.11239624 0 18927390.11239624 -31371566.424537659 0 0 0 0 -18642923.182065405 38985558.410400391 0 38985558.410400391 -86690652.038543701 0 0 0 0 -43734186.841951996 125224463.21061325 0 125224463.21061325 -184330525.06521606 0 0 0 0 -9197862.3350923695 63501834.253219604 0 63501834.253219604 -139964492.60031128 0 0 0 0 21487632.034075134 47336007.200393677 0 47336007.200393677 -211921810.05014038 0 0 0 0 3933221.2724982724 32857711.269180298 0 32857711.269180298 -156101814.69793701 0 0 0 0 23882984.089223981 46270253.085525513 0 46270253.085525513 -296543082.20745087 0 0 0 0 13522627.799222989 22119055.046585083 0 22119055.046585083 -202459918.09306335 0 0 0 0 13424646.372516589 24663205.823371887 0 24663205.823371887 -145992338.95807934 0 0 0 0 53473.428277042389 -2349424.5330352783 0 -2349424.5330352783 -195660982.55619812 0 0 0 0 2228134.6590468436 35984809.27142334 0 35984809.27142334 -147321346.85810947 0 0 0 0 -36486.089273659461 8731358.9801177979 0 8731358.9801177979 -82232455.834777832 0 0 0 0 1149757.1568478998 22071702.942314148 0 22071702.942314148 -88230162.487976074 0 0 0 0 -12449151.32831407 10584700.504274368 0 10584700.504274368 -36004308.805511475 0 0 0 0 -8726642.234384032 15218046.808517456 0 15218046.808517456 -56701218.907966614 0 0 0 0 -5042218.5783311538 24698297.334251404 0 24698297.334251404 -73899296.389591217 0 0 0 0 5937.6113519368209 5643623.6897395598 0 5643623.6897395598 -41836991.796508789 0 0 0 0 -7220530.9415193163 9727379.5177154541 0 9727379.5177154541 -30809195.354709625 0 0 0 0 825647.95317876805 995928.77066040039 0 995928.77066040039 -18355438.682582855 0 0 0 0 303.24547048566319 -1321.7207630723715 0 -1321.7207630723715 -18713.138234291226 0 0 0 0 1415398.1290002968 -3639738.9908828735 0 -3639738.9908828735 -26234624.124084473 0 0 0 0 -1882743.4395796582 7552230.1799468994 0 7552230.1799468994 -37604792.412963867 0 0 0 0 -1650271.4971963614 -6666563.859664917 0 -6666563.859664917 -20413800.969207764 0 0 0 0 -1715942.012156263 -3516761.3346557617 0 -3516761.3346557617 -23430932.772392273 0 0 0 0 1242333.6180512086 -5315972.5536193848 0 -5315972.5536193848 -20201639.409576416 0 0 0 0 -9695323.1353229489 -146582.94763183594 0 -146582.94763183594 -19313550.81036377 0 0 0 0 2884139.7129480392 -1381628.712097168 0 -1381628.712097168 -19378060.181686401 0 0 0 0 3809884.2789717615 -17156483.451477051 0 -17156483.451477051 -13356781.467529297 0 0 0 0 14646474.245080292 -28605753.534805298 0 -28605753.534805298 -2330958.6760864258 0 0 0 0 1437559.0482150018 -18443290.130187988 0 -18443290.130187988 -5650203.2318267822 0 0 0 0 -5947519.7638549656 -7406178.812828064 0 -7406178.812828064 -18500144.601104736 0 0 0 0 6496312.2083532512 -14315964.281768799 0 -14315964.281768799 -15288401.208084106 0 0 0 0 9729287.5771445334 -13958807.288291931 0 -13958807.288291931 -24366471.249511719 0 0 0 0 17727502.149875745 -22479003.518785477 0 -22479003.518785477 -20723888.995300293 0 0 0 0 10110677.341792971 -14236432.009918213 0 -14236432.009918213 -27860541.566223145 0 0 0 0 8166004.7722076494 2047584.7732849121 0 2047584.7732849121 -35223279.209442139 0 0 0 0 58601.486685025498 -41021.26297583431 0 -41021.26297583431 -68408.883687980473 0 0 0 0 10768200.468327403 -3489534.6847839355 0 -3489534.6847839355 -30500970.175798416 0 0 0 0 9079915.9692949131 -11090953.036201477 0 -11090953.036201477 -22483303.80645752 0 0 0 0 9596253.9768589884 -11133200.090454102 0 -11133200.090454102 -26071340.088562012 0 0 0 0 9641309.7978903949 -8771595.6706237793 0 -8771595.6706237793 -24879823.754882812 0 0 0 0 9228116.6673315316 -8691865.2753601074 0 -8691865.2753601074 -14111185.869140625 0 0 0 0 6771173.8692079186 1353736.0077514648 0 1353736.0077514648 -17812821.495346069 0 0 0 0 12111605.045887828 -9608350.5020446777 0 -9608350.5020446777 -14298718.152160645 0 0 0 0 6261162.4822311103 3293607.1474304199 0 3293607.1474304199 -1859842.2389526367 0 0 0 0 -7207187.9257615395 -3827249.2574234009 0 -3827249.2574234009 -9774963.9935302734 0 0 0 0 -1947.5078117407993 -6100.3973241150379 0 -6100.3973241150379 -5876.6559178456664 0 0 0 0 12912612.539349645 -17419395.932189941 0 -17419395.932189941 -10784976.968811035 0 0 0 0 -716455.70497413725 1410901.2155609131 0 1410901.2155609131 -7923456.025100708 0 0 0 0 12584357.447551614 -4227826.5668716431 0 -4227826.5668716431 -17414315.278625488 0 0 0 0 1372761.0640677139 -7093333.076385498 0 -7093333.076385498 -17895819.471710205 0 0 0 0 -7862307.1150884628 10843862.587554932 0 10843862.587554932 10231734.95123291 0 0 0 0 17361704.942458555 -5295697.122833252 0 -5295697.122833252 -17333236.927337646 0 0 0 0 2140148.2480642758 -20557166.45880127 0 -20557166.45880127 13516076.502519608 0 0 0 0 26816.854709003572 -21702.099068105221 0 -21702.099068105221 -35912.707871206105 0 0 0 0 5746700.7961023226 20686080.733963013 0 20686080.733963013 -74725335.606185913 0 0 0 0 10852326.788092326 1050551.1243896484 0 1050551.1243896484 -52962400.271179199 0 0 0 0 1962496.2218785016 -2585004.0524902344 0 -2585004.0524902344 -33517505.831123352 0 0 0 0 -7771263.8736598995 15565136.733139038 0 15565136.733139038 -51268737.243225098 0 0 0 0 -965569.24565401906 1934028.2264862061 0 1934028.2264862061 -39245910.494628906 0 0 0 0 13136736.356310757 3462736.1264343262 0 3462736.1264343262 -54157001.215698242 0 0 0 0 7070169.2032811763 7095419.4321365356 0 7095419.4321365356 -40379215.514892578 0 0 0 0 7513801.7871774957 1396225.8540878296 0 1396225.8540878296 -64629694.296890259 0 0 0 0 461129.85100406967 10071236.808696747 0 10071236.808696747 -43466257.933410645 0 0 0 0 6061996.6814256422 2622238.0361480713 0 2622238.0361480713 -50619884.760138512 0 0 0 0 5743832.9947439246 4914792.1074371338 0 4914792.1074371338 -41591543.880401611 0 0 0 0 4453283.4905139571 8980448.8229980469 0 8980448.8229980469 -40271465.020736694 0 0 0 0 3820437.2758640833 -649994.18069458008 0 -649994.18069458008 -38387962.899147034 0 0 0 0 6812.9079264478942 5851409.0752113331 0 5851409.0752113331 -31988896.841552734 0 0 0 0 3585574.4866575971 1931233.6348724365 0 1931233.6348724365 -29331301.895820618 0 0 0 0 1177.0450181591104 3600511.8470886284 0 3600511.8470886284 -24101309.205810547 0 0 0 0 10657924.954133609 -23425138.777008057 0 -23425138.777008057 -1807695.0366363525 0 0 0 0 5751079.5019597197 802213.7066192627 0 802213.7066192627 -26679546.614471436 0 0 0 0 3130167.5938247563 3432345.9112739563 0 3432345.9112739563 -28391792.940185547 0 0 0 0 32497119.065621376 621038965.28559828 0 621038965.28559828 243847078.81044006 0 0 0 0 124997651.85217285 47349136.966911316 0 47349136.966911316 -115611157.30990601 0 0 0 0 2643028.8974499404 -1396178.4917520527 0 -1396178.4917520527 -7265802.4008478299 0 0 0 0 -193792561.44063568 -98365783.272601128 0 -98365783.272601128 -227578062.40439987 0 0 0 0 -625427076.99562073 193943621.59129715 0 193943621.59129715 405076484.13817692 0 0 0 0 -720524284.88601875 -144588342.22414684 0 -144588342.22414684 307153389.19023895 0 0 0 0 -755540497.17083645 -39103962.098412037 0 -39103962.098412037 202834841.0793457 0 0 0 0 -959298067.87947083 12230066.759983063 0 12230066.759983063 243468089.96081066 0 0 0 0 -697929063.16958618 13280224.821990967 0 13280224.821990967 197387854.81098747 0 0 0 0 121637463.45075989 37574442.818424225 0 37574442.818424225 -155735615.90226364 0 0 0 0 45693555.771430969 59477959.936004639 0 59477959.936004639 -101930235.91163635 0 0 0 0 -16003725.245056152 211645423.11520767 0 211645423.11520767 -252367447.43777943 0 0 0 0 181637506.32273865 -9176053.1560516357 0 -9176053.1560516357 -72542890.161663055 0 0 0 0 -24522662.858030081 1593965.9934636354 0 1593965.9934636354 -65457464.293384552 0 0 0 0 240793371.40345764 -29161284.450088501 0 -29161284.450088501 3740624.5267724991 0 0 0 0 26408578.436424255 -15553262.981559753 0 -15553262.981559753 10007589.644870758 0 0 0 0 78542128.500648499 84529342.360958099 0 84529342.360958099 -117859444.91262054 0 0 0 0 110836304.88549423 12560868.935085297 0 12560868.935085297 -14922350.928627014 0 0 0 0 49233464.93756485 67775247.898920536 0 67775247.898920536 39145297.455741882 0 0 0 0 46656569.368373871 54848997.447235107 0 54848997.447235107 -20022876.068374634 0 0 0 0 3441004.4383268096 -2032056.3905190602 0 -2032056.3905190602 -8725717.0688905269 0 0 0 0 255833834.471807 -172227885.55666876 0 -172227885.55666876 109654744.38249207 0 0 0 0 287899422.02833319 96649085.692814112 0 96649085.692814112 -264753927.88254547 0 0 0 0 571930189.19805622 -73215163.059176922 0 -73215163.059176922 -818176628.22749329 0 0 0 0 626946116.50962973 258934045.86755037 0 258934045.86755037 -191251644.85313416 0 0 0 0 -727411568.15384674 52133556.252017975 0 52133556.252017975 163256996.50194168 0 0 0 0 -758380114.25034714 655470426.76402283 0 655470426.76402283 -3087964494.8009262 0 0 0 0 -585716064.48500633 -369041157.26418877 0 -369041157.26418877 669195919.09590149 0 0 0 0 951679945.62997818 881604876.35813904 0 881604876.35813904 -903449711.05413437 0 0 0 0 -600169077.14442635 -173919775.0547123 0 -173919775.0547123 -439853382.91362 0 0 0 0 -648141287.83821869 -252914940.59537315 0 -252914940.59537315 -528773978.78688049 0 0 0 0 -937002764.85720825 -326781939.47319794 0 -326781939.47319794 297480779.48423958 0 0 0 0 -989867083.61101532 -23839985.00756073 0 -23839985.00756073 -476090049.30037308 0 0 0 0 -1258169829.6605959 -712460701.16840363 0 -712460701.16840363 -563756631.69255066 0 0 0 0 -2704021988.8425865 -1041226563.6767654 0 -1041226563.6767654 -955138150.45479965 0 0 0 0 -487338758.0625 -1486573609.2237968 0 -1486573609.2237968 -4152371188.633194 0 0 0 0 -78700961.215744019 -468930621.69604874 0 -468930621.69604874 -1716241553.8523254 0 0 0 0 256593800.30893242 26468924.442608476 0 26468924.442608476 -1441821161.8926849 0 0 0 0 262551483.03865433 -124460150.84053802 0 -124460150.84053802 -2608858379.4382706 0 0 0 0 -171259972.57391357 -681152112.97293091 0 -681152112.97293091 -1857864994.3603249 0 0 0 0 220842861.32710266 -299970273.01609802 0 -299970273.01609802 -1728466717.9855962 0 0 0 0 341418689.07782745 -40354737.306594849 0 -40354737.306594849 -1690679946.4124327 0 0 0 0 57871672.855800629 15396994.140071869 0 15396994.140071869 -1536254298.0241661 0 0 0 0 315177581.90988541 -55380574.55266571 0 -55380574.55266571 -1646500704.9958763 0 0 0 0 269191352.30575085 -152989759.51255035 0 -152989759.51255035 -1411561109.605011 0 0 0 0 218461306.3205986 -211943193.27498436 0 -211943193.27498436 -1215790490.4807816 0 0 0 0 66616317.768638611 -261106252.62191582 0 -261106252.62191582 -665681516.46039772 0 0 0 0 254804460.13314629 -175754269.11542702 0 -175754269.11542702 -1207224181.1146426 0 0 0 0 -523524559.07201099 19707873.523274422 0 19707873.523274422 52493123.838550568 0 0 0 0 196637346.57066345 33635613.199962616 0 33635613.199962616 -909590210.31394196 0 0 0 0 -101894032.26375532 -381550297.22358179 0 -381550297.22358179 -1134813528.444809 0 0 0 0 166383993.16999817 -486409987.1284523 0 -486409987.1284523 -2531585226.0936737 0 0 0 0 -676963.13575935364 -313938119.83333969 0 -313938119.83333969 -2373252613.2205048 0 0 0 0 -85803832.515060425 -446837447.539711 0 -446837447.539711 -2095018060.3077927 0 0 0 0 -185282854.10920513 -337964524.12608624 0 -337964524.12608624 -2196317283.7418747 0 0 0 0 154386388.61924362 -441869074.19416428 0 -441869074.19416428 -2327135798.175148 0 0 0 0 -272896542.33211899 -332853260.47958755 0 -332853260.47958755 -1478998368.6097879 0 0 0 0 -19274052.224975586 -424133290.36005402 0 -424133290.36005402 -1747123897.2052269 0 0 0 0 -79072525.433404922 -644906182.22641754 0 -644906182.22641754 -2213714030.037735 0 0 0 0 93273941.489242554 89424133.749771118 0 89424133.749771118 -1321582644.7383041 0 0 0 0 132735753.76426697 90122376.337097168 0 90122376.337097168 -985418755.06414795 0 0 0 0 290814523.97372437 -71536004.065353394 0 -71536004.065353394 -503614631.04403687 0 0 0 0 338240195.06316376 235125423.56528473 0 235125423.56528473 -1012773956.8492355 0 0 0 0 344296063.9006958 -75842587.605735779 0 -75842587.605735779 -1118475512.941391 0 0 0 0 136255620.04499435 -128398186.69232941 0 -128398186.69232941 -1696749522.3486824 0 0 0 0 9613134.7053480148 -236388266.37484837 0 -236388266.37484837 -1322208056.9038239 0 0 0 0 -150471783.5088501 28026597.575893402 0 28026597.575893402 -1440586538.0607681 0 0 0 0 -3972990.7982538231 -901745.3814767655 0 -901745.3814767655 -582824.56361445133 0 0 0 0 -94723967.259410858 -110528395.8506012 0 -110528395.8506012 -1171146175.7283545 0 0 0 0 -240349675.04948807 -169116233.3028183 0 -169116233.3028183 -1155078656.4616871 0 0 0 0 -66440611.531019211 -282164140.73151207 0 -282164140.73151207 -1487571701.2039413 0 0 0 0 10656986.169593811 -114417062.41943741 0 -114417062.41943741 -1466625484.9160156 0 0 0 0 7590490.1023578644 -236654083.56667805 0 -236654083.56667805 -1202306431.4543304 0 0 0 0 151989922.07911682 138235139.72727966 0 138235139.72727966 -920711866.94059753 0 0 0 0 312447763.93483353 -22192749.720191956 0 -22192749.720191956 -1198152745.9895935 0 0 0 0 57848768.082626343 -159545578.74861908 0 -159545578.74861908 -2066450084.6680365 0 0 0 0 161288593.32425117 -258016629.21209049 0 -258016629.21209049 176268280.38116074 0 0 0 0 118444701.41274643 -179402448.00356865 0 -179402448.00356865 69045604.819217682 0 0 0 0 87772520.208723068 58070846.926286697 0 58070846.926286697 36802446.098331451 0 0 0 0 48719635.876880646 60005162.275125504 0 60005162.275125504 81811263.812431335 0 0 0 0 -143144564.19227409 26094070.649814606 0 26094070.649814606 -230079213.82209587 0 0 0 0 -1251609.8726491982 -4831788.707152199 0 -4831788.707152199 -4223336.5415881909 0 0 0 0 -138934230.53045654 254328123.21722412 0 254328123.21722412 278387725.29528809 0 0 0 0 -119803.87564475974 -177128.25132519472 0 -177128.25132519472 121105.21694651991 0 0 0 0 77738743.852132797 80656306.793868065 0 80656306.793868065 115864867.23536682 0 0 0 0 77158370.13656044 83329191.223987579 0 83329191.223987579 -18959133.249782562 0 0 0 0 476856386.69259644 343810338.63570786 0 343810338.63570786 -129788858.85633087 0 0 0 0 422761590.48168182 384763243.34866333 0 384763243.34866333 2295677.297164917 0 0 0 0 -187245983.4715023 -184996402.67816639 0 -184996402.67816639 -8921467.5766582489 0 0 0 0 1069413.1428147126 -1937715.1842800165 0 -1937715.1842800165 -993399.62150826119 0 0 0 0 457835267.67973709 -243589445.93907928 0 -243589445.93907928 121261967.75882912 0 0 0 0 744581169.73108673 -33562112.120464325 0 -33562112.120464325 -99528678.684234619 0 0 0 0 306497971.34992218 -168254207.96416473 0 -168254207.96416473 44286127.724514008 0 0 0 0 -361746242.38854218 -168634310.83345413 0 -168634310.83345413 157088029.25947285 0 0 0 0 -719009446.11987782 17382232.703803062 0 17382232.703803062 74594345.656177521 0 0 0 0 -1351207.7028797027 1292881.3197884504 0 1292881.3197884504 -65292.223240903579 0 0 0 0 -1391312.9110595547 1116988.3125301003 0 1116988.3125301003 -1885290.8638781817 0 0 0 0 39531640.480602264 84022280.835977554 0 84022280.835977554 60635488.106513977 0 0 0 0 -74401646.106494904 -9098583.1475429535 0 -9098583.1475429535 -57069230.944878727 0 0 0 0 50733234.846736908 94248727.985404968 0 94248727.985404968 -55450303.554668427 0 0 0 0 133709110.15902328 -19363007.159250259 0 -19363007.159250259 15356082.407980919 0 0 0 0 -277157579.07448578 70705494.627752304 0 70705494.627752304 -589997702.9059639 0 0 0 0 -362702977.97241974 11522307.490019798 0 11522307.490019798 -47150084.687362671 0 0 0 0 -202258157.59209824 -114663407.06731987 0 -114663407.06731987 -208834368.0948 0 0 0 0 -300684404.16626072 174785309.64473772 0 174785309.64473772 -159912278.23815536 0 0 0 0 92658355.164585114 99446862.425418854 0 99446862.425418854 -153990911.39574051 0 0 0 0 27077475.875778198 -76132419.087888718 0 -76132419.087888718 -137992616.35720444 0 0 0 0 -21522534.209594727 -100329204.0302639 0 -100329204.0302639 82373711.757307053 0 0 0 0 179714952.40384579 90146266.075924873 0 90146266.075924873 -27602797.549705505 0 0 0 0 -39857752.310180664 -171610855.18969345 0 -171610855.18969345 -162277203.86107874 0 0 0 0 -316712194.70219326 -67708823.289273262 0 -67708823.289273262 -6161918.5592308044 0 0 0 0 -62959329.223772049 26363251.25606823 0 26363251.25606823 -96286340.205841064 0 0 0 0 32783851.330486298 -10199228.644647598 0 -10199228.644647598 33933587.311603546 0 0 0 0 526201966.63322592 75406538.729118228 0 75406538.729118228 -31394303.008869171 0 0 0 0 1276045.6835135594 15271.353673518635 0 15271.353673518635 -999192.68493214436 0 0 0 0 -1315452.4507280844 -5393026.4958051024 0 -5393026.4958051024 -3787390.2627278026 0 0 0 0 602285891.99985504 -460446720.42107201 0 -460446720.42107201 93658662.065580845 0 0 0 0 365202962.93437576 -200135418.74353552 0 -200135418.74353552 2423570.5227298737 0 0 0 0 334150959.20198631 -21939667.254364014 0 -21939667.254364014 -157834136.21936607 0 0 0 0 299393229.94003487 -153275677.02126694 0 -153275677.02126694 100206917.05954742 0 0 0 0 189252175.92395782 6976486.6255731583 0 6976486.6255731583 -23433034.082800865 0 0 0 0 152545437.58322716 -18220503.796910763 0 -18220503.796910763 -17830963.298075676 0 0 0 0 -470560.99251790158 397833.06500566052 0 397833.06500566052 35972.108406826039 0 0 0 0 153092371.90942383 -12394189.665022373 0 -12394189.665022373 28380367.513565063 0 0 0 0 -1306089.2422659202 -5420083.7743040156 0 -5420083.7743040156 -3590507.599615261 0 0 0 0 530040673.7368679 -204829262.70884275 0 -204829262.70884275 -105154649.56350231 0 0 0 0 268646477.23480797 62353745.982908964 0 62353745.982908964 38543485.749198914 0 0 0 0 622047944.01437569 -72625867.21223259 0 -72625867.21223259 -112916653.37592649 0 0 0 0 80995058.179924011 -126392388.02682352 0 -126392388.02682352 -5640592.2997550964 0 0 0 0 15293125.450881958 -37978912.917376995 0 -37978912.917376995 -92072535.806704521 0 0 0 0 -338456703.03799534 -112748556.99972987 0 -112748556.99972987 54316385.911846161 0 0 0 0 -148998022.45656967 -132932457.68241405 0 -132932457.68241405 9351691.9938545227 0 0 0 0 -98593739.362184525 -2577607.4998850822 0 -2577607.4998850822 68603448.33993721 0 0 0 0 218206647.26341438 -141047757.88599396 0 -141047757.88599396 -72325115.703110695 0 0 0 0 -1194083.9399186359 -4547427.881527706 0 -4547427.881527706 -2372962.0856247479 0 0 0 0 -96358409.692834854 -137605988.8358624 0 -137605988.8358624 6486915.9454956055 0 0 0 0 -207993358.25311852 -121794624.79155445 0 -121794624.79155445 37098506.409639359 0 0 0 0 -309894802.65534592 -59571502.094378471 0 -59571502.094378471 46888520.033216476 0 0 0 0 -259074813.05057907 -36945170.601540565 0 -36945170.601540565 -103837698.8441925 0 0 0 0 -306747926.13200045 -46218919.510458469 0 -46218919.510458469 62608549.53036499 0 0 0 0 -298480165.23390579 -26521321.674418926 0 -26521321.674418926 55719937.600893021 0 0 0 0 -334661776.29047871 -38208345.561554909 0 -38208345.561554909 -23318417.766036987 0 0 0 0 -361542372.74586105 79058944.897878647 0 79058944.897878647 -96113019.126483917 0 0 0 0 -190182283.58828354 -15992587.272076607 0 -15992587.272076607 62621050.442092896 0 0 0 0 12952671.445435524 137789241.24203002 0 137789241.24203002 -84997678.902992249 0 0 0 0 -260522092.93154144 66166726.915054321 0 66166726.915054321 119816507.56011009 0 0 0 0 -439483651.65452576 -83878373.939038277 0 -83878373.939038277 74125273.168622971 0 0 0 0 -395554531.32828522 70464044.072188377 0 70464044.072188377 123817497.14870834 0 0 0 0 -657723825.47611237 -281493184.41298485 0 -281493184.41298485 -136525091.27749252 0 0 0 0 -579944678.70610809 305694637.26207352 0 305694637.26207352 -233361333.10270691 0 0 0 0 -98740639.153469086 11448461.401481628 0 11448461.401481628 -85837061.534614563 0 0 0 0 -94597057.394936562 -36554428.135101378 0 -36554428.135101378 -25866296.062351227 0 0 0 0 291667363.3745451 -90626121.809420586 0 -90626121.809420586 -546163694.4611969 0 0 0 0 167263785.40712357 -274160181.93138456 0 -274160181.93138456 -104777233.34601974 0 0 0 0 1254645.3630069811 -865588.37852726877 0 -865588.37852726877 -3010245.4199530333 0 0 0 0 12467320.937057018 -81606962.624699116 0 -81606962.624699116 168628161.66630554 0 0 0 0 -934850209.06100845 193512434.40015602 0 193512434.40015602 77626162.157180786 0 0 0 0 -623343111.55901337 331647898.22590446 0 331647898.22590446 -338089990.32067871 0 0 0 0 63803678.08454895 206974810.03449821 0 206974810.03449821 -257790379.16284752 0 0 0 0 118208871.12709808 21444272.659231186 0 21444272.659231186 -213163795.80714941 0 0 0 0 -2027078.501412835 1731151.252385722 0 1731151.252385722 2518092.2878152113 0 0 0 0 254062614.84413147 -45270205.966314316 0 -45270205.966314316 -241819572.39790726 0 0 0 0 -3030044.943266578 2991369.9687742321 0 2991369.9687742321 4137354.8424150106 0 0 0 0 61095355.165184021 120390952.3324337 0 120390952.3324337 -232864296.68716621 0 0 0 0 497567178.82448578 101302723.98143244 0 101302723.98143244 -247170667.53853607 0 0 0 0 -138982149.58980942 108032060.63073254 0 108032060.63073254 341716787.78346825 0 0 0 0 81296569.036457062 -230292611.28253651 0 -230292611.28253651 155795583.88288498 0 0 0 0 297373171.61781311 256925198.97426271 0 256925198.97426271 17755564.704114914 0 0 0 0 422816582.3920517 -66946822.898541689 0 -66946822.898541689 -120344012.30728149 0 0 0 0 105512251.75332642 -139602508.65352345 0 -139602508.65352345 269873931.6792984 0 0 0 0 990274.7446673885 1953836.7011427344 0 1953836.7011427344 -2875123.6681666151 0 0 0 0 -10409007.174659729 118919924.72798538 0 118919924.72798538 -36741276.284426689 0 0 0 0 -164028595.21133423 6960753.703584671 0 6960753.703584671 244205229.19882822 0 0 0 0 -72811160.494171143 268235703.40048695 0 268235703.40048695 -146598182.8541708 0 0 0 0 -1994883.1541557871 1839269.3544327379 0 1839269.3544327379 2622900.8247700734 0 0 0 0 1520453.1048049927 -112219556.20360994 0 -112219556.20360994 82143266.894856453 0 0 0 0 121558624.09199524 120026878.2070446 0 120026878.2070446 -57002937.602436066 0 0 0 0 -52419054.393836975 -240354853.84963512 0 -240354853.84963512 -147943934.47947758 0 0 0 0 7636718.0891077742 -2771148.7982637314 0 -2771148.7982637314 -15625300.260349073 0 0 0 0 1867392.3545608521 -15622579.847438812 0 -15622579.847438812 -24442019.920066833 0 0 0 0 15688141.536460876 -3022046.3227920532 0 -3022046.3227920532 -45238904.887283325 0 0 0 0 11077702.025041778 -8648996.0545505751 0 -8648996.0545505751 -28542819.081438996 0 0 0 0 17380575.087285995 -5661325.4684906006 0 -5661325.4684906006 -20108529.686775208 0 0 0 0 -100582044.05485535 -115456817.10187292 0 -115456817.10187292 166451709.651577 0 0 0 0 339195076.37189484 93206441.801215172 0 93206441.801215172 -161560166.4261837 0 0 0 0 6602132.7296948973 -10132212.700604487 0 -10132212.700604487 -33143453.063578438 0 0 0 0 77690867.361316681 5326811.6694107056 0 5326811.6694107056 -73411694.885211945 0 0 0 0 211494777.79156113 -58040747.717236519 0 -58040747.717236519 -44557646.037315369 0 0 0 0 3630047.0571348537 -19406143.545341931 0 -19406143.545341931 -29101748.574444193 0 0 0 0 29002232.690109253 -23752221.81803894 0 -23752221.81803894 -12349608.847316742 0 0 0 0 11916110.058983605 -6807181.4720019484 0 -6807181.4720019484 -43765506.152218513 0 0 0 0 252178361.36249352 -76850827.165542603 0 -76850827.165542603 -152756086.34449768 0 0 0 0 -1362388.7155595412 -13397423.480134008 0 -13397423.480134008 -40800500.8013376 0 0 0 0 85478936.817970276 73978548.091781616 0 73978548.091781616 -7313274.0878829956 0 0 0 0 415949922.21774292 49287313.266571045 0 49287313.266571045 -118292209.7845211 0 0 0 0 7649655.1455528066 -3221318.7843921436 0 -3221318.7843921436 -22664481.397701778 0 0 0 0 210574013.54996872 -46790229.466561317 0 -46790229.466561317 -106064039.01769638 0 0 0 0 137934470.67391968 -77066842.61901474 0 -77066842.61901474 -96412885.402394295 0 0 0 0 3092398.1617126465 50601156.258308411 0 50601156.258308411 -121971164.75864482 0 0 0 0 268226337.11972046 -114251664.34106064 0 -114251664.34106064 -55592807.133052826 0 0 0 0 94697996.203920364 -75597903.570923328 0 -75597903.570923328 -64043305.313804626 0 0 0 0 -26451383.983760834 -15397692.154220581 0 -15397692.154220581 -202790775.29627991 0 0 0 0 -17432346.74536705 13861213.644416809 0 13861213.644416809 -350722096.78539276 0 0 0 0 -244261161.68486047 -187740772.91119385 0 -187740772.91119385 -139383129.00579834 0 0 0 0 -107879289.60214424 -74238872.68812561 0 -74238872.68812561 -48287593.395568848 0 0 0 0 -167392260.95302629 -126669080.33534908 0 -126669080.33534908 28292553.925354004 0 0 0 0 -68933630.715209961 -98380608.101211548 0 -98380608.101211548 7338387.7796783447 0 0 0 0 -114996121.86010456 -81018795.448871613 0 -81018795.448871613 22784124.324676514 0 0 0 0 -58579895.883329391 -127803051.36417389 0 -127803051.36417389 -26743633.299713135 0 0 0 0 27998043.507638931 -83606945.895462036 0 -83606945.895462036 -4184450.6599731445 0 0 0 0 -68575399.839913368 -91140135.99464798 0 -91140135.99464798 93376932.881774902 0 0 0 0 38149175.181217194 -52616840.845947266 0 -52616840.845947266 88222441.24980545 0 0 0 0 160951751.32655907 -178036807.10420227 0 -178036807.10420227 10896825.541931152 0 0 0 0 -24977707.739343703 -132009141.2199297 0 -132009141.2199297 -39213702.795043945 0 0 0 0 -20806151.417928696 8619046.002822876 0 8619046.002822876 -164708052.23403168 0 0 0 0 26396016.28030014 51040946.82800293 0 51040946.82800293 -26170626.03314209 0 0 0 0 161760100.30455208 -175325416.26383972 0 -175325416.26383972 -206212283.89942932 0 0 0 0 -939467.111309167 -1188004.8801052272 0 -1188004.8801052272 725455.51981660724 0 0 0 0 258290431.22747803 -28648352.583969116 0 -28648352.583969116 -110574755.99788666 0 0 0 0 -532252.31325177848 -17169447.685165323 0 -17169447.685165323 -24741887.371683955 0 0 0 0 145905270.75385666 -84529154.330322266 0 -84529154.330322266 -43135760.972473145 0 0 0 0 246158612.22116566 -252922619.63960266 0 -252922619.63960266 64927858.527175903 0 0 0 0 344181883.65940857 -114156690.11753082 0 -114156690.11753082 11926042.643554688 0 0 0 0 151355038.36513138 -162141241.94398499 0 -162141241.94398499 160365358.80258179 0 0 0 0 177321689.14736176 -222594491.18967247 0 -222594491.18967247 -29017501.6144104 0 0 0 0 23426306.155696869 -17561415.327526093 0 -17561415.327526093 -32037994.047124863 0 0 0 0 715139.19732093811 -12469556.041543961 0 -12469556.041543961 -12065645.312576294 0 0 0 0 4045394.8200426623 -12294212.149932893 0 -12294212.149932893 -33418032.193289839 0 0 0 0 293302356.41804886 -264838700.33178711 0 -264838700.33178711 -45822646.752197266 0 0 0 0 35466475.716004372 -32743861.836990356 0 -32743861.836990356 -17782634.324714661 0 0 0 0 222945047.78701782 15950082.439346313 0 15950082.439346313 33861770.822174072 0 0 0 0 202987576.96388245 -190130595.84602356 0 -190130595.84602356 74956244.185821533 0 0 0 0 211425819.26824093 -188488331.63989639 0 -188488331.63989639 -30356009.32800293 0 0 0 0 244685163.07843781 -101477630.12600708 0 -101477630.12600708 -7060721.7667312622 0 0 0 0 252758280.32730007 -108841366.46839523 0 -108841366.46839523 -134374632.60559082 0 0 0 0 -150434136.90959549 -179979870.34217072 0 -179979870.34217072 -133754142.66471863 0 0 0 0 482975058.93414736 -225097339.29936028 0 -225097339.29936028 -394388477.34225464 0 0 0 0 -461245085.03237915 -553610353.9743042 0 -553610353.9743042 -183564852.9331665 0 0 0 0 -39725371.712810516 93086886.363601685 0 93086886.363601685 -310701197.85481369 0 0 0 0 -828769603.48020172 418272882.93484497 0 418272882.93484497 -312832062.24949259 0 0 0 0 207903964.59539151 463865546.24295664 0 463865546.24295664 -1092618788.7410126 0 0 0 0 -62554274.200345993 -16989481.718496323 0 -16989481.718496323 -72688627.466812134 0 0 0 0 32820847.224086285 105673649.30410004 0 105673649.30410004 -467474992.10183716 0 0 0 0 252787143.88618279 105176453.8039856 0 105176453.8039856 -817265330.49855042 0 0 0 0 57655128.159030914 -24947607.864822388 0 -24947607.864822388 -548251669.04107666 0 0 0 0 62036900.017217636 45298848.480354309 0 45298848.480354309 -619838132.73034668 0 0 0 0 40100088.525453568 -90288121.697341919 0 -90288121.697341919 -489250029.59949493 0 0 0 0 -1638171.4302837076 -1836958.0528535843 0 -1836958.0528535843 1077875.5760330297 0 0 0 0 -40104343.283967018 81236147.595703125 0 81236147.595703125 -233603273.11625671 0 0 0 0 318061672.49876213 -288309887.24501801 0 -288309887.24501801 -349043651.67879486 0 0 0 0 -226569.14361000061 239533430.03871155 0 239533430.03871155 -173971458.15649414 0 0 0 0 367971.351597175 1615539.5716680903 0 1615539.5716680903 -937733.95331144333 0 0 0 0 89280269.373235703 303259271.01200485 0 303259271.01200485 -702625052.40942574 0 0 0 0 258790190.13220787 4430916.7991714478 0 4430916.7991714478 -43559155.411716461 0 0 0 0 214407158.50578308 -9831957.9918823242 0 -9831957.9918823242 -28425348.585418701 0 0 0 0 260059922.71154594 22452547.479484558 0 22452547.479484558 122651434.98591614 0 0 0 0 739078576.24825001 -171154589.39461517 0 -171154589.39461517 -300336619.91168213 0 0 0 0 475446073.99104977 273427817.97108459 0 273427817.97108459 -1005803253.4581299 0 0 0 0 -515121613.06804848 1296559530.7431526 0 1296559530.7431526 -599232891.46779633 0 0 0 0 279178730.90193176 1302615145.7032623 0 1302615145.7032623 -1386487441.6926155 0 0 0 0 207756131.56435061 95640272.173027039 0 95640272.173027039 -285174617.38536072 0 0 0 0 -1091925861.8035069 577286739.73258972 0 577286739.73258972 -347030303.12861633 0 0 0 0 1343096.7094314392 2058518.0326799415 0 2058518.0326799415 -4712029.0710666105 0 0 0 0 -492661857.28827286 1258157862.1061172 0 1258157862.1061172 -622675972.16230774 0 0 0 0 -1134405122.0195732 1410282373.2340088 0 1410282373.2340088 -337422109.45909119 0 0 0 0 397430800.48089123 -788979801.00262833 0 -788979801.00262833 -649160857.75727844 0 0 0 0 390587757.89687252 51666987.571617126 0 51666987.571617126 -5903167.1317749023 0 0 0 0 2066789.3299980853 2413438.6408799724 0 2413438.6408799724 -9080392.762547411 0 0 0 0 281534014.14421463 -7340748.8939208984 0 -7340748.8939208984 -31372396.842292786 0 0 0 0 242402335.15119267 48659280.912502289 0 48659280.912502289 37543861.599304199 0 0 0 0 680260.93062371737 2918691.7726979926 0 2918691.7726979926 -1739316.9571492895 0 0 0 0 273529153.81860161 55600115.986816406 0 55600115.986816406 18506377.61933136 0 0 0 0 -36850132.306155205 183607504.90277863 0 183607504.90277863 35125484.692909241 0 0 0 0 493714725.41368103 60081073.70142746 0 60081073.70142746 -225405415.58681488 0 0 0 0 -8899712.3168821335 209700429.31094742 0 209700429.31094742 -7655634.4476318359 0 0 0 0 313364486.15388489 -168150550.25465012 0 -168150550.25465012 11173937.706410408 0 0 0 0 -2546812.8789724074 -4396575.5919336053 0 -4396575.5919336053 -5939294.1614972912 0 0 0 0 119744082.58178329 -51421149.268543243 0 -51421149.268543243 115822607.75178146 0 0 0 0 169259473.8845253 -10658254.442602158 0 -10658254.442602158 44660666.254558563 0 0 0 0 123696332.98470306 -54382976.200158119 0 -54382976.200158119 1950226.8593978882 0 0 0 0 44400777.430194855 22441651.770666122 0 22441651.770666122 -64047968.89919281 0 0 0 0 9190421.703744527 2239347.9599475972 0 2239347.9599475972 -10264262.849981435 0 0 0 0 -1909990979.455143 878388674.3267746 0 878388674.3267746 -82778559.525482178 0 0 0 0 -843287.92989299027 -3710095.474230988 0 -3710095.474230988 -4470040.1263599843 0 0 0 0 -11596974.599143982 -31035026.45375824 0 -31035026.45375824 -689458547.19542694 0 0 0 0 70736100.104187012 -91664308.009765625 0 -91664308.009765625 -37997835.12928009 0 0 0 0 -6393774.6230441984 -13752747.77271178 0 -13752747.77271178 -25086822.221034691 0 0 0 0 -299381952.27931213 548683403.04831314 0 548683403.04831314 -302075119.41505432 0 0 0 0 -212393571.11148071 645100809.79288483 0 645100809.79288483 -681909639.96126127 0 0 0 0 -432958734.54508781 714801036.13465118 0 714801036.13465118 -171225046.8626709 0 0 0 0 -396717885.55652618 469168690.92979431 0 469168690.92979431 139677705.59999847 0 0 0 0 -305768065.99191666 627257942.58079529 0 627257942.58079529 -253666873.96239471 0 0 0 0 -406895596.8455677 632286672.53222656 0 632286672.53222656 -114941341.77290344 0 0 0 0 -517483394.79273224 461667230.40565491 0 461667230.40565491 -207642953.05275774 0 0 0 0 -8314693.2751542218 -12768673.545376647 0 -12768673.545376647 -19089984.360597111 0 0 0 0 9745881.1989974976 -453204325.73392868 0 -453204325.73392868 -169730186.3475647 0 0 0 0 -316723488.65859652 462825188.12338018 0 462825188.12338018 -207732159.43907166 0 0 0 0 -2034735.6671139039 -1853476.4881870477 0 -1853476.4881870477 -537899.94289632887 0 0 0 0 511982980.52450562 -346021539.63846874 0 -346021539.63846874 -159438665.70479584 0 0 0 0 -7785610.0187666342 -10364643.034730256 0 -10364643.034730256 -13855501.279022526 0 0 0 0 871220238.19558716 -1204724026.9155426 0 -1204724026.9155426 -1011894759.1784821 0 0 0 0 15320230.86894989 477929762.98550415 0 477929762.98550415 649789524.43241119 0 0 0 0 -439266112.72962952 24736126.273025513 0 24736126.273025513 -793027377.04864502 0 0 0 0 -711664520.16759491 -213704987.05394363 0 -213704987.05394363 -374947160.32096863 0 0 0 0 -605554797.60290623 162210914.92019749 0 162210914.92019749 -826644306.50927734 0 0 0 0 -688024222.21641445 -264031355.44766235 0 -264031355.44766235 -2589340361.4795532 0 0 0 0 147662685.90651703 -717796076.67718887 0 -717796076.67718887 -3228088470.6506729 0 0 0 0 -1187536440.2187233 -851307583.8000946 0 -851307583.8000946 -1980890554.2283707 0 0 0 0 -354082152.75259113 -119497668.90113068 0 -119497668.90113068 -1744452523.046669 0 0 0 0 -1107692883.3501167 104102154.1301651 0 104102154.1301651 -768336488.37959671 0 0 0 0 -542210453.98046875 511480923.10066795 0 511480923.10066795 -280422634.36030579 0 0 0 0 -360593107.08769608 254277139.58406448 0 254277139.58406448 -963046343.07367706 0 0 0 0 21858531.245290756 463877908.9811058 0 463877908.9811058 -443441772.48474121 0 0 0 0 -391325279.48345184 193382164.49460602 0 193382164.49460602 -172654093.26724148 0 0 0 0 706353782.9688282 -189869018.28447342 0 -189869018.28447342 -73245647.805415154 0 0 0 0 -355164989.19007874 -254961148.66540527 0 -254961148.66540527 63070378.197727203 0 0 0 0 -156809924.31100464 -836311124.9891243 0 -836311124.9891243 -964377739.10333252 0 0 0 0 -13601663.464992523 -1056321538.8427277 0 -1056321538.8427277 -647796190.24397659 0 0 0 0 636964.17641751887 633997.53379000863 0 633997.53379000863 -3536735.7334683016 0 0 0 0 -138460814.97375488 -307156910.12060547 0 -307156910.12060547 -1192425883.3795052 0 0 0 0 -234511985.2792511 -316987092.26182556 0 -316987092.26182556 -204288533.54611969 0 0 0 0 -153632027.65445709 -441188048.22354126 0 -441188048.22354126 -531195846.19229126 0 0 0 0 -634374004.12282562 -831861695.9077301 0 -831861695.9077301 -526774087.40914178 0 0 0 0 -248475643.04647827 -451717828.19865417 0 -451717828.19865417 -241772570.73829651 0 0 0 0 -363473353.81540298 -253637328.18323898 0 -253637328.18323898 141651067.24919128 0 0 0 0 -120905666.35273743 75865800.630081177 0 75865800.630081177 89581853.354654312 0 0 0 0 -3524630.8711036835 -1146795.1846140772 0 -1146795.1846140772 -305338.50853033364 0 0 0 0 -307814717.26408386 -40028942.465843201 0 -40028942.465843201 16928400.271972656 0 0 0 0 86832762.2474823 -75610687.250244141 0 -75610687.250244141 -124278551.10741425 0 0 0 0 -273724071.71063232 19581606.615066528 0 19581606.615066528 19836887.657333374 0 0 0 0 910213.54587173462 192793516.11259174 0 192793516.11259174 -326532507.94969177 0 0 0 0 -3442463.634395957 310449.07743028924 0 310449.07743028924 -3498303.6668539681 0 0 0 0 -926220201.22551727 80928293.988983154 0 80928293.988983154 109693066.53212738 0 0 0 0 -528586295.50485992 -1286146008.0664825 0 -1286146008.0664825 -1268961065.3727264 0 0 0 0 -179028376.17554092 -869396086.47224236 0 -869396086.47224236 -912207202.23478699 0 0 0 0 -326091148.86403656 -395548666.11817932 0 -395548666.11817932 -276591245.9105835 0 0 0 0 -1381410482.5798378 -931109119.44879341 0 -931109119.44879341 -400392876.59141541 0 0 0 0 190221051.12798882 127938950.27006531 0 127938950.27006531 -316889105.65606308 0 0 0 0 92613737.464360237 174462307.13288879 0 174462307.13288879 -77175994.499595642 0 0 0 0 -68921975.720025063 377543244.55403137 0 377543244.55403137 -225280985.68835449 0 0 0 0 31407465.227194786 390439254.66510201 0 390439254.66510201 -286441702.15354156 0 0 0 0 394634.32159987558 1835675.8250235186 0 1835675.8250235186 -884193.84643415362 0 0 0 0 443375275.08351874 6556879.6721944809 0 6556879.6721944809 -125973297.88273621 0 0 0 0 33701878.719844818 327571979.66986847 0 327571979.66986847 -226936559.58917999 0 0 0 0 286214290.19294739 191365931.14599609 0 191365931.14599609 -340931095.65507889 0 0 0 0 181398978.52745819 34985424.743503571 0 34985424.743503571 -42991236.541885376 0 0 0 0 1594797.2465232247 1522256.5247400147 0 1522256.5247400147 -8169004.486942552 0 0 0 0 154559628.40451813 101596656.9002409 0 101596656.9002409 -179095178.76824951 0 0 0 0 -190215618.91999364 482540554.91099358 0 482540554.91099358 -631150269.55014801 0 0 0 0 -177796242.18657303 -488937930.35277557 0 -488937930.35277557 -1115448643.4642792 0 0 0 0 56415198.737293243 104285740.80457687 0 104285740.80457687 -175747769.22994137 0 0 0 0 132087881.29468918 -9136636.0874185562 0 -9136636.0874185562 -412518379.74217987 0 0 0 0 42804190.83743304 245779639.23088312 0 245779639.23088312 -155689837.92340088 0 0 0 0 247404362.9427948 218355381.36317444 0 218355381.36317444 -240381588.56589508 0 0 0 0 183373767.33829498 -148002143.28287888 0 -148002143.28287888 -52418672.908256531 0 0 0 0 552655480.89040279 -128189784.70486641 0 -128189784.70486641 -105430637.82601166 0 0 0 0 333438437.18810844 176293594.70349121 0 176293594.70349121 -320017167.69564056 0 0 0 0 279965439.55284882 145508142.56262589 0 145508142.56262589 -145150461.67919922 0 0 0 0 -97409457.827790737 162521787.72304535 0 162521787.72304535 -137916003.73111725 0 0 0 0 1459145.664754482 1272684.5122648887 0 1272684.5122648887 -512420.74922540784 0 0 0 0 906627566.87287331 -196129158.79681778 0 -196129158.79681778 -240857811.75059509 0 0 0 0 -1126966.4249706268 -490119131.60447311 0 -490119131.60447311 -300326311.34051514 0 0 0 0 -49595698.67089653 -139390113.47696686 0 -139390113.47696686 42662963.040943146 0 0 0 0 -125458266.6755619 -447793837.64974594 0 -447793837.64974594 -345935640.67523193 0 0 0 0 -400507335.31495285 -436792524.21977997 0 -436792524.21977997 -269239068.74123383 0 0 0 0 -329131863.94981003 -547759057.07448578 0 -547759057.07448578 -378339554.41120291 0 0 0 0 -493181364.22407818 -489804938.96177292 0 -489804938.96177292 -226950500.58004761 0 0 0 0 -271045872.63078308 -398539526.60704041 0 -398539526.60704041 -398019857.50145721 0 0 0 0 -419968664.11870956 -464158121.72237396 0 -464158121.72237396 -218408724.67641068 0 0 0 0 -14683480.73889624 5224569.8484779857 0 5224569.8484779857 1032189.0739192665 0 0 0 0 -340844114.91599083 -544623842.94978714 0 -544623842.94978714 -489915331.87679291 0 0 0 0 -101682826.95507622 33689081.452003479 0 33689081.452003479 272172954.58459473 0 0 0 0 -81768244.893043518 -172904523.67769241 0 -172904523.67769241 43743145.598526001 0 0 0 0 -136850177.22904301 -39494278.979379654 0 -39494278.979379654 98224009.214294434 0 0 0 0 -177109774.47257042 -247455098.5489502 0 -247455098.5489502 -137898716.61230469 0 0 0 0 -53742747.850387573 -142155852.43526459 0 -142155852.43526459 198851604.28421021 0 0 0 0 -61042975.066300869 209823699.68970108 0 209823699.68970108 463627691.78258514 0 0 0 0 125940375.3474102 170373738.89438629 0 170373738.89438629 95591875.136951447 0 0 0 0 -293406996.66856861 78968019.028274536 0 78968019.028274536 144103798.62364578 0 0 0 0 -230044865.60695839 -237582532.10900688 0 -237582532.10900688 -554672277.74118805 0 0 0 0 -451699508.78574944 -504717282.54634094 0 -504717282.54634094 -303739653.00050354 0 0 0 0 -497899743.05648994 -1077967873.1664162 0 -1077967873.1664162 -1212728901.8251572 0 0 0 0 -6741606.3566076579 2896299.1716708839 0 2896299.1716708839 -605903.15921401978 0 0 0 0 129087089.34911585 -198525310.66804504 0 -198525310.66804504 342472855.32637787 0 0 0 0 -1007321635.1331024 610616719.45593262 0 610616719.45593262 208052406.13156128 0 0 0 0 -744081.27294752374 1612550.1595103219 0 1612550.1595103219 -1286208.369784575 0 0 0 0 1467852890.812355 274212947.42232513 0 274212947.42232513 -2070355507.8286572 0 0 0 0 344562079.32958984 -1590825457.3768616 0 -1590825457.3768616 -2386827633.1312428 0 0 0 0 -980669613.00416899 -110975846.90990257 0 -110975846.90990257 370105024.9269104 0 0 0 0 459891636.26768494 -123454226.25804901 0 -123454226.25804901 -181553513.02313614 0 0 0 0 503835943.42175484 98068164.360069275 0 98068164.360069275 -445360933.7101059 0 0 0 0 5471027.7509946823 -83036698.52009511 0 -83036698.52009511 -98801214.830871582 0 0 0 0 1147403.4213178158 35125429.605425835 0 35125429.605425835 -121079601.33218384 0 0 0 0 -105316800.97077179 -46339974.352401733 0 -46339974.352401733 -39312345.494232178 0 0 0 0 267135.54126548767 -10869517.179149628 0 -10869517.179149628 -28851794.473789215 0 0 0 0 -10042685.214860318 -10144700.158229444 0 -10144700.158229444 -8065060.0035764351 0 0 0 0 -12351231.830694292 -12036644.514489476 0 -12036644.514489476 -29218126.50088796 0 0 0 0 -32168064.682988208 -259532.31705854088 0 -259532.31705854088 5981546.7137051225 0 0 0 0 127385640.88930511 165240225.90309906 0 165240225.90309906 32745862.813877106 0 0 0 0 -118873815.07510376 -50018880.079284668 0 -50018880.079284668 -13749636.779418945 0 0 0 0 -87321087.079063416 -83298378.604827881 0 -83298378.604827881 -68048789.577331543 0 0 0 0 1262576.9663357027 1674910.900029473 0 1674910.900029473 216223.25398956239 0 0 0 0 778854.1389799118 -8681270.5019226074 0 -8681270.5019226074 -35853593.900421143 0 0 0 0 -4233974.0038442612 -10172625.415203094 0 -10172625.415203094 -44222404.66809082 0 0 0 0 -9594489.969574213 -1066431.9275245667 0 -1066431.9275245667 -26528293.132049561 0 0 0 0 -9423298.653963089 -562040.65409851074 0 -562040.65409851074 -26386034.562156677 0 0 0 0 -6198273.7294483185 -3971414.513961792 0 -3971414.513961792 -22883111.438621521 0 0 0 0 -118248156.13780975 -3224231.6574707031 0 -3224231.6574707031 69403128.715270996 0 0 0 0 -17456083.29980275 485836.13956108317 0 485836.13956108317 -16869151.423375189 0 0 0 0 -9104973.5216503143 -307570.36764526367 0 -307570.36764526367 -24303958.895956039 0 0 0 0 -9417725.310028553 572307.60918998718 0 572307.60918998718 -26345399.727645874 0 0 0 0 -11342353.585109711 46418243.584476471 0 46418243.584476471 59917076.808746338 0 0 0 0 -14823647.267369548 -2472414.8405666687 0 -2472414.8405666687 1568566.0101425573 0 0 0 0 -5037271.3400614019 -931905.74326246046 0 -931905.74326246046 2097641.7861702219 0 0 0 0 223313996.94205093 8435908.7218780518 0 8435908.7218780518 -51271013.211791992 0 0 0 0 85886534.568519592 -307906745.00206184 0 -307906745.00206184 -341386230.52320862 0 0 0 0 -302780943.85707092 -211673367.63630676 0 -211673367.63630676 -210507138.31477356 0 0 0 0 -84912106.137176514 183104423.37792206 0 183104423.37792206 -23859125.1951828 0 0 0 0 -374998727.84676361 -129835692.2572403 0 -129835692.2572403 5322789.4228363037 0 0 0 0 -866842173.66353989 -606274236.5770607 0 -606274236.5770607 -324847519.95736694 0 0 0 0 -840562512.1681366 -16724780.517616272 0 -16724780.517616272 -273043483.49448395 0 0 0 0 -430096851.10547066 -381075092.37946129 0 -381075092.37946129 -211306456.1855011 0 0 0 0 -574035923.39480591 -326781758.90172577 0 -326781758.90172577 -174740222.56314087 0 0 0 0 -391187781.74988556 -33258959.607936859 0 -33258959.607936859 -43635300.371902466 0 0 0 0 -84588099.762054443 -119516560.17706299 0 -119516560.17706299 -162569656.34313774 0 0 0 0 -322472516.1388855 8297046.2636871338 0 8297046.2636871338 59966156.898757935 0 0 0 0 -20195315.327228826 9946542.4920410812 0 9946542.4920410812 2781285.1825638786 0 0 0 0 -229069579.43347168 -125477976.05597687 0 -125477976.05597687 4457073.6961898804 0 0 0 0 99697950.887580872 2280495.032081604 0 2280495.032081604 -48831729.084201813 0 0 0 0 -93061145.570720673 -40170988.915534973 0 -40170988.915534973 -68985463.686599731 0 0 0 0 -2982041.8131651003 -3151315.3063835725 0 -3151315.3063835725 -2598191.9195164591 0 0 0 0 -11790566.962527458 -10496799.692198303 0 -10496799.692198303 8663718.210352581 0 0 0 0 -80995036.057281494 -64019888.966110229 0 -64019888.966110229 -51351170.69921875 0 0 0 0 142169644.03943253 64824951.878814697 0 64824951.878814697 -110416441.39286041 0 0 0 0 -107104683.8425808 -23234579.339614868 0 -23234579.339614868 108945954.72494507 0 0 0 0 -68439339.803592682 -124754332.02902985 0 -124754332.02902985 -181232194.64730835 0 0 0 0 -70024518.068981171 -112957180.14575195 0 -112957180.14575195 -136377734.59590149 0 0 0 0 -6175558.673560217 -6044700.6031898297 0 -6044700.6031898297 6147249.3068517894 0 0 0 0 -154157215.06809807 -141343704.39707565 0 -141343704.39707565 -100266647.46331787 0 0 0 0 -39551239.799369812 -5278091.2730407715 0 -5278091.2730407715 -76036916.76324892 0 0 0 0 7199763.1487102509 25569939.307781219 0 25569939.307781219 26515992.294410706 0 0 0 0 6354856.0078048706 -42818338.725349426 0 -42818338.725349426 -221432270.01088715 0 0 0 0 14083136.680053324 2501957.1389763691 0 2501957.1389763691 -29879795.17256739 0 0 0 0 -112144649.17424583 -112485232.85205269 0 -112485232.85205269 -13017168.825531006 0 0 0 0 -154523443.2562561 -180626491.30570221 0 -180626491.30570221 -112196982.27078247 0 0 0 0 -120901010.93389416 -83473409.58731842 0 -83473409.58731842 -14600617.250396729 0 0 0 0 30982810.417724609 -60995503.990112305 0 -60995503.990112305 -73329157.430496216 0 0 0 0 11169735.227753652 -1282704.8353737816 0 -1282704.8353737816 -12219123.206588067 0 0 0 0 -148984111.14740467 -75608697.988399506 0 -75608697.988399506 -11353303.162872314 0 0 0 0 -142003557.87523937 -112346005.68079185 0 -112346005.68079185 -548703.21774291992 0 0 0 0 -10389271.398863792 -21134838.43081665 0 -21134838.43081665 -45620868.491882324 0 0 0 0 -1740865.3091201782 -5117767.9041633606 0 -5117767.9041633606 -38432453.9037323 0 0 0 0 15502731.268555641 3151519.1553497314 0 3151519.1553497314 -13988948.665527344 0 0 0 0 8044932.160169391 -7262909.37779928 0 -7262909.37779928 -31354714.912494034 0 0 0 0 7759274.2968486855 -453872.42843655311 0 -453872.42843655311 -24794850.680785879 0 0 0 0 3171814.7412683456 -2126391.9159390945 0 -2126391.9159390945 -14209356.249157764 0 0 0 0 -19849686.764200211 -18836132.296257019 0 -18836132.296257019 -6219611.8579864502 0 0 0 0 16268344.224977493 2532074.9085083008 0 2532074.9085083008 -15745876.860717773 0 0 0 0 16470442.678726196 2376728.3277282715 0 2376728.3277282715 -16033843.674636841 0 0 0 0 7845189.854999261 8002915.6712052114 0 8002915.6712052114 -25583402.713642709 0 0 0 0 8057384.1215075199 10422799.41227933 0 10422799.41227933 -4662733.7192589119 0 0 0 0 62017219.656477928 34204837.766921997 0 34204837.766921997 -28919398.308960557 0 0 0 0 17209608.226539612 3610618.0354156494 0 3610618.0354156494 -15514789.7420578 0 0 0 0 -48093065.781266212 -24618540.872231007 0 -24618540.872231007 12983786.608053207 0 0 0 0 -10559531.144001007 -86265960.722475052 0 -86265960.722475052 -48962834.046512127 0 0 0 0 54769444.089844704 -6628119.55022192 0 -6628119.55022192 -258037962.11877251 0 0 0 0 -78052052.305834055 70059716.434572935 0 70059716.434572935 50577241.979980469 0 0 0 0 19511826.412750244 22173899.436771393 0 22173899.436771393 -11310187.374664307 0 0 0 0 -2520070.0661993027 -4218440.0606536865 0 -4218440.0606536865 -12974256.099433899 0 0 0 0 -24036323.51618576 26475379.504127502 0 26475379.504127502 8593884.8334960938 0 0 0 0 2773890.4431326264 947176.50823210552 0 947176.50823210552 -30483702.846929811 0 0 0 0 -1065503.7940696734 -1232436.0712634996 0 -1232436.0712634996 -1649800.8737515062 0 0 0 0 206270191.90896368 81859186.638720512 0 81859186.638720512 -242833775.20993423 0 0 0 0 -32580241.713585854 101893270.17807579 0 101893270.17807579 -148485173.89582253 0 0 0 0 -12355987.085891724 42665760.920690536 0 42665760.920690536 -211705840.00170422 0 0 0 0 -1356250.7286043731 -1252878.2667050189 0 -1252878.2667050189 2348484.2139374744 0 0 0 0 12746.705514014902 -2364806.1001031953 0 -2364806.1001031953 90938.366329463199 0 0 0 0 164994.16662216187 97319728.655851364 0 97319728.655851364 -20273142.187042236 0 0 0 0 -44140073.89906013 -22253562.841552019 0 -22253562.841552019 -244556828.5962162 0 0 0 0 193012137.90895957 -285135804.54807878 0 -285135804.54807878 344395138.33920288 0 0 0 0 341288584.0673182 42128791.879504681 0 42128791.879504681 33479192.637084961 0 0 0 0 -33843934.895717621 -123170366.3400135 0 -123170366.3400135 32546339.537436485 0 0 0 0 78450007.931602478 34542958.482941151 0 34542958.482941151 3015617.4053325653 0 0 0 0 654520973.17869329 -509191834.2686367 0 -509191834.2686367 224923216.97577095 0 0 0 0 572054825.25254798 -176425693.75055003 0 -176425693.75055003 -1918802.5055484772 0 0 0 0 -74550757.343139172 -38882835.865640163 0 -38882835.865640163 107755047.0877862 0 0 0 0 82069588.464784354 -30328172.548704863 0 -30328172.548704863 -52767700.778594971 0 0 0 0 5288766.275642395 -31235837.423879147 0 -31235837.423879147 -42516254.490420818 0 0 0 0 63514876.528434515 -19792345.35959816 0 -19792345.35959816 -61296730.08190155 0 0 0 0 -13607355.43006134 1697697.7656173706 0 1697697.7656173706 -24688668.90020752 0 0 0 0 -10454804.254458427 2819684.3118286133 0 2819684.3118286133 -32613893.629081726 0 0 0 0 -3317288.8668060303 -7333520.7477722168 0 -7333520.7477722168 -53915064.141357422 0 0 0 0 -10179659.306468964 4503282.1217880249 0 4503282.1217880249 -45941870.809650421 0 0 0 0 -49919130.698986053 27813166.394556046 0 27813166.394556046 51727325.388156831 0 0 0 0 1604371.1604849997 3719369.0204420835 0 3719369.0204420835 -28756622.86360313 0 0 0 0 35918151.447321892 -6680640.7568664551 0 -6680640.7568664551 -66234019.047687531 0 0 0 0 1236391.1473580347 5425339.3734804429 0 5425339.3734804429 -27981060.458447002 0 0 0 0 52115.042681932449 469632.16593933105 0 469632.16593933105 -23500089.049533844 0 0 0 0 -12712042.041811943 -811261.78542709351 0 -811261.78542709351 -21649279.654597402 0 0 0 0 -8067036.0746312141 -3949153.865032196 0 -3949153.865032196 -23099879.492210388 0 0 0 0 -8753642.8539066315 -2710768.1441955566 0 -2710768.1441955566 -21629436.907997191 0 0 0 0 -12337633.145471182 3517149.7441126928 0 3517149.7441126928 -16798074.531652384 0 0 0 0 -75524854.291276932 154753104.61265182 0 154753104.61265182 21158707.905410767 0 0 0 0 -237942494.54247093 184705708.17531586 0 184705708.17531586 -16670544.867950439 0 0 0 0 117444960.36013412 -11760712.057174683 0 -11760712.057174683 -110203853.96074677 0 0 0 0 -109355456.83231354 54424602.299648285 0 54424602.299648285 58839761.006256104 0 0 0 0 54842625.346355438 150653542.33377838 0 150653542.33377838 -238245988.07849121 0 0 0 0 -7364979.5418157578 4113261.4826011658 0 4113261.4826011658 -19360746.068874359 0 0 0 0 98793913.33813858 -18004276.491451263 0 -18004276.491451263 -36384216.488113403 0 0 0 0 -9351533.2435252964 3374664.9238463417 0 3374664.9238463417 -20257241.688350752 0 0 0 0 -8431433.1710294187 436125.82275915146 0 436125.82275915146 -21311215.501983643 0 0 0 0 47643772.063805819 10610135.87795496 0 10610135.87795496 -83627220.801506042 0 0 0 0 4557978.8808097839 40090546.929829597 0 40090546.929829597 -51073755.54087925 0 0 0 0 7784325.2436051667 47673781.972238779 0 47673781.972238779 -44256441.150230408 0 0 0 0 -10166906.176260948 23375364.836550713 0 23375364.836550713 -7105116.9446744919 0 0 0 0 16309778.419573307 32307702.557456493 0 32307702.557456493 -46937356.848856211 0 0 0 0 -7262977.2991344929 4866330.5058288574 0 4866330.5058288574 -13837962.831100464 0 0 0 0 -1258599.9255675864 9501878.1191528141 0 9501878.1191528141 -24852450.384388916 0 0 0 0 -678628.06821060181 16555484.872879028 0 16555484.872879028 -18752333.350616455 0 0 0 0 2365542.1621608734 5120682.3223266602 0 5120682.3223266602 -4319691.1197583675 0 0 0 0 -2672648.4861145644 8226945.1240714304 0 8226945.1240714304 -27634928.582973182 0 0 0 0 1459563128.2573776 -28668739.429599762 0 -28668739.429599762 -790610362.12505341 0 0 0 0 -4988558.3350965595 6255949.7372508049 0 6255949.7372508049 -15498321.311790038 0 0 0 0 -2357386.7828616621 9123626.6480652932 0 9123626.6480652932 -21037782.002948385 0 0 0 0 -8274157.5862846375 4428969.6903266907 0 4428969.6903266907 -2541168.3130576611 0 0 0 0 107647885.89501572 -75008981.103466034 0 -75008981.103466034 -245167220.24734497 0 0 0 0 16429767.725914001 3044723.9018974304 0 3044723.9018974304 -31922908.675247192 0 0 0 0 -7654386.3375169793 5280870.0122359106 0 5280870.0122359106 -8265491.7045118846 0 0 0 0 -423469.51321601914 11030.147747262381 0 11030.147747262381 69348.66566060856 0 0 0 0 33700119.292572021 517685840.02452087 0 517685840.02452087 66553724.472702026 0 0 0 0 -179885580.06462097 -18841406.207870483 0 -18841406.207870483 -82494640.951259613 0 0 0 0 -153160016.14409637 177102289.02148438 0 177102289.02148438 -245218150.82466125 0 0 0 0 -433489.91336942464 -325196.58729381859 0 -325196.58729381859 209152.81067017093 0 0 0 0 -2992115.1458949093 -2122903.6095922654 0 -2122903.6095922654 -3098860.6495398916 0 0 0 0 -2389516033.9576912 -2005562056.1078949 0 -2005562056.1078949 -960465577.36160278 0 0 0 0 -1433272480.4971313 1004288246.2775879 0 1004288246.2775879 -722878682.87994385 0 0 0 0 -96125515.832550049 1035558485.2203903 0 1035558485.2203903 -3277333464.9971695 0 0 0 0 -181129477.53738785 688796720.2245636 0 688796720.2245636 -695652837.76339722 0 0 0 0 263621831.88282776 -1464572862.8484116 0 -1464572862.8484116 -1878336623.4956398 0 0 0 0 -1526183932.0122833 -1222575360.2030869 0 -1222575360.2030869 -375630049.69142342 0 0 0 0 109307992.01337051 -1175265264.3808155 0 -1175265264.3808155 -1804671112.7829742 0 0 0 0 -741202436.94763184 -2219641496.8221207 0 -2219641496.8221207 -3086324892.034966 0 0 0 0 -606169464.41539001 -110015668.89901733 0 -110015668.89901733 535521068.62735367 0 0 0 0 18715962.462003708 -1694946364.0356045 0 -1694946364.0356045 -1136609659.3310089 0 0 0 0 2331693.1106836442 -1862588.8147222549 0 -1862588.8147222549 -4818699.5480255932 0 0 0 0 -920864991.24325562 -2201678433.3156433 0 -2201678433.3156433 -1129735798.276772 0 0 0 0 -104848092.09917831 931942450.31668282 0 931942450.31668282 2323922408.2297211 0 0 0 0 1873582651.4652634 888527612.31829071 0 888527612.31829071 -367535007.39415359 0 0 0 0 -742497874.58563995 697060429.80644226 0 697060429.80644226 -770649565.86085129 0 0 0 0 1193766295.1838675 1712134931.6901951 0 1712134931.6901951 -4202494573.5583954 0 0 0 0 -1561843979.6457367 -2259228690.9449692 0 -2259228690.9449692 -313984065.71881866 0 0 0 0 83695055.535129547 2145294435.4566879 0 2145294435.4566879 -3628536734.8701477 0 0 0 0 -4246822.2635209262 -4248453.1348604253 0 -4248453.1348604253 -4947704.0261105187 0 0 0 0 -825706106.13105774 1193626707.8696823 0 1193626707.8696823 -2837663755.9032288 0 0 0 0 854660090.42521667 -141016020.21047211 0 -141016020.21047211 -2757814180.8437233 0 0 0 0 1600482842.8030624 715408378.19363403 0 715408378.19363403 -3488377240.5508041 0 0 0 0 1863066304.4058285 -2100210373.1527319 0 -2100210373.1527319 -2664764651.9125519 0 0 0 0 -7007474.6695184745 5349655.2216508649 0 5349655.2216508649 -11477467.216333862 0 0 0 0 -6152233510.6192627 -2219708708.3182983 0 -2219708708.3182983 -2154426971.1421108 0 0 0 0 -136926383.79936218 -4413491765.4003525 0 -4413491765.4003525 -4592773490.0505905 0 0 0 0 -1300944607.4689713 -2178557305.2371292 0 -2178557305.2371292 -959519203.51367188 0 0 0 0 766997030.84199429 683853238.80715656 0 683853238.80715656 123752788.51642227 0 0 0 0 534939953.27786636 825422506.58618069 0 825422506.58618069 546773736.64682007 0 0 0 0 17234756.053028107 172458740.44315338 0 172458740.44315338 -191284175.56228495 0 0 0 0 -9127834.9204276539 10420805.595857743 0 10420805.595857743 -9125864.8364330083 0 0 0 0 421554588.52628899 333005270.55022812 0 333005270.55022812 446291312.3068924 0 0 0 0 639288596.81019592 221413218.42858315 0 221413218.42858315 -371111491.50708961 0 0 0 0 -643624910.68695593 -63653657.665585518 0 -63653657.665585518 21381978.632613182 0 0 0 0 611768769.77773619 -6605164.0498456955 0 -6605164.0498456955 -679745216.03107071 0 0 0 0 -1769187.1636290103 1389050.3986794911 0 1389050.3986794911 -1775229.1547117212 0 0 0 0 41097695.080783844 -32353929.567380905 0 -32353929.567380905 15966492.810157776 0 0 0 0 -8316045.9172790898 6544040.7500952128 0 6544040.7500952128 -5305380.6532849316 0 0 0 0 -463142353.17709589 1129993042.3125479 0 1129993042.3125479 1150924223.5047092 0 0 0 0 -480239697.40557098 -440051433.04881096 0 -440051433.04881096 -261241148.08181 0 0 0 0 213308050.60292053 -431184445.43476868 0 -431184445.43476868 -1454996013.5974617 0 0 0 0 248898324.83176422 14969674.013961792 0 14969674.013961792 -1271099781.2897263 0 0 0 0 126154535.33562851 -121936008.25345612 0 -121936008.25345612 -794275976.44861412 0 0 0 0 83911349.275852203 -208048761.54376221 0 -208048761.54376221 -809964261.65594482 0 0 0 0 -72850262.587739944 808809842.28087425 0 808809842.28087425 -1174129272.8360901 0 0 0 0 219008989.85728455 -55345232.793956757 0 -55345232.793956757 -1320619657.3821716 0 0 0 0 7468530.0021514893 -45625660.759346008 0 -45625660.759346008 -667258488.83411789 0 0 0 0 11610915.219841003 296679423.55271912 0 296679423.55271912 -936062130.10496521 0 0 0 0 -143378664.53338242 173863899.23876953 0 173863899.23876953 -531053710.63049316 0 0 0 0 44954766.0027771 58946735.07850647 0 58946735.07850647 -551324950.87254143 0 0 0 0 -86884646.950393677 311078218.94496155 0 311078218.94496155 -982701589.31973267 0 0 0 0 -158163012.80867577 -5144194.2710952759 0 -5144194.2710952759 180057885.56903076 0 0 0 0 -14735998.193682894 10263352.289518671 0 10263352.289518671 -7411705.1204061722 0 0 0 0 -130542702.01205444 -27576371.467315674 0 -27576371.467315674 -240417943.60640717 0 0 0 0 4526776.0585193634 137739047.59905338 0 137739047.59905338 -155840100.74699402 0 0 0 0 -101133934.71588135 -225239563.3635788 0 -225239563.3635788 -209834743.2290802 0 0 0 0 33081659.172481537 -88203834.336769104 0 -88203834.336769104 -240079014.83795738 0 0 0 0 -29798060.8988657 -8875878.0880737305 0 -8875878.0880737305 -259488072.99736023 0 0 0 0 335935547.11488342 335321070.05124474 0 335321070.05124474 227645178.5709362 0 0 0 0 14737227.186801434 180390466.42526126 0 180390466.42526126 254567564.5390625 0 0 0 0 -10066925.849572588 12023973.539842032 0 12023973.539842032 -10294519.871656254 0 0 0 0 448057861.27201796 185791950.89850712 0 185791950.89850712 -30502269.681468964 0 0 0 0 324824607.89548302 166816085.19586945 0 166816085.19586945 -14818853.186134338 0 0 0 0 193519982.81170082 178886315.21669292 0 178886315.21669292 -10245006.008771896 0 0 0 0 192047641.44006252 147298516.94673061 0 147298516.94673061 -15542461.303653717 0 0 0 0 -3515903.4093344314 -1032299.1763727092 0 -1032299.1763727092 4068069.5857561342 0 0 0 0 311785710.04605675 130376104.8072319 0 130376104.8072319 -95760378.952976227 0 0 0 0 66758422.543571472 18227807.85850811 0 18227807.85850811 -23440843.804712296 0 0 0 0 -45655095.243345261 28631000.770477295 0 28631000.770477295 5651167.3749175072 0 0 0 0 -2221421.9181486676 11584624.591357619 0 11584624.591357619 -3818049.1817122158 0 0 0 0 -31468761.281244576 51985970.235939741 0 51985970.235939741 -34009144.397346497 0 0 0 0 43836712.911507607 71563544.335289955 0 71563544.335289955 18625270.832603455 0 0 0 0 241286648.74714708 17945523.269010544 0 17945523.269010544 -10034721.352660179 0 0 0 0 416740923.6234889 -34187095.386927605 0 -34187095.386927605 -81679055.132855415 0 0 0 0 339834107.57849121 107311910.7024622 0 107311910.7024622 -90416999.261315107 0 0 0 0 357519868.89051867 89310745.503139019 0 89310745.503139019 -142008459.60193634 0 0 0 0 240811088.43291187 -13974829.844898224 0 -13974829.844898224 -132027587.6981411 0 0 0 0 260405371.34366179 21353740.449906349 0 21353740.449906349 -80844348.907676697 0 0 0 0 324997960.94262266 37064759.453109264 0 37064759.453109264 -220578719.49580574 0 0 0 0 397102520.94019651 149942214.97445202 0 149942214.97445202 -159929174.07433128 0 0 0 0 165619538.15970516 -5297301.1006259918 0 -5297301.1006259918 -143775342.93155766 0 0 0 0 160520634.13956499 45509371.476015091 0 45509371.476015091 -256514482.86472321 0 0 0 0 181526096.33447933 99393784.754953861 0 99393784.754953861 -174699477.41747952 0 0 0 0 -153867520.04370594 38362696.095450401 0 38362696.095450401 -85479135.440470695 0 0 0 0 -10580085.087977618 44872114.570147336 0 44872114.570147336 -71509014.276355743 0 0 0 0 433149996.79075265 -150845004.30534315 0 -150845004.30534315 27744291.729421616 0 0 0 0 201236332.96863508 66781289.82772398 0 66781289.82772398 29593565.348957062 0 0 0 0 578081309.65831709 61586674.130151749 0 61586674.130151749 -136271193.0206461 0 0 0 0 174632955.62786436 -14094149.012167931 0 -14094149.012167931 -173439075.09902954 0 0 0 0 2958372.1817495823 -297534.27238416672 0 -297534.27238416672 -94188151.88061142 0 0 0 0 -154261320.16380876 137236188.62260103 0 137236188.62260103 -87751462.857743263 0 0 0 0 41642275.696293294 103508252.47333038 0 103508252.47333038 -190241651.87362671 0 0 0 0 -2394021.5346221286 3817107.906122929 0 3817107.906122929 148915.70248322189 0 0 0 0 344239662.45534468 53412437.935173035 0 53412437.935173035 -73726226.74226284 0 0 0 0 -897431.64416597388 835929.43547675479 0 835929.43547675479 267644.17835063394 0 0 0 0 767375034.66510916 -189398798.95073891 0 -189398798.95073891 -118553635.12657833 0 0 0 0 -322167202.67433572 266816310.75837231 0 266816310.75837231 -305421187.71417999 0 0 0 0 -95574.411687898624 50716.761938694865 0 50716.761938694865 394052.18194578309 0 0 0 0 -477617542.11855376 430090738.70009899 0 430090738.70009899 -269911964.45421386 0 0 0 0 443713784.15298462 -428565101.83302689 0 -428565101.83302689 -9099122.011516571 0 0 0 0 454301334.11417842 -127677947.56427956 0 -127677947.56427956 -6752773.6872215271 0 0 0 0 558278.13342176937 411526.13378032949 0 411526.13378032949 515183.05945036933 0 0 0 0 108051821.47629368 -63609006.817165375 0 -63609006.817165375 -169946074.69743729 0 0 0 0 -228630009.79454064 544055269.94269657 0 544055269.94269657 -263689789.90423369 0 0 0 0 977233.70468745299 468002.99411681294 0 468002.99411681294 489756.44313175976 0 0 0 0 296724395.93315983 -370566453.49063683 0 -370566453.49063683 50655699.608011246 0 0 0 0 293747265.38895893 -339342659.42193317 0 -339342659.42193317 -15480614.127578735 0 0 0 0 75732579.094739079 -238643146.93841982 0 -238643146.93841982 3740438.8364715576 0 0 0 0 245630042.31602097 -314854459.86985207 0 -314854459.86985207 51703106.514442444 0 0 0 0 276800931.32582617 -211545057.32449722 0 -211545057.32449722 -165960594.22394943 0 0 0 0 105077631.12850142 -121189397.76155376 0 -121189397.76155376 -159354846.35474682 0 0 0 0 85739536.546875 32595805.180273056 0 32595805.180273056 -65907478.324121475 0 0 0 0 171531191.42874694 -16420432.546565056 0 -16420432.546565056 -162148689.5708046 0 0 0 0 104426596.90630293 40608533.936012268 0 40608533.936012268 -302538310.4785881 0 0 0 0 108702129.73645639 -57055571.236944199 0 -57055571.236944199 -185359449.28052425 0 0 0 0 -21650414.636992455 145485381.54995632 0 145485381.54995632 -265932750.23014212 0 0 0 0 64878803.974390507 -68368764.75581646 0 -68368764.75581646 -135469138.63699913 0 0 0 0 -20903385.590826511 -63547744.920433044 0 -63547744.920433044 -89351446.711652756 0 0 0 0 68209686.45677948 -20590833.668857574 0 -20590833.668857574 -215426503.93214989 0 0 0 0 96000.079092025757 -12867916.242865562 0 -12867916.242865562 -52944549.554289818 0 0 0 0 191422.61637090519 719831.90765448287 0 719831.90765448287 -43106367.862167358 0 0 0 0 -2598537.6769509315 39913938.163551331 0 39913938.163551331 -100301374.94281197 0 0 0 0 -2038517.6559383869 -290438778.4399581 0 -290438778.4399581 -10646546.650527954 0 0 0 0 82624223.621696472 -57412151.613632202 0 -57412151.613632202 7004558.6712534428 0 0 0 0 -80048027.131797776 1708487.8314518929 0 1708487.8314518929 14978391.665679932 0 0 0 0 331796.9243081251 -440932.63739315979 0 -440932.63739315979 295901.3280090224 0 0 0 0 2747989.8715098845 -1896662.7464075992 0 -1896662.7464075992 -861687.49908214621 0 0 0 0 1959377.0295257703 -579714.58515835274 0 -579714.58515835274 -2400372.437749764 0 0 0 0 -78812353.619817853 72479723.456190825 0 72479723.456190825 -16617739.596393585 0 0 0 0 75168727.557227612 -117929782.38934612 0 -117929782.38934612 218579124.84309006 0 0 0 0 415314476.8257618 226512285.79619217 0 226512285.79619217 109313537.17176437 0 0 0 0 559486806.88969564 430757210.30509186 0 430757210.30509186 264986926.23952103 0 0 0 0 253945997.73471737 -358073215.19014931 0 -358073215.19014931 112360585.98062706 0 0 0 0 787232703.14074135 91117928.792253971 0 91117928.792253971 -150814804.31676102 0 0 0 0 646682965.1915617 -439604574.79866982 0 -439604574.79866982 -169244360.38834 0 0 0 0 438386332.15602493 -104591383.34339714 0 -104591383.34339714 -104626857.05530167 0 0 0 0 358570606.89181423 -109976536.25576973 0 -109976536.25576973 -102866914.93878937 0 0 0 0 382641221.86960602 -38138401.180766106 0 -38138401.180766106 -133485492.64637756 0 0 0 0 479946261.95025063 65375008.965557098 0 65375008.965557098 -44202054.863014221 0 0 0 0 36041998.019207001 84544118.988563538 0 84544118.988563538 80310627.153571129 0 0 0 0 -79321662.365440369 54298455.280990601 0 54298455.280990601 132710306.79685211 0 0 0 0 2033360.4450562692 -4238825.9186930833 0 -4238825.9186930833 -4393535.3980922047 0 0 0 0 142174405.41509295 -81256609.10144043 0 -81256609.10144043 -45734852.008388519 0 0 0 0 262790439.21623421 -223744.67881011963 0 -223744.67881011963 -63883944.565864563 0 0 0 0 265775617.68233395 -31914745.84611702 0 -31914745.84611702 -32184662.941004753 0 0 0 0 884622.22094081726 -5682994.7931459034 0 -5682994.7931459034 -1271718.6889835484 0 0 0 0 4434795.2939136028 -5540494.3107438087 0 -5540494.3107438087 -3009242.9915313721 0 0 0 0 12432254.431885719 3507709.9786052704 0 3507709.9786052704 -4778661.7441635132 0 0 0 0 -411690.19500963669 -1381196.1347972709 0 -1381196.1347972709 -2871054.6874801964 0 0 0 0 343033082.14449263 -142019153.66208458 0 -142019153.66208458 98277759.368988037 0 0 0 0 264295347.96989918 -41297129.097299576 0 -41297129.097299576 -15268421.967264175 0 0 0 0 388452208.5829587 -59676997.267908096 0 -59676997.267908096 -59905302.156360626 0 0 0 0 37079863.938494205 52489473.204439163 0 52489473.204439163 -41159745.175537109 0 0 0 0 -1892421.125206064 -1476958.8836801993 0 -1476958.8836801993 -553068.92446900904 0 0 0 0 594241869.94923878 -390754352.89229774 0 -390754352.89229774 -35644361.832758904 0 0 0 0 44210050.687189102 34979749.102613449 0 34979749.102613449 12701624.073474884 0 0 0 0 1155668.2217520871 -3224339.6201199875 0 -3224339.6201199875 -9255139.5428888462 0 0 0 0 1454745.7399336342 1713306.1820399864 0 1713306.1820399864 -868555.76249702089 0 0 0 0 -15254919.069941044 -18759972.347828865 0 -18759972.347828865 -1725885.3976135254 0 0 0 0 69226674.18205142 -39133763.574103355 0 -39133763.574103355 -21718652.639533997 0 0 0 0 -14701780.685378313 -193041189.4545269 0 -193041189.4545269 -236810746.53474331 0 0 0 0 -417970434.89931965 -195761385.28526306 0 -195761385.28526306 -207305431.02069855 0 0 0 0 -554571.72184461972 -289743.91252163611 0 -289743.91252163611 735435.20478485525 0 0 0 0 -21228605.47303319 -91343000.801111102 0 -91343000.801111102 -217943616.91184235 0 0 0 0 -2985563.8084901571 105947038.86789083 0 105947038.86789083 -101540037.84467316 0 0 0 0 2671282.9558361643 -490682.99580116849 0 -490682.99580116849 -2766539.7859451286 0 0 0 0 166258563.46279263 18491211.254479408 0 18491211.254479408 -34407593.561828613 0 0 0 0 1196648.1777497591 -227624.55855291337 0 -227624.55855291337 -1237715.2102832533 0 0 0 0 481722511.00609589 2042377.4137306213 0 2042377.4137306213 -34701809.933995903 0 0 0 0 -12193845.958980441 -182303462.53258133 0 -182303462.53258133 -195062848.97583008 0 0 0 0 457677644.91521883 19418259.553920746 0 19418259.553920746 130433016.82861328 0 0 0 0 -94907382.427829146 -170162612.53486252 0 -170162612.53486252 252813330.08248901 0 0 0 0 187236802.70608521 -302202665.63423538 0 -302202665.63423538 -213372919.12417984 0 0 0 0 -673628190.50294507 -735972587.19084096 0 -735972587.19084096 -322297053.8195076 0 0 0 0 -175609802.19111282 -433760716.39910507 0 -433760716.39910507 -389550169.11403465 0 0 0 0 -138350915.58640409 -130075361.95414162 0 -130075361.95414162 -188730144.57025909 0 0 0 0 -228731145.14957905 -231720987.09024239 0 -231720987.09024239 -793710534.31780243 0 0 0 0 -189511624.62345505 -332877103.94720078 0 -332877103.94720078 -563759392.1979599 0 0 0 0 -108887518.98379648 -347452246.09635544 0 -347452246.09635544 -267585748.92457962 0 0 0 0 -605752832.80237222 -414947132.42096376 0 -414947132.42096376 135142782.5369873 0 0 0 0 1547909.9193467333 79405.282703666016 0 79405.282703666016 -5845932.9814550225 0 0 0 0 -22888892.720036983 -22536801.983159065 0 -22536801.983159065 7919155.4225654602 0 0 0 0 -28852324.226314485 -61496672.352071762 0 -61496672.352071762 -497986709.41987419 0 0 0 0 -106152115.375588 -469677996.71829987 0 -469677996.71829987 -556171427.88256836 0 0 0 0 490173331.40236425 -232060526.17457199 0 -232060526.17457199 -1306840141.879158 0 0 0 0 346296536.83612347 -93566152.46481514 0 -93566152.46481514 -574371466.97686768 0 0 0 0 189972252.5326395 277240821.87814331 0 277240821.87814331 -487817959.72186279 0 0 0 0 17338492.994282126 -659851395.54155922 0 -659851395.54155922 -70229677.664028168 0 0 0 0 -1295821.6163454195 -738879.45718989056 0 -738879.45718989056 281065.6640549358 0 0 0 0 7760736.100373745 -619038864.42332649 0 -619038864.42332649 408890920.56929779 0 0 0 0 -415840.27755846246 649795.79576565325 0 649795.79576565325 602293.26064942032 0 0 0 0 -64088378.670148849 -91365242.171783447 0 -91365242.171783447 -307283678.69030762 0 0 0 0 -251594017.89634514 61226018.062919617 0 61226018.062919617 -28088200.374267578 0 0 0 0 -17266800.756986618 74239510.72514677 0 74239510.72514677 -11641251.361820221 0 0 0 0 -392217145.11929321 -521956863.4328537 0 -521956863.4328537 -606079080.01389694 0 0 0 0 259299.24330646801 -1152447.2766855299 0 -1152447.2766855299 -3415508.9273697622 0 0 0 0 39962767.135683894 218818033.09950495 0 218818033.09950495 -882386332.13343811 0 0 0 0 -191601554.45125389 -200665502.48235703 0 -200665502.48235703 -140042631.40253067 0 0 0 0 -130061784.67331028 -371874548.4912796 0 -371874548.4912796 -510894021.09527588 0 0 0 0 33767506.405666351 -190800840.91364288 0 -190800840.91364288 -312497911.49646711 0 0 0 0 169853784.89614391 -224137568.60682678 0 -224137568.60682678 -800451311.00494063 0 0 0 0 180750267.47483921 -287861694.53792572 0 -287861694.53792572 -802142290.66064453 0 0 0 0 86627317.028934479 321693463.41886902 0 321693463.41886902 -703912550.92364883 0 0 0 0 184500403.66596603 -164418840.97823715 0 -164418840.97823715 -667469298.44434357 0 0 0 0 199688379.116359 -146181414.35360718 0 -146181414.35360718 -1634640316.5858765 0 0 0 0 -214749993.40407753 860040404.479496 0 860040404.479496 -1222372655.6066132 0 0 0 0 -131296156.2854619 484418891.21276474 0 484418891.21276474 45174681.99671936 0 0 0 0 -55268144.540643692 257368918.79732513 0 257368918.79732513 -118165129.34909821 0 0 0 0 -29504276.411166191 131951422.27840805 0 131951422.27840805 -18797389.450546265 0 0 0 0 -64878651.922970533 215385330.30330467 0 215385330.30330467 12064086.596679688 0 0 0 0 509388500.76279736 -270703945.82619858 0 -270703945.82619858 -1090616704.4829636 0 0 0 0 486808335.28778839 -518426703.87031746 0 -518426703.87031746 -1612569210.1618652 0 0 0 0 -804014426.76099396 -697604781.0703125 0 -697604781.0703125 -508475087.5802002 0 0 0 0 -1182319932.0150108 532468081.82407379 0 532468081.82407379 129384729.90625 0 0 0 0 -235062448.59649658 128447665.1776619 0 128447665.1776619 172448731.26367188 0 0 0 0 -365002956.37745953 14075086.347923279 0 14075086.347923279 1015090121.5598145 0 0 0 0 -532812644.57234955 362865229.15671539 0 362865229.15671539 1466867873.3183136 0 0 0 0 365210943.98878479 104788896.68242645 0 104788896.68242645 20956465.183387756 0 0 0 0 152290222.0281353 -230745536.52691841 0 -230745536.52691841 619348397.26585388 0 0 0 0 -1416660.5776010528 327105.75873648562 0 327105.75873648562 -2668443.2797187679 0 0 0 0 -27573247.778556824 -45611290.809774399 0 -45611290.809774399 649627011.6323123 0 0 0 0 -53306757.069898129 34544557.905772209 0 34544557.905772209 -8124943.988067627 0 0 0 0 4777114.3769788742 4854812.859703064 0 4854812.859703064 -5170416.6592597961 0 0 0 0 -378290.02532004286 1063660.9979812019 0 1063660.9979812019 249640.73199233413 0 0 0 0 -328269238.903265 -522828201.74784088 0 -522828201.74784088 1559738235.123868 0 0 0 0 811086.41270435567 1605391.783487983 0 1605391.783487983 -5372321.7886943407 0 0 0 0 406202.51072025299 2692387.6856040955 0 2692387.6856040955 -3751304.6858787537 0 0 0 0 -7242825.6264004707 -446733.62073898315 0 -446733.62073898315 195431792.04814339 0 0 0 0 52231804.304734707 47255059.342391968 0 47255059.342391968 202808348.30791092 0 0 0 0 -2969778.1908275592 4477278.8046040218 0 4477278.8046040218 -1623598.7845816687 0 0 0 0 181010283.37091827 -41494582.461090088 0 -41494582.461090088 427258466.52867126 0 0 0 0 34651820.636795044 -391310801.69378662 0 -391310801.69378662 363382148.34768295 0 0 0 0 -123362030.51540565 177347278.61425591 0 177347278.61425591 454058666.35174561 0 0 0 0 162386171.95835114 -350722389.40781403 0 -350722389.40781403 806608363.56313324 0 0 0 0 287436694.97034454 194126838.9588089 0 194126838.9588089 931894407.11422729 0 0 0 0 -432765.3535573557 149618.21135462821 0 149618.21135462821 467999.82896378636 0 0 0 0 1894931.8887381554 5207030.811542511 0 5207030.811542511 -3984726.3602600098 0 0 0 0 -21858093.807733253 -2092079.34461689 0 -2092079.34461689 4443922.2141532898 0 0 0 0 32433.7613851364 2805750.4144720463 0 2805750.4144720463 -6143595.1514106803 0 0 0 0 65960653.056415081 146198801.75723648 0 146198801.75723648 40733299.301643372 0 0 0 0 -102039.70903038979 15877123.77597332 0 15877123.77597332 -3058516.3261642456 0 0 0 0 18082709.104456842 -224310788.61866188 0 -224310788.61866188 -153622896.98101044 0 0 0 0 14018458.722416878 203505475.10118103 0 203505475.10118103 -5892276.1208229065 0 0 0 0 69623035.605070114 -142155931.14305115 0 -142155931.14305115 -101618933.04080963 0 0 0 0 -277329358.75699699 295708192.26952744 0 295708192.26952744 347914297.90802765 0 0 0 0 377778041.03097463 -122691866.52585602 0 -122691866.52585602 -979812142.36765289 0 0 0 0 63582992.774527788 221907532.41221619 0 221907532.41221619 332783296.67959595 0 0 0 0 -499233.83652690798 911183.42250332702 0 911183.42250332702 -842329.18194854259 0 0 0 0 -82742961.329996824 -352905728.74330235 0 -352905728.74330235 -392640500.28252029 0 0 0 0 1213961.2591018677 -237673639.53682518 0 -237673639.53682518 -213480565.50477219 0 0 0 0 62064795.684866905 -128214120.03374863 0 -128214120.03374863 -93615307.743703842 0 0 0 0 -85786566.849297047 36151488.239383698 0 36151488.239383698 30685228.905609131 0 0 0 0 -53765644.39025116 39502312.001171112 0 39502312.001171112 -34156763.012237549 0 0 0 0 -404872.48004950909 54280.206140313298 0 54280.206140313298 -1101927.3614559136 0 0 0 0 -33871833.821224213 -241747742.58234024 0 -241747742.58234024 -333344200.90465164 0 0 0 0 -604089699.99901104 -141416006.28021622 0 -141416006.28021622 -82043461.438430786 0 0 0 0 -248587619.92844582 40179646.401519775 0 40179646.401519775 6256758.175907135 0 0 0 0 -308406981.37223125 -303918472.4341464 0 -303918472.4341464 -175909830.41452026 0 0 0 0 91668468.523936927 -253687529.77417755 0 -253687529.77417755 -244343263.95438385 0 0 0 0 -34407111.812975883 -264140823.09923553 0 -264140823.09923553 -169040957.04731369 0 0 0 0 332808594.82869339 -207463855.47200012 0 -207463855.47200012 -392262388.22621155 0 0 0 0 -75602204.372555733 82348807.453214645 0 82348807.453214645 48685903.42974472 0 0 0 0 -134427368.50341702 287012263.13843536 0 287012263.13843536 -647500054.29576933 0 0 0 0 -353777395.30714226 -537057166.66260529 0 -537057166.66260529 -603018543.62588501 0 0 0 0 -401674529.90654945 158919049.23001671 0 158919049.23001671 18207840.236457825 0 0 0 0 495763.20828056335 -57285076.539909363 0 -57285076.539909363 8140981.8941671848 0 0 0 0 448758760.50716066 332835654.08050919 0 332835654.08050919 -224891367.65858841 0 0 0 0 28207824.724317551 -74793695.105890274 0 -74793695.105890274 33812552.837944031 0 0 0 0 -802255.26401547622 1888911.3994610785 0 1888911.3994610785 -2449199.5893120766 0 0 0 0 96368207.732650995 -264433374.86940002 0 -264433374.86940002 -93892034.081939697 0 0 0 0 453868820.06589079 -41826446.001392365 0 -41826446.001392365 -156914920.95492935 0 0 0 0 183999836.52226353 -221126209.23262405 0 -221126209.23262405 -271043923.40863037 0 0 0 0 551882964.23991847 408956992.1347065 0 408956992.1347065 -164998772.36717987 0 0 0 0 -804158.70443933317 1907584.2559212837 0 1907584.2559212837 -2393157.8065920547 0 0 0 0 471443586.44230652 39549524.103931427 0 39549524.103931427 -257166530.20833969 0 0 0 0 267364192.4141345 -2984144.8849563599 0 -2984144.8849563599 -220829482.35493088 0 0 0 0 151329112.1313746 301355366.37995148 0 301355366.37995148 -1007744984.8693924 0 0 0 0 -435833371.15866756 -694881474.60563278 0 -694881474.60563278 -640957896.14496613 0 0 0 0 -5536680.4510712624 -206801223.33740234 0 -206801223.33740234 -89490890.169815063 0 0 0 0 -5636379.8142309189 -203858604.83531189 0 -203858604.83531189 -67437128.237869263 0 0 0 0 -13638643.097606659 -157910819.37519073 0 -157910819.37519073 -190962483.21861267 0 0 0 0 73928825.080352783 -257301919.78358459 0 -257301919.78358459 -85824192.628410339 0 0 0 0 -18853592.585124969 -198334616.52876282 0 -198334616.52876282 -94125944.254066467 0 0 0 0 70623751.767541885 -120541009.24702454 0 -120541009.24702454 -212881673.47476196 0 0 0 0 -101291062.09203672 -57321696.862419128 0 -57321696.862419128 -89299711.114103317 0 0 0 0 -91913993.085787296 -55384313.627968788 0 -55384313.627968788 -33650926.90852356 0 0 0 0 80347.797877190635 346451.92306908965 0 346451.92306908965 -328523.36128240637 0 0 0 0 123662031.2118988 -72278908.272705078 0 -72278908.272705078 -278062783.08222961 0 0 0 0 53691104.452941895 -395987873.77370453 0 -395987873.77370453 -317251107.53157091 0 0 0 0 145790252.35713863 -168469845.65585327 0 -168469845.65585327 -325073646.20252228 0 0 0 0 60366337.446849823 -29188699.325622559 0 -29188699.325622559 -184088889.84463501 0 0 0 0 -454141.97117339633 166519.91585006379 0 166519.91585006379 -131933.519802792 0 0 0 0 -273589570.15227985 -356532530.29441071 0 -356532530.29441071 25035002.60780859 0 0 0 0 177994322.1364944 38114640.184074402 0 38114640.184074402 -156702501.58958435 0 0 0 0 145473451.10457039 -49108786.621128082 0 -49108786.621128082 -111801826.96265411 0 0 0 0 -3219504.1678161621 48979369.540710449 0 48979369.540710449 -274414307.57213068 0 0 0 0 -104399191.31389809 -55971099.914375305 0 -55971099.914375305 -163397158.35116577 0 0 0 0 -195642129.94493222 -190584744.70905304 0 -190584744.70905304 -331959133.67138672 0 0 0 0 -190510965.34854293 -23867125.749011517 0 -23867125.749011517 -255106307.90393066 0 0 0 0 89077716.98163414 56806480.796447754 0 56806480.796447754 -304417870.85377502 0 0 0 0 55132058.314165115 -39090536.168014526 0 -39090536.168014526 -269156700.16522217 0 0 0 0 -43060192.266155243 185630578.05794525 0 185630578.05794525 -138869602.53772545 0 0 0 0 -77080364.305749893 -5233716.1114959717 0 -5233716.1114959717 208551814.03144073 0 0 0 0 35213962.310367107 84758626.240634918 0 84758626.240634918 77141105.554374695 0 0 0 0 -653033.0209903717 -5471434.4760017395 0 -5471434.4760017395 -28721935.069828033 0 0 0 0 -107704.74354294734 -407294.87377893366 0 -407294.87377893366 -3712080.9118104335 0 0 0 0 -37929444.518339157 -75163233.376968384 0 -75163233.376968384 -26457732.739128113 0 0 0 0 -73745167.898142219 -22489923.161450863 0 -22489923.161450863 27623936.080764771 0 0 0 0 18687.544070715376 -353508.82517501805 0 -353508.82517501805 -434384.16019330919 0 0 0 0 6151684.7585363388 -1079430.7665977478 0 -1079430.7665977478 939424.18958854675 0 0 0 0 -176032284.12599516 -316938608.72305012 0 -316938608.72305012 -656254845.10839844 0 0 0 0 156404888.18717289 139538998.90429306 0 139538998.90429306 222334113.64515686 0 0 0 0 -451222.97625470557 854644.99222550821 0 854644.99222550821 -940468.60797936097 0 0 0 0 -302585107.52685642 268515682.27600574 0 268515682.27600574 281936171.82505035 0 0 0 0 131642680.54727745 -75558803.770275116 0 -75558803.770275116 -1225689485.9282837 0 0 0 0 35963224.003657356 -234824606.11702991 0 -234824606.11702991 -783703290.97758484 0 0 0 0 -84234157.435469627 -357776275.87664413 0 -357776275.87664413 -647704106.48171997 0 0 0 0 -256332773.24049377 -194725786.7405014 0 -194725786.7405014 -270597301.26173401 0 0 0 0 28894963.62147522 -4993584.7787780762 0 -4993584.7787780762 -325941205.10765219 0 0 0 0 -87394694.717003345 79699941.127433777 0 79699941.127433777 -270561954.4120636 0 0 0 0 -98123808.406478882 583173345.72242737 0 583173345.72242737 -99214674.109336853 0 0 0 0 376979173.73728466 194911704.06653595 0 194911704.06653595 -926190907.57693481 0 0 0 0 -122629384.48415184 811917436.11380005 0 811917436.11380005 -145101561.81125641 0 0 0 0 -40404296.03616333 162055192.52819824 0 162055192.52819824 831577478.33953857 0 0 0 0 3241276.6674847603 -5925874.2829875946 0 -5925874.2829875946 -762492.1529006958 0 0 0 0 -1862511.0900764465 -24047589.457740784 0 -24047589.457740784 7246968.9526491165 0 0 0 0 -327459.85207760136 -4367215.5826340076 0 -4367215.5826340076 -813693.58791770414 0 0 0 0 457966.94007629296 -2012960.6724295476 0 -2012960.6724295476 -8758539.1726854667 0 0 0 0 1962932.9764840603 -1786877.9742827415 0 -1786877.9742827415 -992068.60606384277 0 0 0 0 1855956.5279195854 -4265402.1809637677 0 -4265402.1809637677 -7313373.2456243047 0 0 0 0 883791.87456153706 -1512160.323829839 0 -1512160.323829839 -3169164.2981875129 0 0 0 0 2656751.7702522278 -3576312.945400238 0 -3576312.945400238 -1675438.2004852295 0 0 0 0 3582395.3298015594 -3255889.6407165527 0 -3255889.6407165527 -1745037.9865036011 0 0 0 0 2429958.946539402 -4798014.8531765938 0 -4798014.8531765938 -3187328.8041000366 0 0 0 0 1279477.0109492363 -4368978.2234430555 0 -4368978.2234430555 -12473469.331420761 0 0 0 0 -1859690.4551341613 -4933583.9462539433 0 -4933583.9462539433 -14658008.797066277 0 0 0 0 8055005.1875629425 -11495934.769233704 0 -11495934.769233704 1804331.9285087585 0 0 0 0 3647684.9292304772 -6826208.5342903221 0 -6826208.5342903221 -15334780.753265779 0 0 0 0 812370.42476630211 -3412589.2454738617 0 -3412589.2454738617 -843454.43789672852 0 0 0 0 732245.47187869274 -7655848.2157659754 0 -7655848.2157659754 -653260.85168329626 0 0 0 0 105334660.98690796 -310141667.80443573 0 -310141667.80443573 987052028.97402573 0 0 0 0 -3627298.897272571 -2829205.1052052043 0 -2829205.1052052043 -4597815.5805231985 0 0 0 0 68686919.375417709 62559730.666847229 0 62559730.666847229 378465200.2254715 0 0 0 0 6899158.5218257308 -23568137.266581595 0 -23568137.266581595 16196181.915874481 0 0 0 0 -36674.816851139069 -19223780.386005402 0 -19223780.386005402 19083272.525110245 0 0 0 0 -1237439.8402808693 -8138669.0623101136 0 -8138669.0623101136 6110531.8438519016 0 0 0 0 -6008173.484609127 -13684286.842860937 0 -13684286.842860937 16937664.905700684 0 0 0 0 -392810.03117080306 -2624754.3134806533 0 -2624754.3134806533 366137.62968015298 0 0 0 0 -24024791.3999331 -27265560.712074757 0 -27265560.712074757 -19421191.536552429 0 0 0 0 -315480.66398286819 -5797967.9040794373 0 -5797967.9040794373 968305.6967716217 0 0 0 0 -2660180.4188480377 -37862091.623432159 0 -37862091.623432159 -46965310.011016846 0 0 0 0 622737.4782781601 -18906344.312824249 0 -18906344.312824249 -37231694.28364563 0 0 0 0 -2127450.2885234947 -4484358.1499962416 0 -4484358.1499962416 -181704.73288494535 0 0 0 0 -4248761.4676475525 5124295.6222171783 0 5124295.6222171783 22048171.459308624 0 0 0 0 -2662787.5630664825 -5810773.2257766724 0 -5810773.2257766724 -18814152.779541016 0 0 0 0 -2680756.912565589 -6305556.6936912537 0 -6305556.6936912537 -27029892.736343384 0 0 0 0 349495.50533533096 -2715595.5465049744 0 -2715595.5465049744 -26891607.452331543 0 0 0 0 -132633504.09017944 240074330.77055359 0 240074330.77055359 279514589.63301849 0 0 0 0 1379949.273311615 -5606657.7170028687 0 -5606657.7170028687 -20574222.12077713 0 0 0 0 288179.87914793193 -1242143.1602096688 0 -1242143.1602096688 -7866425.2159141637 0 0 0 0 271362.7481212616 -6776965.9929733276 0 -6776965.9929733276 -20942136.496635437 0 0 0 0 -2079396.3362555504 -5084953.1041240692 0 -5084953.1041240692 -18976035.761779785 0 0 0 0 1874178.0405817032 -3059331.5386543274 0 -3059331.5386543274 -18424806.424095154 0 0 0 0 21643364.223241806 -9535973.2439479828 0 -9535973.2439479828 14534548.01991272 0 0 0 0 -2622839.4488382339 -5342406.7943572998 0 -5342406.7943572998 -6906012.2444915771 0 0 0 0 -419756.74120614491 -4348755.2093685754 0 -4348755.2093685754 -20738608.930909518 0 0 0 0 94388.262560844421 -7022225.955657959 0 -7022225.955657959 -6776526.9510955811 0 0 0 0 -584165.02613830566 -5657926.9192199707 0 -5657926.9192199707 -18846263.956577301 0 0 0 0 187955.30292270449 371813.01961872075 0 371813.01961872075 -360099.32095970958 0 0 0 0 -4762488.0502634048 -7230905.5749435425 0 -7230905.5749435425 -6481212.7313232422 0 0 0 0 3029444.6967382431 -808888.76551818848 0 -808888.76551818848 -4500243.2253570557 0 0 0 0 -1212512.648488241 -2719324.0496432008 0 -2719324.0496432008 -6709360.4043860212 0 0 0 0 12722394.439789295 16108136.318357468 0 16108136.318357468 4299991.958442688 0 0 0 0 -9257293.5952095985 -9147135.1830921173 0 -9147135.1830921173 -17439676.414794922 0 0 0 0 -337201.30287803477 529177.44245103095 0 529177.44245103095 495643.58603190258 0 0 0 0 -9316107.3001613617 6313762.5269756317 0 6313762.5269756317 9719883.9086303711 0 0 0 0 -34957629.159425735 -6885906.2934112549 0 -6885906.2934112549 -6610377.8892030716 0 0 0 0 5053376.2022571564 17414378.115222931 0 17414378.115222931 -3410702.3303508759 0 0 0 0 10588675.315335274 10831773.815182686 0 10831773.815182686 4336324.3956680298 0 0 0 0 -77700942.232189178 -80938830.037620544 0 -80938830.037620544 -94001475.265551567 0 0 0 0 16819416.584746696 6047567.4994332567 0 6047567.4994332567 -29960183.802661538 0 0 0 0 -82209609.806043863 -120630552.38976908 0 -120630552.38976908 -156900432.38166809 0 0 0 0 17033445.809830498 7741807.085998252 0 7741807.085998252 -30133963.401327573 0 0 0 0 22159292.935526252 59374351.23459506 0 59374351.23459506 28736623.163253784 0 0 0 0 27970558.352909088 15142102.810089111 0 15142102.810089111 713036.25843429565 0 0 0 0 -23576086.125777245 49083772.443531036 0 49083772.443531036 -21538359.016254425 0 0 0 0 57427558.343935728 73479854.217093468 0 73479854.217093468 15743667.599349976 0 0 0 0 24781107.66686058 20004814.496282578 0 20004814.496282578 9759852.0734825134 0 0 0 0 -6237986.2834968567 -20295977.729019165 0 -20295977.729019165 -37612089.007732391 0 0 0 0 33038855.096152306 25118915.072816849 0 25118915.072816849 -24847171.775108337 0 0 0 0 17933917.442882299 -7743825.8318548203 0 -7743825.8318548203 -81416679.533638 0 0 0 0 -27050025.177898407 19960292.895088196 0 19960292.895088196 -96249465.972007751 0 0 0 0 -29169276.524129868 -35130704.715660095 0 -35130704.715660095 -45691702.554824829 0 0 0 0 -19139787.800165176 31686724.890182495 0 31686724.890182495 -85464756.603607178 0 0 0 0 88987283.085379601 -43840557.367378235 0 -43840557.367378235 -118612045.54962921 0 0 0 0 -2221278.7944374084 21454200.570343018 0 21454200.570343018 -120294087.66341209 0 0 0 0 -22510.63434869796 863374.29579103924 0 863374.29579103924 -705167.93393184058 0 0 0 0 -74209564.636436462 21828486.42852211 0 21828486.42852211 -90524296.774658203 0 0 0 0 15669799.63325882 40017636.332519531 0 40017636.332519531 -117412469.84079361 0 0 0 0 31329.667733950075 31154.058102818206 0 31154.058102818206 -1205267.7433059309 0 0 0 0 -25684074.01896286 -22302056.358909607 0 -22302056.358909607 -35132905.447998047 0 0 0 0 20736974.103136063 48305060.053504944 0 48305060.053504944 -83229493.459745407 0 0 0 0 55159459.230386734 -20499415.258102417 0 -20499415.258102417 -76944210.408546448 0 0 0 0 -2549646.4411325455 -4517034.4615249634 0 -4517034.4615249634 -27218312.410415173 0 0 0 0 -7141012.5763082504 -10219083.448642731 0 -10219083.448642731 -29084905.621994019 0 0 0 0 -44303830.811062574 -15483722.635454178 0 -15483722.635454178 -14299077.284133911 0 0 0 0 -36038440.378406525 -116401329.60342026 0 -116401329.60342026 -46833473.387329102 0 0 0 0 -81209821.289329529 73491021.671279907 0 73491021.671279907 -104902541.65781403 0 0 0 0 3161423.7026481628 24005540.792892456 0 24005540.792892456 -82669443.527793884 0 0 0 0 2840766.6297460496 2102957.9403962977 0 2102957.9403962977 -6976079.4128684029 0 0 0 0 99546400.837574482 100930031.54779816 0 100930031.54779816 -101160722.92936707 0 0 0 0 -56840869.746421814 162036783.93944931 0 162036783.93944931 -2610364.2114257812 0 0 0 0 -192286610.30240273 158761369.66593742 0 158761369.66593742 28613672.501403809 0 0 0 0 272434550.46593857 326112014.30686951 0 326112014.30686951 68905579.879356384 0 0 0 0 -36274248.882575989 4488852.4339981079 0 4488852.4339981079 -39213013.736984253 0 0 0 0 128103904.97020888 -237785095.74240685 0 -237785095.74240685 -146862838.36817932 0 0 0 0 468779168.75092924 -134177075.90287209 0 -134177075.90287209 -4772053.767578125 0 0 0 0 -125669700.03644025 -197664802.44932723 0 -197664802.44932723 -240445867.89741516 0 0 0 0 -94401631.887663841 -17396782.672279358 0 -17396782.672279358 -193049993.9118576 0 0 0 0 -6902842.1728232186 -1249566.4616944492 0 -1249566.4616944492 4553309.4462315887 0 0 0 0 -81104016.902881861 -139456235.75284958 0 -139456235.75284958 -182246739.77391052 0 0 0 0 -130749441.66645241 -124705869.52642059 0 -124705869.52642059 -169200198.94103241 0 0 0 0 2230164.2543933075 1064627.4668930545 0 1064627.4668930545 -3448753.9224589467 0 0 0 0 49665950.747831345 93418649.550842285 0 93418649.550842285 -146599900.03868103 0 0 0 0 -5753957.0501092169 -3278463.2994868606 0 -3278463.2994868606 5343705.4800074846 0 0 0 0 -162583529.39555168 -84609708.626098633 0 -84609708.626098633 -301779453.21612549 0 0 0 0 -89673667.265306473 -213901719.63426971 0 -213901719.63426971 -84123616.395248413 0 0 0 0 -108386277.40895844 -150050094.67889404 0 -150050094.67889404 -173085362.12838745 0 0 0 0 -110071288.73136902 -118728965.35116577 0 -118728965.35116577 -137133585.11610985 0 0 0 0 -84676009.424758911 -98174798.248596191 0 -98174798.248596191 -153501654.13745213 0 0 0 0 51290073.186218262 20021082.884588242 0 20021082.884588242 -21738560.935600281 0 0 0 0 48018490.378756523 63464972.463130951 0 63464972.463130951 30371403.206192017 0 0 0 0 16336254.758877624 8397432.3007020317 0 8397432.3007020317 -31015370.124805309 0 0 0 0 -84718685.449119568 -82133716.985916138 0 -82133716.985916138 -172746852.1913147 0 0 0 0 -74576027.048715353 -129412704.5403471 0 -129412704.5403471 -231601719.72846985 0 0 0 0 -172755816.29701996 -163435095.91162872 0 -163435095.91162872 -171645276.76045895 0 0 0 0 6323490.2662448883 -54860498.266609192 0 -54860498.266609192 -178632484.18929911 0 0 0 0 -113580013.46419859 -288429258.16222191 0 -288429258.16222191 -308055377.76679993 0 0 0 0 -103490053.92764664 -177914485.31259155 0 -177914485.31259155 -258964179.94554138 0 0 0 0 -43335197.327501297 1765995.6354980469 0 1765995.6354980469 -80642125.77555275 0 0 0 0 -8587833.6971971784 369679.10986448079 0 369679.10986448079 3520015.7204029113 0 0 0 0 76510368.194456577 96253547.694472313 0 96253547.694472313 -77353722.599170685 0 0 0 0 11842769.712414932 5457609.2214976698 0 5457609.2214976698 -35736224.072718665 0 0 0 0 -6357990.012991786 -226359859.85505581 0 -226359859.85505581 -239447467.17956543 0 0 0 0 -69438541.160049438 -99849339.448394775 0 -99849339.448394775 -25086311.432983398 0 0 0 0 14814668.475249557 7942196.1899298057 0 7942196.1899298057 -32731493.650138501 0 0 0 0 43843189.618473053 77867346.495315552 0 77867346.495315552 44011527.566123962 0 0 0 0 4672060.6957015991 35762238.586288452 0 35762238.586288452 24775165.671964645 0 0 0 0 46327229.280519485 -30479146.455160141 0 -30479146.455160141 -298829724.45522308 0 0 0 0 207461.52498290502 693871.42657629028 0 693871.42657629028 -562316.95114354044 0 0 0 0 32923233.333452225 18367087.84670639 0 18367087.84670639 -7145522.8954696655 0 0 0 0 2964161.6884441376 32717742.770069122 0 32717742.770069122 10642200.252277374 0 0 0 0 54311537.59835875 26081796.434185028 0 26081796.434185028 -1951104.5955734253 0 0 0 0 22615492.682217121 -11208156.691775322 0 -11208156.691775322 -43008537.845546722 0 0 0 0 69196.187241503969 1220665.594576899 0 1220665.594576899 -939605.38872665912 0 0 0 0 13909954.902767181 -130887947.98963547 0 -130887947.98963547 -342486730.99811554 0 0 0 0 46480095.580533028 -84409113.493331909 0 -84409113.493331909 -278423824.96852112 0 0 0 0 -29064822.078416824 -125998652.13647842 0 -125998652.13647842 -272547850.33016968 0 0 0 0 -31242839.478109837 -153230878.97655487 0 -153230878.97655487 -201299676.10371399 0 0 0 0 -2022253.5730686188 -89369703.420682907 0 -89369703.420682907 -229732358.12365723 0 0 0 0 1624301.305797609 -2479649.9012936838 0 -2479649.9012936838 -3133597.0994994529 0 0 0 0 193151651.65325928 3791972.001953125 0 3791972.001953125 -58772944.481399536 0 0 0 0 -120322707.23700142 -117873290.78658295 0 -117873290.78658295 -79767227.812332153 0 0 0 0 -229999318.58697128 -189706495.66091919 0 -189706495.66091919 -102664245.01344299 0 0 0 0 -63831694.882724762 -145423162.53500366 0 -145423162.53500366 -194803464.81996918 0 0 0 0 -90077976.176092148 -111366043.37192535 0 -111366043.37192535 -149413572.52859497 0 0 0 0 -54395221.709590912 -74206126.585887909 0 -74206126.585887909 -116930265.96672058 0 0 0 0 -56995698.431875229 -66178054.788246155 0 -66178054.788246155 -50996340.385360718 0 0 0 0 -16190440.703705788 -32360442.491775513 0 -32360442.491775513 -121321468.72499847 0 0 0 0 41927461.635754824 -48128894.608724594 0 -48128894.608724594 -245387355.31486511 0 0 0 0 -5006221.113527298 -80203788.031845093 0 -80203788.031845093 -185490387.97077942 0 0 0 0 -14719074.830378532 -54966405.971736908 0 -54966405.971736908 -246212096.89019775 0 0 0 0 3662547.1481609344 23165956.782066345 0 23165956.782066345 -231675332.10360336 0 0 0 0 4380430.1824817657 -56034758.579891205 0 -56034758.579891205 -129634106.64119911 0 0 0 0 -9319686.5420968533 -82521736.993188381 0 -82521736.993188381 -32949316.322868347 0 0 0 0 130335100.9589653 -36468227.373908997 0 -36468227.373908997 -115210986.03463173 0 0 0 0 -1449147.1107062101 5073328.2949514389 0 5073328.2949514389 -64777599.874450684 0 0 0 0 108197367.49577498 329104029.94888306 0 329104029.94888306 -85388858.009361267 0 0 0 0 68063735.571960449 -117911239.19637299 0 -117911239.19637299 -293163472.33869171 0 0 0 0 568120.44693613052 -369500436.45250702 0 -369500436.45250702 -748352489.63923264 0 0 0 0 314091582.64750576 269142611.73625183 0 269142611.73625183 -901924998.16910172 0 0 0 0 -543937572.14829445 56656039.418539047 0 56656039.418539047 416486247.41324615 0 0 0 0 -1182774.6702854224 815382.54400789738 0 815382.54400789738 -569841.79333127663 0 0 0 0 -102029525.81764126 -14551611.546920776 0 -14551611.546920776 -16953648.786231995 0 0 0 0 -1043299800.1231048 -267675732.79962349 0 -267675732.79962349 373295693.96989441 0 0 0 0 -662610.68222600594 1284933.1086034067 0 1284933.1086034067 -1169757.7554502338 0 0 0 0 87581037.406007767 -67291040.275562286 0 -67291040.275562286 -105715365.61595154 0 0 0 0 -3307975.9574775696 -22558015.254241943 0 -22558015.254241943 -39711324.882644653 0 0 0 0 -94915350.001243591 14053888.732280731 0 14053888.732280731 24582517.732036591 0 0 0 0 -146528.41243632883 1158859.095272461 0 1158859.095272461 -874051.42195929214 0 0 0 0 13038943.990369797 17819400.235303879 0 17819400.235303879 -8326315.8607978821 0 0 0 0 56948009.119228363 -88053666.793294907 0 -88053666.793294907 -100271135.42412567 0 0 0 0 -98374895.371970177 106858220.12565613 0 106858220.12565613 -103334236.4267807 0 0 0 0 79355354.451698303 -79803811.959224701 0 -79803811.959224701 -511465496.53907013 0 0 0 0 110639.70217546541 671305.86540701985 0 671305.86540701985 -769020.47862343863 0 0 0 0 82814717.79474473 -115724430.32588577 0 -115724430.32588577 -341873606.61253357 0 0 0 0 31078294.124700546 -106859553.69805145 0 -106859553.69805145 -343130473.74268341 0 0 0 0 -153724892.52048683 -115845017.49617386 0 -115845017.49617386 -232127030.96279144 0 0 0 0 -69486131.176673889 49924756.41594696 0 49924756.41594696 -324406491.86247253 0 0 0 0 12488843.859985352 -37072987.674575806 0 -37072987.674575806 -280129672.53266907 0 0 0 0 48130616.993358612 -118041025.98777771 0 -118041025.98777771 -161073198.49226665 0 0 0 0 -21491236.079807281 -125158754.44312286 0 -125158754.44312286 -161340070.36094666 0 0 0 0 -54955271.848301411 -46998420.06788826 0 -46998420.06788826 -138702818.46520996 0 0 0 0 33624238.169364929 -32960619.530578613 0 -32960619.530578613 -136499611.64892578 0 0 0 0 -3063258.0300076008 -68825967.257079124 0 -68825967.257079124 -69333570.515823364 0 0 0 0 79964476.969739914 -64426070.987503052 0 -64426070.987503052 -77925229.252563477 0 0 0 0 56224159.495756149 -101922684.28435516 0 -101922684.28435516 -30851204.726139069 0 0 0 0 -9958707.6500163078 -50793064.49546051 0 -50793064.49546051 -156042775.48303223 0 0 0 0 1420227.0073003769 -35839695.914409637 0 -35839695.914409637 -229123100.32417297 0 0 0 0 -29127563.342889786 -67043691.912483215 0 -67043691.912483215 -101591394.65945435 0 0 0 0 11578878.873208761 -13304413.359045982 0 -13304413.359045982 -131576516.77604675 0 0 0 0 -7801304.157087326 -70033474.164894104 0 -70033474.164894104 -72797358.427009583 0 0 0 0 -20586184.358436584 -33486808.047821045 0 -33486808.047821045 -81312827.7302742 0 0 0 0 -98922703.921704292 -85409555.909500122 0 -85409555.909500122 -58286862.683082581 0 0 0 0 -28757247.228181601 -73391991.860750198 0 -73391991.860750198 -178777720.28788757 0 0 0 0 21294374.586262703 -123668009.4316864 0 -123668009.4316864 -190572087.37260246 0 0 0 0 -52163575.526028633 -237412179.23827744 0 -237412179.23827744 -361061870.76255798 0 0 0 0 112015038.65181756 -129493667.80414009 0 -129493667.80414009 -361849633.33462524 0 0 0 0 346580.24022916105 -546731.97768789856 0 -546731.97768789856 -3274021.798827216 0 0 0 0 -324558724.67794454 432941939.51194 0 432941939.51194 -38908989.455978394 0 0 0 0 -428137786.21958023 -335853394.89612007 0 -335853394.89612007 -238479006.19392014 0 0 0 0 -191306466.78475809 -113467295.39638424 0 -113467295.39638424 -29939083.927261353 0 0 0 0 -62851018.35472849 3823563.1529836655 0 3823563.1529836655 -17239376.050758362 0 0 0 0 1521094.5717568398 -132531.16345214844 0 -132531.16345214844 -45813068.897987366 0 0 0 0 17390315.04257974 -23392303.920953751 0 -23392303.920953751 -19779275.452140808 0 0 0 0 1331211.5718796789 -2942469.3451627926 0 -2942469.3451627926 -8750832.6955735981 0 0 0 0 -20681046.751022682 -1087644.900803566 0 -1087644.900803566 8700186.0011901855 0 0 0 0 16491786.081403065 -8441388.9189414978 0 -8441388.9189414978 5927844.8172950745 0 0 0 0 7778799.6583633423 -23773005.389759064 0 -23773005.389759064 9323747.8880395889 0 0 0 0 -26266044.206781387 -22668567.552307129 0 -22668567.552307129 9437900.7105531693 0 0 0 0 -51407944.327835083 -31770679.292711258 0 -31770679.292711258 1683330.2404708862 0 0 0 0 -10452472.726423025 -22500470.613505363 0 -22500470.613505363 -2214501.1731491089 0 0 0 0 -36090384.665083885 -25947700.461006165 0 -25947700.461006165 -36972279.771337509 0 0 0 0 -44084969.662015438 -63856395.86971283 0 -63856395.86971283 -29265558.9559021 0 0 0 0 -16983834.920469284 -37215100.950325012 0 -37215100.950325012 -6901158.4065704346 0 0 0 0 6997018.8459839821 -83860990.935789108 0 -83860990.935789108 2577997.995010376 0 0 0 0 34148923.635919571 -75965641.457107544 0 -75965641.457107544 15695918.039474487 0 0 0 0 9657335.116312027 -28093588.062316895 0 -28093588.062316895 -21263782.600822449 0 0 0 0 100691291.89473152 -56548037.346626282 0 -56548037.346626282 -17594184.698997498 0 0 0 0 1464194.6971376324 -6663029.832014773 0 -6663029.832014773 -2269389.839878574 0 0 0 0 4800248.4266161919 -15596282.686065674 0 -15596282.686065674 3016273.20262146 0 0 0 0 1384133.1558846021 -17610022.064195856 0 -17610022.064195856 -10101744.940502651 0 0 0 0 18146631.649242401 -50151092.820831299 0 -50151092.820831299 -17934847.421579361 0 0 0 0 -635666.06314373016 -12895208.550086975 0 -12895208.550086975 -6640300.3265075684 0 0 0 0 -1152255.4978232975 -18739618.800419211 0 -18739618.800419211 -2706855.862773478 0 0 0 0 16632889.987854004 -39396527.963596344 0 -39396527.963596344 2328676.2947769165 0 0 0 0 -14494472.11180234 -51667674.042241096 0 -51667674.042241096 116375.7205657959 0 0 0 0 -5888456.2811331749 -34806881.382568359 0 -34806881.382568359 6329363.5275001526 0 0 0 0 -21227508.96944809 -21974783.477890015 0 -21974783.477890015 49442349.895507812 0 0 0 0 5352179.6908029402 -18738344.372555122 0 -18738344.372555122 -23389733.475288786 0 0 0 0 -1680141.2972411844 -9595565.5717751421 0 -9595565.5717751421 8200003.6261134297 0 0 0 0 4257823.4494161606 -19034051.119255066 0 -19034051.119255066 16830120.44405365 0 0 0 0 1166294.7577283224 -12192468.86093636 0 -12192468.86093636 -5957255.0494568199 0 0 0 0 -12112639.042768955 -35148430.506919861 0 -35148430.506919861 9928597.7480316162 0 0 0 0 2591048.1785518285 -12369702.481993977 0 -12369702.481993977 -12177332.741189076 0 0 0 0 -13383138.786416054 -13942365.266075134 0 -13942365.266075134 -3584207.8475341797 0 0 0 0 23029519.138395309 -56188842.679805756 0 -56188842.679805756 4697560.0945739746 0 0 0 0 -17056723.171874046 -48069264.005943298 0 -48069264.005943298 23088280.808448792 0 0 0 0 5701355.6024913788 -52109943.174324036 0 -52109943.174324036 40938966.122776031 0 0 0 0 151237275.99683571 -118086597.99339294 0 -118086597.99339294 -15423249.648834229 0 0 0 0 8524174.5547759235 -16846459.243960414 0 -16846459.243960414 -26590557.189336646 0 0 0 0 -1423397.5471132025 -13763460.634596825 0 -13763460.634596825 16015906.485397339 0 0 0 0 8669975.9142875671 -55625831.4413414 0 -55625831.4413414 20267785.428848267 0 0 0 0 -2483488.9944971963 -22731660.734444216 0 -22731660.734444216 -37101379.748553798 0 0 0 0 -1013451.1361048603 -18044594.069590263 0 -18044594.069590263 -42270430.540222503 0 0 0 0 122509815.07363033 -83552372.890663147 0 -83552372.890663147 -63024803.057735443 0 0 0 0 -25325627.403049469 -61537699.901153564 0 -61537699.901153564 -16072571.857025146 0 0 0 0 -26135797.394800663 -65264228.159976959 0 -65264228.159976959 -28310707.339523315 0 0 0 0 15418850.379116058 -85679153.45954895 0 -85679153.45954895 -15320695.197826505 0 0 0 0 -14280384.752035141 -54519221.085660934 0 -54519221.085660934 -11581917.488204956 0 0 0 0 -1981973.2630433161 -16588375.253783379 0 -16588375.253783379 6763592.383149609 0 0 0 0 -78139131.627853751 -79479319.066093922 0 -79479319.066093922 -17896729.48324585 0 0 0 0 -57219481.592708588 -63002056.518127441 0 -63002056.518127441 -16637695.231319427 0 0 0 0 -327168.78275072016 932714.13869061694 0 932714.13869061694 2110929.1976168584 0 0 0 0 -77850960.904071808 -76657077.997367859 0 -76657077.997367859 -12173553.31854248 0 0 0 0 -64409058.372718811 -84489818.582748413 0 -84489818.582748413 -16851801.762908936 0 0 0 0 -68958517.961524963 -83084548.562339783 0 -83084548.562339783 -14867379.869369507 0 0 0 0 -66235616.439901352 -91404461.129165649 0 -91404461.129165649 -44580546.959411621 0 0 0 0 -113471253.2586422 -92683064.758907318 0 -92683064.758907318 -47441683.833992004 0 0 0 0 -66264737.54082413 -68448370.729815751 0 -68448370.729815751 -35083677.257171631 0 0 0 0 3517315.3422088623 -27455092.721721649 0 -27455092.721721649 -12533595.135635376 0 0 0 0 7365858.182431221 -14616337.555030823 0 -14616337.555030823 -1317555.2202453613 0 0 0 0 120455.69627310149 -14467152.533430349 0 -14467152.533430349 -10970379.578413762 0 0 0 0 -3873869.0716429362 -12081037.864177542 0 -12081037.864177542 12793471.969832659 0 0 0 0 8217364.3047027588 -9426093.0944976807 0 -9426093.0944976807 -11673991.204193115 0 0 0 0 9216270.4619102478 -18083009.455825806 0 -18083009.455825806 -3919638.8296203613 0 0 0 0 10198828.530410767 -10278757.39855957 0 -10278757.39855957 -11390715.498199463 0 0 0 0 -1256064.5768290346 -15188048.394740485 0 -15188048.394740485 -186166.24485280551 0 0 0 0 -17899839.945824623 -23944313.5664711 0 -23944313.5664711 730086.07345581055 0 0 0 0 207757.19947282691 -606383.30192994699 0 -606383.30192994699 -2028345.6916705519 0 0 0 0 29884873.471086398 -34231515.430221558 0 -34231515.430221558 -29220621.943878174 0 0 0 0 -3910693.0972561836 -32030407.359291077 0 -32030407.359291077 -17086248.315921783 0 0 0 0 11103560.922266364 -22393191.353973389 0 -22393191.353973389 -16174042.582839966 0 0 0 0 15217655.646641493 -50180286.205924988 0 -50180286.205924988 -57740157.979240417 0 0 0 0 -48526997.067225933 -40909485.514755249 0 -40909485.514755249 -20235401.537567139 0 0 0 0 667489.62187119492 -13692075.146641016 0 -13692075.146641016 -11765912.932356298 0 0 0 0 -12917288.99791038 -46377701.013877869 0 -46377701.013877869 -21164127.845458984 0 0 0 0 -8772979.2310270667 -17589422.12540061 0 -17589422.12540061 19144120.06061228 0 0 0 0 -6603754.9276380539 -83364027.13899231 0 -83364027.13899231 -49238198.060668945 0 0 0 0 -37212528.090351105 -51306403.507965088 0 -51306403.507965088 -506233.9204120636 0 0 0 0 -130161716.61628723 -63296734.942626953 0 -63296734.942626953 -46755346.087905884 0 0 0 0 -82881588.78202033 -94245241.462032318 0 -94245241.462032318 -51358854.488571167 0 0 0 0 32736862.035596848 85474427.561904907 0 85474427.561904907 -133902038.64428711 0 0 0 0 -3136779.2288156576 -4486964.5766902938 0 -4486964.5766902938 -2001420.2690341324 0 0 0 0 -1925275.3855306795 -4841446.5562694892 0 -4841446.5562694892 -3602059.0260402113 0 0 0 0 2207072.9327669144 -152969785.88002777 0 -152969785.88002777 117400623.18782043 0 0 0 0 -81901290.92111969 25108840.124969482 0 25108840.124969482 -259633901.79718018 0 0 0 0 -92228905.093785286 -124384783.23703766 0 -124384783.23703766 114577915.66357422 0 0 0 0 283209105.71893215 15221802.370782852 0 15221802.370782852 -43793569.501541138 0 0 0 0 -1760732.1376534374 -2106687.7269836701 0 -2106687.7269836701 1413815.8875865191 0 0 0 0 369357824.74442768 -72480061.698150635 0 -72480061.698150635 -193370612.39854431 0 0 0 0 -69829904.241153717 87044061.900009155 0 87044061.900009155 -135659881.8049593 0 0 0 0 250293103.1080513 -423308164.34390259 0 -423308164.34390259 -157233788.30026531 0 0 0 0 38819392.964950562 -181240277.24440765 0 -181240277.24440765 32756048.388008118 0 0 0 0 -1705228.9962063613 -864552.19597771764 0 -864552.19597771764 250319.89488349855 0 0 0 0 189827899.09996033 -368512894.22197723 0 -368512894.22197723 195707286.28675842 0 0 0 0 574846880.01646137 -199288096.62203979 0 -199288096.62203979 -58181592.938873291 0 0 0 0 -182540924.86098242 -214479552.42773438 0 -214479552.42773438 -50655881.749511719 0 0 0 0 -26490794.550704956 -53475278.535583496 0 -53475278.535583496 -96875047.669815063 0 0 0 0 -100459023.46634853 -31178462.221099854 0 -31178462.221099854 -54688885.953125 0 0 0 0 16645131.242533684 -48820787.832794189 0 -48820787.832794189 -84199378.151504517 0 0 0 0 258284954.20936489 -172089439.99137878 0 -172089439.99137878 -86060133.410476685 0 0 0 0 34147538.853872299 -24724697.10568428 0 -24724697.10568428 -57041398.668060303 0 0 0 0 62561447.056739807 -215175061.59082031 0 -215175061.59082031 -76322740.195671082 0 0 0 0 123099818.2320261 -66902097.618225098 0 -66902097.618225098 -40524397.922050476 0 0 0 0 48322897.098069429 -23773473.684448242 0 -23773473.684448242 -71653487.492469788 0 0 0 0 57095797.779354095 -622713.04068374634 0 -622713.04068374634 -15694333.835845947 0 0 0 0 32150878.281879544 15916975.369949341 0 15916975.369949341 -54120623.196098328 0 0 0 0 11925684.973478947 7413120.8047523499 0 7413120.8047523499 -30974047.943359375 0 0 0 0 -28271188.39281559 -36131747.555328369 0 -36131747.555328369 -30887387.359710693 0 0 0 0 23713690.420928597 -25472778.970153809 0 -25472778.970153809 -67164794.356719971 0 0 0 0 24125941.714361548 -16466648.852019072 0 -16466648.852019072 7938920.8601379395 0 0 0 0 -1023150.5746572341 -1308004.9127280805 0 -1308004.9127280805 -1594152.1298455298 0 0 0 0 95147611.041273117 -16569952.718643188 0 -16569952.718643188 -41191419.823478699 0 0 0 0 111946973.80751991 54219231.810920715 0 54219231.810920715 -85682710.677734375 0 0 0 0 -659563.52597757406 621133.95684912428 0 621133.95684912428 -205818.24236266315 0 0 0 0 35121828.019855857 36482782.261030197 0 36482782.261030197 4068274.0582885742 0 0 0 0 -100093027.68249172 -152956326.75957489 0 -152956326.75957489 -117979894.07583618 0 0 0 0 -60704012.37076664 38483745.419410706 0 38483745.419410706 -58637503.955123901 0 0 0 0 -107529.945934143 -1843747.3382170945 0 -1843747.3382170945 -59010.565371530363 0 0 0 0 6682441.4545798302 -84723446.828552246 0 -84723446.828552246 262926476.4220686 0 0 0 0 -3420448.7375552654 -142751416.32327271 0 -142751416.32327271 -163331608.52052498 0 0 0 0 232866553.2978116 -45125287.459932327 0 -45125287.459932327 186156746.3888855 0 0 0 0 68003947.771463871 -187160592.87376404 0 -187160592.87376404 40318890.440673828 0 0 0 0 86549775.624301434 -13620953.564338684 0 -13620953.564338684 -190521202.68762207 0 0 0 0 -31332757.196215153 -188042742.37523651 0 -188042742.37523651 -124439363.44319153 0 0 0 0 75502930.73749733 -162132097.8760376 0 -162132097.8760376 -171753324.99867249 0 0 0 0 126379333.6378994 -120203489.7157135 0 -120203489.7157135 -78358394.400382996 0 0 0 0 185574377.72630692 -152838507.99337769 0 -152838507.99337769 119458442.12696838 0 0 0 0 170313011.48902225 -3728579.2803344727 0 -3728579.2803344727 5492509.7041625977 0 0 0 0 159087631.71050835 -108980039.54536438 0 -108980039.54536438 159737312.72775269 0 0 0 0 109675894.08747673 -23484668.571792603 0 -23484668.571792603 47946378.50869751 0 0 0 0 315341970.95215225 -948485.02270507812 0 -948485.02270507812 -2067143.4552001953 0 0 0 0 97785155.463504791 -184788648.56245422 0 -184788648.56245422 71773509.587710381 0 0 0 0 130123427.83851624 -96127112.292480469 0 -96127112.292480469 76420371.027526855 0 0 0 0 81968724.356502533 -156016672.33570862 0 -156016672.33570862 92709207.978271484 0 0 0 0 147004783.38225365 -308232901.28137207 0 -308232901.28137207 -133152563.89768982 0 0 0 0 -98433023.998792171 40683241.566501617 0 40683241.566501617 -208813965.33599854 0 0 0 0 138033670.63959265 -279842530.16444397 0 -279842530.16444397 26694286.180992126 0 0 0 0 3181269.3393324618 7601.4783141575754 0 7601.4783141575754 -3959535.2504470348 0 0 0 0 -107257338.06003571 153438120.89904785 0 153438120.89904785 -250840048.96380615 0 0 0 0 -12500512.360975266 243440110.52709961 0 243440110.52709961 -242881210.76782227 0 0 0 0 -130746985.3182373 180470749.12322998 0 180470749.12322998 176977422.60559082 0 0 0 0 -130368322.50526428 182778651.72106934 0 182778651.72106934 -152988329.0546875 0 0 0 0 -218002083.26958847 275712128.35980225 0 275712128.35980225 -190722400.41549683 0 0 0 0 -93218965.075759888 304611120.9815979 0 304611120.9815979 -192347937.84078979 0 0 0 0 -93673235.744102478 301871894.05895996 0 301871894.05895996 -19375878.577941895 0 0 0 0 -308741102.05943108 305942949.4995575 0 305942949.4995575 -234481334.31314087 0 0 0 0 -117141664.3981781 274047199.88046265 0 274047199.88046265 -270642997.22402954 0 0 0 0 -317629512.68756104 302921779.51673889 0 302921779.51673889 -261009860.40310669 0 0 0 0 -227600307.69244289 321193571.14853477 0 321193571.14853477 -273609878.23495483 0 0 0 0 -282511412.39851379 238505475.10903931 0 238505475.10903931 -206116734.98599243 0 0 0 0 31846240.866510391 1215103.708984375 0 1215103.708984375 -2832878.8051147461 0 0 0 0 -99323663.588974953 -46498404.682762146 0 -46498404.682762146 91646216.536598206 0 0 0 0 3850996.4515181561 381447.34845295548 0 381447.34845295548 -3722655.8567326739 0 0 0 0 921384.27043465897 -359645.40368620306 0 -359645.40368620306 -829413.94149678946 0 0 0 0 158660104.11886024 50401062.469833374 0 50401062.469833374 4424619.677734375 0 0 0 0 -187274398.75193977 143140608.29774475 0 143140608.29774475 -225051354.12454224 0 0 0 0 -232664914.51508331 255302045.58544922 0 255302045.58544922 -200507229.03314209 0 0 0 0 1183155.1296830382 -516590.09082020074 0 -516590.09082020074 -1385587.541298151 0 0 0 0 165043716.63401413 41180059.106063843 0 41180059.106063843 -13831803.652816772 0 0 0 0 55020985.578756332 -142198038.54457092 0 -142198038.54457092 -278555213.40272522 0 0 0 0 33768966.483188629 188378775.75312042 0 188378775.75312042 53314721.786865234 0 0 0 0 384401364.8803978 -51459090.045669556 0 -51459090.045669556 -363283098.73159027 0 0 0 0 -106823077.76547956 -171384900.89943504 0 -171384900.89943504 66103642.24987793 0 0 0 0 1419279.9703989867 -1752295.4532805346 0 -1752295.4532805346 48003.740802749991 0 0 0 0 -164234744.69903755 18752241.957206726 0 18752241.957206726 29949383.660866737 0 0 0 0 44303825.174965858 -75016.739555358887 0 -75016.739555358887 -216787211.27111816 0 0 0 0 36580862.245079041 18644774.395881653 0 18644774.395881653 -50123507.227416992 0 0 0 0 10025818.453623056 -75543836.590889931 0 -75543836.590889931 -182033171.82232666 0 0 0 0 13232086.476258278 -52121462.251708984 0 -52121462.251708984 -64090593.801124573 0 0 0 0 -62658450.471609592 -58621476.182039261 0 -58621476.182039261 -44065870.164871216 0 0 0 0 -175084255.31291187 -171857550.00560951 0 -171857550.00560951 -139833624.64161682 0 0 0 0 55759330.421321869 -125530129.61618042 0 -125530129.61618042 -134179653.24591827 0 0 0 0 76021236.228070259 -29073328.544517517 0 -29073328.544517517 -34698479.583351135 0 0 0 0 998482.98584794998 -81568887.265529633 0 -81568887.265529633 -27249339.848373413 0 0 0 0 42359145.630951881 -77142363.224365234 0 -77142363.224365234 -224751059.34509277 0 0 0 0 -180479.15484887222 -3061835.7013616338 0 -3061835.7013616338 -97413.04549420625 0 0 0 0 -62055347.165740013 -107551971.45249176 0 -107551971.45249176 20405955.013863564 0 0 0 0 -64258178.844838142 -38191139.523033142 0 -38191139.523033142 80930908.360015869 0 0 0 0 -48578.998169353232 -1763666.4365613088 0 -1763666.4365613088 -60354.990247930167 0 0 0 0 167472449.2917366 3682749.6886291504 0 3682749.6886291504 -156855780.84308243 0 0 0 0 150833901.2254715 -35102886.794326782 0 -35102886.794326782 46523372.250671387 0 0 0 0 -42314385.206819534 -79116088.039730072 0 -79116088.039730072 205797183.5342865 0 0 0 0 -147316253.90616035 -86528676.868728638 0 -86528676.868728638 53055188.868774414 0 0 0 0 312349310.91601753 180650848.58961868 0 180650848.58961868 -23470429.551818848 0 0 0 0 187984089.0776062 -18395203.691482544 0 -18395203.691482544 53993737.302214146 0 0 0 0 213332765.40553284 -59143131.159626007 0 -59143131.159626007 10501906.915405273 0 0 0 0 208747823.3107872 -62773856.056610107 0 -62773856.056610107 9293371.0500488281 0 0 0 0 26105015.197185516 -4278224.9819107056 0 -4278224.9819107056 -13794050.781036377 0 0 0 0 100523073.78544235 48125401.881912231 0 48125401.881912231 -178399150.85731506 0 0 0 0 3872222.7597469361 6599841.6274331631 0 6599841.6274331631 -20898318.30882208 0 0 0 0 19234755.659591675 -9781221.5994415283 0 -9781221.5994415283 -15332824.660552979 0 0 0 0 21097499.463066101 -8201605.7392425537 0 -8201605.7392425537 -14376749.687866211 0 0 0 0 13089038.330522537 -2195950.4328041077 0 -2195950.4328041077 -7812857.662902832 0 0 0 0 606553.68117349735 1459348.8772038319 0 1459348.8772038319 -9450673.5636386201 0 0 0 0 12700688.155246735 -1447848.3549499512 0 -1447848.3549499512 -7099256.0193481445 0 0 0 0 1523028.4602500759 1571281.3246043064 0 1571281.3246043064 -9233086.9614695013 0 0 0 0 15488862.966396332 -5382190.611831665 0 -5382190.611831665 -8900670.8493499756 0 0 0 0 6312340.1480164975 -6619753.3404182587 0 -6619753.3404182587 -10220928.472555757 0 0 0 0 19441503.889600754 -4987707.038066864 0 -4987707.038066864 -10931188.802856445 0 0 0 0 15182153.226797104 6960591.5037879944 0 6960591.5037879944 -27618335.996887207 0 0 0 0 15558225.865304947 -7126924.3279190063 0 -7126924.3279190063 -11608859.789581299 0 0 0 0 655494.47674379405 699135.56503580697 0 699135.56503580697 -1004302.9424745888 0 0 0 0 4504500.0987465233 -3673514.3996480722 0 -3673514.3996480722 -12438434.309062146 0 0 0 0 17089270.980264664 -2292452.3938674927 0 -2292452.3938674927 -13994767.135375977 0 0 0 0 3583888.904817102 2830479.9423586102 0 2830479.9423586102 -22123070.031515911 0 0 0 0 35748847.085614204 558958.50718402863 0 558958.50718402863 -19764155.126617432 0 0 0 0 -6973213.8485946655 -75810171.749839783 0 -75810171.749839783 -19462998.970947266 0 0 0 0 3914148.4875108441 -6027698.7554630674 0 -6027698.7554630674 -7633277.8158555329 0 0 0 0 25287587.252826691 12096105.128570557 0 12096105.128570557 -25916349.843139648 0 0 0 0 44386894.543216705 -9298818.3488426208 0 -9298818.3488426208 -14581074.781188965 0 0 0 0 8342594.0795684913 -14151223.827463366 0 -14151223.827463366 -17744125.855232276 0 0 0 0 5283805.7366116913 1065002.3341882436 0 1065002.3341882436 -22101017.272432894 0 0 0 0 25216836.802885056 -211558.33110427856 0 -211558.33110427856 -17967202.664962769 0 0 0 0 25349717.630619049 -2350411.2522964478 0 -2350411.2522964478 -14881758.456130981 0 0 0 0 13027368.132040262 -398354.99736595154 0 -398354.99736595154 -11906388.94657135 0 0 0 0 2461812.1359571586 1914418.1861249479 0 1914418.1861249479 -12166982.344021901 0 0 0 0 11051935.361935616 -9851348.3393630981 0 -9851348.3393630981 -10469985.243225098 0 0 0 0 8491930.8361740112 -6840835.7103691101 0 -6840835.7103691101 -12649227.702721596 0 0 0 0 4688806.0576527128 -8138583.3929962534 0 -8138583.3929962534 -13252614.602907784 0 0 0 0 40085582.992069244 -5347547.9330825806 0 -5347547.9330825806 -8427732.5504226685 0 0 0 0 2395369.7512809616 -3248997.8485787595 0 -3248997.8485787595 -9041204.5014726296 0 0 0 0 1613428.309677124 -5820151.2896194458 0 -5820151.2896194458 -10849069.646432877 0 0 0 0 2028539.8915599585 -7546660.0437483788 0 -7546660.0437483788 -21581067.152038574 0 0 0 0 7627187.9466362 -1213319.4885101318 0 -1213319.4885101318 -17383675.676403046 0 0 0 0 4606616.3596691014 -4117515.5493460223 0 -4117515.5493460223 -11623998.745063826 0 0 0 0 9289339.671746254 -7943830.6581878662 0 -7943830.6581878662 -15766986.285324097 0 0 0 0 7758061.8083970547 -2613484.9919576645 0 -2613484.9919576645 -16636049.628822327 0 0 0 0 4558087.995109776 -5229149.5555809587 0 -5229149.5555809587 -12907685.282646801 0 0 0 0 2970798.0264671119 -1109230.6791347712 0 -1109230.6791347712 -12256883.301450726 0 0 0 0 6766947.4352531433 -5136011.1938438416 0 -5136011.1938438416 -16103632.249900818 0 0 0 0 4414716.5686966442 -2184027.0785947517 0 -2184027.0785947517 -15649383.871445414 0 0 0 0 -700524.07146644592 -5817378.1547203064 0 -5817378.1547203064 -21386248.333953857 0 0 0 0 -440103.76742935181 -2170018.4985835552 0 -2170018.4985835552 -15219422.205276489 0 0 0 0 2758054.7116400707 263633.09345308226 0 263633.09345308226 -16002864.808584418 0 0 0 0 41784472.756642818 57813596.383338928 0 57813596.383338928 -17799397.026036263 0 0 0 0 -1454439.7151088575 -562817.43968197145 0 -562817.43968197145 -4256963.2225928176 0 0 0 0 12088323.556086063 -83733889.544294357 0 -83733889.544294357 -156272504.87847137 0 0 0 0 -65025047.334503174 147365680.17401314 0 147365680.17401314 -23653005.410522461 0 0 0 0 7465835.8849942684 721875.12999343872 0 721875.12999343872 -17875956.432914734 0 0 0 0 -50615930.361764908 -4778958.1928100586 0 -4778958.1928100586 -24721012.361375809 0 0 0 0 -44895750.731593132 3573903.7995510101 0 3573903.7995510101 -20440758.447383881 0 0 0 0 -14896669.015310287 20898005.821182251 0 20898005.821182251 -9543574.7699022293 0 0 0 0 -49596069.981402397 6832533.4418201447 0 6832533.4418201447 -10995102.947029114 0 0 0 0 -12391056.021231651 -5934284.4364128113 0 -5934284.4364128113 -8937123.2317523956 0 0 0 0 -127512818.6811676 112188215.79323864 0 112188215.79323864 88689049.371520996 0 0 0 0 -935817.60989754274 -106090.24934295192 0 -106090.24934295192 -716679.09359901398 0 0 0 0 -170645196.40222836 -2422651.6977310181 0 -2422651.6977310181 6470093.6321496964 0 0 0 0 -80450063.553149939 41181549.567231894 0 41181549.567231894 -28434745.737823486 0 0 0 0 -66974983.75176239 -7441568.7507266998 0 -7441568.7507266998 654900.40354728699 0 0 0 0 -587959835.92123795 153481413.26241684 0 153481413.26241684 -35210138.048319399 0 0 0 0 24478941.771411896 21022171.406806946 0 21022171.406806946 -8223169.66755867 0 0 0 0 1016740.1444889214 -414572.57187285274 0 -414572.57187285274 -2580553.1123958658 0 0 0 0 -128062258.82656956 112440946.0557003 0 112440946.0557003 -41886782.523868561 0 0 0 0 153028020.72728825 -546727087.22509003 0 -546727087.22509003 -31959248.357330322 0 0 0 0 99387332.421014547 -2552485.3686270714 0 -2552485.3686270714 -40498409.970729828 0 0 0 0 -84808891.396103859 29416879.885656357 0 29416879.885656357 175159858.10025024 0 0 0 0 66080484.051203012 -99942269.488238811 0 -99942269.488238811 -585551.14211654663 0 0 0 0 -32259286.752655029 -70520323.727802277 0 -70520323.727802277 -8711622.4580841064 0 0 0 0 1769036.1972665787 8406624.9122619629 0 8406624.9122619629 -40641826.177405864 0 0 0 0 -9523567.1343231201 -1241767.8055171967 0 -1241767.8055171967 -19927316.300456047 0 0 0 0 30840097.508039474 7473670.3278446198 0 7473670.3278446198 -69672282.11333847 0 0 0 0 -291500.48527956009 -7025598.9437656403 0 -7025598.9437656403 -17803041.249832436 0 0 0 0 2801409.3508127462 -492313.17770328093 0 -492313.17770328093 -12909838.048151974 0 0 0 0 -44920965.668995857 81629294.822353363 0 81629294.822353363 47086515.025161743 0 0 0 0 4151961.4565169811 -1575026.0490818024 0 -1575026.0490818024 -14064160.587440491 0 0 0 0 177494.60891313851 -4294711.4085617065 0 -4294711.4085617065 -11132413.554039001 0 0 0 0 89185.024932980537 -5062463.2890377045 0 -5062463.2890377045 -14349343.272061825 0 0 0 0 3554749.1826344552 -2249613.2894826308 0 -2249613.2894826308 -13836448.49252291 0 0 0 0 3561662.6131241806 -1898839.0887686852 0 -1898839.0887686852 -10394888.737555536 0 0 0 0 -2447333.9838526696 -7450185.5433320999 0 -7450185.5433320999 -21087113.934494019 0 0 0 0 -1772734.5854272842 -2938249.9586009979 0 -2938249.9586009979 -11951148.738933563 0 0 0 0 -986222.60863455944 -10082.056387454271 0 -10082.056387454271 -13643580.528424304 0 0 0 0 -5125592.6525266171 -23534839.061422348 0 -23534839.061422348 -5077195.0965118408 0 0 0 0 -1381286.9054553334 -4628559.5658520693 0 -4628559.5658520693 -17274007.242228404 0 0 0 0 -7724193.1288322993 42978494.49835676 0 42978494.49835676 -31882822.314712524 0 0 0 0 8959048.4662632942 -1402634.4765815735 0 -1402634.4765815735 -45320556.023593903 0 0 0 0 10206548.952268124 -6166990.0593700409 0 -6166990.0593700409 -28769854.613418579 0 0 0 0 13460005.88995409 -6315505.5475730896 0 -6315505.5475730896 -29572728.3712883 0 0 0 0 7303885.3619503975 4413258.4534816742 0 4413258.4534816742 -50915962.376914024 0 0 0 0 3721326.0819565109 -1179252.2788911434 0 -1179252.2788911434 -12544370.368902897 0 0 0 0 8155609.7581989765 4812120.6082205772 0 4812120.6082205772 -51234471.731181145 0 0 0 0 353822.37766838074 20750309.307958603 0 20750309.307958603 -59891655.637586594 0 0 0 0 2682878.2083537253 2868066.227816212 0 2868066.227816212 -18032451.660672572 0 0 0 0 -12180602.89242363 26140817.798107624 0 26140817.798107624 -72145779.152359009 0 0 0 0 1929403.5468410281 -2768439.4932184601 0 -2768439.4932184601 -2648766.2960566953 0 0 0 0 -8954655.087594986 -21900776.470979691 0 -21900776.470979691 -4320977.0596008301 0 0 0 0 -7219842.8623318672 -26512291.13067627 0 -26512291.13067627 -17489817.741335869 0 0 0 0 15747701.979173288 -30585474.185596466 0 -30585474.185596466 -58234595.447984695 0 0 0 0 4958744.6893817186 -7871006.1552877426 0 -7871006.1552877426 429652.94302177429 0 0 0 0 4863249.0223143995 -5663768.9713737965 0 -5663768.9713737965 -33641609.728897095 0 0 0 0 1756579.77404356 11890182.002609253 0 11890182.002609253 -16798808.033281326 0 0 0 0 8231268.5369551182 3177315.7822990417 0 3177315.7822990417 -51577207.947675705 0 0 0 0 1256962.3775091674 3840353.5087452582 0 3840353.5087452582 -15906578.76360295 0 0 0 0 5947548.4343328476 16145612.259055614 0 16145612.259055614 -23167543.351268768 0 0 0 0 5184876.6491194963 13257160.667453051 0 13257160.667453051 -24972988.424602509 0 0 0 0 4976832.0871355534 16180253.742247581 0 16180253.742247581 -14538325.840537071 0 0 0 0 13165135.044722237 385625.32840919495 0 385625.32840919495 -17922252.535274506 0 0 0 0 10994190.763579533 -14406263.443553448 0 -14406263.443553448 -13884341.905578613 0 0 0 0 -10774248.475198269 -5157135.9511451721 0 -5157135.9511451721 -14561136.92351532 0 0 0 0 -563169.36411523819 -5420687.2760009766 0 -5420687.2760009766 -19038552.246078491 0 0 0 0 1633177.9529616833 -1965379.3885993958 0 -1965379.3885993958 -17591486.31933713 0 0 0 0 6961954.4315357208 25703467.120849609 0 25703467.120849609 -2416849.8243408203 0 0 0 0 -894534.74822689593 4083644.6661262512 0 4083644.6661262512 -10633425.245971683 0 0 0 0 16680202.161651611 15401987.373340607 0 15401987.373340607 -13234586.054153442 0 0 0 0 228083.15754269509 -312840.20544413477 0 -312840.20544413477 -355436.05442824587 0 0 0 0 1112476.5827100277 16693207.476650238 0 16693207.476650238 23932712.587451935 0 0 0 0 571794.56269353139 -267383.08737415262 0 -267383.08737415262 -2763486.5853560437 0 0 0 0 -8062846.9541416168 4183019.4645004272 0 4183019.4645004272 -30226942.646903992 0 0 0 0 4806784.9042029241 1989876.2563387551 0 1989876.2563387551 -19640473.987485766 0 0 0 0 -5793220.6688303947 6847584.2299537659 0 6847584.2299537659 -4297208.8090934753 0 0 0 0 2150460.1494790316 8123383.950709343 0 8123383.950709343 -5293831.3135261536 0 0 0 0 -20876889.50274241 -13788370.058740616 0 -13788370.058740616 -1562957.8740921021 0 0 0 0 -14680756.567448378 22585145.219789505 0 22585145.219789505 -32032958.825172424 0 0 0 0 -409259.9762480394 -12926.216139805038 0 -12926.216139805038 -38833.121682595462 0 0 0 0 -11106218.240348577 -5516436.2806053162 0 -5516436.2806053162 3336510.1381320953 0 0 0 0 10102060.031633258 -2815927.4681158066 0 -2815927.4681158066 -9235899.9244003296 0 0 0 0 7622361.2065591812 3253318.2818641663 0 3253318.2818641663 -19823812.76190567 0 0 0 0 -8931457.3006522655 5270382.9124259949 0 5270382.9124259949 -4461296.0446090698 0 0 0 0 -29381581.238986969 -45709813.519519806 0 -45709813.519519806 11186562.894216537 0 0 0 0 -427028.11147427943 902363.64534789464 0 902363.64534789464 -1001267.4698457234 0 0 0 0 -521875.1140886303 162545.52410062496 0 162545.52410062496 -5460699.1410035267 0 0 0 0 -58187945.586069107 12815094.185482025 0 12815094.185482025 -27151046.819313049 0 0 0 0 -24216465.930987835 -65973081.596483231 0 -65973081.596483231 34475130.439001083 0 0 0 0 -54620205.051939964 -20716641.232774019 0 -20716641.232774019 79360114.167694092 0 0 0 0 34094281.976328373 12818616.697595596 0 12818616.697595596 -19302971.41444397 0 0 0 0 20625392.734275818 459865.07902145386 0 459865.07902145386 -24249065.503852844 0 0 0 0 33826226.812632918 11683948.350880623 0 11683948.350880623 -63022659.307693481 0 0 0 0 107721.01865432039 -1198313.7720377427 0 -1198313.7720377427 -692509.50393772498 0 0 0 0 35621525.576920986 17788727.44402504 0 17788727.44402504 -42285882.87171936 0 0 0 0 46018283.107713699 73869510.810352325 0 73869510.810352325 -583445874.22649193 0 0 0 0 18082485.881464958 -7080612.1898365021 0 -7080612.1898365021 -46429067.974105835 0 0 0 0 -193001983.35897899 257719309.00419235 0 257719309.00419235 164243893.641922 0 0 0 0 94507182.37202692 -118689070.45095444 0 -118689070.45095444 65663867.774333954 0 0 0 0 2185083.5801360086 -12966044.244396647 0 -12966044.244396647 -11300760.048247367 0 0 0 0 -25863944.955770493 -106952039.93458939 0 -106952039.93458939 192794444.25294065 0 0 0 0 -85303820.935403824 51216978.275108337 0 51216978.275108337 21406161.516334534 0 0 0 0 -113510979.74315929 -21372242.275318146 0 -21372242.275318146 118025891.83889008 0 0 0 0 -2797516.0269657373 -20023196.488856316 0 -20023196.488856316 -3739161.9306945801 0 0 0 0 3599015.6274551963 -6121037.6698978711 0 -6121037.6698978711 -24534659.254405808 0 0 0 0 3621086.2474880219 -1445239.135307312 0 -1445239.135307312 49791823.844236374 0 0 0 0 52054895.276816607 -72320498.830760956 0 -72320498.830760956 36619825.545423508 0 0 0 0 3519912.8690931764 -2381880.9202560633 0 -2381880.9202560633 -6894908.9290666506 0 0 0 0 8722705.2839031219 -2106597.6092071533 0 -2106597.6092071533 -15145584.642864227 0 0 0 0 5982575.3725105589 -13311504.180610202 0 -13311504.180610202 -26128222.208660036 0 0 0 0 54840886.234776735 -20613847.459980011 0 -20613847.459980011 -5260493.9996032715 0 0 0 0 3499914.7414474487 -5251287.1052246094 0 -5251287.1052246094 -9032787.1904602051 0 0 0 0 9330533.2108421326 -5306913.81092453 0 -5306913.81092453 -17856816.509864807 0 0 0 0 4790353.3451827988 -6191845.1703211367 0 -6191845.1703211367 -14550370.253982823 0 0 0 0 8758722.2711116076 -3639735.6744699478 0 -3639735.6744699478 -15032236.196655273 0 0 0 0 1513656.4949367028 -2919848.8059911076 0 -2919848.8059911076 -18271775.87413222 0 0 0 0 5214681.8126316071 -2434880.5424346924 0 -2434880.5424346924 -10773916.977996826 0 0 0 0 -3348339.9537477493 -10079036.392913818 0 -10079036.392913818 -5983004.9208374023 0 0 0 0 -706941.67008236516 -3428248.5692300778 0 -3428248.5692300778 -9211081.9228583984 0 0 0 0 767041.5389338322 -561506.31882170588 0 -561506.31882170588 -1045267.8138091974 0 0 0 0 1042953.3762466498 523092.11531321146 0 523092.11531321146 -12871629.092778357 0 0 0 0 3427559.9686641693 -5282707.6187114716 0 -5282707.6187114716 -13045249.579147339 0 0 0 0 7677982.7228384018 -5101062.6317634583 0 -5101062.6317634583 -20924363.334436417 0 0 0 0 -5468719.0553150177 -11622270.228118896 0 -11622270.228118896 2579602.2151584625 0 0 0 0 13562837.246469021 -5750720.454656601 0 -5750720.454656601 -28410680.237609863 0 0 0 0 -89934.268748283386 5799202.2398433685 0 5799202.2398433685 -33204955.114608765 0 0 0 0 5767289.6160068512 3441492.6103515625 0 3441492.6103515625 -22607460.796920776 0 0 0 0 848475.95915282704 -1292896.6104982151 0 -1292896.6104982151 -1177145.8614032865 0 0 0 0 1586838.5501926197 -2422422.8170633428 0 -2422422.8170633428 -7683061.4861760922 0 0 0 0 2726709.2371605593 -6234952.1142436303 0 -6234952.1142436303 -4909529.4083192758 0 0 0 0 5322846.0325517654 -5364311.506444931 0 -5364311.506444931 -20037480.154747009 0 0 0 0 -569188.34121894836 -29796664.78393364 0 -29796664.78393364 -24643699.488150597 0 0 0 0 -4749667.2922513783 -25370634.866996765 0 -25370634.866996765 -65086004.649597168 0 0 0 0 -7909.1206843218497 -10926825.685661316 0 -10926825.685661316 -40231770.936691284 0 0 0 0 778991.03011496831 1219762.3114101738 0 1219762.3114101738 -5540018.0005398989 0 0 0 0 -8295199.9660122944 -6099084.5177555084 0 -6099084.5177555084 -26323157.406585693 0 0 0 0 -801675.95105918369 -2486994.476833798 0 -2486994.476833798 -3723553.6224678233 0 0 0 0 -2424426.6174552441 -5830366.632019043 0 -5830366.632019043 -20564697.637924194 0 0 0 0 123160.04419554988 1246314.4559088275 0 1246314.4559088275 -6391882.9306971133 0 0 0 0 -179730.06335996091 -2064380.3483428955 0 -2064380.3483428955 -16075187.883850098 0 0 0 0 -8020414.369670745 1233463.4097671509 0 1233463.4097671509 -24344683.378005981 0 0 0 0 -341663.46477364562 -11572089.183006287 0 -11572089.183006287 -47805444.459213257 0 0 0 0 -4911643.9085583016 -23053461.991447449 0 -23053461.991447449 -85783444.005310059 0 0 0 0 -22514151.007087991 -37663829.736320496 0 -37663829.736320496 -51942961.72395134 0 0 0 0 -18742175.277610254 -11553297.250163078 0 -11553297.250163078 -14922308.614227295 0 0 0 0 265457.74076930672 -123983.59786155075 0 -123983.59786155075 -2069618.1500356831 0 0 0 0 -35659336.941710293 -40684536.265266418 0 -40684536.265266418 -72034782.300216675 0 0 0 0 -16498719.896746859 -51525622.198020935 0 -51525622.198020935 -111788554.12411499 0 0 0 0 -2269560.9197950447 -40765675.664176464 0 -40765675.664176464 -117294804.29194641 0 0 0 0 -33562.257236434314 -13742521.013938904 0 -13742521.013938904 -68454355.124732971 0 0 0 0 33636.191329663226 -17180661.744689941 0 -17180661.744689941 -169585889.16810608 0 0 0 0 -4888042.9690239988 -40788870.383224487 0 -40788870.383224487 -117286135.3016777 0 0 0 0 4278.8058868668559 -2420954.7901153564 0 -2420954.7901153564 -195667068.75398254 0 0 0 0 19222968.02868152 -23667201.486167908 0 -23667201.486167908 -173133572.46896553 0 0 0 0 19869152.883453552 -21980224.888665199 0 -21980224.888665199 -224107425.81138611 0 0 0 0 22015706.283270091 48666271.369178772 0 48666271.369178772 -298746054.61645508 0 0 0 0 30777596.803048544 -44991368.295982361 0 -44991368.295982361 -343908718.87150574 0 0 0 0 32360652.303230915 30397634.074478149 0 30397634.074478149 -251236743.81880188 0 0 0 0 29019096.640219677 -25895482.278289795 0 -25895482.278289795 -237990936.59410858 0 0 0 0 8004576.4200454056 -76522968.416732788 0 -76522968.416732788 -233361436.23067474 0 0 0 0 28509558.20124086 -21785125.699895859 0 -21785125.699895859 -267628796.3366394 0 0 0 0 3999158.6981120333 -51473337.90675354 0 -51473337.90675354 -198673252.31842041 0 0 0 0 3965469.7392233759 -52582542.671791077 0 -52582542.671791077 -170735986.41989136 0 0 0 0 -1464569.30032718 -36902717.199602127 0 -36902717.199602127 -157403886.32769775 0 0 0 0 -22209304.675147653 -75025086.144042969 0 -75025086.144042969 -142334440.98782349 0 0 0 0 -13960660.992039751 -46709971.445585251 0 -46709971.445585251 -128711869.01193237 0 0 0 0 -37554162.986589387 -79033932.643501282 0 -79033932.643501282 -121942343.19818115 0 0 0 0 -42587155.561046049 -35396064.126144409 0 -35396064.126144409 -54724272.736877441 0 0 0 0 -38547876.242447183 -60482649.137718201 0 -60482649.137718201 -117641258.78250122 0 0 0 0 -36350588.075917795 -30720138.501701355 0 -30720138.501701355 -69987202.531829834 0 0 0 0 -13167867.555930167 -9208954.3696746826 0 -9208954.3696746826 -53269169.2082901 0 0 0 0 -78163981.5822694 -47869444.312072754 0 -47869444.312072754 -39689992.844207764 0 0 0 0 -125737664.37709722 -126307255.05150604 0 -126307255.05150604 -104018958.7940979 0 0 0 0 -22255048.571087833 -109774902.00614166 0 -109774902.00614166 -255983460.01495361 0 0 0 0 -19993881.719944626 -61472527.800364494 0 -61472527.800364494 -160687562.92370605 0 0 0 0 -23341819.462969884 -108850696.33065796 0 -108850696.33065796 -189804443.45737457 0 0 0 0 6716347.8699893076 -63367096.269805908 0 -63367096.269805908 -273346733.21817017 0 0 0 0 11918897.994504459 -55482083.968994141 0 -55482083.968994141 -268224976.2078476 0 0 0 0 20483093.911190763 -52964472.047653198 0 -52964472.047653198 -407057015.93562317 0 0 0 0 22465831.597339738 -124456857.07858276 0 -124456857.07858276 -261845640.36977768 0 0 0 0 -7551608.4204509147 -206526534.65247345 0 -206526534.65247345 -486093251.67391968 0 0 0 0 115123446.20283672 -112647899.85430908 0 -112647899.85430908 -455056315.86331177 0 0 0 0 82779999.437532425 -66367399.746494293 0 -66367399.746494293 -444957470.21862793 0 0 0 0 40738386.217159607 88945888.564468384 0 88945888.564468384 -549474976.38092804 0 0 0 0 -395172008.54554093 -606236036.51268005 0 -606236036.51268005 -995929403.34953308 0 0 0 0 77898405.234936714 237714591.08190918 0 237714591.08190918 -1269949711.2770653 0 0 0 0 174843273.5259676 -175317173.28280258 0 -175317173.28280258 -814486198.42510986 0 0 0 0 -418371996.09424102 639557145.17111206 0 639557145.17111206 -773288465.72305298 0 0 0 0 22368062.279405456 -384241404.64013672 0 -384241404.64013672 -1160609930.5587196 0 0 0 0 -311451030.30821252 -395787125.54686737 0 -395787125.54686737 -307086488.71221924 0 0 0 0 -243379415.84034893 -250291785.08668518 0 -250291785.08668518 -154956918.00782776 0 0 0 0 -149596673.60475975 -131875794.51403809 0 -131875794.51403809 -86575358.340026855 0 0 0 0 -270695584.13487589 -144425782.5526619 0 -144425782.5526619 -66154314.216583252 0 0 0 0 -440643014.77497244 58095391.739414215 0 58095391.739414215 -270174976.68408203 0 0 0 0 -658050666.05543971 502996858.88243866 0 502996858.88243866 -710670698.17227173 0 0 0 0 2066505.6728052397 -185707.07527926192 0 -185707.07527926192 -3677438.1021165103 0 0 0 0 340989512.32160187 150013062.97412109 0 150013062.97412109 57580920.043457031 0 0 0 0 -194170280.24941301 -9917428.3727722168 0 -9917428.3727722168 155111452.04785156 0 0 0 0 136438513.89156705 -10767421.965019226 0 -10767421.965019226 -39067544.9034729 0 0 0 0 78568.115806787275 -4141938.7266833149 0 -4141938.7266833149 -7012498.9687547088 0 0 0 0 267554.24426305562 -435534.97852365673 0 -435534.97852365673 -330551.2569059208 0 0 0 0 70406004.281034648 182579789.32688904 0 182579789.32688904 156157902.75854492 0 0 0 0 312641275.00562489 -150498079.14059448 0 -150498079.14059448 12307575.474731445 0 0 0 0 -69552401.879172474 -74063355.493881226 0 -74063355.493881226 -86549490.005279541 0 0 0 0 -42922112.273896694 6123284.255645752 0 6123284.255645752 -1879173.2699890137 0 0 0 0 -239652053.17756104 -125080761.5194397 0 -125080761.5194397 114027456.13580322 0 0 0 0 -95595720.849796534 12062546.654785156 0 12062546.654785156 26298839.465576172 0 0 0 0 58351061.941611767 38018388.153549194 0 38018388.153549194 -30161584.416305542 0 0 0 0 -50626211.832536161 -7820007.8125762939 0 -7820007.8125762939 -25897261.465744019 0 0 0 0 -105032839.06981589 -78151181.265309334 0 -78151181.265309334 -52078430.902130127 0 0 0 0 -19804006.309992939 -1139119.0083618164 0 -1139119.0083618164 -25853192.041854858 0 0 0 0 -43270348.412718058 -12981043.586715698 0 -12981043.586715698 -26729767.291870117 0 0 0 0 25684363.253084421 17365492.525817871 0 17365492.525817871 -32824126.511072159 0 0 0 0 22076441.287070364 411248.16888713837 0 411248.16888713837 -3603412.528137207 0 0 0 0 78554931.099086866 -30543752.268795013 0 -30543752.268795013 -20371997.873626709 0 0 0 0 35966765.563944697 7807470.5347366333 0 7807470.5347366333 -22119128.802627563 0 0 0 0 16310015.980754077 9034508.4977722168 0 9034508.4977722168 -17436830.735115051 0 0 0 0 16471843.83510679 9948660.8854789734 0 9948660.8854789734 -12980218.260498047 0 0 0 0 3548546.4115562439 -18412143.506256104 0 -18412143.506256104 -25468060.646820068 0 0 0 0 -18950920.04678154 -51939161.07144928 0 -51939161.07144928 -70032922.994903564 0 0 0 0 6360079.2707791682 3498555.1040872112 0 3498555.1040872112 -8300181.8243176416 0 0 0 0 7907412.3497454524 20124678.058303833 0 20124678.058303833 -1503713.5354003906 0 0 0 0 14766747.05176492 10092123.991352081 0 10092123.991352081 -10941691.922180176 0 0 0 0 8507721.0759813488 19971574.388908386 0 19971574.388908386 -25480497.305618286 0 0 0 0 -18000316.273651898 5635064.0011291504 0 5635064.0011291504 -11107222.988067627 0 0 0 0 -2983124.8814598918 -3912016.4945297241 0 -3912016.4945297241 -54261234.469497681 0 0 0 0 -12235798.502716342 14447771.167755127 0 14447771.167755127 -12462723.632034302 0 0 0 0 -1958541.1353736781 -36130503.146934509 0 -36130503.146934509 -83080223.139823914 0 0 0 0 2278194.8170139501 -2147387.4011259675 0 -2147387.4011259675 -8593314.730337888 0 0 0 0 -12643198.212542349 -6997619.9072875977 0 -6997619.9072875977 8349103.5798187256 0 0 0 0 -4878470.3917344809 -6002386.2021484375 0 -6002386.2021484375 -25198038.593475342 0 0 0 0 -589795.63583250355 724963.66732936352 0 724963.66732936352 -9259930.3497959524 0 0 0 0 -2445345.9557129741 -1046744.7800712585 0 -1046744.7800712585 -5940396.4977416992 0 0 0 0 -3023913.1072050929 -1564884.6381988525 0 -1564884.6381988525 -9623312.5174484253 0 0 0 0 -5213943.9580234755 -1674041.1365169436 0 -1674041.1365169436 -5745522.0778190345 0 0 0 0 4876904.8256589696 -6269407.5780181885 0 -6269407.5780181885 -30817701.877853394 0 0 0 0 2145742.7909352258 -1441613.4823989868 0 -1441613.4823989868 -30475759.245758057 0 0 0 0 -221815.14858987238 -1840229.0960938781 0 -1840229.0960938781 -5713848.1020593159 0 0 0 0 -2623280.8482303619 -2970165.9494857788 0 -2970165.9494857788 -12042510.951965332 0 0 0 0 -5817544.0970693575 2582590.864698343 0 2582590.864698343 -6397704.6727273297 0 0 0 0 -15039057.187351227 37222170.810256958 0 37222170.810256958 378923728.30389404 0 0 0 0 31232131.367010117 224768609.98260498 0 224768609.98260498 312750883.49928665 0 0 0 0 -8758043.3443100508 807381.6131298244 0 807381.6131298244 -4246305.9542119056 0 0 0 0 -113066389.97637177 207148723.40437317 0 207148723.40437317 614425369.17092514 0 0 0 0 86540486.344863892 74319375.922210693 0 74319375.922210693 36842027.678039551 0 0 0 0 -3282017.0246520042 -2297011.299911499 0 -2297011.299911499 -2698585.270904541 0 0 0 0 2956239.5165930949 -3600801.8692800626 0 -3600801.8692800626 -6628568.3506481163 0 0 0 0 -12332588.791856766 -12208621.45451355 0 -12208621.45451355 -21547254.553962708 0 0 0 0 -6483829.2904460654 -7173541.2119554877 0 -7173541.2119554877 -7780565.2344511449 0 0 0 0 -5864094.7439137697 -1739388.1256866455 0 -1739388.1256866455 -2025744.7403411865 0 0 0 0 2126143.0347975064 1926296.0296853557 0 1926296.0296853557 -6584331.2963865884 0 0 0 0 -13142306.301180214 -4952938.464811191 0 -4952938.464811191 -358986.24267074279 0 0 0 0 -8423199.2448062897 100328706.73662567 0 100328706.73662567 -12114207.137573242 0 0 0 0 -2713796.7711677551 -438831.99645996094 0 -438831.99645996094 12031161.889648438 0 0 0 0 -83686161.116676331 76849684.542999268 0 76849684.542999268 235269445.93836975 0 0 0 0 -12574771.127435129 861969.45322506875 0 861969.45322506875 -2998086.9528140295 0 0 0 0 -1625778.4487710968 -1364983.9103769436 0 -1364983.9103769436 1057302.8487200737 0 0 0 0 109372642.71487427 -183710359.93719482 0 -183710359.93719482 187156203.07046509 0 0 0 0 -107138629.13313293 -177533770.62945557 0 -177533770.62945557 -33965562.981292725 0 0 0 0 -11780852.177575205 -2993943.0193502828 0 -2993943.0193502828 -3332901.3212554287 0 0 0 0 -6748562.4643702507 -1994672.1075363159 0 -1994672.1075363159 4054052.2160949707 0 0 0 0 -106939902.97842789 -144638710.57221985 0 -144638710.57221985 33470660.300796509 0 0 0 0 -11222127.51899421 -3223066.6039662734 0 -3223066.6039662734 -3198345.2533984222 0 0 0 0 -155687061.54568481 -157657374.8203125 0 -157657374.8203125 30001748.293579102 0 0 0 0 -4547988.0217514038 -74642488.907104492 0 -74642488.907104492 -52267401.707565308 0 0 0 0 -202875943.04942131 134862720.15637207 0 134862720.15637207 359677407.87495422 0 0 0 0 -167826580.84312439 63582421.325805664 0 63582421.325805664 634746988.33958054 0 0 0 0 50189312.176621437 -41474424.82346344 0 -41474424.82346344 444115727.07553101 0 0 0 0 -124245862.4345417 -106458773.83895111 0 -106458773.83895111 313604277.61484528 0 0 0 0 -7855561.4989013672 -43223989.386886597 0 -43223989.386886597 585780467.8001709 0 0 0 0 -24510881.81703186 59900076.539611816 0 59900076.539611816 462305051.67430115 0 0 0 0 25837879.986179352 29138893.839263916 0 29138893.839263916 821700483.25457764 0 0 0 0 4442670.9645357132 -167470064.04279518 0 -167470064.04279518 451357741.00402832 0 0 0 0 13019050.483924866 -73367720.537597656 0 -73367720.537597656 274574583.80213928 0 0 0 0 -131650711.31641769 -122579010.16921997 0 -122579010.16921997 584617095.08299255 0 0 0 0 -14137652.521251006 243349.36969034374 0 243349.36969034374 590719.10524495877 0 0 0 0 -119222327.61274719 -128490656.04193115 0 -128490656.04193115 474185510.7734642 0 0 0 0 -44689569.020896912 -208640585.85766602 0 -208640585.85766602 178227460.37420654 0 0 0 0 41931986.352390289 -4904819.3391571045 0 -4904819.3391571045 399875445.62261963 0 0 0 0 -22238275.542682648 -129355972.40287399 0 -129355972.40287399 473758867.11856079 0 0 0 0 -12563903.977919932 -3492506.2002950981 0 -3492506.2002950981 -121348.31863874197 0 0 0 0 -72961387.42591095 -5171229.4738922119 0 -5171229.4738922119 20504920.028877258 0 0 0 0 -130236100.88603973 -185869132.61546326 0 -185869132.61546326 314460734.75726318 0 0 0 0 -142544859.70612335 -282990722.98953247 0 -282990722.98953247 119666300.79624939 0 0 0 0 31950022.645107269 -262573430.64955139 0 -262573430.64955139 106155488.68870163 0 0 0 0 -15519113.866157241 -1880662.2082696632 0 -1880662.2082696632 -640215.6730588004 0 0 0 0 -6343498.25431633 6904593.5762786865 0 6904593.5762786865 6970977.6116104126 0 0 0 0 -22906027.332104683 20306216.721191406 0 20306216.721191406 -3832204.3336243629 0 0 0 0 -55286191.530399799 4168755.2068634033 0 4168755.2068634033 6361253.1551513672 0 0 0 0 -31203626.9947505 -21264427.248092651 0 -21264427.248092651 -12841431.088592529 0 0 0 0 -32869731.902647018 40621490.810287476 0 40621490.810287476 -4595973.0248718262 0 0 0 0 19982262.272679329 5080698.2228088379 0 5080698.2228088379 -4594242.2181396484 0 0 0 0 -6739733.7939910889 8094909.8891601562 0 8094909.8891601562 -8399661.9530029297 0 0 0 0 -18098057.826095581 -43444517.954826355 0 -43444517.954826355 -7312213.7098999023 0 0 0 0 -5896514.0204868317 -4981028.4157714844 0 -4981028.4157714844 14811194.115142822 0 0 0 0 -6476810.2290887069 -6078809.6401120201 0 -6078809.6401120201 -506077.65317376703 0 0 0 0 11473375.427013397 -12030123.93963623 0 -12030123.93963623 -986553.34741210938 0 0 0 0 103900.7274458562 315317.02981945127 0 315317.02981945127 -448368.13399420492 0 0 0 0 -3549321.9728877544 51813977.717707634 0 51813977.717707634 122595319.47840881 0 0 0 0 -56218568.522449493 -150687520.82192993 0 -150687520.82192993 62427172.640563965 0 0 0 0 43841233.973525524 -81240433.361841202 0 -81240433.361841202 -290346062.79707336 0 0 0 0 -25579729.223386765 -221403904.07710266 0 -221403904.07710266 -153936964.27760315 0 0 0 0 2526459.4808678366 -281121.72497214377 0 -281121.72497214377 -2331519.8001892641 0 0 0 0 6814575.5153541565 -51837370.075202942 0 -51837370.075202942 -144605666.61950684 0 0 0 0 49988696.332794189 -110594044.60229492 0 -110594044.60229492 -188103765.58249664 0 0 0 0 -84320220.573402405 -85736669.140342712 0 -85736669.140342712 -73254093.749954224 0 0 0 0 2039633.2141084839 -1150917.5945727527 0 -1150917.5945727527 -4003523.5409232825 0 0 0 0 4687784.7760334015 -1574969.6509857178 0 -1574969.6509857178 -5819749.016494751 0 0 0 0 -23514493.008677483 -126790923.64582825 0 -126790923.64582825 -134850200.77618408 0 0 0 0 -197777274.33426285 -100759890.56771851 0 -100759890.56771851 -67726696.598693848 0 0 0 0 -31062404.495098114 -132431578.33178711 0 -132431578.33178711 -275988537.71276855 0 0 0 0 -272802.50447845459 -32496938.521179199 0 -32496938.521179199 -65456880.836532593 0 0 0 0 -10354768.392364502 19340596.090576172 0 19340596.090576172 -15958065.761817932 0 0 0 0 7860263.2520269584 1266338.3636905402 0 1266338.3636905402 -7765212.3547946215 0 0 0 0 -29995253.408740997 -143276206.34494019 0 -143276206.34494019 -190466229.64434814 0 0 0 0 21388037.610706329 16387145.490036011 0 16387145.490036011 -169443343.89169884 0 0 0 0 3268682.6390477633 2700151.2394767478 0 2700151.2394767478 -3335480.3031600118 0 0 0 0 6691647.2794437408 -4078034.5510597229 0 -4078034.5510597229 -6277228.5719604492 0 0 0 0 25294062.532854676 -2143216.0837783813 0 -2143216.0837783813 -17837797.056335449 0 0 0 0 41497754.666503429 -3783284.2441711426 0 -3783284.2441711426 -22926769.155174255 0 0 0 0 4076946.3571712631 -2554191.7124932241 0 -2554191.7124932241 -12193369.414581493 0 0 0 0 3934168.6496772766 -2039311.129699707 0 -2039311.129699707 -5168536.5388412476 0 0 0 0 572662.0356464386 -2556945.7767028809 0 -2556945.7767028809 -5195787.6263427734 0 0 0 0 3902348.0214939117 -1554459.8072738647 0 -1554459.8072738647 -7773184.5988922119 0 0 0 0 -371740897.53069687 30167330.218673706 0 30167330.218673706 -987564844.32348633 0 0 0 0 1975643.8294143677 -2807828.5355987549 0 -2807828.5355987549 -8165450.7256469727 0 0 0 0 572624542.28405952 793509713.34225464 0 793509713.34225464 -428177228.96044922 0 0 0 0 8555992.4835934639 -2844308.9403648376 0 -2844308.9403648376 -7757968.5641937256 0 0 0 0 6141544.2065619752 -3188413.7287263647 0 -3188413.7287263647 -4790445.6535820886 0 0 0 0 -63295112.382806778 -108793705.70756531 0 -108793705.70756531 -244646604.61151123 0 0 0 0 59819747.134448051 -46545127.481964111 0 -46545127.481964111 -873739694.84576416 0 0 0 0 33496777.486730576 62685820.858688354 0 62685820.858688354 -318701082.3755188 0 0 0 0 479898151.53577662 866268422.91902542 0 866268422.91902542 32725965.956207275 0 0 0 0 581992235.06724644 111742190.14033508 0 111742190.14033508 -551532977.20169067 0 0 0 0 1409762.6093657631 -1989383.3036821187 0 -1989383.3036821187 -30872.421009093523 0 0 0 0 -205623952.36334229 755452379.19312286 0 755452379.19312286 895798992.53483582 0 0 0 0 -290163941.08331108 149748147.78765869 0 149748147.78765869 -9392268.1812210083 0 0 0 0 -345168573.95439994 -278077806.15379715 0 -278077806.15379715 -1149012817.9347534 0 0 0 0 -177663940.93126583 -404631886.5419426 0 -404631886.5419426 -909444580.18463135 0 0 0 0 -284655388.03684044 326777896.77914429 0 326777896.77914429 -368061208.49565125 0 0 0 0 120342171.86321926 443108281.26491547 0 443108281.26491547 -481011824.69760132 0 0 0 0 -347919473.147686 -617725344.19670105 0 -617725344.19670105 -769305698.62399292 0 0 0 0 188715513.64986038 -407324803.6249969 0 -407324803.6249969 -992996181.74081421 0 0 0 0 110020639.09791183 -266110185.05421448 0 -266110185.05421448 -941641431.11569214 0 0 0 0 -156723565.53950924 -266863727.69701219 0 -266863727.69701219 -662878445.4631958 0 0 0 0 -168656005.06278419 340313276.84365845 0 340313276.84365845 -498346529.25320435 0 0 0 0 -46487372.045620918 5241136.2179031372 0 5241136.2179031372 29665966.000030518 0 0 0 0 599283754.21526241 -46273079.314201355 0 -46273079.314201355 -275673754.73368835 0 0 0 0 315390528.82295418 159319767.4761734 0 159319767.4761734 -250292137.44692802 0 0 0 0 128357335.7104578 129754216.60118103 0 129754216.60118103 396618051.31091309 0 0 0 0 5559011.9074719809 -5293630.5791812092 0 -5293630.5791812092 -1047774.8645239845 0 0 0 0 -61122083.843326569 13399809.504333496 0 13399809.504333496 -488697190.41043854 0 0 0 0 272916590.64922714 95039577.707702637 0 95039577.707702637 22274160.187164307 0 0 0 0 -18283801.059303284 19721673.019447327 0 19721673.019447327 -724495473.80911255 0 0 0 0 -16549948.610088348 -81720612.779014587 0 -81720612.779014587 -588847360.72775269 0 0 0 0 90535358.065803528 69752279.40322876 0 69752279.40322876 -1212091346.4087677 0 0 0 0 3554340.3218624908 -4491867.2768786177 0 -4491867.2768786177 -3992491.8105114624 0 0 0 0 244258.82779049873 -4702970.8700871468 0 -4702970.8700871468 -8803542.7664642334 0 0 0 0 872823.79909515381 -3086261.214263916 0 -3086261.214263916 -7709509.8749313354 0 0 0 0 71688.572168281302 -5758842.9030507281 0 -5758842.9030507281 -3640274.8876389563 0 0 0 0 -622811.45229816437 -5059204.3998374939 0 -5059204.3998374939 -8787958.9796447754 0 0 0 0 2882729.72996803 465056.4544852972 0 465056.4544852972 -1298388.9815651029 0 0 0 0 282142230.18057251 179343831.64237976 0 179343831.64237976 -95875052.700668335 0 0 0 0 177542741.22925377 412597632.34964371 0 412597632.34964371 -517601228.61508179 0 0 0 0 -118378659.08886719 52624450.705932617 0 52624450.705932617 -44221440.966278076 0 0 0 0 3250411.0989990234 575821600.09342957 0 575821600.09342957 1897330926.627533 0 0 0 0 1590433.656987913 -1051471.8448342532 0 -1051471.8448342532 -1164155.9799451195 0 0 0 0 -609431.05363321677 -371377.80430651456 0 -371377.80430651456 -195558.53105248883 0 0 0 0 -106222208.37310791 427574800.32350159 0 427574800.32350159 704099472.90103149 0 0 0 0 -1852336833.8780575 -1388782304.6820526 0 -1388782304.6820526 777278645.51062012 0 0 0 0 446940.12671154551 1676404.2050306723 0 1676404.2050306723 -7731266.0859176517 0 0 0 0 -909617111.01176071 -1889455275.4379578 0 -1889455275.4379578 709064605.16131592 0 0 0 0 391276789.22180176 1573797714.4598846 0 1573797714.4598846 -630229834.30038452 0 0 0 0 -26570805.570839882 259591114.52602196 0 259591114.52602196 30354137.343536377 0 0 0 0 563675989.84400177 505783976.98469162 0 505783976.98469162 -643424486.38301086 0 0 0 0 6794971.8949813843 -105421758.15814209 0 -105421758.15814209 -14488454.739946365 0 0 0 0 -40431506.972389221 80930956.853118896 0 80930956.853118896 -516009737.8031311 0 0 0 0 -40549560.266403198 92300725.113540649 0 92300725.113540649 -851585493.4230957 0 0 0 0 -16394161.653024673 263472055.01180649 0 263472055.01180649 -473176715.06124878 0 0 0 0 -167475957.07106018 64321743.602890015 0 64321743.602890015 -272920364.35227966 0 0 0 0 -189675249.39864349 -44900255.029724121 0 -44900255.029724121 -595618586.29904175 0 0 0 0 95005880.081497192 -37933724.723312378 0 -37933724.723312378 -709039688.84246826 0 0 0 0 477769.98713943851 -158194.90702905226 0 -158194.90702905226 -193921.8065263927 0 0 0 0 29660812.458885193 -158689414.5652771 0 -158689414.5652771 -329240039.70770264 0 0 0 0 -4478919.6357128117 -5682020.8625042588 0 -5682020.8625042588 3002094.8046097904 0 0 0 0 13381884.951019287 -51094603.721099854 0 -51094603.721099854 -559376120.42474365 0 0 0 0 -232332183.80471563 -363886760.27040482 0 -363886760.27040482 -489906697.96334839 0 0 0 0 464950772.07627869 70995641.45841217 0 70995641.45841217 -451364440.54975891 0 0 0 0 158869634.99290466 -288375325.81532288 0 -288375325.81532288 -340520763.89582825 0 0 0 0 -63314851.242080688 158422030.88180542 0 158422030.88180542 -146127090.02484131 0 0 0 0 -1483098.686237067 -2022702.3675079644 0 -2022702.3675079644 1022123.1497375742 0 0 0 0 -39534933.316299438 -18687078.494522095 0 -18687078.494522095 129088561.45562744 0 0 0 0 -39906740.071674347 -3749658.0627975464 0 -3749658.0627975464 47985822.939483643 0 0 0 0 -28234721.746635437 1252398.4782867432 0 1252398.4782867432 9547697.2202262878 0 0 0 0 2190279.1058198512 -12687524.046271466 0 -12687524.046271466 632383.6253657788 0 0 0 0 -8757903.7202773094 -20413648.42488575 0 -20413648.42488575 26284811.604553223 0 0 0 0 -215718096.21363354 32287518.933642387 0 32287518.933642387 8318006.3702392578 0 0 0 0 -770429531.55073929 -783090193.97535706 0 -783090193.97535706 305054729.44485474 0 0 0 0 2125533.1906474307 -2212790.9200519621 0 -2212790.9200519621 -4778980.9928246886 0 0 0 0 -543047858.77433395 -339435458.7437439 0 -339435458.7437439 274085574.58804321 0 0 0 0 -349691773.19642639 -1048802915.4451141 0 -1048802915.4451141 468105585.06002808 0 0 0 0 -606410672.96639633 -542878671.58482361 0 -542878671.58482361 -310562097.04040527 0 0 0 0 -82914915.6197052 292575301.83251953 0 292575301.83251953 -1624531266.8214111 0 0 0 0 -174832241.72133636 225631947.33165359 0 225631947.33165359 -6923597.2801208496 0 0 0 0 71313436.189289093 -283678588.96190643 0 -283678588.96190643 353560693.76367188 0 0 0 0 -22746799.37638855 -53093660.514129639 0 -53093660.514129639 61743004.680740356 0 0 0 0 -443665231.23797607 130986568.99719238 0 130986568.99719238 942092096.54260254 0 0 0 0 -503845830.04614258 -679695938.05143738 0 -679695938.05143738 498704119.49111176 0 0 0 0 -556790709.03848267 -429443566.09637451 0 -429443566.09637451 711320227.35972595 0 0 0 0 -316440453.22278976 -523449035.76813507 0 -523449035.76813507 -400385434.74557495 0 0 0 0 -489550679.62378693 -696418983.5766449 0 -696418983.5766449 391673939.56455994 0 0 0 0 228782138.78218079 455179473.04931641 0 455179473.04931641 -430952079.1706543 0 0 0 0 2496161.5269395616 5396689.3334807195 0 5396689.3334807195 -24111277.67326653 0 0 0 0 -269553308.37942505 -347735039.85224915 0 -347735039.85224915 -833774851.82055664 0 0 0 0 -260729036.35507202 -432484040.53657532 0 -432484040.53657532 -306735202.76094055 0 0 0 0 -150728633.53925037 27243853.133359909 0 27243853.133359909 -45607347.389694214 0 0 0 0 29199454.349533081 -14001985.077178955 0 -14001985.077178955 -51832388.825866699 0 0 0 0 -731062441.89119339 -359689191.00865936 0 -359689191.00865936 -73153846.62588501 0 0 0 0 7734485.4149665833 -28390164.863769531 0 -28390164.863769531 -50516877.566123962 0 0 0 0 -24071210.199560165 -10755806.138561249 0 -10755806.138561249 16556155.538970947 0 0 0 0 615329.30136889499 2074950.5226957835 0 2074950.5226957835 -8975044.8010281026 0 0 0 0 -93999730.786346436 -61401353.73248291 0 -61401353.73248291 -809960611.9004364 0 0 0 0 -267927.10845656507 -2385821.6305565685 0 -2385821.6305565685 -8453945.1509010717 0 0 0 0 -207957766.39453125 -46858132.242492676 0 -46858132.242492676 -1096317772.7756348 0 0 0 0 -198078438.62666321 -133645585.86965942 0 -133645585.86965942 -587307970.25466919 0 0 0 0 -67336090.209384918 -625900988.19752502 0 -625900988.19752502 -144489856.26513672 0 0 0 0 -789207578.20641327 174888905.77111816 0 174888905.77111816 -923848696.24215698 0 0 0 0 -22333396.534049988 -4179070.7449645996 0 -4179070.7449645996 -28149269.285116196 0 0 0 0 1163939597.705719 539651954.56381989 0 539651954.56381989 224634552.20928955 0 0 0 0 887772022.95275879 345563980.63241577 0 345563980.63241577 819145402.15472412 0 0 0 0 1412198.9790886343 244268.00403606892 0 244268.00403606892 -1115523.6570388302 0 0 0 0 -10088761.615857854 1797647.470422674 0 1797647.470422674 1561022.7719387785 0 0 0 0 -25340273.308242798 -50564932.046211243 0 -50564932.046211243 -23361363.54258728 0 0 0 0 -409538564.77425003 -197684873.42024231 0 -197684873.42024231 -118866944.61276245 0 0 0 0 -193954583.6119976 -327100758.46834564 0 -327100758.46834564 -287867923.84259033 0 0 0 0 33511104.485677481 46346557.819107056 0 46346557.819107056 -489095124.05349731 0 0 0 0 -43252908.780525208 -138634174.89920044 0 -138634174.89920044 -504765875.62646484 0 0 0 0 -40306335.388076782 -258363767.02009583 0 -258363767.02009583 -276545384.72787094 0 0 0 0 -98839146.350547791 -460261314.72577667 0 -460261314.72577667 -966963314.22900391 0 0 0 0 23773003.543889999 136660957.26465607 0 136660957.26465607 -216609815.03466797 0 0 0 0 -27066692.520614624 169432706.09848022 0 169432706.09848022 -110960449.78539276 0 0 0 0 4173843.5297448123 6961470.1377097629 0 6961470.1377097629 -5839621.8348787427 0 0 0 0 -526018788.3672924 -301325653.22415161 0 -301325653.22415161 -177498004.39968491 0 0 0 0 -204236111.21567911 -581371447.88996339 0 -581371447.88996339 -378997716.80393982 0 0 0 0 18141190.738695145 -612370193.48069 0 -612370193.48069 -21476887.414596558 0 0 0 0 235323866.16119576 66235127.376586914 0 66235127.376586914 -15723690.561904907 0 0 0 0 -204206849.89120674 -599622077.82122803 0 -599622077.82122803 -639812638.18182373 0 0 0 0 -22558043.212514877 -15896461.103748202 0 -15896461.103748202 -12573498.832305908 0 0 0 0 -10187443.829699883 -2135478.4734673239 0 -2135478.4734673239 -14147112.910897911 0 0 0 0 921050.5845115874 5915145.0219008178 0 5915145.0219008178 -2167238.2506859973 0 0 0 0 3617239.404005819 2934479.719744347 0 2934479.719744347 -1486747.1077748388 0 0 0 0 -1193178525.5718994 -129778945.17504883 0 -129778945.17504883 -849975640.28485107 0 0 0 0 -5042728.6678976621 3209840.1177677959 0 3209840.1177677959 -1701593.6243523508 0 0 0 0 10469606.891918182 12504278.894195557 0 12504278.894195557 6605332.7395935059 0 0 0 0 -1339946105.8178635 -1529828527.8700943 0 -1529828527.8700943 -542380845.44364929 0 0 0 0 1466697334.9351082 885039601.40435028 0 885039601.40435028 -2798403158.6821823 0 0 0 0 -141903093.15712357 85547948.598228455 0 85547948.598228455 622498388.87559509 0 0 0 0 918632218.21088409 654206801.6736908 0 654206801.6736908 -1571964284.1286316 0 0 0 0 -4620038.3956394196 2463454.5095825195 0 2463454.5095825195 -106991.87460327148 0 0 0 0 -12198952.944740567 3989108.1921198815 0 3989108.1921198815 -3418064.6478813142 0 0 0 0 -11041175.723947525 -5297002.9521636963 0 -5297002.9521636963 3863207.4025115967 0 0 0 0 700263.93644201756 -169509.6906760782 0 -169509.6906760782 -1836994.9516162798 0 0 0 0 -307627997.01154327 -265219763.48680115 0 -265219763.48680115 -391370675.343297 0 0 0 0 -13076209.523361892 -3874879.199049741 0 -3874879.199049741 -2423210.6766533554 0 0 0 0 -755437427.4257803 -496779867.65994263 0 -496779867.65994263 -10114687.808822632 0 0 0 0 -11609599.349038275 195642.04693273455 0 195642.04693273455 -651734.56023027003 0 0 0 0 -419271858.79453099 -300737590.25883007 0 -300737590.25883007 -150369226.73214722 0 0 0 0 -731935033.5087471 -289104330.50219727 0 -289104330.50219727 -37260591.769317627 0 0 0 0 465525.41373181343 -13116893.396244049 0 -13116893.396244049 -19649994.024291992 0 0 0 0 9676079.0947723389 -5095104.068862915 0 -5095104.068862915 -11901058.411529541 0 0 0 0 -19820198.450790405 11172860.436508179 0 11172860.436508179 12721281.7056427 0 0 0 0 -694165815.3880806 -198284345.5657959 0 -198284345.5657959 -54707958.666625977 0 0 0 0 -8940574.4795573615 460213.12835394964 0 460213.12835394964 -307057.71568393707 0 0 0 0 1666806.1365146637 -19696557.986938477 0 -19696557.986938477 -6509679.509765625 0 0 0 0 22131489.641683578 9907778.9777984619 0 9907778.9777984619 -4049418.202331543 0 0 0 0 152684.82092809957 -62189.545504435897 0 -62189.545504435897 -496845.69208967686 0 0 0 0 21395941.132761002 -13765128.37449646 0 -13765128.37449646 -13451245.377548218 0 0 0 0 8280469.4056396484 -584950306.97058105 0 -584950306.97058105 -852082480.91110229 0 0 0 0 -1135549540.6421356 -155847797.91888428 0 -155847797.91888428 41884057.014221191 0 0 0 0 -680242039.36792183 -419749329.66249084 0 -419749329.66249084 -398834027.48202515 0 0 0 0 -1088113.146313535 1725300.5515581965 0 1725300.5515581965 632830.25643565319 0 0 0 0 -688295981.46569633 22648842.515640259 0 22648842.515640259 -387884479.61578369 0 0 0 0 -667140372.71496582 -330415003.08700562 0 -330415003.08700562 -74922097.231994629 0 0 0 0 -1238655683.1088943 -448414132.33222961 0 -448414132.33222961 -91447756.949890137 0 0 0 0 -683785867.00511932 -848898641.50283813 0 -848898641.50283813 -560734119.11834717 0 0 0 0 -154743360.24071503 -466128473.83981323 0 -466128473.83981323 -332111900.42053223 0 0 0 0 331569082.05202866 -179817010.80691528 0 -179817010.80691528 -594427809.19360352 0 0 0 0 -208227054.766922 -415479569.181427 0 -415479569.181427 -307385168.49145508 0 0 0 0 -189550165.77177429 -401974357.1895752 0 -401974357.1895752 -138670445.3805542 0 0 0 0 -489307051.02960587 -617929929.40643311 0 -617929929.40643311 -262793486.11608887 0 0 0 0 -209257409.94611359 -428018720.45223999 0 -428018720.45223999 -86428218.806732178 0 0 0 0 -209350738.08992004 -394939799.93725586 0 -394939799.93725586 -49630543.469276428 0 0 0 0 144204150.74432373 -18906453.697143555 0 -18906453.697143555 -202082474.27624512 0 0 0 0 -306360.64875793457 -175363541.74707031 0 -175363541.74707031 -54101358.786598206 0 0 0 0 -205683943.68399239 -220161778.13097382 0 -220161778.13097382 -250015206.57781982 0 0 0 0 -447254687.96271133 -144031669.5567627 0 -144031669.5567627 -77616992.396648407 0 0 0 0 -399813949.67737961 -204689834.77632141 0 -204689834.77632141 -215856910.97619629 0 0 0 0 -332250243.75314331 -70558434.096298218 0 -70558434.096298218 -114938740.06724548 0 0 0 0 -136040456.23878002 -93745229.853168488 0 -93745229.853168488 -66064197.780212402 0 0 0 0 222554359.42976189 -120220132.55125427 0 -120220132.55125427 -179649417.01676941 0 0 0 0 253052365.42466545 -282974790.57730865 0 -282974790.57730865 -29280893.308156967 0 0 0 0 200970711.63798523 -119579759.76802063 0 -119579759.76802063 -7511483.8477592468 0 0 0 0 3663299.0099628959 -14164726.381065728 0 -14164726.381065728 -46587710.820188031 0 0 0 0 157541984.45212173 -199517799.92678833 0 -199517799.92678833 165459904.86924744 0 0 0 0 3148021.7790541146 -1766981.9151951522 0 -1766981.9151951522 -6781550.6383372545 0 0 0 0 -441951277.87181187 -161926764.7508688 0 -161926764.7508688 296789764.82168579 0 0 0 0 287243249.01231194 -46257221.276138306 0 -46257221.276138306 -110284302.31980133 0 0 0 0 3792769.2628440857 -157375612.27064514 0 -157375612.27064514 -91916576.59588623 0 0 0 0 12036728.855827332 -100454799.07832336 0 -100454799.07832336 -58452701.716804504 0 0 0 0 179017039.3313446 -107889281.72201538 0 -107889281.72201538 -121809980.30403137 0 0 0 0 362053616.16605568 -30602938.300865173 0 -30602938.300865173 -91783850.008958817 0 0 0 0 431974379.70166063 -136641114.60461426 0 -136641114.60461426 -133013625.14520264 0 0 0 0 225628928.57773209 -141370538.4916687 0 -141370538.4916687 -54714690.691257477 0 0 0 0 208320092.09019446 -56843526.746126175 0 -56843526.746126175 -146919297.86877441 0 0 0 0 -33640916.685562134 -80493722.790985107 0 -80493722.790985107 -85332349.167861938 0 0 0 0 -256974261.87010574 -115156798.09292603 0 -115156798.09292603 -78442253.625335693 0 0 0 0 -38776455.007245541 -104347286.7629509 0 -104347286.7629509 -161967283.69894409 0 0 0 0 -480861092.45629883 -84657830.887084961 0 -84657830.887084961 -101658066.39376831 0 0 0 0 -253438669.84171295 -159045260.69166565 0 -159045260.69166565 -85196141.764389038 0 0 0 0 -242188677.41540527 -196448389.44204712 0 -196448389.44204712 -32596045.598316193 0 0 0 0 -406521197.03540802 -197144393.98530579 0 -197144393.98530579 -30932788.548461914 0 0 0 0 -18607849.707304478 -90523863.946907043 0 -90523863.946907043 -88287145.373596191 0 0 0 0 -201640195.69189453 -448844925.30059814 0 -448844925.30059814 -137398167.94542789 0 0 0 0 -468344511.7755127 -378323571.45095825 0 -378323571.45095825 -28130821.431152344 0 0 0 0 -332608127.63993073 -404853131.28723145 0 -404853131.28723145 -28591107.001621246 0 0 0 0 -471465209.20998383 -389607886.57220459 0 -389607886.57220459 -57187604.346115112 0 0 0 0 -615251019.4460125 -261857539.99917603 0 -261857539.99917603 -11095101.681091309 0 0 0 0 -360122332.83913422 -263196359.67526245 0 -263196359.67526245 -11395478.219690323 0 0 0 0 -316903000.70518112 -280843357.89251709 0 -280843357.89251709 -63813145.4269104 0 0 0 0 -289118552.8130188 -313347393.18704224 0 -313347393.18704224 -25865386.899787903 0 0 0 0 -421493985.76469803 -320611074.88360596 0 -320611074.88360596 -22337379.493103027 0 0 0 0 -245462074.84671974 -360801598.30348206 0 -360801598.30348206 -91896742.737670898 0 0 0 0 -253702735.47742462 -378532756.58502197 0 -378532756.58502197 -54593460.28338623 0 0 0 0 -303502023.12028503 -367632200.3633728 0 -367632200.3633728 -55781226.263061523 0 0 0 0 -223349133.31660461 -402761159.98538971 0 -402761159.98538971 -60641741.727539062 0 0 0 0 -253566973.98361707 -381815275.55513096 0 -381815275.55513096 -55124345.563476562 0 0 0 0 -209605411.01603889 -352031010.27509117 0 -352031010.27509117 -91094225.6512146 0 0 0 0 -209392902.52994156 -313295835.00294495 0 -313295835.00294495 -160026906.47897339 0 0 0 0 -214405099.1722908 -278345292.73178101 0 -278345292.73178101 -101703069.80142212 0 0 0 0 -206568396.40753555 -257446588.22064209 0 -257446588.22064209 -64178045.030456543 0 0 0 0 -162442875.46533585 -269289233.67373657 0 -269289233.67373657 -210450836.78833008 0 0 0 0 -146637067.77477264 -230629774.27545166 0 -230629774.27545166 -135353445.9604187 0 0 0 0 -156090050.91706085 -293392670.42648315 0 -293392670.42648315 -152838445.34983826 0 0 0 0 -159971687.19750404 -313513435.14779282 0 -313513435.14779282 -256937976.37060547 0 0 0 0 3453341.0574817657 -153489706.70218849 0 -153489706.70218849 -105649970.69024658 0 0 0 0 -177498300.65210724 -139783368.17521667 0 -139783368.17521667 -62109358.252685547 0 0 0 0 -220353538.09223175 -222760772.60986328 0 -222760772.60986328 -71670584.727996826 0 0 0 0 -193477089.34496593 -212784916.7209549 0 -212784916.7209549 -73852429.063171387 0 0 0 0 -150913254.87300873 -222354893.81079102 0 -222354893.81079102 -150712286.66830444 0 0 0 0 -108987912.5237236 -174773684.55316162 0 -174773684.55316162 -100582964.37395477 0 0 0 0 -110984887.94446182 -173304071.15856934 0 -173304071.15856934 -75912198.611984253 0 0 0 0 17473685.002960205 -129374482.00401306 0 -129374482.00401306 -119102194.51959991 0 0 0 0 -89437306.316947937 -130976338.56766319 0 -130976338.56766319 -64856200.224365234 0 0 0 0 -86271240.382763386 -130458126.62399673 0 -130458126.62399673 -211448504.29421997 0 0 0 0 -132101771.67984772 -12778461.69682312 0 -12778461.69682312 -162170250.3053894 0 0 0 0 -42813769.234550476 -54354048.834182739 0 -54354048.834182739 -136345192.48648071 0 0 0 0 -116628169.33959198 -148965799.02682495 0 -148965799.02682495 -135874723.81908798 0 0 0 0 -118853724.46495438 -173493246.84989929 0 -173493246.84989929 -249777698.09766388 0 0 0 0 -41262924.787269115 -46233624.916149139 0 -46233624.916149139 -400059680.11868286 0 0 0 0 -83013995.444732666 -190862144.96247864 0 -190862144.96247864 -310819522.58462524 0 0 0 0 194221443.29719543 8245864.0142059326 0 8245864.0142059326 -408923658.78439331 0 0 0 0 -58902525.790174484 -7847989.0914001465 0 -7847989.0914001465 -317302505.10986328 0 0 0 0 -127147036.55314445 268115908.89072418 0 268115908.89072418 -588713056.88876343 0 0 0 0 668801.9057882484 27446.834710538387 0 27446.834710538387 -522101.5787441507 0 0 0 0 -211137018.70281601 87920774.432235718 0 87920774.432235718 -270633329.46290588 0 0 0 0 -65965821.837841034 80450330.141296387 0 80450330.141296387 -230689975.41305542 0 0 0 0 -108173132.69420242 -66586451.993881226 0 -66586451.993881226 -103374983.27218628 0 0 0 0 -107274940.34756088 50273838.538803101 0 50273838.538803101 -422238458.21563721 0 0 0 0 -142003771.34981346 75124969.315979004 0 75124969.315979004 -212061927.45193481 0 0 0 0 -23922971.388767242 79424911.694885254 0 79424911.694885254 -109522440.1971283 0 0 0 0 -54976008.183862686 -135686384.97485352 0 -135686384.97485352 521504343.96109009 0 0 0 0 -92697680.871836185 41045098.047657013 0 41045098.047657013 37460272.661956787 0 0 0 0 200682956.87606621 -135196070.13412476 0 -135196070.13412476 -106207430.0826416 0 0 0 0 8419712.7203102112 -178217614.9407959 0 -178217614.9407959 26027186.594790459 0 0 0 0 194913573.81326318 -66555785.798229694 0 -66555785.798229694 -50316641.481018066 0 0 0 0 19025842.822285175 -139969480.89282608 0 -139969480.89282608 -66319844.629516602 0 0 0 0 192549125.79632378 -148679535.06007957 0 -148679535.06007957 -74861232.232543945 0 0 0 0 542429607.30118561 161757297.24880981 0 161757297.24880981 16280270.074871063 0 0 0 0 616070695.5830574 -226576264.31590271 0 -226576264.31590271 -70957903.042282104 0 0 0 0 330460400.18528938 -476420119.5957489 0 -476420119.5957489 -141890112.6605835 0 0 0 0 306754772.90069389 476867329.68132782 0 476867329.68132782 -108412016.13189697 0 0 0 0 192002697.41241264 -116881696.57346153 0 -116881696.57346153 -653352503.06964111 0 0 0 0 -238202806.50280762 459985756.08805847 0 459985756.08805847 -34734776.987854004 0 0 0 0 -107608940.29894257 159244190.98571777 0 159244190.98571777 7890396.0769958496 0 0 0 0 82385538.127662659 133286221.694561 0 133286221.694561 -609313743.91876221 0 0 0 0 -223333951.7493248 302854408.51797485 0 302854408.51797485 -293797589.98416138 0 0 0 0 11235658.89937973 4454374.6640777588 0 4454374.6640777588 -1263933.8006591797 0 0 0 0 1949734.5394457337 -840880.47197161615 0 -840880.47197161615 -2219463.3821374401 0 0 0 0 -171025312.55151749 197924448.81333923 0 197924448.81333923 -312240720.79397964 0 0 0 0 -7918797.2702865601 102395166.30874634 0 102395166.30874634 -616962710.17507172 0 0 0 0 -20333251.491737366 -7878591.9040985107 0 -7878591.9040985107 5568234.0640869141 0 0 0 0 3413802.4045665357 -93683.138858512044 0 -93683.138858512044 -2123827.5228354633 0 0 0 0 -128434453.16968536 390172039.5125885 0 390172039.5125885 -614117503.42382717 0 0 0 0 866943.56769293826 -151584.05022123083 0 -151584.05022123083 -1216036.1826271787 0 0 0 0 -315547669.62527275 323201715.33335876 0 323201715.33335876 -333594641.81760788 0 0 0 0 -125092280.60846329 253352221.23576355 0 253352221.23576355 -363195532.76916504 0 0 0 0 -115255446.74931622 315022819.6222229 0 315022819.6222229 -347493333.63110352 0 0 0 0 -75378342.052991867 261333241.91304016 0 261333241.91304016 -384271598.71685791 0 0 0 0 -221650133.72742462 360808113.70680237 0 360808113.70680237 -428377097.63856506 0 0 0 0 -246632785.34513092 295472437.27816772 0 295472437.27816772 -341963554.98512268 0 0 0 0 -221295091.94996309 378202125.21310902 0 378202125.21310902 -478696510.13616943 0 0 0 0 -200128370.65659714 270471621.30432129 0 270471621.30432129 -367187454.75811768 0 0 0 0 -284314503.63143861 482794725.31809092 0 482794725.31809092 -562716844.80209351 0 0 0 0 -285478908.90275574 370932608.39595032 0 370932608.39595032 -411074166.46754456 0 0 0 0 -365906274.71673083 455692222.88676834 0 455692222.88676834 -437100271.16342163 0 0 0 0 -228570120.68723297 405566317.29096222 0 405566317.29096222 -483834414.96661377 0 0 0 0 -420074986.98353767 568149593.75653076 0 568149593.75653076 -550509377.68638611 0 0 0 0 -345303649.10620308 424536394.99002838 0 424536394.99002838 -369180169.2099514 0 0 0 0 -218706242.54443264 279129994.36795044 0 279129994.36795044 -347805430.27703857 0 0 0 0 -326534783.35571671 673697463.02316284 0 673697463.02316284 -792200942.23094177 0 0 0 0 -259505848.38293839 727277440.00024414 0 727277440.00024414 -759083479.54412842 0 0 0 0 -426199683.60107136 619051457.27141953 0 619051457.27141953 -593442083.06575012 0 0 0 0 -316769130.88060856 573301547.77535248 0 573301547.77535248 -689614612.77929688 0 0 0 0 -326899145.78815842 471098621.53662109 0 471098621.53662109 -563593510.68971252 0 0 0 0 -250884713.44603157 383421832.24769592 0 383421832.24769592 -467089676.09898376 0 0 0 0 -201471375.98097849 532040930.20637703 0 532040930.20637703 -632796636.53561401 0 0 0 0 -171326253.30361748 682984714.18360138 0 682984714.18360138 -739768990.8629303 0 0 0 0 -173870117.86265945 490002463.5398407 0 490002463.5398407 -588700868.59866333 0 0 0 0 -317802216.40649605 746045383.37745667 0 746045383.37745667 -737498717.95332336 0 0 0 0 -180465816.21088409 660028838.89100647 0 660028838.89100647 -776467397.42263794 0 0 0 0 25691010.123668671 486764740.39027405 0 486764740.39027405 -722153647.65489197 0 0 0 0 -85058847.765926361 379639120.84686279 0 379639120.84686279 -560785146.1204834 0 0 0 0 -64656170.879634857 371788096.4954071 0 371788096.4954071 -571183380.1267395 0 0 0 0 -121220819.45902634 280336751.25650024 0 280336751.25650024 -425287763.76882935 0 0 0 0 -175541550.00223923 380390182.4839859 0 380390182.4839859 -494707614.12017822 0 0 0 0 -85840852.563270569 428050895.38037109 0 428050895.38037109 -625924127.70474243 0 0 0 0 -42579932.835711479 269912455.14790535 0 269912455.14790535 -467874645.95410156 0 0 0 0 -91683108.69062233 304118650.34812927 0 304118650.34812927 -360144178.16452026 0 0 0 0 -67382896.103345871 272174994.74536133 0 272174994.74536133 -447460461.06385803 0 0 0 0 -5366793.3960952759 -2860405.2330322266 0 -2860405.2330322266 -3443727.2930374146 0 0 0 0 -49496094.916267395 183488338.59295654 0 183488338.59295654 -499904491.07951355 0 0 0 0 25837434.881397247 8548603.7113952637 0 8548603.7113952637 -359325934.07800293 0 0 0 0 -129798442.23545456 219235540.47511292 0 219235540.47511292 -283514563.85334778 0 0 0 0 1414076.064408849 193198.37857414782 0 193198.37857414782 -924301.97260202467 0 0 0 0 -78764218.954320908 445950956.10440826 0 445950956.10440826 -444292594.51893616 0 0 0 0 1717197.3099059695 -625224.81827285141 0 -625224.81827285141 -1580604.451680854 0 0 0 0 -118418947.67411804 267946121.04171753 0 267946121.04171753 -321891949.12770081 0 0 0 0 105153824.83351135 383735843.62246704 0 383735843.62246704 -788998071.31890869 0 0 0 0 6126281.8601837158 197590153.50463104 0 197590153.50463104 -377363001.25823975 0 0 0 0 73004028.421100616 199793516.60331726 0 199793516.60331726 -518865737.87662506 0 0 0 0 33654271.304016113 -51447997.593093872 0 -51447997.593093872 85166651.187072754 0 0 0 0 281708412.94475532 132199503.82822323 0 132199503.82822323 -687281343.83312988 0 0 0 0 299964608.88711929 -21760444.658966064 0 -21760444.658966064 -603703186.95269775 0 0 0 0 -109375430.58899879 474707967.20305634 0 474707967.20305634 -870019321.02558136 0 0 0 0 -31403635.608127594 44330625.121963501 0 44330625.121963501 -1053324140.0929375 0 0 0 0 -297880978.61475563 333947038.50830078 0 333947038.50830078 -1202799533.9398041 0 0 0 0 -129406253.99170017 314899221.83905411 0 314899221.83905411 -1446672866.9969635 0 0 0 0 -363655307.70186043 1029988264.2034531 0 1029988264.2034531 -1222339958.0062866 0 0 0 0 -13276882.972503662 335185821.30712128 0 335185821.30712128 -792805369.60438538 0 0 0 0 -66062266.524835587 637700930.80438232 0 637700930.80438232 -956902709.77742004 0 0 0 0 -208424767.43683672 765215461.40942192 0 765215461.40942192 -811050261.67353821 0 0 0 0 -221985202.90824509 737888558.99824524 0 737888558.99824524 -799272306.75880432 0 0 0 0 -253136200.92316628 828095002.69529724 0 828095002.69529724 -806250639.74218845 0 0 0 0 -446053777.48474121 692434375.03173447 0 692434375.03173447 -487789274.5111084 0 0 0 0 -236747903.40877914 791944520.29902649 0 791944520.29902649 -728418978.68536377 0 0 0 0 -332032483.43241882 776120720.93844604 0 776120720.93844604 -701352898.58815765 0 0 0 0 -797814858.56633377 351396586.11149597 0 351396586.11149597 -96647596.702037811 0 0 0 0 -455640004.08750343 756148461.60813904 0 756148461.60813904 -650139956.72912598 0 0 0 0 -583987903.9847908 836947063.27277374 0 836947063.27277374 -639149457.33473301 0 0 0 0 -1643784764.2330418 662034391.5402832 0 662034391.5402832 -161024328.45481873 0 0 0 0 -286265731.94885826 -127214975.56971359 0 -127214975.56971359 1702669.2428131104 0 0 0 0 -367629.53405205812 2710868.1648399755 0 2710868.1648399755 -5230584.3825922459 0 0 0 0 -897165234.13750076 1475151147.4901466 0 1475151147.4901466 -1837347892.386322 0 0 0 0 -379800388.1496582 -72552590.564990997 0 -72552590.564990997 -2865905733.6946564 0 0 0 0 -1778449563.3819895 -148625038.20776367 0 -148625038.20776367 -1031832103.969635 0 0 0 0 -711471235.9066391 247816799.19831085 0 247816799.19831085 -899888101.50520325 0 0 0 0 -431390408.24995232 98793847.438476562 0 98793847.438476562 -498152277.95597839 0 0 0 0 -494171772.01475716 -73301275.729228973 0 -73301275.729228973 -693418675.22621155 0 0 0 0 -398788730.46361923 -126013819.34718323 0 -126013819.34718323 -631424777.26872253 0 0 0 0 -588457969.39391422 -134824252.7579689 0 -134824252.7579689 -239009365.43829346 0 0 0 0 -418132909.13145065 -295759669.7926178 0 -295759669.7926178 -460477706.37269592 0 0 0 0 -929744634.10223913 -365128427.53390312 0 -365128427.53390312 -738904065.55509949 0 0 0 0 -228569964.29185677 -11935018.470428467 0 -11935018.470428467 -694744301.57388306 0 0 0 0 -238748237.18270874 -152998487.70335388 0 -152998487.70335388 -1500995126.2819824 0 0 0 0 -130360468.02033043 -254921028.14596558 0 -254921028.14596558 -856490607.85578156 0 0 0 0 -120658857.04785538 -188673045.69572449 0 -188673045.69572449 -438357758.16235352 0 0 0 0 1652936.4968719482 189946945.5843811 0 189946945.5843811 -439644429.69088745 0 0 0 0 39848835.070503235 -227117419.96946716 0 -227117419.96946716 -543988073.2526474 0 0 0 0 -84095877.416690826 -283403433.55708313 0 -283403433.55708313 -514160110.74739075 0 0 0 0 -203817425.54796791 -374211373.14227295 0 -374211373.14227295 -369513464.11761475 0 0 0 0 -246279650.06929588 -318812618.47176361 0 -318812618.47176361 -295830982.11477661 0 0 0 0 -61252976.467823029 -221384196.061409 0 -221384196.061409 -357861675.3359375 0 0 0 0 -154445096.77696228 -334761343.06680298 0 -334761343.06680298 -287935723.35142517 0 0 0 0 -157631629.3032074 -316096024.5362854 0 -316096024.5362854 -305217532.65551758 0 0 0 0 -461091693.43948746 -325263384.41957855 0 -325263384.41957855 -447062940.65577698 0 0 0 0 -201669849.83105087 -296948918.32785034 0 -296948918.32785034 -450112076.53160095 0 0 0 0 -300631062.0371244 -165199099.55753756 0 -165199099.55753756 -319763904.37524414 0 0 0 0 -311674401.00754738 -351743531.77774048 0 -351743531.77774048 -260052314.49560547 0 0 0 0 -215801304.27835929 -376900527.32098961 0 -376900527.32098961 -203058701.84063721 0 0 0 0 -210547904.97060978 -256176868.68829823 0 -256176868.68829823 -171335033.36380005 0 0 0 0 -169247038.03849792 -321932796.17964172 0 -321932796.17964172 -138614973.05610657 0 0 0 0 -180789121.34049225 -359208164.94961548 0 -359208164.94961548 -167273432.55786133 0 0 0 0 -181185907.13746262 -338500337.80552673 0 -338500337.80552673 -210046472.22894287 0 0 0 0 -178258234.92905807 -315918037.41075134 0 -315918037.41075134 -302426940.27626038 0 0 0 0 -186742984.25617599 -366494372.49243164 0 -366494372.49243164 -246352604.401474 0 0 0 0 -187378865.93560028 -314762988.27935791 0 -314762988.27935791 -126803995.5317688 0 0 0 0 -168086545.62232208 -390097713.5650177 0 -390097713.5650177 -160334507.43835449 0 0 0 0 -209408314.10224915 -351415067.09287834 0 -351415067.09287834 -147469332.12335205 0 0 0 0 -180648409.32014084 -389165178.83561707 0 -389165178.83561707 -110267450.37631226 0 0 0 0 -187799689.53325272 -362132808.65377808 0 -362132808.65377808 -104024762.90106201 0 0 0 0 -145652147.63558578 -396394909.25762939 0 -396394909.25762939 -76765094.618423462 0 0 0 0 -150548431.22441483 -315649154.3400445 0 -315649154.3400445 -17401791.04107666 0 0 0 0 -21039728.236404419 -291135178.45679474 0 -291135178.45679474 -17510597.640686035 0 0 0 0 -106933403.72344971 -366765800.63870239 0 -366765800.63870239 34773094.69732666 0 0 0 0 -127109495.91187286 -322835758.11587524 0 -322835758.11587524 -31598693.514678955 0 0 0 0 -81730457.875976562 -313113847.2784729 0 -313113847.2784729 -46223373.26965332 0 0 0 0 -174662557.10993958 -418055910.29594421 0 -418055910.29594421 -67605229.59475708 0 0 0 0 -243425542.32573318 -185334018.91540527 0 -185334018.91540527 18402879.670959473 0 0 0 0 -79586953.172451019 -151893904.02235222 0 -151893904.02235222 16310108.841003418 0 0 0 0 -145909780.91339874 -237323312.17785645 0 -237323312.17785645 -14354273.425933838 0 0 0 0 -128817647.51237488 -356523757.41918945 0 -356523757.41918945 -107481386.70575714 0 0 0 0 -117202284.16970444 -208942803.66388321 0 -208942803.66388321 180672059.30441284 0 0 0 0 -109115489.25557327 -302076397.60966492 0 -302076397.60966492 33706849.926315308 0 0 0 0 -90643351.926042557 10954880.79813385 0 10954880.79813385 121862605.10882568 0 0 0 0 -178739226.41355896 -192443423.56987 0 -192443423.56987 230247667.78530884 0 0 0 0 -311951972.22109795 -135448144.53683472 0 -135448144.53683472 59896286.550270081 0 0 0 0 -341865021.78977585 145586019.79498291 0 145586019.79498291 79379082.677093506 0 0 0 0 -185925470.72701263 74641269.418815613 0 74641269.418815613 -154647409.222229 0 0 0 0 -479632345.59920788 -19417735.19393158 0 -19417735.19393158 -180884630.02349854 0 0 0 0 -277080561.93565369 -270184189.63420868 0 -270184189.63420868 -116944287.4259491 0 0 0 0 -261247930.01157761 -46863387.998031616 0 -46863387.998031616 -218310788.73002625 0 0 0 0 77627964.666675568 112640902.99526978 0 112640902.99526978 -405459083.11927795 0 0 0 0 -130023759.41889095 163774673.58591461 0 163774673.58591461 -6158820.8371734619 0 0 0 0 -131204806.9916153 306370731.81803131 0 306370731.81803131 -354120946.44972229 0 0 0 0 -168781686.32791138 33557193.77835083 0 33557193.77835083 -186499976.62060547 0 0 0 0 -302747438.5661211 231701574.2728653 0 231701574.2728653 -423883441.13879395 0 0 0 0 -50078952.150794983 3502256.4006271362 0 3502256.4006271362 136597609.7721405 0 0 0 0 -197684580.01771212 219628122.30010223 0 219628122.30010223 295671938.1444397 0 0 0 0 59319945.727560043 207464904.56983948 0 207464904.56983948 -15279117.491622925 0 0 0 0 14486090.994602203 136940400.36955261 0 136940400.36955261 232353066.27289581 0 0 0 0 228036568.57576942 284319490.59535599 0 284319490.59535599 -4700231.6984863281 0 0 0 0 -1664360.5769381174 2439866.54920174 0 2439866.54920174 -12659570.623396248 0 0 0 0 -423511.49387347698 -5024727.7026596069 0 -5024727.7026596069 -1282133.7563323975 0 0 0 0 61493451.334306836 -19090583.419219971 0 -19090583.419219971 -81047694.097473145 0 0 0 0 71833727.04693608 284195009.92821813 0 284195009.92821813 -408147834.02861023 0 0 0 0 179329954.34181023 8991540.6322784424 0 8991540.6322784424 76117683.496440887 0 0 0 0 269277515.72442055 116173739.94569397 0 116173739.94569397 -1218219139.4901428 0 0 0 0 287578183.292696 -287350986.06731415 0 -287350986.06731415 -634451521.13793564 0 0 0 0 241772872.15633798 -217000152.27290916 0 -217000152.27290916 151193294.84602356 0 0 0 0 -214496.77367943537 1653922.472158514 0 1653922.472158514 -10257059.563253582 0 0 0 0 380039524.69591868 78901081.728084564 0 78901081.728084564 -282279885.58184814 0 0 0 0 -51810714.751108646 -431324381.70025635 0 -431324381.70025635 -1934984191.3691406 0 0 0 0 -226853.17506263033 859044.5781583935 0 859044.5781583935 -955810.90576083586 0 0 0 0 592653365.81283712 -228583851.18973541 0 -228583851.18973541 -1855917792.466507 0 0 0 0 500007932.32691193 54176457.324020386 0 54176457.324020386 -2715096249.2142181 0 0 0 0 486256521.73137856 -48378009.68598938 0 -48378009.68598938 -1253455768.1132965 0 0 0 0 136848314.95332718 305853524.87652588 0 305853524.87652588 -1283910832.6067276 0 0 0 0 413220673.7007494 162878765.77410889 0 162878765.77410889 -1787496887.4490509 0 0 0 0 -47263745.647548676 149761259.46741486 0 149761259.46741486 -470050615.783638 0 0 0 0 2310671.8928489685 274519917.56871796 0 274519917.56871796 -634986583.10852051 0 0 0 0 266237412.88960376 34561974.441793203 0 34561974.441793203 -1034256422.6088257 0 0 0 0 -676772982.44522381 172788956.50265884 0 172788956.50265884 -429826954.32658386 0 0 0 0 -269582815.08334923 493789878.97610855 0 493789878.97610855 -1001846652.3182068 0 0 0 0 138123867.34044266 289542220.11767578 0 289542220.11767578 -1205096257.8251038 0 0 0 0 542786881.72540855 397602396.36941528 0 397602396.36941528 -2654914825.9616623 0 0 0 0 -758089847.50480652 1023149707.9130669 0 1023149707.9130669 -1772344267.5643158 0 0 0 0 414396170.37923884 145076847.57258415 0 145076847.57258415 -1588043327.0055847 0 0 0 0 561318803.20156002 117982924.6828537 0 117982924.6828537 -1782805939.4808044 0 0 0 0 645425215.825243 138377964.81619263 0 138377964.81619263 -1615954688.2932587 0 0 0 0 138018314.42199898 -653575030.51974487 0 -653575030.51974487 -1919346694.9077187 0 0 0 0 50130971.715947151 -201183466.91493988 0 -201183466.91493988 -261729701.72370911 0 0 0 0 284527533.48851728 463830941.4149971 0 463830941.4149971 490078721.76371765 0 0 0 0 270038189.8980093 311999528.53728485 0 311999528.53728485 -140024622.31608391 0 0 0 0 592426.72632142622 7456673.1057387944 0 7456673.1057387944 -13566190.698617607 0 0 0 0 134286433.15790176 61995436.884372711 0 61995436.884372711 -152947787.40405273 0 0 0 0 317102882.27240503 -227139780.42657089 0 -227139780.42657089 137707996.86029053 0 0 0 0 862834269.28837204 30764431.115795135 0 30764431.115795135 -735117319.91842651 0 0 0 0 361578927.00663614 269463561.26459503 0 269463561.26459503 -822540954.82260513 0 0 0 0 284690333.47515845 -140386773.09339809 0 -140386773.09339809 -829265743.18893433 0 0 0 0 114622117.78514624 169567052.10623169 0 169567052.10623169 -475030342.13549805 0 0 0 0 612037127.83368587 -44240163.76599884 0 -44240163.76599884 -1468895168.934082 0 0 0 0 520134863.72881985 130629593.87260437 0 130629593.87260437 -1517569588.0922585 0 0 0 0 370829015.0866667 105142389.59395027 0 105142389.59395027 -1949969462.1311035 0 0 0 0 445284880.71721411 324541928.05509186 0 324541928.05509186 -1908322736.7830505 0 0 0 0 -57939127.700684309 126234027.67446899 0 126234027.67446899 -1923473127.14888 0 0 0 0 -992323724.94887018 48876935.174285889 0 48876935.174285889 -1722825375.4517856 0 0 0 0 -43004912.855157137 -55996056.087783813 0 -55996056.087783813 -1726113969.2893014 0 0 0 0 -324633045.99829721 -231499632.0586319 0 -231499632.0586319 -1284194623.0827484 0 0 0 0 87598837.593407631 37766094.195098877 0 37766094.195098877 -1785459286.7827301 0 0 0 0 -226623934.15769434 -314765404.93495178 0 -314765404.93495178 -2111151336.4257812 0 0 0 0 5082213.2247941345 -120556928.99557114 0 -120556928.99557114 -1254698077.4483948 0 0 0 0 -338478713.3180213 188918332.73221588 0 188918332.73221588 -1321187100.2326355 0 0 0 0 195659269.84746075 118913460.53234863 0 118913460.53234863 -1320021168.702106 0 0 0 0 95834746.813778639 -94745983.473472595 0 -94745983.473472595 -601618829.18887711 0 0 0 0 -219962403.98492575 33661616.699150085 0 33661616.699150085 -650450882.15684509 0 0 0 0 -133969307.86358301 -38159204.147079468 0 -38159204.147079468 -158441568.12371826 0 0 0 0 -86751292.297353864 112655338.54238319 0 112655338.54238319 -98804077.533935547 0 0 0 0 -94946574.369318992 -81481021.160186768 0 -81481021.160186768 -355948084.66064453 0 0 0 0 3189152.4906304479 23583915.153762817 0 23583915.153762817 -702760320.05025864 0 0 0 0 -125993968.62123734 -72918218.263900757 0 -72918218.263900757 -717070643.73033142 0 0 0 0 -64363.585520382891 97158946.979499817 0 97158946.979499817 -778846901.93470764 0 0 0 0 133211115.2228533 -95145287.832862854 0 -95145287.832862854 -1614778255.5493698 0 0 0 0 210753.17709164531 94827924.737213135 0 94827924.737213135 -1369310580.671936 0 0 0 0 -4887037.0627819598 -221126691.60730743 0 -221126691.60730743 -1055555400.4306259 0 0 0 0 147951882.22109818 268298185.89287567 0 268298185.89287567 -1680351499.7692413 0 0 0 0 26284.478393428104 190908262.43436444 0 190908262.43436444 -1457223859.512146 0 0 0 0 -378400.50756556622 1203303.2822387069 0 1203303.2822387069 -2643569.0384675153 0 0 0 0 -8336102.7726654112 -8530633.5484008789 0 -8530633.5484008789 17866201.853183746 0 0 0 0 143484844.13143313 210103727.22795868 0 210103727.22795868 -2298772607.4900513 0 0 0 0 -561855247.60192609 791355014.95855713 0 791355014.95855713 -1114189837.3664856 0 0 0 0 -284689280.6031487 688080283.4814682 0 688080283.4814682 -3274081621.1932678 0 0 0 0 -262849.14873468946 690045.09793769568 0 690045.09793769568 -1459862.1896914542 0 0 0 0 -283990299.78284788 -967997993.15652466 0 -967997993.15652466 -3151706735.3435593 0 0 0 0 -195080.06117389147 1761944.8645551875 0 1761944.8645551875 -3684439.6252582148 0 0 0 0 -11143688.816397786 -2166531.5899429321 0 -2166531.5899429321 13276360.405250549 0 0 0 0 124706.53572463989 20868143.135932922 0 20868143.135932922 -27100424.398712158 0 0 0 0 -17233556.183520317 11018435.891220093 0 11018435.891220093 -28325831.33955574 0 0 0 0 -87469655.241604328 -40885722.469413757 0 -40885722.469413757 35105203.066635132 0 0 0 0 15525296.315956295 23443212.70343399 0 23443212.70343399 -20435471.046600342 0 0 0 0 11178739.656272858 7942352.8939056396 0 7942352.8939056396 -87455702.900436401 0 0 0 0 -209303.92007521112 92971.415720388293 0 92971.415720388293 56570.144831128418 0 0 0 0 -3160053.9986490607 -4199411.2151908875 0 -4199411.2151908875 8543855.0564575195 0 0 0 0 3517133.9104272127 -2008955.8162994385 0 -2008955.8162994385 -1229406.6241912842 0 0 0 0 -591498.41338088096 -14861.202229395509 0 -14861.202229395509 143281.45841051079 0 0 0 0 -1981423.6149922609 -2043839.298210144 0 -2043839.298210144 2939631.1603088379 0 0 0 0 13903693.849465385 6343282.4059143066 0 6343282.4059143066 -75202046.279014587 0 0 0 0 260520.25815663955 -1109161.662677981 0 -1109161.662677981 -4122623.3924316391 0 0 0 0 -119600.96473627083 -665281.59370110929 0 -665281.59370110929 -3555701.2755823657 0 0 0 0 -623236.60327305726 -2539440.8721618652 0 -2539440.8721618652 -14506350.267272949 0 0 0 0 109755.43742275456 -285679.95385542512 0 -285679.95385542512 -1907277.3271424528 0 0 0 0 -764.9037501506225 -520804.13519287109 0 -520804.13519287109 -1917239.3753433228 0 0 0 0 53806.796347606432 -9291043.8095703125 0 -9291043.8095703125 -18587437.592712402 0 0 0 0 -4721007.7737623006 -6166352.8765258789 0 -6166352.8765258789 -107537751.71887207 0 0 0 0 -317085.64744389767 -695526.44584256411 0 -695526.44584256411 -1642683.811787881 0 0 0 0 48713.199533780964 27117796.772181004 0 27117796.772181004 -50846670.824768066 0 0 0 0 -12086570.302298337 31484018.35634613 0 31484018.35634613 -28067294.337524414 0 0 0 0 -6300702.862954828 5634945.8117160797 0 5634945.8117160797 -41785638.632873535 0 0 0 0 11486710.335542515 6515309.5186958313 0 6515309.5186958313 -40122660.837097168 0 0 0 0 -9198365.4706079103 -5307193.8323974609 0 -5307193.8323974609 -44010409.55670166 0 0 0 0 115933542.65933672 97574079.958099365 0 97574079.958099365 -218977130.44689941 0 0 0 0 -94876874.510321498 214055534.49871826 0 214055534.49871826 39131357.015570164 0 0 0 0 41523701.828680247 234017200.38083649 0 234017200.38083649 -331004959.86412048 0 0 0 0 332423.43538784067 108298872.06681061 0 108298872.06681061 -29619728.556350708 0 0 0 0 -210495709.71913829 329767900.61229706 0 329767900.61229706 -311796507.25912285 0 0 0 0 -444985.89239156246 122865364.07866669 0 122865364.07866669 -693590786.92579651 0 0 0 0 -21260067.574456483 266195966.20539856 0 266195966.20539856 -250411024.79362869 0 0 0 0 220147251.79911175 92282006.763397217 0 92282006.763397217 -531966271.80581665 0 0 0 0 193812039.45697773 235972028.94152069 0 235972028.94152069 -166035862.28343201 0 0 0 0 307778197.41802073 -140249601.76561737 0 -140249601.76561737 -27459736.798431396 0 0 0 0 1170327.344927269 -1234784.514982678 0 -1234784.514982678 -935337.52719536424 0 0 0 0 578313777.07588172 -118498621.80241394 0 -118498621.80241394 18479474.946472168 0 0 0 0 271344114.70440996 -95398840.63822937 0 -95398840.63822937 94774169.204208374 0 0 0 0 576268209.38753235 -125160067.4768219 0 -125160067.4768219 -1156032.8688201904 0 0 0 0 85098955.537901282 163853490.87217712 0 163853490.87217712 27613470.27053833 0 0 0 0 394413677.64737147 41466690.6668396 0 41466690.6668396 17515728.686672211 0 0 0 0 361174588.56482613 235498529.56062317 0 235498529.56062317 299514208.10098267 0 0 0 0 89057090.246338874 80669186.291946411 0 80669186.291946411 229802801.43238831 0 0 0 0 649630498.11181045 -190226498.35984421 0 -190226498.35984421 45994269.922149658 0 0 0 0 1041563.0205289854 195219.98542171717 0 195219.98542171717 -1407088.2730968967 0 0 0 0 20914462.614481926 -3486139.2720947266 0 -3486139.2720947266 -3452115.6958007812 0 0 0 0 356484711.01929116 -16886290.376785278 0 -16886290.376785278 26680684.931488037 0 0 0 0 769149652.49310541 34534698.577087402 0 34534698.577087402 33059007.456039429 0 0 0 0 518314253.79548883 315202140.30461121 0 315202140.30461121 180279047.13407898 0 0 0 0 553872436.33362436 277847844.03721237 0 277847844.03721237 207037165.86691284 0 0 0 0 367830355.11988842 -5831498.974105835 0 -5831498.974105835 325715233.88471603 0 0 0 0 113911692.85916704 101933761.80169582 0 101933761.80169582 219923302.51681519 0 0 0 0 102114466.90938994 126598275.7251358 0 126598275.7251358 36913757.761012554 0 0 0 0 -51512986.068406031 182727211.10972595 0 182727211.10972595 205580410.73722839 0 0 0 0 42460991.264312446 68883377.657012939 0 68883377.657012939 254648187.03546143 0 0 0 0 -174523.78443648387 95273159.749438852 0 95273159.749438852 257399012.24655151 0 0 0 0 21881521.878803641 68621193.978782654 0 68621193.978782654 230191708.80568695 0 0 0 0 33808067.662428468 117243418.98184967 0 117243418.98184967 249625876.7273407 0 0 0 0 52515744.092136562 52107575.165466309 0 52107575.165466309 164286185.58018494 0 0 0 0 33202.514413746219 109947191.21002197 0 109947191.21002197 172295816.0174408 0 0 0 0 -54137897.460429519 51340749.557342529 0 51340749.557342529 47112625.242554188 0 0 0 0 64096657.547507256 89192126.419746399 0 89192126.419746399 48329277.13659668 0 0 0 0 4180196.2218482159 -5939793.8871059418 0 -5939793.8871059418 -148503748.7829895 0 0 0 0 63888298.495559365 81030225.006652832 0 81030225.006652832 -310943554.4711113 0 0 0 0 -99745.299705665049 116894610.01603699 0 116894610.01603699 -141396649.82788086 0 0 0 0 129229415.47792506 206707940.84621429 0 206707940.84621429 -140275517.26550293 0 0 0 0 83927541.439817667 190881756.79533768 0 190881756.79533768 99668604.647155762 0 0 0 0 64981871.48070097 58404477.526611328 0 58404477.526611328 -194364518.2330513 0 0 0 0 -29873250.934256643 166193546.86283398 0 166193546.86283398 33234209.401611328 0 0 0 0 212423330.29251039 130491788.44083405 0 130491788.44083405 29752549.443328857 0 0 0 0 191626218.57457286 285936242.00518131 0 285936242.00518131 61003880.926345825 0 0 0 0 458739826.38837457 234669999.0739212 0 234669999.0739212 70835427.899307251 0 0 0 0 93702819.020647228 176082244.83594322 0 176082244.83594322 131217758.51568604 0 0 0 0 109039501.86322433 134994116.14021683 0 134994116.14021683 301595564.90155029 0 0 0 0 330539935.52989531 73844507.745185852 0 73844507.745185852 169658715.70367432 0 0 0 0 290014693.05024362 205358530.16338158 0 205358530.16338158 241775854.16674805 0 0 0 0 371225569.48141646 363476555.38472748 0 363476555.38472748 186359461.67064667 0 0 0 0 71231466.196224213 11044665.009033203 0 11044665.009033203 -54951053.402023315 0 0 0 0 46725880.141031265 27646007.856399536 0 27646007.856399536 50565789.525665283 0 0 0 0 65422698.23664856 72242227.201690674 0 72242227.201690674 -66815492.812103271 0 0 0 0 35225574.662528992 -33487437.767669678 0 -33487437.767669678 -7648803.9963989258 0 0 0 0 1842982.275788923 3728418.6345450003 0 3728418.6345450003 -13572485.585031688 0 0 0 0 -7114344.6842498779 -26012516.859680176 0 -26012516.859680176 16554518.319396973 0 0 0 0 235449073.24307334 199443302.9286499 0 199443302.9286499 24399646.483261108 0 0 0 0 678607417.34928894 374562031.97293854 0 374562031.97293854 -5866668.6367340088 0 0 0 0 383954153.8348403 385311330.39425659 0 385311330.39425659 66596275.5809021 0 0 0 0 424468153.43937504 285080903.89152145 0 285080903.89152145 -6802032.6334838867 0 0 0 0 295510565.83141422 465382791.46729279 0 465382791.46729279 361248828.90008926 0 0 0 0 408591420.56595731 -106340270.50519562 0 -106340270.50519562 8916793.1772193909 0 0 0 0 7854262.2932319362 3222748.2196871489 0 3222748.2196871489 -8768990.3062986173 0 0 0 0 11712429.930708885 9753425.024143219 0 9753425.024143219 -20392608.582809448 0 0 0 0 -33439182.332241058 -100156559.93498993 0 -100156559.93498993 40329355.404052734 0 0 0 0 1163018.7263590735 1909785.7082431242 0 1909785.7082431242 -3179906.4374344945 0 0 0 0 19152673.749485016 11075530.780029297 0 11075530.780029297 -32105931.954200745 0 0 0 0 3399598.4155400242 3891794.2381422948 0 3891794.2381422948 -15047682.455758005 0 0 0 0 4099076.3465621471 141926.80159759521 0 141926.80159759521 -21883395.933547974 0 0 0 0 14341939.902494431 6741694.1524353027 0 6741694.1524353027 -20315312.042694092 0 0 0 0 10226441.798669815 11917878.348335266 0 11917878.348335266 -3251537.3339538574 0 0 0 0 3383813.8155622482 26313441.838638306 0 26313441.838638306 23801844.016838074 0 0 0 0 14191727.312641144 4844478.6806259155 0 4844478.6806259155 -265820.26567077637 0 0 0 0 7991782.5603694916 36755038.981246948 0 36755038.981246948 -9503857.397644043 0 0 0 0 14708672.066896439 21741469.495803833 0 21741469.495803833 6487359.9222106934 0 0 0 0 -8652400.9143428802 23433197.553726196 0 23433197.553726196 13155833.545532227 0 0 0 0 19758805.470935822 5817458.9757080078 0 5817458.9757080078 23927203.436401367 0 0 0 0 58243371.75458765 50913565.328174591 0 50913565.328174591 73160844.287780762 0 0 0 0 17650878.0636096 36617026.242816925 0 36617026.242816925 81649782.577880859 0 0 0 0 -4894.4860092289746 58328.871830590069 0 58328.871830590069 -59885.656491956674 0 0 0 0 221503.02961192932 255281.96834852546 0 255281.96834852546 -388694.70161444321 0 0 0 0 28883717.95526886 -27207809.510803223 0 -27207809.510803223 -26636676.038452148 0 0 0 0 16693717.558944702 44991547.93359375 0 44991547.93359375 87405874.685302734 0 0 0 0 832026.03855223954 -282856.68071068078 0 -282856.68071068078 -992673.00597007573 0 0 0 0 -689890.94241189957 9919295.0371704102 0 9919295.0371704102 -8257879.8974304199 0 0 0 0 -2232025.5833530426 -1096083.5279998779 0 -1096083.5279998779 -8881308.0565471649 0 0 0 0 2070353.5343952193 390116.98067220673 0 390116.98067220673 -2897433.0302506015 0 0 0 0 2412169.3488259916 -221312.58100499213 0 -221312.58100499213 -3262707.6789339483 0 0 0 0 23123802.097723484 4042064.8074836731 0 4042064.8074836731 -6830227.9688110352 0 0 0 0 22543021.848163605 -7182507.5014343262 0 -7182507.5014343262 -30325801.982635498 0 0 0 0 72553358.928825378 -1433927.3469238281 0 -1433927.3469238281 -12245479.087463379 0 0 0 0 34648865.217433929 -17192484.656311035 0 -17192484.656311035 10098102.456817627 0 0 0 0 -97942.071153616533 1648693.9956403524 0 1648693.9956403524 -959837.84673120826 0 0 0 0 487613.71041870117 672354.43981933594 0 672354.43981933594 -454930.59429931641 0 0 0 0 1513517.7080109771 1909445.6269846335 0 1909445.6269846335 -9781717.5065800697 0 0 0 0 4387119.5940893888 10807023.158459902 0 10807023.158459902 -19426934.308959961 0 0 0 0 119244.11296653748 3944459.3251190186 0 3944459.3251190186 -466086.50483703613 0 0 0 0 141309.00584013201 1587612.9653664008 0 1587612.9653664008 -93303.613893918693 0 0 0 0 1352367.570892334 1650881.0712890625 0 1650881.0712890625 1339006.0205078125 0 0 0 0 771325.21007511951 776348.66657201946 0 776348.66657201946 -10508.438924014568 0 0 0 0 1074946.6511569712 867624.70169524103 0 867624.70169524103 -4794824.2944458937 0 0 0 0 5350291.9219338447 -30943529.290018082 0 -30943529.290018082 -8995309.7837524414 0 0 0 0 5370913.780936135 7523545.6099228896 0 7523545.6099228896 -8043142.8437251374 0 0 0 0 -3798525.5179004669 -14470915.463447571 0 -14470915.463447571 -25204252.002532959 0 0 0 0 3554530.3111508125 -4885262.651209645 0 -4885262.651209645 -11463403.630153589 0 0 0 0 -16558169.842244625 -4054379.7145767212 0 -4054379.7145767212 -13315253.178771973 0 0 0 0 22183213.005272388 -21057721.927047729 0 -21057721.927047729 -10697496.555648804 0 0 0 0 12811784.712781906 -4583483.7041015625 0 -4583483.7041015625 -6786276.8292808533 0 0 0 0 -923056.03485298157 6239654.0354919434 0 6239654.0354919434 -26915666.853830338 0 0 0 0 5816791.0774173737 1695066.0883483887 0 1695066.0883483887 -26065897.506896973 0 0 0 0 37211878.605210304 -5171302.1645278931 0 -5171302.1645278931 -62122432.754974365 0 0 0 0 25199024.030343056 -29644171.9764328 0 -29644171.9764328 12258639.792053223 0 0 0 0 1455641.6704179593 332913.66488416493 0 332913.66488416493 -2629487.1846005619 0 0 0 0 -62652339.586486816 63768155.097015381 0 63768155.097015381 -40646528.364677429 0 0 0 0 772616.75059378939 -75736.193934153765 0 -75736.193934153765 -1023309.9847313017 0 0 0 0 -16423036.855640411 17774417.670143127 0 17774417.670143127 13261826.902084351 0 0 0 0 69062667.445791245 -120086218.08171844 0 -120086218.08171844 50592639.533325195 0 0 0 0 50041992.411838531 -21836649.394500732 0 -21836649.394500732 -52196042.223022461 0 0 0 0 42006624.453762054 107124169.11608887 0 107124169.11608887 28134101.246177673 0 0 0 0 -12356143.847998619 4903531.1025543213 0 4903531.1025543213 57004378.797912598 0 0 0 0 695880.97482536919 140818.0574009791 0 140818.0574009791 -944103.51188136637 0 0 0 0 56623606.187034607 114897872.56340027 0 114897872.56340027 -36014967.610687256 0 0 0 0 16437185.923332214 -12384992.57182312 0 -12384992.57182312 -13257104.082748413 0 0 0 0 32847096.073005676 17065388.774841309 0 17065388.774841309 -3251973.0329589844 0 0 0 0 3113846.399217478 2812824.0461257286 0 2812824.0461257286 -14391371.123903215 0 0 0 0 3451688.3049809933 13254305.028045654 0 13254305.028045654 98366541.098026276 0 0 0 0 -9979375.8195400238 -11707868.493461609 0 -11707868.493461609 -7978783.6790466309 0 0 0 0 840794.99390969286 2263466.4585387576 0 2263466.4585387576 -44622.399424493313 0 0 0 0 5995622.5733480453 -1843077.7908935547 0 -1843077.7908935547 -2178602.798828125 0 0 0 0 3716123.1653798511 4431567.3255996257 0 4431567.3255996257 -7813645.4414353147 0 0 0 0 9236751.015499115 -9247027.3265075684 0 -9247027.3265075684 1049915.6178588867 0 0 0 0 2305441.0713479621 -5309940.2298615724 0 -5309940.2298615724 -2661031.2652348131 0 0 0 0 3752059.200917982 -971129.80756890029 0 -971129.80756890029 -4015053.7229726613 0 0 0 0 4182109.3602600098 15346548.584457397 0 15346548.584457397 -36039533.850688934 0 0 0 0 15083630.214949608 9208480.2852935791 0 9208480.2852935791 -36746673.764328003 0 0 0 0 5107535.3058383204 -1269719.5196237415 0 -1269719.5196237415 -9612850.6623036116 0 0 0 0 4458540.2439622879 8240604.9719696045 0 8240604.9719696045 -30524182.840087891 0 0 0 0 9510254.8301477432 -738484.30969238281 0 -738484.30969238281 29128800.180023193 0 0 0 0 6895198.8230252266 -41284204.979721069 0 -41284204.979721069 4534409.8897705078 0 0 0 0 -48033667.988201141 -3781532.7408752441 0 -3781532.7408752441 29182836.679130316 0 0 0 0 108932693.56848097 -125970743.30793762 0 -125970743.30793762 129527565.69180298 0 0 0 0 35657553.532457829 11349512.363098145 0 11349512.363098145 9812014.5307769775 0 0 0 0 1458688.9020652706 -1133240.1715447819 0 -1133240.1715447819 -2098936.3409396708 0 0 0 0 16235526.026697159 37042700.694725037 0 37042700.694725037 19805543.01361084 0 0 0 0 -83055537.927456856 22111026.693725586 0 22111026.693725586 35815231.261039734 0 0 0 0 -120844073.0450325 -93261902.017120361 0 -93261902.017120361 -7214440.6070823669 0 0 0 0 116073230.96874213 12092186.448490143 0 12092186.448490143 -363022362.42060852 0 0 0 0 44306816.59061718 -20708809.095298767 0 -20708809.095298767 -4922545.9094238281 0 0 0 0 66135832.861384869 -10334981.033447266 0 -10334981.033447266 -299372558.11843872 0 0 0 0 -53528937.304317474 3589046.899307251 0 3589046.899307251 38365094.435666561 0 0 0 0 29456615.963759422 -29269712.075775146 0 -29269712.075775146 -15230462.355370045 0 0 0 0 9835354.5788296983 -2785146.9750401527 0 -2785146.9750401527 -12627148.64050064 0 0 0 0 85612.944842874538 1367557.011708051 0 1367557.011708051 -1572126.4121271484 0 0 0 0 24471075.507773876 -5949506.2608757019 0 -5949506.2608757019 -15155390.892707825 0 0 0 0 8732242.0916867256 -6138486.5337638855 0 -6138486.5337638855 -6488573.2765960693 0 0 0 0 17087571.945820332 -7494886.0591888428 0 -7494886.0591888428 -23390784.105789185 0 0 0 0 7205345.4424622385 -945865.26935018599 0 -945865.26935018599 -8713115.1673523858 0 0 0 0 16086589.732107162 6185119.564743042 0 6185119.564743042 -24866103.270553589 0 0 0 0 41118954.567940712 -10358811.022373199 0 -10358811.022373199 -46571484.891998291 0 0 0 0 37233398.251625061 -3313474.4896697998 0 -3313474.4896697998 -9531837.1621246338 0 0 0 0 -13408860.298390388 15068337.57673645 0 15068337.57673645 10987896.99937439 0 0 0 0 3868641.5865968396 -6773807.2305540238 0 -6773807.2305540238 -8745678.4536200911 0 0 0 0 11898135.378792375 1284057.9323696941 0 1284057.9323696941 -8329985.1937483447 0 0 0 0 126497069.6928196 52927301.313110352 0 52927301.313110352 10466479.074276447 0 0 0 0 6834470.6721712854 2825561.1794366464 0 2825561.1794366464 -3769366.0242290329 0 0 0 0 105758891.51941967 -152738862.90953064 0 -152738862.90953064 103884166.35415673 0 0 0 0 -221643820.84223747 66062321.189109802 0 66062321.189109802 271122622.78355742 0 0 0 0 117095707.02892303 -69330181.134025574 0 -69330181.134025574 9002132.50608778 0 0 0 0 2192919.1737915976 1584316.5447982624 0 1584316.5447982624 -1010822.9007100945 0 0 0 0 272764393.15601361 -355840760.65451956 0 -355840760.65451956 141015657.14834595 0 0 0 0 294604773.79026604 -128918795.37122345 0 -128918795.37122345 -44839001.566436768 0 0 0 0 171389490.38909018 -63526559.367830276 0 -63526559.367830276 -75917882.823562622 0 0 0 0 642190085.67968178 71636963.141304016 0 71636963.141304016 -103375178.80117035 0 0 0 0 739229798.83114243 -508805007.0406723 0 -508805007.0406723 -269201123.14009094 0 0 0 0 712632763.14541674 -146526443.12529087 0 -146526443.12529087 -540340248.29727173 0 0 0 0 104839994.21022606 109313334.76556396 0 109313334.76556396 -42548771.852035522 0 0 0 0 157481485.49349976 118504339.83883667 0 118504339.83883667 -43568305.014579773 0 0 0 0 187612502.05354118 50049707.434711456 0 50049707.434711456 -42731206.113220215 0 0 0 0 84435942.061470509 -31959912.295505524 0 -31959912.295505524 -5621823.3142852783 0 0 0 0 22916691.676724434 956994.54727172852 0 956994.54727172852 -16079290.066635132 0 0 0 0 175391371.84601212 -38994724.659500122 0 -38994724.659500122 -15975171.708120346 0 0 0 0 49046429.639162064 19534346.136650085 0 19534346.136650085 34905333.13659668 0 0 0 0 37793043.066142082 -12797207.193862915 0 -12797207.193862915 -24525640.292633057 0 0 0 0 -13781219.401864052 -12505789.723213196 0 -12505789.723213196 10483892.657302856 0 0 0 0 19595355.534248352 -25495396.604034424 0 -25495396.604034424 -22834218.605712891 0 0 0 0 12256952.440363858 3188922.4376281649 0 3188922.4376281649 -7736790.7887526471 0 0 0 0 -3530078.3004169464 -4793251.3956375122 0 -4793251.3956375122 -38947323.980125427 0 0 0 0 29598128.611654282 -11561709.262702942 0 -11561709.262702942 -83815757.064163208 0 0 0 0 29809153.765419006 52346021.43460083 0 52346021.43460083 -47149682.909285545 0 0 0 0 14521607.529930115 43244754.990242004 0 43244754.990242004 -38265880.405822754 0 0 0 0 21616438.09866333 -33216620.943359375 0 -33216620.943359375 -44396888.574195862 0 0 0 0 985769.97603321075 8761951.4086990356 0 8761951.4086990356 12173558.698760986 0 0 0 0 -262668.86775980517 3622505.9681268223 0 3622505.9681268223 -3934708.6097476184 0 0 0 0 -3120055.153137207 18812893.875518799 0 18812893.875518799 9176920.2676696777 0 0 0 0 -5398837.1272662692 4278553.9364555106 0 4278553.9364555106 -172491.76660357416 0 0 0 0 -16280762.80188179 -30752810.851730347 0 -30752810.851730347 1862769.4746704102 0 0 0 0 14603183.959688187 -9594994.2228851318 0 -9594994.2228851318 4683802.784538269 0 0 0 0 -6236045.2411499023 10187725.046875 0 10187725.046875 19959659.837005615 0 0 0 0 -129572.86575415172 3290277.1646449268 0 3290277.1646449268 -3110774.3942229114 0 0 0 0 -3893134.6828539176 8241107.9614919908 0 8241107.9614919908 -5850190.793742314 0 0 0 0 1850657.5453596115 6158232.4456558228 0 6158232.4456558228 2289962.4594497681 0 0 0 0 1921105.4030761719 5792162.6343078613 0 5792162.6343078613 2940647.5853881836 0 0 0 0 377976.26807689108 439169.8700473085 0 439169.8700473085 597354.26478286088 0 0 0 0 3859747.7271957397 5150928.1533813477 0 5150928.1533813477 5034022.3094177246 0 0 0 0 152426.32900717948 539333.90005123243 0 539333.90005123243 408363.31011792272 0 0 0 0 9161634.7144756317 12990010.383693695 0 12990010.383693695 802986.79284667969 0 0 0 0 -8562995.6786956787 -163092.28259277344 0 -163092.28259277344 20412126.752746582 0 0 0 0 13949147.672527313 6559551.6344299316 0 6559551.6344299316 -8577670.4100646973 0 0 0 0 9782863.6660919189 -5519891.7862854004 0 -5519891.7862854004 -28035115.627563477 0 0 0 0 15369011.434583664 8435936.2753601074 0 8435936.2753601074 -20408233.214548111 0 0 0 0 869941.13646697998 -2416541.6096801758 0 -2416541.6096801758 -1528058.6665344238 0 0 0 0 12743119.515918732 2158520.1346588135 0 2158520.1346588135 -20639608.307800293 0 0 0 0 17121939.199846268 10575205.303436279 0 10575205.303436279 -35824165.691078186 0 0 0 0 13305111.566595078 3139199.8425140381 0 3139199.8425140381 -50307072.802284241 0 0 0 0 4016904.6918029785 -12050381.212554932 0 -12050381.212554932 -43127902.087799072 0 0 0 0 -654210.93743133545 -7460581.8023300171 0 -7460581.8023300171 -14558434.116821289 0 0 0 0 15178393.256376266 17554250.264083862 0 17554250.264083862 -4295413.8376464844 0 0 0 0 329907.17948169447 180261.3202980794 0 180261.3202980794 -164468.75788411498 0 0 0 0 317685.14825621992 218960.27713757008 0 218960.27713757008 -21972.269610174 0 0 0 0 -52106573.430549622 3222292.1587219238 0 3222292.1587219238 -36035818.557647705 0 0 0 0 -48944562.932510376 5351522.9376373291 0 5351522.9376373291 15496545.215316772 0 0 0 0 -32261122.651168823 34729398.465118408 0 34729398.465118408 1647547.3981933594 0 0 0 0 27654712.962211609 21329758.174224854 0 21329758.174224854 -2689909.8031616211 0 0 0 0 -8449328.5661849976 59180931.713829041 0 59180931.713829041 -42172251.533721924 0 0 0 0 4764618.4350502715 601060.17498067021 0 601060.17498067021 -5524026.9605754167 0 0 0 0 -263050918.02054977 113677778.75352859 0 113677778.75352859 23792251.724830627 0 0 0 0 -52152287.312931061 111777241.84092712 0 111777241.84092712 -174042787.23096848 0 0 0 0 -65120868.697958946 620062098.42115402 0 620062098.42115402 -840120801.49485779 0 0 0 0 -158673548.42222977 721615778.80889893 0 721615778.80889893 -940401761.5657196 0 0 0 0 -172851339.37921047 519381132.27846909 0 519381132.27846909 -601697559.90470886 0 0 0 0 -43921366.489471436 368773227.61637115 0 368773227.61637115 -478193047.98001838 0 0 0 0 -111136586.75594521 74187385.595718384 0 74187385.595718384 -237003678.53738403 0 0 0 0 1822251.7026499901 -439017.8582719937 0 -439017.8582719937 -4491278.6130898967 0 0 0 0 1412974.4506034851 3907327.1525268555 0 3907327.1525268555 -10823680.482284546 0 0 0 0 25852888.737128496 11724911.313217163 0 11724911.313217163 -13604423.643066406 0 0 0 0 14189591.745933533 1031259.3025512695 0 1031259.3025512695 -16148545.96685791 0 0 0 0 -450087.75787194632 -189642.52163464576 0 -189642.52163464576 635744.73385339975 0 0 0 0 -5573965.758972168 4628349.1952819824 0 4628349.1952819824 -10798552.842224121 0 0 0 0 -4063486.3232819904 4567232.333452899 0 4567232.333452899 -1601334.6807597242 0 0 0 0 60852921.032369614 95483242.245433807 0 95483242.245433807 -1247354232.0821533 0 0 0 0 589770850.58535767 384098283.77325439 0 384098283.77325439 -6126910.1359558105 0 0 0 0 -34458.480787815526 137021.06304167956 0 137021.06304167956 -259989.28195405751 0 0 0 0 194947230.93617249 32730303.745803833 0 32730303.745803833 29998047.20891571 0 0 0 0 190331373.98997879 38856171.8409729 0 38856171.8409729 25634407.73890686 0 0 0 0 773004860.8438797 -7160397.0967559814 0 -7160397.0967559814 -45516201.164031982 0 0 0 0 63556086.715278625 -151231996.42397308 0 -151231996.42397308 56963169.28427124 0 0 0 0 -72596659.052089691 73317125.450088501 0 73317125.450088501 44268061.460693359 0 0 0 0 -24215702.427463531 -10826425.075820923 0 -10826425.075820923 100885128.43869019 0 0 0 0 -103472773.70433807 126971266.37411499 0 126971266.37411499 18845792.905990601 0 0 0 0 11841816.616809845 73561616.716682434 0 73561616.716682434 -191945821.93374634 0 0 0 0 104735841.06678772 99006484.657104492 0 99006484.657104492 -20071789.668548584 0 0 0 0 8198849.3656644244 1164483.1204097718 0 1164483.1204097718 -3754446.6739836615 0 0 0 0 772688989.87781525 -271516856.73981476 0 -271516856.73981476 -125569565.48390198 0 0 0 0 408213318.17697525 627053951.28033829 0 627053951.28033829 669621182.41253662 0 0 0 0 3019500.3616016489 260641.85901735723 0 260641.85901735723 -1095017.331291649 0 0 0 0 -58057428.594507217 414028463.38593292 0 414028463.38593292 912909132.1476059 0 0 0 0 1107970935.2871704 1206332182.0613251 0 1206332182.0613251 -5640493.1536254883 0 0 0 0 -67929310.27463913 219599981.80455017 0 219599981.80455017 -143450087.74441385 0 0 0 0 -366020878.6553688 1388961540.9301872 0 1388961540.9301872 -262218363.91029358 0 0 0 0 5214057.0756406784 769200664.95761871 0 769200664.95761871 72071886.027832031 0 0 0 0 1660630815.4937229 238064522.35157776 0 238064522.35157776 -323029362.32489014 0 0 0 0 644227387.61571407 290036778.54341125 0 290036778.54341125 -251804617.21469116 0 0 0 0 470121529.58327484 708898936.82809448 0 708898936.82809448 -29450576.768569946 0 0 0 0 506946467.7553215 433404084.51005554 0 433404084.51005554 26385720.190078735 0 0 0 0 456607805.76522827 171416636.51705933 0 171416636.51705933 254382715.41085815 0 0 0 0 18504177.10900116 765320497.04957581 0 765320497.04957581 686254429.32067871 0 0 0 0 -1010245.7480699308 724501.12709209323 0 724501.12709209323 -1805156.6849861145 0 0 0 0 32804726.439556122 298767419.03359985 0 298767419.03359985 -1872297084.7421265 0 0 0 0 142720098.65791321 380234084.99678802 0 380234084.99678802 965749882.95533752 0 0 0 0 -450210536.14184237 1169159375.7762585 0 1169159375.7762585 -1138270882.0564728 0 0 0 0 -465436139.35229111 1299865192.7025757 0 1299865192.7025757 99065079.451951981 0 0 0 0 -600392770.74981785 592345991.36851692 0 592345991.36851692 -683654935.99690247 0 0 0 0 -454176546.42510223 694181058.22931671 0 694181058.22931671 -647540259.8911438 0 0 0 0 -158417905.35641479 752776525.77278137 0 752776525.77278137 -1697566371.779129 0 0 0 0 -588783190.42158508 1012820701.852206 0 1012820701.852206 -974273697.56047058 0 0 0 0 -549129394.39613724 587507846.71044922 0 587507846.71044922 -457423367.15283966 0 0 0 0 -344914359.57540131 401542965.7145462 0 401542965.7145462 -426079986.779953 0 0 0 0 -501283174.90968704 748189754.32888031 0 748189754.32888031 -702655374.51525116 0 0 0 0 -399574087.80256271 576787626.60978699 0 576787626.60978699 -549913448.04191589 0 0 0 0 -491225422.0228014 1013591334.599102 0 1013591334.599102 -370899010.49064636 0 0 0 0 -438387941.49805593 488784731.53346634 0 488784731.53346634 -397435958.23930359 0 0 0 0 -963692530.63804197 444854538.52577209 0 444854538.52577209 -400333601.80845642 0 0 0 0 -839388348.62669802 654811582.61787415 0 654811582.61787415 -230523622.53727722 0 0 0 0 -1076258970.3290825 863753814.73640442 0 863753814.73640442 -143042223.64126968 0 0 0 0 -2130956393.1661892 194098049.99982834 0 194098049.99982834 -182634822.0928731 0 0 0 0 -896515657.92851877 -483773144.35157776 0 -483773144.35157776 -1949727011.6503067 0 0 0 0 -331241157.27914429 472079723.29938507 0 472079723.29938507 -430946272.28344727 0 0 0 0 -628746714.63605869 1195195123.9934797 0 1195195123.9934797 -1671824622.8752823 0 0 0 0 -2143942764.8346386 -465977672.0730629 0 -465977672.0730629 -93434410.96068573 0 0 0 0 -201779.48454295518 -639485.1317665875 0 -639485.1317665875 -6016529.8098561168 0 0 0 0 -1060827682.5986266 1389283578.2109795 0 1389283578.2109795 -1483231151.7519684 0 0 0 0 1695280394.9715929 531682337.7385788 0 531682337.7385788 -898424742.45404053 0 0 0 0 696022483.17205429 -269122527.753685 0 -269122527.753685 -810973327.72119999 0 0 0 0 359721648.10310268 -202426406.08367157 0 -202426406.08367157 -552145020.74969482 0 0 0 0 194227456.76098633 -895991824.33690643 0 -895991824.33690643 -1983543990.5103617 0 0 0 0 856039709.85442924 -791896701.28708649 0 -791896701.28708649 -339809145.19431305 0 0 0 0 689481547.37195396 -228643841.95899963 0 -228643841.95899963 -659654802.72180176 0 0 0 0 349472348.58580112 -821351744.3891449 0 -821351744.3891449 1036578804.6812439 0 0 0 0 581155661.95020866 -948996874.92705536 0 -948996874.92705536 46078353.844238281 0 0 0 0 -212081651.13222218 -190186490.26050186 0 -190186490.26050186 686748547.90292358 0 0 0 0 -962971915.25547981 -107463627.85707855 0 -107463627.85707855 195884619.45060349 0 0 0 0 78367.905397908529 -2753976.4075887632 0 -2753976.4075887632 -17142371.80816301 0 0 0 0 254111785.46526611 241860110.59559584 0 241860110.59559584 -475284688.64712524 0 0 0 0 -298872750.06345272 -460117712.11487961 0 -460117712.11487961 -115818613.34602356 0 0 0 0 -68545913.811717987 -305372357.25332642 0 -305372357.25332642 -2521346.8091239929 0 0 0 0 -74960427.008881569 -265137412.33771706 0 -265137412.33771706 -252592491.53131104 0 0 0 0 1264933.9227827655 -4734574.7329013348 0 -4734574.7329013348 -27464620.381811589 0 0 0 0 -136338940.43637848 -353701651.26303101 0 -353701651.26303101 -36271439.401641846 0 0 0 0 400238879.11241186 22020466.151733398 0 22020466.151733398 -4951031.4197616577 0 0 0 0 -113976922.5235405 -443865776.89552307 0 -443865776.89552307 127170667.87804794 0 0 0 0 -52367148.671243668 -455095672.06924057 0 -455095672.06924057 -130025422.48335266 0 0 0 0 -15940090.896753311 -495480762.7352829 0 -495480762.7352829 -290612448.2850647 0 0 0 0 236333850.16746759 -153768420.01569748 0 -153768420.01569748 -582920989.85816956 0 0 0 0 835438559.57699943 -350289667.91403389 0 -350289667.91403389 -602730967.10577393 0 0 0 0 442448660.58667088 -413261679.0144577 0 -413261679.0144577 -519300426.82055664 0 0 0 0 116750300.73255348 -60571801.000991821 0 -60571801.000991821 -797641057.66419983 0 0 0 0 164739464.32853317 -226012688.99456787 0 -226012688.99456787 -361417432.49798584 0 0 0 0 111158150.51829052 5152526.8870353699 0 5152526.8870353699 -798559746.97279358 0 0 0 0 -273307.20157802291 2319145.9248927832 0 2319145.9248927832 -580734.77142213657 0 0 0 0 -85621832.00673151 179282274.12414551 0 179282274.12414551 -234750411.96369934 0 0 0 0 104592588.51288509 132123132.19189453 0 132123132.19189453 -520868818.15841675 0 0 0 0 45536507.005867004 -6334042.32762146 0 -6334042.32762146 -580654633.70237732 0 0 0 0 103968823.11941528 105060696.33328247 0 105060696.33328247 -658381025.98374939 0 0 0 0 45495155.749326706 17249966.702629089 0 17249966.702629089 -449663032.32501221 0 0 0 0 -1611742.4909954872 4449654.7461934835 0 4449654.7461934835 -912604.06192877516 0 0 0 0 43912923.944005966 -95111110.162771225 0 -95111110.162771225 172186705.48880005 0 0 0 0 -1838481.4643512238 2931836.3279206082 0 2931836.3279206082 5109232.7943347692 0 0 0 0 42926949.485733032 108054948.37599945 0 108054948.37599945 116664587.6557312 0 0 0 0 -42698580.265388489 60731530.309463501 0 60731530.309463501 76218113.777114868 0 0 0 0 -44025352.350841522 13919894.339599609 0 13919894.339599609 144941320.88718224 0 0 0 0 -28642700.875625134 111499321.15198898 0 111499321.15198898 123470363.67266846 0 0 0 0 -55369030.968876839 172061734.38171768 0 172061734.38171768 -1007430.0488586426 0 0 0 0 -22968272.133487701 50145152.189071655 0 50145152.189071655 72181503.148200989 0 0 0 0 -112753479.15154266 72005164.434234619 0 72005164.434234619 107699009.14246368 0 0 0 0 -24947343.073753357 132512780.39788818 0 132512780.39788818 -611777007.71446991 0 0 0 0 -87311769.676589966 25736506.503555298 0 25736506.503555298 -53436074.625040054 0 0 0 0 3814952.2255750187 -5421542.6728009544 0 -5421542.6728009544 -37636125.882741153 0 0 0 0 416758287.33884239 -107960247.10610962 0 -107960247.10610962 -396831412.15997314 0 0 0 0 1016569464.8918209 257404809.70522785 0 257404809.70522785 130251544.52832031 0 0 0 0 9407497.8031612281 -2206232.0086670127 0 -2206232.0086670127 -47968440.116164103 0 0 0 0 1436439918.8400993 -294864483.12678337 0 -294864483.12678337 -1176572349.1709595 0 0 0 0 162824037.52522278 118586134.05963898 0 118586134.05963898 -7891319.2266540527 0 0 0 0 14561806.023617268 19069993.125500537 0 19069993.125500537 -8915738.2203885503 0 0 0 0 34488623.657087326 51201234.535522461 0 51201234.535522461 -6922344.3311767578 0 0 0 0 121634799.31819916 -470370425.42007446 0 -470370425.42007446 -1499210458.9790192 0 0 0 0 -654403667.53271055 283072027.98513031 0 283072027.98513031 843828716.24322319 0 0 0 0 -132551162.24101278 719757961.74456406 0 719757961.74456406 -2376495261.5024185 0 0 0 0 1943796.5036716729 6179490.6776296552 0 6179490.6776296552 -7457061.8539044484 0 0 0 0 520315750.12107652 35430777.995386124 0 35430777.995386124 -4634156828.8189392 0 0 0 0 405618235.91980183 325278409.16633224 0 325278409.16633224 -2269321432.9798279 0 0 0 0 408496617.64305818 -1038261657.6787033 0 -1038261657.6787033 -3794882945.2772369 0 0 0 0 791343191.31684768 -1258880752.323391 0 -1258880752.323391 -4723383418.9605789 0 0 0 0 217886804.43328369 -1314243104.1441269 0 -1314243104.1441269 -4517380615.1539307 0 0 0 0 450938499.18637484 -819060921.29801559 0 -819060921.29801559 -4017358435.7224617 0 0 0 0 -2499762270.8122859 -2250103901.0775757 0 -2250103901.0775757 -4728793481.7781448 0 0 0 0 -2047710356.9744401 -2631814046.2069702 0 -2631814046.2069702 -1555453294.6263123 0 0 0 0 -1267508333.0971084 -938400318.51710892 0 -938400318.51710892 675488281.98931885 0 0 0 0 255053783.9826079 -1749831149.098938 0 -1749831149.098938 -3358499483.7605286 0 0 0 0 250561657.53121024 -2038669963.6929855 0 -2038669963.6929855 -4739329891.8990288 0 0 0 0 411232745.93053788 -676970275.22977972 0 -676970275.22977972 -3006921199.4364319 0 0 0 0 -140350193.96371272 -1161406716.8899918 0 -1161406716.8899918 -2266474839.0756454 0 0 0 0 -430235918.14786792 -416911197.14337921 0 -416911197.14337921 -750153745.6872406 0 0 0 0 -289153821.29118824 -604127049.17279053 0 -604127049.17279053 -1369602897.8787098 0 0 0 0 -646143700.73651934 -154051967.97029686 0 -154051967.97029686 -170407778.92340088 0 0 0 0 -192914436.79256964 190002643.14319324 0 190002643.14319324 79375498.183151245 0 0 0 0 292960230.53260875 366790784.17384338 0 366790784.17384338 16641118.0650177 0 0 0 0 51463596.532620326 -120882756.52789879 0 -120882756.52789879 -952869776.52937317 0 0 0 0 -203004120.54227775 392882778.86040497 0 392882778.86040497 141179915.33148193 0 0 0 0 352928853.31426042 131630713.80917549 0 131630713.80917549 -1178752234.3006439 0 0 0 0 9923647.7785166763 22074291.419908367 0 22074291.419908367 -4472905.3251723759 0 0 0 0 23188189.904005051 -5422315.4191970825 0 -5422315.4191970825 53502504.86907959 0 0 0 0 -235712673.62628937 -10024021.22883606 0 -10024021.22883606 568912187.42380524 0 0 0 0 6399847.844597429 11564633.689109674 0 11564633.689109674 -11809952.337926246 0 0 0 0 5278807.8748760223 9020314.4096374512 0 9020314.4096374512 -3471110.0737037659 0 0 0 0 3676678.0612098924 7617567.3025150821 0 7617567.3025150821 -5134538.8275945578 0 0 0 0 -1143019.4399147034 32940190.117080688 0 32940190.117080688 145709280.84619141 0 0 0 0 6594239.7844705582 4345276.3440170288 0 4345276.3440170288 -10299512.874786377 0 0 0 0 3610832.905769825 5873225.2665176392 0 5873225.2665176392 -4844930.837890625 0 0 0 0 7338383.2680773735 4491601.6131896973 0 4491601.6131896973 -6609201.0387268066 0 0 0 0 6132649.8969600201 8123490.1726341248 0 8123490.1726341248 -2877569.6566925049 0 0 0 0 507638026.04490852 -273265051.18704224 0 -273265051.18704224 47599330.337589264 0 0 0 0 435339942.7664628 159150841.39717674 0 159150841.39717674 -176326734.31506348 0 0 0 0 352771527.28129101 -15483610.511672974 0 -15483610.511672974 -357570782.78433228 0 0 0 0 368767636.95948029 205382872.08395386 0 205382872.08395386 -298695841.71185303 0 0 0 0 9323601.4788041711 4943933.9382640533 0 4943933.9382640533 -16587650.693463102 0 0 0 0 9211854.5781264305 6805793.6823291779 0 6805793.6823291779 -4696167.2799987793 0 0 0 0 9817223.3181800842 9261551.8162307739 0 9261551.8162307739 -3519112.7082595825 0 0 0 0 4882026.4908520589 7178631.3278218955 0 7178631.3278218955 -15949986.112736695 0 0 0 0 -2496655.9916632599 -4873268.9577587582 0 -4873268.9577587582 -10764894.354711037 0 0 0 0 22705.31168853736 1213003.9949560575 0 1213003.9949560575 -2893062.0927581266 0 0 0 0 370797180.88296896 805846881.00248814 0 805846881.00248814 -4353970693.4616776 0 0 0 0 -128051653.83460428 -2835336509.9452515 0 -2835336509.9452515 -4718587887.6012268 0 0 0 0 -367439698.8519727 -1041598539.4553413 0 -1041598539.4553413 -2954345727.151619 0 0 0 0 -1858728.5970642148 -1534042.6949395798 0 -1534042.6949395798 -3260270.0714066997 0 0 0 0 179925408.52912116 207532624.32120514 0 207532624.32120514 -6164939336.8909073 0 0 0 0 457428970.54137182 1455400746.2946739 0 1455400746.2946739 -4715870048.7002106 0 0 0 0 695598366.05812252 227766418.1031723 0 227766418.1031723 -2323285862.943161 0 0 0 0 4693933.9754337072 4052821.4642028809 0 4052821.4642028809 -4351953.7172393799 0 0 0 0 -981441342.29068422 1408546769.4966125 0 1408546769.4966125 -2152874011.2401276 0 0 0 0 -4302167297.3639698 1753363398.7253418 0 1753363398.7253418 1658563971.3494873 0 0 0 0 1959751.6050535641 5931048.782235493 0 5931048.782235493 -1651387.0545501634 0 0 0 0 1890999.117805043 4904992.7935229223 0 4904992.7935229223 -607057.1051549539 0 0 0 0 -336032569.99678338 -147510198.09712219 0 -147510198.09712219 430770177.64045715 0 0 0 0 2877418.5229102853 11014880.017772458 0 11014880.017772458 -6811001.4436543956 0 0 0 0 -131958777.4983834 -142158964.95828247 0 -142158964.95828247 166113196.89967346 0 0 0 0 104849459.46553802 741804543.21297073 0 741804543.21297073 -1991484894.8614349 0 0 0 0 712050.54038603883 11636267.432028256 0 11636267.432028256 -4690511.6104969978 0 0 0 0 -6602496.3081474304 15674719.918515205 0 15674719.918515205 8478045.5654754639 0 0 0 0 9486571.2667531967 6597259.0716400146 0 6597259.0716400146 -4547102.473739624 0 0 0 0 5223977.3398099644 6899043.5854861327 0 6899043.5854861327 -13140703.015760094 0 0 0 0 28852284.818189621 31483298.437454224 0 31483298.437454224 -20201376.148361206 0 0 0 0 -11509078.864370465 35687602.976816177 0 35687602.976816177 -3484347.8730773926 0 0 0 0 6671946.7821273804 5629924.9400558472 0 5629924.9400558472 -7133479.1918334961 0 0 0 0 120406534.26167202 22284590.319709778 0 22284590.319709778 -80776120.749633789 0 0 0 0 4875877.122075065 1916033.1250618952 0 1916033.1250618952 -12543190.522316545 0 0 0 0 69948187.929676056 6194667.2319335938 0 6194667.2319335938 -5434860.4437398911 0 0 0 0 105647175.69717312 41154888.83052063 0 41154888.83052063 -83330752.003211975 0 0 0 0 152150000.30741882 -36364601.868530273 0 -36364601.868530273 22879976.55090332 0 0 0 0 -53231362.416897297 20052091.807752609 0 20052091.807752609 8836957.7863616943 0 0 0 0 -7270144.1200818736 5633914.6485760994 0 5633914.6485760994 4182235.9557546377 0 0 0 0 -16753494.033015251 88142839.031974792 0 88142839.031974792 -63718694.9112854 0 0 0 0 29396500.012625694 -46413540.855316162 0 -46413540.855316162 295595496.0216217 0 0 0 0 94794635.561223984 155318396.19127464 0 155318396.19127464 111229933.15127563 0 0 0 0 110615647.99909222 30261216.700799942 0 30261216.700799942 -8563287.5009460449 0 0 0 0 203230900.54192591 -562084453.73986816 0 -562084453.73986816 -371970804.68908691 0 0 0 0 157964219.10614967 -163904163.97009277 0 -163904163.97009277 -654666654.78504944 0 0 0 0 85910062.966926575 -420254152.12062073 0 -420254152.12062073 -910821063.67184448 0 0 0 0 -1353753380.0582786 1349127184.7617912 0 1349127184.7617912 410348344.50079346 0 0 0 0 115153583.39842796 -658557891.1346817 0 -658557891.1346817 -3081413150.1057739 0 0 0 0 -2016613748.4205475 -595646730.72608948 0 -595646730.72608948 52839132.265594482 0 0 0 0 358264822.94275856 -190223231.50033569 0 -190223231.50033569 -14341184.64831543 0 0 0 0 -1301592.3077029956 1846214.8733568154 0 1846214.8733568154 -2429484.8176909983 0 0 0 0 143386314.40579283 1641865982.9335423 0 1641865982.9335423 222227616.50195312 0 0 0 0 -385017879.9329381 -15524005.991493225 0 -15524005.991493225 1401245354.5405884 0 0 0 0 1036217.2630723119 2098430.0757860541 0 2098430.0757860541 -1065544.9344460033 0 0 0 0 -222348470.56272316 -230458256.48629761 0 -230458256.48629761 332185481.39691162 0 0 0 0 -5321187.8495805683 5329725.6880286783 0 5329725.6880286783 -12494.97012116015 0 0 0 0 -117415.24973922137 1259391.3083482636 0 1259391.3083482636 217275.39387944341 0 0 0 0 -283860940.82235909 375606107.04928589 0 375606107.04928589 1871304189.4402466 0 0 0 0 429388830.56608403 249545402.13141632 0 249545402.13141632 121327986.38439941 0 0 0 0 -14000.018024612684 102815.29467079788 0 102815.29467079788 -323140.30814341269 0 0 0 0 -3206479.920525101 5564148.6466359496 0 5564148.6466359496 -763822.08341636509 0 0 0 0 954561.84178626537 6785727.8646129519 0 6785727.8646129519 -2120425.7872811854 0 0 0 0 17653061.51348877 -44795685.15435791 0 -44795685.15435791 140954333.79046631 0 0 0 0 259542133.95749617 456584800.13304138 0 456584800.13304138 -208342702.63818359 0 0 0 0 -12283064.895511627 -74031446.858123779 0 -74031446.858123779 122295543.81889343 0 0 0 0 -100815366.96476555 80971684.757751465 0 80971684.757751465 122583351.69528198 0 0 0 0 63823494.262037277 16731850.198348999 0 16731850.198348999 -9176112.3735961914 0 0 0 0 82071063.083870411 163428389.16087341 0 163428389.16087341 -544129182.78170776 0 0 0 0 -149245718.5589571 338944990.45176697 0 338944990.45176697 -440211267.75862122 0 0 0 0 25462729.129066885 -38143082.002563477 0 -38143082.002563477 60534725.745788574 0 0 0 0 -43681105.830419511 -119236809.26958656 0 -119236809.26958656 -27370428.228393555 0 0 0 0 -307265061.20075417 226545284.12820435 0 226545284.12820435 -118218946.63446808 0 0 0 0 458611.11701376271 902243.973364003 0 902243.973364003 -2490644.009308666 0 0 0 0 524453825.16713476 -885170398.92072296 0 -885170398.92072296 -2322033633.1531067 0 0 0 0 727259730.5770427 -216222610.89707184 0 -216222610.89707184 -1830030700.4891968 0 0 0 0 -179387723.53250408 687171164.09814453 0 687171164.09814453 -1055183412.7052307 0 0 0 0 208347795.9147234 -328936612.17700958 0 -328936612.17700958 -1324499707.1106415 0 0 0 0 39719547.886345863 -262836495.7341156 0 -262836495.7341156 -429358452.15982056 0 0 0 0 -400770704.02899933 -158914135.33277893 0 -158914135.33277893 -410042484.66567993 0 0 0 0 -213860360.40210319 297031824.49958038 0 297031824.49958038 -1055336247.6534042 0 0 0 0 -144755760.72858444 -211970393.41114998 0 -211970393.41114998 -335279369.16107178 0 0 0 0 -38708999.47195673 188613855.50588512 0 188613855.50588512 -34412410.035675049 0 0 0 0 3882020.6970215738 -7396206.8758628853 0 -7396206.8758628853 -12579330.962321475 0 0 0 0 -58497776.863302231 45223615.93762207 0 45223615.93762207 -187740600.03882599 0 0 0 0 15117514.360466003 42498362.853729248 0 42498362.853729248 -209002143.66281128 0 0 0 0 330169550.67601275 122025182.63024998 0 122025182.63024998 -1827023101.4566345 0 0 0 0 -365320565.47591782 538002735.61265564 0 538002735.61265564 -563200102.41458893 0 0 0 0 -387615485.1819315 -770225168.83155441 0 -770225168.83155441 -595408764.31297302 0 0 0 0 527828.38543367526 -2988023.1206350513 0 -2988023.1206350513 -4204022.2626845688 0 0 0 0 -551969520.9583168 1037687217.3917084 0 1037687217.3917084 -1771646103.3555298 0 0 0 0 144594316.45705366 -56840982.717796326 0 -56840982.717796326 -744313772.36695862 0 0 0 0 313744315.88498706 32186719.182777405 0 32186719.182777405 -805225668.37054443 0 0 0 0 218301227.15252876 41151960.741790771 0 41151960.741790771 -793516565.72757721 0 0 0 0 -41669610.578408778 211525801.47753668 0 211525801.47753668 -379602733.09088135 0 0 0 0 216597721.36193562 22949098.184394836 0 22949098.184394836 -685278614.78770447 0 0 0 0 70688091.534664154 -96334098.942367554 0 -96334098.942367554 -390269888.97898865 0 0 0 0 82716737.476296425 -182106342.43619919 0 -182106342.43619919 -784147272.38075256 0 0 0 0 199103989.82346615 221432184.02358437 0 221432184.02358437 -513677359.1875 0 0 0 0 -179488704.95047379 -216202866.61322784 0 -216202866.61322784 -256023773.48819733 0 0 0 0 548651.15436445456 172089.91087011155 0 172089.91087011155 -1054316.7810959518 0 0 0 0 -220019884.49860159 -21808146.423660755 0 -21808146.423660755 -668199397.89453125 0 0 0 0 95185078.690361261 13593738.500671387 0 13593738.500671387 -767273006.80996704 0 0 0 0 -220820416.00250053 -11824317.921188354 0 -11824317.921188354 -586416917.36621094 0 0 0 0 118734690.98230457 36125951.081550598 0 36125951.081550598 -815258493.99750137 0 0 0 0 -186352383.35876513 11979088.798782349 0 11979088.798782349 -586463962.03795624 0 0 0 0 -229865276.08293915 -49952602.252349854 0 -49952602.252349854 -502095926.21104431 0 0 0 0 -298918411.86577499 24261809.74105072 0 24261809.74105072 -581722875.99819946 0 0 0 0 -376687351.10486317 154467696.54516602 0 154467696.54516602 -646508083.6661377 0 0 0 0 -540259470.97041047 33551189.089426041 0 33551189.089426041 -414780082.2800293 0 0 0 0 -490892341.60099858 197762978.48319626 0 197762978.48319626 -639854886.88946533 0 0 0 0 94866653.901488781 -195895300.12463379 0 -195895300.12463379 -502831167.64833069 0 0 0 0 -337393668.40435553 5067281.923324585 0 5067281.923324585 -181137549.93185425 0 0 0 0 96688250.716532707 -133658598.81358337 0 -133658598.81358337 -298239683.15362549 0 0 0 0 140341828.05152667 -15476117.344928741 0 -15476117.344928741 -538096577.2228241 0 0 0 0 268898757.28733635 -139430163.20438385 0 -139430163.20438385 -689840109.42473602 0 0 0 0 276562718.72500801 -109675748.25874329 0 -109675748.25874329 -962495601.66867065 0 0 0 0 220527927.9375248 -396960699.99449158 0 -396960699.99449158 -496889729.8302002 0 0 0 0 159690687.35534477 -82591085.223052979 0 -82591085.223052979 -383708796.40731049 0 0 0 0 14209584.176919937 103314152.71783447 0 103314152.71783447 81539637.813407898 0 0 0 0 14830859.693035126 114932866.853508 0 114932866.853508 287121323.35101318 0 0 0 0 500682332.45281029 244861314.12689209 0 244861314.12689209 -258010649.0195303 0 0 0 0 -142876800.04671502 -155186523.92935944 0 -155186523.92935944 350965918.27072144 0 0 0 0 294729721.01714545 315424667.35653734 0 315424667.35653734 -199765771.29676819 0 0 0 0 327185600.19079828 34650839.45388031 0 34650839.45388031 -7417339.3297805786 0 0 0 0 -3831267.8446375723 7935647.7510303669 0 7935647.7510303669 -6609455.7360152677 0 0 0 0 -415100.06716236845 1865795.4348373413 0 1865795.4348373413 -1006118.5474282354 0 0 0 0 -72779668.288274944 410749071.28597927 0 410749071.28597927 -1233648732.3135071 0 0 0 0 -294961070.27227342 -1765067329.99403 0 -1765067329.99403 -4717313884.7796631 0 0 0 0 -117035594.16137838 -989557182.28099823 0 -989557182.28099823 -1593288477.1329556 0 0 0 0 788267680.69989216 -55394080.494550705 0 -55394080.494550705 -4726710950.9114685 0 0 0 0 -789331713.14982986 1159626525.36409 0 1159626525.36409 -3026439325.8487549 0 0 0 0 771955188.23159063 583908520.91416931 0 583908520.91416931 -4701948100.7645111 0 0 0 0 -1555595800.1557119 1130861373.4624772 0 1130861373.4624772 -411181759.65930176 0 0 0 0 -1561777833.0606155 425446479.78154755 0 425446479.78154755 258379718.57322693 0 0 0 0 -1824673.550086125 2690432.2112973854 0 2690432.2112973854 -3475119.6485558152 0 0 0 0 -590044305.38532448 -110244469.822052 0 -110244469.822052 85270364.308076859 0 0 0 0 -1160346926.5674951 370986443.9768219 0 370986443.9768219 -17072815.662826538 0 0 0 0 -473080439.84639525 45925733.584049225 0 45925733.584049225 785821877.1105957 0 0 0 0 -1140724989.8686724 675895059.56445026 0 675895059.56445026 880601792.76144409 0 0 0 0 -828855087.27735806 743833313.43811798 0 743833313.43811798 -104299864.67077637 0 0 0 0 -820911477.83189845 889074003.33023071 0 889074003.33023071 303974004.79937744 0 0 0 0 -760861164.19899011 592466366.72928619 0 592466366.72928619 104502953.71609497 0 0 0 0 -377566176.60461569 273901991.6135025 0 273901991.6135025 -404206418.72293091 0 0 0 0 -556709583.20408678 178077027.1934967 0 178077027.1934967 -156043343.38273048 0 0 0 0 -929458734.15555191 512228753.20869446 0 512228753.20869446 -445499033.72988892 0 0 0 0 -602722305.78067088 240484562.69044495 0 240484562.69044495 -367598041.65133667 0 0 0 0 -2077358780.7017415 1419131067.0695496 0 1419131067.0695496 368085813.37872314 0 0 0 0 -658152267.89492917 487647503.76295471 0 487647503.76295471 -1362235864.6044312 0 0 0 0 462621114.30615509 162752458.35338593 0 162752458.35338593 -1599472409.3192139 0 0 0 0 1149499796.7450423 772858574.5112915 0 772858574.5112915 -2785707112.611187 0 0 0 0 493901518.44088078 70784198.176269531 0 70784198.176269531 -1368738360.5402222 0 0 0 0 -676558.72811764979 420354.89080626518 0 420354.89080626518 -324244.95819197595 0 0 0 0 1455022388.5861273 -1407524858.644043 0 -1407524858.644043 871836850.22387695 0 0 0 0 1008197079.0118513 445989912.5368042 0 445989912.5368042 -2754097600.5412445 0 0 0 0 -913460803.25394082 157239683.19236946 0 157239683.19236946 193656175.82293701 0 0 0 0 56643228.143674254 371072977.33529663 0 371072977.33529663 -953114949.29692078 0 0 0 0 -513884.77275264426 -656745.47635252029 0 -656745.47635252029 -2354190.850765273 0 0 0 0 -560409163.8037405 974809918.69892883 0 974809918.69892883 -751194269.12848663 0 0 0 0 -850152095.75150585 269125518.31896973 0 269125518.31896973 -223818468.50067139 0 0 0 0 166431937.00618255 -179375982.06954193 0 -179375982.06954193 197703636.27796936 0 0 0 0 159834.29327895059 2122642.3158831093 0 2122642.3158831093 -2179891.4776272029 0 0 0 0 -135102.1169291829 921422.04060298484 0 921422.04060298484 -934709.13579624891 0 0 0 0 78852437.054597378 449032676.36592865 0 449032676.36592865 -512613446.67999268 0 0 0 0 517998588.9003647 -299899111.99332428 0 -299899111.99332428 -542628325.41426086 0 0 0 0 -283525681.53508484 248057480.37636566 0 248057480.37636566 478755250.49615479 0 0 0 0 -262289410.70739147 1010718454.36306 0 1010718454.36306 -1315529034.3024063 0 0 0 0 -349311197.24238491 -448656855.90106964 0 -448656855.90106964 131066125.6096344 0 0 0 0 672118564.27773011 199561362.87890768 0 199561362.87890768 -4712302603.5293579 0 0 0 0 71190.875385684194 1008340.3667456172 0 1008340.3667456172 -930410.28508406878 0 0 0 0 209955050.72778735 1114502884.6166992 0 1114502884.6166992 -4654669342.1710815 0 0 0 0 157411.41762888565 1851025.0604607463 0 1851025.0604607463 -1591749.1073774695 0 0 0 0 898301401.44153428 -314600475.03340149 0 -314600475.03340149 -2968593711.2938232 0 0 0 0 -1044431471.1300282 1025057847.2011948 0 1025057847.2011948 -1326915409.2543793 0 0 0 0 1222943.1151468488 -38501087.592346191 0 -38501087.592346191 -2172788794.3659363 0 0 0 0 362605.2323810262 722075.49820060236 0 722075.49820060236 -3866854.6514542401 0 0 0 0 -49476119.451847062 832759005.16067505 0 832759005.16067505 -4706052886.6664124 0 0 0 0 -160036446.35068175 -845327121.08338165 0 -845327121.08338165 -2177483008.0359497 0 0 0 0 676645581.45729017 102537875.39133549 0 102537875.39133549 -2694788614.8383789 0 0 0 0 735908981.80786037 -504403913.60902405 0 -504403913.60902405 -4717676211.3364916 0 0 0 0 -443048050.81950998 445427372.67608356 0 445427372.67608356 751489685.93269348 0 0 0 0 -366630231.45054257 -731433338.06762695 0 -731433338.06762695 -669704004.27970886 0 0 0 0 179117.12197796104 13399891.072090149 0 13399891.072090149 9238028.4257965088 0 0 0 0 -1320531674.9870203 981167535.21637726 0 981167535.21637726 95759718.434448242 0 0 0 0 875463.90892945044 -2048716.1076202616 0 -2048716.1076202616 -4367849.4346439019 0 0 0 0 87099387.529113919 70780806.704727173 0 70780806.704727173 47009116.59324646 0 0 0 0 535240.46097658435 -1307667.0375764593 0 -1307667.0375764593 -3694447.5409371257 0 0 0 0 217624.27683460727 951579.60468287067 0 951579.60468287067 -5269067.5360361785 0 0 0 0 53058367.523410797 -52398535.303977966 0 -52398535.303977966 41447268.052383423 0 0 0 0 -602452850.55075479 419646628.80509949 0 419646628.80509949 -130669046.7678299 0 0 0 0 -10906056.357945934 -208888081.13164902 0 -208888081.13164902 -187121321.1211853 0 0 0 0 -240131.08292391401 86598946.19090271 0 86598946.19090271 101089956.05906677 0 0 0 0 154719137.93956965 -91347582.374191284 0 -91347582.374191284 -429454581.19070435 0 0 0 0 128192792.52802902 -11092210.281112671 0 -11092210.281112671 -283685976.5586853 0 0 0 0 56525836.083971053 -131713976.68286133 0 -131713976.68286133 -56519557.283782959 0 0 0 0 585281.48735282046 196209285.69125021 0 196209285.69125021 -602777874.82791138 0 0 0 0 181915555.52361465 540464319.61302185 0 540464319.61302185 -280974905.43045044 0 0 0 0 182310330.22035089 29786171.591064453 0 29786171.591064453 -979859494.3848877 0 0 0 0 311096455.36209512 1075494297.5366211 0 1075494297.5366211 -1927784734.7014771 0 0 0 0 -222746802.70912582 480561749.73262024 0 480561749.73262024 -708693665.01807213 0 0 0 0 786602.67850838357 238698.3481849879 0 238698.3481849879 -3346930.6009688377 0 0 0 0 -641743154.15270793 -992747.20024108887 0 -992747.20024108887 -1480001910.1357422 0 0 0 0 -522159893.31723881 467466481.12103271 0 467466481.12103271 -707938433.50011444 0 0 0 0 -23927.354401642871 769625.42145717284 0 769625.42145717284 -2092059.7520000488 0 0 0 0 -651224764.05999053 580004570.56659317 0 580004570.56659317 -401794230.82296753 0 0 0 0 564928.19393332384 114830.37941092998 0 114830.37941092998 -1622210.8408807814 0 0 0 0 275384263.32421023 -297025965.27448845 0 -297025965.27448845 -529814249.54171753 0 0 0 0 -236153734.69070518 423915884.45323181 0 423915884.45323181 -125393812.22083282 0 0 0 0 -1250759565.7771602 1037285893.6706161 0 1037285893.6706161 -1325492175.8562622 0 0 0 0 -1037161717.1268882 24973078.036697388 0 24973078.036697388 -682743188.27896118 0 0 0 0 -182946278.37342286 124846570.0012207 0 124846570.0012207 -553266659.80617452 0 0 0 0 -294622525.43651414 493480321.1502533 0 493480321.1502533 -552317208.01609826 0 0 0 0 -573258150.00421178 207651171.04844666 0 207651171.04844666 -516650204.27111816 0 0 0 0 -171118794.89882553 288750955.32037354 0 288750955.32037354 -765508080.22637939 0 0 0 0 -189824065.09029484 245312964.40102386 0 245312964.40102386 -539970530.92313385 0 0 0 0 -203827106.05538487 551510516.46120453 0 551510516.46120453 -574242702.35385132 0 0 0 0 -201690026.19844216 348005106.96995544 0 348005106.96995544 -585072048.50601196 0 0 0 0 -56073056.976995111 433577559.15808105 0 433577559.15808105 -592143104.14311886 0 0 0 0 -57512710.967990398 457179809.75205994 0 457179809.75205994 -834133657.12049866 0 0 0 0 -125547900.08701652 454828923.48933411 0 454828923.48933411 -815832172.87771606 0 0 0 0 36349706.757358633 424677739.01483154 0 424677739.01483154 -904861404.97955322 0 0 0 0 88084901.190369129 242282056.86006165 0 242282056.86006165 -758232523.92405319 0 0 0 0 210755487.6691812 292760943.90567398 0 292760943.90567398 -751374066.93145752 0 0 0 0 19139005.684422992 295749442.78158569 0 295749442.78158569 -538466951.21479797 0 0 0 0 59284058.311680973 195855597.8881073 0 195855597.8881073 -770767722.23039246 0 0 0 0 -108921232.98280525 446257667.30834961 0 446257667.30834961 -796560129.74451065 0 0 0 0 -165382141.8233878 326498421.45826721 0 326498421.45826721 -998684564.43414307 0 0 0 0 -1811269.4950542236 206278354.14333344 0 206278354.14333344 -935303861.42822266 0 0 0 0 -126431694.26499414 784098270.84173584 0 784098270.84173584 -1600711461.0777283 0 0 0 0 299402.03630938433 650725.89344857261 0 650725.89344857261 -2720093.6333581954 0 0 0 0 -800750843.78229344 1243882080.8097687 0 1243882080.8097687 -1266826932.58255 0 0 0 0 -622212.60685797234 272171054.81132507 0 272171054.81132507 -113094418.38370895 0 0 0 0 -805879660.08003378 642339622.90203857 0 642339622.90203857 -745145068.57229614 0 0 0 0 -111940364.5396046 477764355.77294922 0 477764355.77294922 -980510385.519104 0 0 0 0 -386524843.57702267 741028033.75172424 0 741028033.75172424 -1088576925.7955017 0 0 0 0 -1917404.2708763862 10936415.598003659 0 10936415.598003659 -39061199.63918224 0 0 0 0 266369582.09975147 317536461.21824265 0 317536461.21824265 -481925348.79238892 0 0 0 0 404438489.00801849 94344791.907424927 0 94344791.907424927 -151088422.49563599 0 0 0 0 72432529.24241066 29047151.449136734 0 29047151.449136734 -70363339.657438278 0 0 0 0 -4124282.0670113154 -62139533.383738667 0 -62139533.383738667 -99871228.615505219 0 0 0 0 -36158687.156869888 113384015.7281971 0 113384015.7281971 -61935229.566552401 0 0 0 0 111286938.07843971 -13863204.068899155 0 -13863204.068899155 -134747556.53201485 0 0 0 0 47488054.802202702 17497404.09179306 0 17497404.09179306 -53356834.089269638 0 0 0 0 271697732.25418091 119213317.08894348 0 119213317.08894348 -54947071.754257202 0 0 0 0 -233840932.40228271 50201264.606788635 0 50201264.606788635 126954883.62029266 0 0 0 0 -72874186.34551239 -332154829.57025909 0 -332154829.57025909 -169861389.28845215 0 0 0 0 -2301594.945980411 -712450.49450403452 0 -712450.49450403452 -2661227.6124916375 0 0 0 0 202759591.80128908 153918316.94952393 0 153918316.94952393 -12750427.297119141 0 0 0 0 145866366.7962203 -54219612.956636429 0 -54219612.956636429 -146058868.06822205 0 0 0 0 104727398.78760338 239867581.49525833 0 239867581.49525833 140870538.27158356 0 0 0 0 -2215465.5999040026 38601.110196940601 0 38601.110196940601 830845.79709550738 0 0 0 0 -219321635.12364197 64006798.205909729 0 64006798.205909729 -20954889.736038208 0 0 0 0 300218335.94908524 -130280428.2142601 0 -130280428.2142601 -9613072.0748901367 0 0 0 0 18083016.549079895 -104706160.45096588 0 -104706160.45096588 -98525327.753173828 0 0 0 0 245354816.62184143 -23016559.612792969 0 -23016559.612792969 -217412241.8739624 0 0 0 0 128778011.00183105 -173047482.43060303 0 -173047482.43060303 -353089429.81361389 0 0 0 0 63919596.902626038 102138128.36717224 0 102138128.36717224 -289025091.77850723 0 0 0 0 65636361.790046692 57959544.959892273 0 57959544.959892273 77240855.569396973 0 0 0 0 82799082.303222656 19742852.727966309 0 19742852.727966309 143508923.6472168 0 0 0 0 443258559.93198013 -54478386.976383209 0 -54478386.976383209 -358827470.80758667 0 0 0 0 485647745.31093216 316298862.18008804 0 316298862.18008804 -165149848.28466034 0 0 0 0 207292935.22023392 -55183899.212804794 0 -55183899.212804794 409507257.09114075 0 0 0 0 -5085053.3332816027 5905673.0489792787 0 5905673.0489792787 5245871.9448461458 0 0 0 0 -1092088.1983630927 5533046.0426801592 0 5533046.0426801592 -32237374.945345148 0 0 0 0 -212795468.55851388 -461745849.06572437 0 -461745849.06572437 -402145452.73153687 0 0 0 0 136559271.7778368 30640077.87966156 0 30640077.87966156 -498182082.525177 0 0 0 0 104976758.0731945 -41985438.267461777 0 -41985438.267461777 130769019.21931458 0 0 0 0 40172685.048820496 162328286.11623383 0 162328286.11623383 -76969296.335357666 0 0 0 0 556162368.59967041 327887947.40332031 0 327887947.40332031 21334190.62752533 0 0 0 0 -10813001.297741354 11368711.067333499 0 11368711.067333499 -15640184.873411834 0 0 0 0 -6571601.7867469788 2450966.2146186829 0 2450966.2146186829 -13791453.494476318 0 0 0 0 2586779.0458769798 -27760378.713197231 0 -27760378.713197231 -51691592.770744324 0 0 0 0 -8088947.4495239258 -4430418.2047271729 0 -4430418.2047271729 -25872649.50925827 0 0 0 0 -1359470.2843107916 -2964424.7932571378 0 -2964424.7932571378 -1155577.6200532131 0 0 0 0 22018083.927717447 -11685253.368821144 0 -11685253.368821144 -54329266.087738037 0 0 0 0 30694303.677045822 6448072.6690883636 0 6448072.6690883636 -46253382.668861389 0 0 0 0 -5495305.5566959381 -10486180.066381454 0 -10486180.066381454 -38503515.514575958 0 0 0 0 26814536.175134659 -144749230.32815933 0 -144749230.32815933 -102964190.09770966 0 0 0 0 22730857.984948158 -69084522.387020111 0 -69084522.387020111 -13185812.733764648 0 0 0 0 224768160.25593662 128505125.45002365 0 128505125.45002365 -320748069.13829041 0 0 0 0 380250508.07261848 -342525835.57508743 0 -342525835.57508743 282815397.15183258 0 0 0 0 -65040123.901986182 43704117.678262591 0 43704117.678262591 239639738.22296143 0 0 0 0 -448268875.00985527 867863348.37891531 0 867863348.37891531 -325296347.71244812 0 0 0 0 -456716430.14749241 709494951.24465561 0 709494951.24465561 -789374105.66043091 0 0 0 0 -79750.183110754544 -655968.37184702163 0 -655968.37184702163 -3101387.7506088945 0 0 0 0 102699052.06448507 -155090294.73084784 0 -155090294.73084784 156485947.43405819 0 0 0 0 49456553.038032055 -52352754.689827681 0 -52352754.689827681 71405182.609676361 0 0 0 0 -158141646.22715688 -203070274.44150513 0 -203070274.44150513 449094901.62544465 0 0 0 0 -174258560.06317103 33970075.268803835 0 33970075.268803835 -961092075.68242109 0 0 0 0 -472920113.69293946 -197033067.4438653 0 -197033067.4438653 367815963.14032412 0 0 0 0 -22266179.828269958 334448140.21166992 0 334448140.21166992 -574205581.16290283 0 0 0 0 188818275.68466234 236819026.70604706 0 236819026.70604706 -679229348.95742798 0 0 0 0 -691424.16516238428 2896209.6991265407 0 2896209.6991265407 -161945.43514671177 0 0 0 0 6967713.9644219037 -8171832.3606274035 0 -8171832.3606274035 -4042574.2445620336 0 0 0 0 -62538908.632498741 -56735637.79372406 0 -56735637.79372406 56667740.126167297 0 0 0 0 854802.31074480154 5410928.9936802369 0 5410928.9936802369 -33418544.284043577 0 0 0 0 911696923.53602922 184142693.79705191 0 184142693.79705191 -607458812.69847107 0 0 0 0 305608720.64468515 956407690.53523684 0 956407690.53523684 -1335590378.8087325 0 0 0 0 146453903.83160591 -121419974.17721558 0 -121419974.17721558 465627486.78263855 0 0 0 0 -94978870.233694136 -207057357.81258225 0 -207057357.81258225 -288742718.20374107 0 0 0 0 -1997479.2888901036 1301239.2994089385 0 1301239.2994089385 -704439.76257510856 0 0 0 0 -420761132.35661459 653869129.36753225 0 653869129.36753225 -151628640.13658834 0 0 0 0 -129868093.86686134 -55411548.335668325 0 -55411548.335668325 -699733052.01443386 0 0 0 0 51164861.722901344 -185877880.33171487 0 -185877880.33171487 285660717.0310297 0 0 0 0 -215398702.17696559 105642685.32468176 0 105642685.32468176 125345754.76125908 0 0 0 0 364015036.32403541 216662580.40614158 0 216662580.40614158 51945682.682375908 0 0 0 0 -4054754.9748646668 2937108.054125661 0 2937108.054125661 -3050498.2919796896 0 0 0 0 69188674.161891937 110645227.50814337 0 110645227.50814337 127024701.68040419 0 0 0 0 -84433833.531426966 -123673211.02117747 0 -123673211.02117747 105529604.71062708 0 0 0 0 -310566491.73908544 25635509.714730263 0 25635509.714730263 178995033.27792645 0 0 0 0 -30883238.895947456 79652310.249938011 0 79652310.249938011 -24193256.664502144 0 0 0 0 -12058636.453259468 107775185.39912844 0 107775185.39912844 -88015236.410809517 0 0 0 0 -220795939.81614745 132127478.05745602 0 132127478.05745602 130871644.52325964 0 0 0 0 58337811.065917969 5501982.5766869783 0 5501982.5766869783 46152331.606051922 0 0 0 0 -7729380.4072408676 -25554774.041996002 0 -25554774.041996002 -87183968.695205688 0 0 0 0 47490328.448853016 415092.557700634 0 415092.557700634 -31443840.968741417 0 0 0 0 151296310.87966919 552426174.71625519 0 552426174.71625519 1111171161.8063431 0 0 0 0 1138003.3375996174 -152323.53613153944 0 -152323.53613153944 -1700562.5216277461 0 0 0 0 -208502060.76269126 6991276.9322522879 0 6991276.9322522879 198027251.4697051 0 0 0 0 -233071688.77638403 -8536467.4867441654 0 -8536467.4867441654 453170661.2599268 0 0 0 0 -270094221.34548342 108668485.59072304 0 108668485.59072304 320340915.88855934 0 0 0 0 -184475616.34349513 198693651.98987293 0 198693651.98987293 440929479.79540247 0 0 0 0 -76429682.357231379 240200552.21617413 0 240200552.21617413 276035459.59002113 0 0 0 0 -226785577.78131551 92194817.545907497 0 92194817.545907497 258266112.89595985 0 0 0 0 34181576.270752907 159793627.1119628 0 159793627.1119628 79850859.266223907 0 0 0 0 -86317227.784753382 174279749.24942482 0 174279749.24942482 172090298.21884918 0 0 0 0 -219940723.50840032 91502280.439084053 0 91502280.439084053 121346258.29737568 0 0 0 0 -55709914.167840004 53391034.768107414 0 53391034.768107414 -15160191.467916489 0 0 0 0 1832119.6023747276 -4856302.1938313283 0 -4856302.1938313283 -14613735.52142214 0 0 0 0 -283624619.10441518 -148645045.38393307 0 -148645045.38393307 29957994.103973389 0 0 0 0 7452125.4184236526 -323876517.93792534 0 -323876517.93792534 9400981.2446174622 0 0 0 0 144371401.77856159 142417083.64336395 0 142417083.64336395 -212233044.53417397 0 0 0 0 511018310.56901884 -539397043.64740801 0 -539397043.64740801 21818993.8331604 0 0 0 0 -852029125.97836435 -351807406.49111271 0 -351807406.49111271 30370131.747402191 0 0 0 0 65229946.87401998 -179140638.79417813 0 -179140638.79417813 -115938852.3842926 0 0 0 0 -691085925.42038536 247807091.05581093 0 247807091.05581093 -154093636.04816818 0 0 0 0 301057.3791302141 -964438.37252534379 0 -964438.37252534379 -4496444.022144624 0 0 0 0 130306203.80123389 -29614433.722348213 0 -29614433.722348213 -457751406.38450813 0 0 0 0 -364065535.78527761 -87530.886492729187 0 -87530.886492729187 -18472842.671958327 0 0 0 0 -279651764.70099139 304700190.12768459 0 304700190.12768459 -227780276.64861679 0 0 0 0 -169718370.97747588 -910343592.35048866 0 -910343592.35048866 680279827.80973434 0 0 0 0 -64190375.309383035 410568139.05572748 0 410568139.05572748 -1261718083.3475246 0 0 0 0 670764561.15350997 -781242194.02070045 0 -781242194.02070045 -301211649.5057888 0 0 0 0 -671416017.04494727 -1041189541.0147171 0 -1041189541.0147171 -343166370.24081993 0 0 0 0 -561962975.98563373 848741998.4100399 0 848741998.4100399 554025242.42819977 0 0 0 0 -1684031737.1796522 686747909.68797922 0 686747909.68797922 534313593.30701065 0 0 0 0 143308797.71091461 575088222.73081207 0 575088222.73081207 -1268435776.96278 0 0 0 0 198557793.85240555 295186210.67579651 0 295186210.67579651 -59086460.271749496 0 0 0 0 410558244.77611732 207993392.84474182 0 207993392.84474182 -27880882.012928009 0 0 0 0 493135883.14396477 250013893.75110626 0 250013893.75110626 -681131540.29021072 0 0 0 0 40383274.220439434 -410512237.96382904 0 -410512237.96382904 -888682480.00485992 0 0 0 0 -25404026.1855793 -180640736.12426996 0 -180640736.12426996 -152263103.21140671 0 0 0 0 133433939.90557384 -69951132.72171402 0 -69951132.72171402 -178784362.54054451 0 0 0 0 340598550.4779911 126574888.19618607 0 126574888.19618607 -20539947.557224274 0 0 0 0 66237172.911601543 -57780701.718140602 0 -57780701.718140602 -139490643.02694893 0 0 0 0 137959567.29271984 -170473894.97426176 0 -170473894.97426176 -196022409.28036308 0 0 0 0 -96878786.815513611 76328501.17524147 0 76328501.17524147 -130206973.82361889 0 0 0 0 -328525.16176699521 -78015.705011828337 0 -78015.705011828337 -2959205.7910260018 0 0 0 0 -183215007.73638201 23963422.779612064 0 23963422.779612064 -47703657.94329071 0 0 0 0 -93374972.624222115 -16540324.758607959 0 -16540324.758607959 -33039427.35552597 0 0 0 0 -93380167.326265335 39579869.787679672 0 39579869.787679672 -59011066.044685364 0 0 0 0 -1324456.0419575297 1241432.3951741266 0 1241432.3951741266 -9028583.00634587 0 0 0 0 -15301517.208285332 27979126.757091522 0 27979126.757091522 -101618687.37217331 0 0 0 0 -13793384.660650373 16917149.462996125 0 16917149.462996125 -93171033.043102264 0 0 0 0 1669565.9712429047 -559585.96370697021 0 -559585.96370697021 -84335952.87988472 0 0 0 0 -12527253.320112228 15454802.660148621 0 15454802.660148621 -73363925.309139252 0 0 0 0 -10697234.843271494 8262746.1720175743 0 8262746.1720175743 -49733398.538543701 0 0 0 0 -17127081.800634384 340852.5217423439 0 340852.5217423439 -31510499.825839996 0 0 0 0 -19666397.781216741 11623705.940405607 0 11623705.940405607 -26592250.585540771 0 0 0 0 -43070669.970657349 11237706.901601791 0 11237706.901601791 -36015796.928281784 0 0 0 0 -42427913.255435944 10833694.080011368 0 10833694.080011368 -43249335.929233551 0 0 0 0 -71181279.257250786 715420.39015960693 0 715420.39015960693 -19692527.76663208 0 0 0 0 -51181625.182421684 -14364931.945854187 0 -14364931.945854187 -35215169.94178772 0 0 0 0 -400485461.07086897 56364119.755396366 0 56364119.755396366 1099342298.9817371 0 0 0 0 -6923446.3054540157 26451865.702934265 0 26451865.702934265 -100945817.74015617 0 0 0 0 -683761.11209799908 4560233.1759527177 0 4560233.1759527177 -17908867.066441767 0 0 0 0 4174412.7163619995 503654.7396697998 0 503654.7396697998 -7559017.0783882141 0 0 0 0 -21563.321768562309 2168616.6861199103 0 2168616.6861199103 -24370274.405692585 0 0 0 0 2798499.1740533663 -1987477.6093524955 0 -1987477.6093524955 -11344646.992063716 0 0 0 0 3339504.5304355621 -1478310.0879020691 0 -1478310.0879020691 -6838103.0308227539 0 0 0 0 -157868.73812238034 8214277.7107926048 0 8214277.7107926048 -25778341.402409274 0 0 0 0 2494635.1903729206 4764218.8757523037 0 4764218.8757523037 -23446232.181056924 0 0 0 0 325195327.35071605 362453165.78409946 0 362453165.78409946 287978833.29124451 0 0 0 0 325019325.66207695 368445820.13388062 0 368445820.13388062 116342379.58538055 0 0 0 0 10336164.903249741 17122173.19021225 0 17122173.19021225 -108570738.83246994 0 0 0 0 -7192321.2777004242 21046638.993850708 0 21046638.993850708 -107000521.8509388 0 0 0 0 12334685.145533562 1429573.2728595734 0 1429573.2728595734 -41600725.445542336 0 0 0 0 -158050.66405866412 1134783.8725387836 0 1134783.8725387836 -6832245.3257005848 0 0 0 0 6414933.4261426926 -9294415.4564762115 0 -9294415.4564762115 -69193604.392066956 0 0 0 0 6859541.5929822922 -5389997.8685073853 0 -5389997.8685073853 -49671641.948184967 0 0 0 0 3428987.8449497223 -3899124.1123981476 0 -3899124.1123981476 -39774831.269107819 0 0 0 0 8255226.7462778091 7239883.5898590088 0 7239883.5898590088 -47433153.844926357 0 0 0 0 -6727314.693157196 -5484912.9417381287 0 -5484912.9417381287 -5802097.6709685326 0 0 0 0 19454279.204759836 -1041853.0876522064 0 -1041853.0876522064 -41320315.351921082 0 0 0 0 17371491.674585342 5303051.9600906372 0 5303051.9600906372 -44870538.96528244 0 0 0 0 2893166.2662923052 -2544152.2310280586 0 -2544152.2310280586 -14705581.853188891 0 0 0 0 33606441.994662285 -49455468.638504982 0 -49455468.638504982 -74148529.77444315 0 0 0 0 7250139.1321640015 4170971.3703651428 0 4170971.3703651428 -16994390.184314728 0 0 0 0 4095048.6283076871 -341571.81560506579 0 -341571.81560506579 -20122768.872205898 0 0 0 0 8834652.8473787308 2419174.7193107605 0 2419174.7193107605 -25940901.344314575 0 0 0 0 2503263.0657958984 -349854.32987976074 0 -349854.32987976074 -17960856.682250977 0 0 0 0 355277.72819103673 5389802.5222416557 0 5389802.5222416557 -26769427.168061163 0 0 0 0 -1267911.34400177 6198263.5088500977 0 6198263.5088500977 -27520813.750495911 0 0 0 0 126462.65732765198 1979546.9319763184 0 1979546.9319763184 -20232430.715492249 0 0 0 0 2438281.0738110505 -1740187.8777922122 0 -1740187.8777922122 -12356100.747151025 0 0 0 0 6735341.0756597519 -264230.49724197388 0 -264230.49724197388 -9262068.9230957031 0 0 0 0 6738358.447886467 -469223.73552322388 0 -469223.73552322388 -7417600.3745269775 0 0 0 0 5357558.834351805 -7519847.3200375382 0 -7519847.3200375382 -15863890.354996681 0 0 0 0 3995699.6637933915 -99678.932359171566 0 -99678.932359171566 -9206759.1240548864 0 0 0 0 1007314.3184564672 5214692.7062079906 0 5214692.7062079906 -29838305.415950023 0 0 0 0 -167111.7860367205 5518321.6292549372 0 5518321.6292549372 -29148253.853405498 0 0 0 0 410814.98301696777 549142.87182617188 0 549142.87182617188 -9820188.2510519028 0 0 0 0 580091.29697036743 625834.1755027771 0 625834.1755027771 -9818491.2635192871 0 0 0 0 61587.553576938808 242725.60479578003 0 242725.60479578003 -4759493.365548946 0 0 0 0 3175497.5317733674 960677.7601305549 0 960677.7601305549 -8843445.4513068721 0 0 0 0 11665793.947817802 -5160593.4960184097 0 -5160593.4960184097 -7346305.698348999 0 0 0 0 47550276.252445221 -39431658.19291687 0 -39431658.19291687 -49803684.032806396 0 0 0 0 6928803.7739711832 -3762692.6495684376 0 -3762692.6495684376 -22981915.293657899 0 0 0 0 11312820.925895691 -2481880.6800079346 0 -2481880.6800079346 -2739468.0624809265 0 0 0 0 54583632.629104614 -14267679.863540649 0 -14267679.863540649 -49625722.483673096 0 0 0 0 948701.90335601196 6291314.371906912 0 6291314.371906912 -26347484.563710254 0 0 0 0 -852074.89562988281 5751443.7518463135 0 5751443.7518463135 -27631378.326129913 0 0 0 0 8186118.2796020508 906165.15676879883 0 906165.15676879883 -14366952.820972443 0 0 0 0 7955736.8824329376 790386.72286987305 0 790386.72286987305 -14412143.124305725 0 0 0 0 6938212.3697891235 -1987533.8745803833 0 -1987533.8745803833 -7321267.656539917 0 0 0 0 2358142.0946274884 -813795.29525547847 0 -813795.29525547847 -9994808.1345627531 0 0 0 0 2542114.1257957723 4406700.9960220428 0 4406700.9960220428 -26940142.905750368 0 0 0 0 8049323.3248129766 -7833346.2390697077 0 -7833346.2390697077 -18837770.20795504 0 0 0 0 7052531.4337340919 2660480.7053979998 0 2660480.7053979998 -30514080.035895646 0 0 0 0 412746990.90175343 183899487.76363468 0 183899487.76363468 137103772.02589417 0 0 0 0 547288869.53524637 317868443.68201256 0 317868443.68201256 -170058641.91359711 0 0 0 0 518571427.76042366 105580845.39677048 0 105580845.39677048 110561128.82550812 0 0 0 0 9886597.9737494215 -15479672.500504356 0 -15479672.500504356 -14324625.65975558 0 0 0 0 30487447.749498367 -1069320.1427001953 0 -1069320.1427001953 -11275342.845672607 0 0 0 0 2774882.9569648793 10925637.524600968 0 10925637.524600968 -13187112.722945869 0 0 0 0 31796021.274276733 -1003291.5430908203 0 -1003291.5430908203 -11867672.727600098 0 0 0 0 2020177.3934316989 13677919.239526428 0 13677919.239526428 -36174700.234280452 0 0 0 0 25573706.824108124 3552381.9064331055 0 3552381.9064331055 -9394907.4300537109 0 0 0 0 15704971.538453069 -12493714.621403079 0 -12493714.621403079 -32007991.915727768 0 0 0 0 9064729.0540170092 3167421.4207182555 0 3167421.4207182555 -31690588.8675583 0 0 0 0 16556099.188873291 -1758289.2878875732 0 -1758289.2878875732 -6109693.5282592773 0 0 0 0 51894937.72593689 14392704.715080261 0 14392704.715080261 -38632826.62600708 0 0 0 0 60049364.588153839 -7594091.9115486145 0 -7594091.9115486145 -68024331.72253418 0 0 0 0 68179791.776008606 5109343.8259277344 0 5109343.8259277344 -57869781.873931885 0 0 0 0 97851037.408325195 20141315.438560486 0 20141315.438560486 -74316438.84954834 0 0 0 0 71590311.470016479 40470074.011154175 0 40470074.011154175 -32046298.659698486 0 0 0 0 -6900102.3297462463 -63655087.149961472 0 -63655087.149961472 -38841524.727333069 0 0 0 0 9697886.566686919 -4337277.2161419764 0 -4337277.2161419764 -20937899.975348741 0 0 0 0 113398447.92787933 51483351.242721558 0 51483351.242721558 -54075381.926689148 0 0 0 0 179171024.0778656 -47664505.521507263 0 -47664505.521507263 -163185048.16590881 0 0 0 0 -1971722.5428613238 15416179.464459114 0 15416179.464459114 -45831851.300120845 0 0 0 0 50394021.337293625 67964546.873797417 0 67964546.873797417 -51129091.287773132 0 0 0 0 1457470.3763252101 4890484.3896227442 0 4890484.3896227442 -5465066.309335582 0 0 0 0 797879937.48111916 -233509469.8167448 0 -233509469.8167448 -309706707.53419495 0 0 0 0 545079101.43192673 45319770.699171066 0 45319770.699171066 -107477948.51173449 0 0 0 0 7314603.6731418455 5163619.2903100746 0 5163619.2903100746 -28188067.086150259 0 0 0 0 376714.36293913797 15078187.862510094 0 15078187.862510094 7834206.1313652471 0 0 0 0 32114338.164606094 -4070072.4358940125 0 -4070072.4358940125 -5656948.2454528809 0 0 0 0 46742298.660984039 8339754.1605529785 0 8339754.1605529785 -58345291.722305298 0 0 0 0 -54145821.307556152 -26754933.521987915 0 -26754933.521987915 -49936214.024932861 0 0 0 0 32020741.204642773 -69535179.747403145 0 -69535179.747403145 -229435009.82493591 0 0 0 0 42133715.934913635 -11812463.980178833 0 -11812463.980178833 -6401728.1704807281 0 0 0 0 106397825.61914444 -20287485.321861267 0 -20287485.321861267 -46250589.575653076 0 0 0 0 81550852.556663513 21625708.053955078 0 21625708.053955078 -62356599.226760864 0 0 0 0 137581658.47079468 13851427.325302124 0 13851427.325302124 -69548061.416931152 0 0 0 0 47047508.490272522 -4184686.819519043 0 -4184686.819519043 -49470572.282836914 0 0 0 0 54496415.555175781 -25692741.613464355 0 -25692741.613464355 -94666181.873299599 0 0 0 0 93266885.495513916 4129876.2967376709 0 4129876.2967376709 -95586110.815338135 0 0 0 0 79422057.519191742 -8120684.2417678833 0 -8120684.2417678833 -89727423.993652344 0 0 0 0 49025596.631866455 -24427549.640380859 0 -24427549.640380859 -78838235.278793335 0 0 0 0 35986221.871119499 -57685117.957027435 0 -57685117.957027435 -135386614.26318359 0 0 0 0 40999520.972946167 -21097346.158569336 0 -21097346.158569336 -89277141.195556641 0 0 0 0 49812987.917327881 -33808686.809570312 0 -33808686.809570312 -107165883.73513794 0 0 0 0 -51098186.195350647 -72277463.688598633 0 -72277463.688598633 -88587694.625335693 0 0 0 0 -1090512.4006744567 -2720609.7270428725 0 -2720609.7270428725 -2030853.8475001827 0 0 0 0 -114145064.43514633 -94076730.974472046 0 -94076730.974472046 -82519530.041320801 0 0 0 0 282197479.66130447 233260388.03775787 0 233260388.03775787 68735628.037205696 0 0 0 0 -86575223.065242767 -173934691.6594677 0 -173934691.6594677 -130415047.92861938 0 0 0 0 -70707472.175674438 -39241785.895957947 0 -39241785.895957947 -66477488.725097656 0 0 0 0 55304779.274815559 -20085432.328882217 0 -20085432.328882217 -131848281.59790039 0 0 0 0 -18633972.359580994 -90728086.819061279 0 -90728086.819061279 -146633826.16281128 0 0 0 0 -42760124.296028137 -86275045.931625366 0 -86275045.931625366 -94408220.951568604 0 0 0 0 -109210057.16312408 -478572682.11635971 0 -478572682.11635971 194774890.62554932 0 0 0 0 223127604.21218109 73898112.562271118 0 73898112.562271118 -259457596.69738007 0 0 0 0 -37584104.687721252 -31927209.237503052 0 -31927209.237503052 -72528642.432830811 0 0 0 0 361985001.62619209 -19006976.791496277 0 -19006976.791496277 -937097111.74432373 0 0 0 0 97257017.036426544 50007792.908218384 0 50007792.908218384 -179827801.3444519 0 0 0 0 141926533.71931076 57156909.461532593 0 57156909.461532593 -262634183.37075806 0 0 0 0 114171680.16233826 5912052.1064376831 0 5912052.1064376831 -119213631.81774902 0 0 0 0 156019218.96408463 13781535.831237793 0 13781535.831237793 -226626560.96052551 0 0 0 0 102615831.98675156 35758720.570701599 0 35758720.570701599 -180288808.21801758 0 0 0 0 138496355.63222122 89428230.696052551 0 89428230.696052551 -156691499.4972229 0 0 0 0 9601241.0607320536 -8914081.5789998546 0 -8914081.5789998546 -16103303.928544767 0 0 0 0 -2284432.8011398315 -56585521.621185303 0 -56585521.621185303 -54261276.584838867 0 0 0 0 53801556.282013893 -28090791.292966366 0 -28090791.292966366 -85776335.976867676 0 0 0 0 30774445.43031311 -35204826.26776123 0 -35204826.26776123 -57437298.644378662 0 0 0 0 -7530271.7452087402 -40651080.758605957 0 -40651080.758605957 -71038078.056747437 0 0 0 0 7561548.2591094971 -56582864.686248779 0 -56582864.686248779 -66741584.590362549 0 0 0 0 7318120.1569519043 -52702069.286315918 0 -52702069.286315918 -85063100.440063477 0 0 0 0 30017117.145674706 -42019765.135846138 0 -42019765.135846138 -80298936.298187256 0 0 0 0 5964693.6301269531 -58151269.84979248 0 -58151269.84979248 -90083007.299591064 0 0 0 0 45308048.357343674 -30871156.865550995 0 -30871156.865550995 -49082306.325561523 0 0 0 0 -4120703.1179351807 -58046751.628372192 0 -58046751.628372192 -31989505.913772583 0 0 0 0 27153165.513893127 -42044803.46697998 0 -42044803.46697998 -56057347.519195557 0 0 0 0 31286807.529693604 -46842880.477355957 0 -46842880.477355957 -62375133.77368927 0 0 0 0 1810610.6513519287 -33970498.341400146 0 -33970498.341400146 6431108.7507019043 0 0 0 0 -968067.88864135742 3558275.5984344482 0 3558275.5984344482 -11150518.532989502 0 0 0 0 5312762.930703979 -1917340.4901469387 0 -1917340.4901469387 -30119371.268878855 0 0 0 0 1105359.3267223556 6612674.8089426197 0 6612674.8089426197 -26599367.549935147 0 0 0 0 5303415.533821106 433087.55430603027 0 433087.55430603027 -9239815.0087356567 0 0 0 0 -37585039.642669678 -31947298.783782959 0 -31947298.783782959 104723521.15771484 0 0 0 0 -61421220.212623596 -2012984.8895568848 0 -2012984.8895568848 72150618.419433594 0 0 0 0 24443944.411834717 -94824777.433532715 0 -94824777.433532715 131941980.74473572 0 0 0 0 -72055.195377515629 471337.33749636263 0 471337.33749636263 -2264898.1009140871 0 0 0 0 -42125163.471656799 -4827045.0468292236 0 -4827045.0468292236 10330348.050048828 0 0 0 0 4880595.859567374 -4668876.6953227706 0 -4668876.6953227706 -31692914.371391993 0 0 0 0 8414988.588180542 -396222.71937561035 0 -396222.71937561035 -11682325.228363037 0 0 0 0 9281659.5633764267 -4411181.6345901489 0 -4411181.6345901489 -10506837.344421387 0 0 0 0 32299680.055297852 -60997624.594848633 0 -60997624.594848633 -37448022.185028076 0 0 0 0 6228010.5650833063 -6203464.6915519014 0 -6203464.6915519014 -16835366.862044893 0 0 0 0 1750691.9776959261 2192222.8482023887 0 2192222.8482023887 -7136361.1168727875 0 0 0 0 104358566.79212189 19746766.443817139 0 19746766.443817139 -84247587.80456543 0 0 0 0 4468757.7972409669 -6165869.2361578271 0 -6165869.2361578271 -6631072.5594548434 0 0 0 0 54499686.048164368 -45935665.913116455 0 -45935665.913116455 21524482.7109375 0 0 0 0 64624590.317352295 -36501808.645629883 0 -36501808.645629883 -26663619.696777344 0 0 0 0 79112096.981079102 -18897172.84552002 0 -18897172.84552002 -35595976.900268555 0 0 0 0 119056240.66579437 -99748593.98274231 0 -99748593.98274231 -62975595.328216553 0 0 0 0 117648402.18931198 -29504300.079063416 0 -29504300.079063416 -171524101.18939209 0 0 0 0 107912847.62599945 -37017372.200698853 0 -37017372.200698853 -64505834.10559082 0 0 0 0 91804632.528801918 4549983.1603250504 0 4549983.1603250504 -26715044.583374023 0 0 0 0 87120673.67956543 3025810.9342041016 0 3025810.9342041016 3428945.5727539062 0 0 0 0 109225009.93881226 -13214763.738708496 0 -13214763.738708496 -116120142.70185852 0 0 0 0 91804650.868218899 4790917.2511177063 0 4790917.2511177063 -63860676.593994141 0 0 0 0 78452472.198974609 -16177730.587585449 0 -16177730.587585449 -32316973.442504883 0 0 0 0 78638117.359191895 -4456753.6207885742 0 -4456753.6207885742 -15513775.956054688 0 0 0 0 77852344.043182373 -2241738.3911132812 0 -2241738.3911132812 4962796.2109375 0 0 0 0 65410355.282363892 -16241314.666870117 0 -16241314.666870117 21667265.348388672 0 0 0 0 64778710.308227539 -22331340.681640625 0 -22331340.681640625 6842234.6882324219 0 0 0 0 67103088.199142456 -28274806.047363281 0 -28274806.047363281 -2012788.2038574219 0 0 0 0 17748234.535650253 1801083.8562545776 0 1801083.8562545776 -6102489.6056518555 0 0 0 0 59773583.958724976 -29800402.554992676 0 -29800402.554992676 9525965.1408691406 0 0 0 0 62001434.387481689 -24729829.61328125 0 -24729829.61328125 14459793.005981445 0 0 0 0 3256178.9944085106 -4380319.341422908 0 -4380319.341422908 -21690750.543453991 0 0 0 0 67581291.990585327 -10950308.42779541 0 -10950308.42779541 39265052.625030518 0 0 0 0 689858.13535907678 -458890.89629810303 0 -458890.89629810303 -4146929.3466540314 0 0 0 0 -120650257.44958496 141072866.44908142 0 141072866.44908142 109514354.04281616 0 0 0 0 14184821.324333191 -173367645.31726074 0 -173367645.31726074 111385400.63502502 0 0 0 0 53149103.079799652 -29309396.122207642 0 -29309396.122207642 21983358.341094971 0 0 0 0 -6648203.6493091583 -261707788.92121124 0 -261707788.92121124 -168632377.93109131 0 0 0 0 -422633.50926336832 -365079.39841637015 0 -365079.39841637015 -593473.95458821952 0 0 0 0 303284517.73012352 220682224.11203003 0 220682224.11203003 74416809.226337433 0 0 0 0 -235519955.83588934 -248672583.77277565 0 -248672583.77277565 178155487.37365723 0 0 0 0 115893498.14981252 -178642705.46727467 0 -178642705.46727467 -335236042.81990051 0 0 0 0 282357340.06424713 -17515569.332366943 0 -17515569.332366943 -354906260.22396851 0 0 0 0 236892326.23189259 -60066356.946632385 0 -60066356.946632385 -378843961.47363281 0 0 0 0 114829703.23564339 15805706.206871033 0 15805706.206871033 -106394405.52877808 0 0 0 0 180160446.09422112 -36823510.601844788 0 -36823510.601844788 -159350197.18836975 0 0 0 0 186284681.17891121 -92033350.25177002 0 -92033350.25177002 -170508191.00540161 0 0 0 0 322215979.23360145 -36195980.391814709 0 -36195980.391814709 -214058172.64416504 0 0 0 0 21546491.816098213 -41133558.799179077 0 -41133558.799179077 -115740923.46650696 0 0 0 0 13032010.638327599 -87219911.726715088 0 -87219911.726715088 -98571327.894073486 0 0 0 0 3499627.422709465 -131954180.88612938 0 -131954180.88612938 -122814895.91416931 0 0 0 0 55734505.216150284 -7525578.3429641724 0 -7525578.3429641724 -309435959.53798676 0 0 0 0 82067387.711178064 -93746679.409593582 0 -93746679.409593582 -156627056.62315369 0 0 0 0 -55884945.838931561 -26773819.35206604 0 -26773819.35206604 -238046355.71025085 0 0 0 0 -56859880.958179474 196247644.70814514 0 196247644.70814514 -360415674.35320282 0 0 0 0 -174752997.15671778 173776266.68213272 0 173776266.68213272 -299138489.79995728 0 0 0 0 -65399142.194840431 79327610.885848999 0 79327610.885848999 -67435689.868400574 0 0 0 0 250796109.90789843 25870100.900676727 0 25870100.900676727 -201296563.02209473 0 0 0 0 504615786.83657074 349356198.40931702 0 349356198.40931702 -9813703.4797039032 0 0 0 0 -1559070.7794254217 -508110.47799327224 0 -508110.47799327224 688681.65434429795 0 0 0 0 -57130216.259242326 -235170837.18231416 0 -235170837.18231416 -325355726.70596313 0 0 0 0 287992497.84177107 -25398154.292668223 0 -25398154.292668223 -96775432.013031006 0 0 0 0 183942705.33194351 73983366.379112244 0 73983366.379112244 79452069.862236023 0 0 0 0 222406494.25922966 22984073.972610474 0 22984073.972610474 -234265667.74865723 0 0 0 0 -361661220.23848128 205091828.68721771 0 205091828.68721771 -421618806.69070435 0 0 0 0 -507756668.54718161 417432053.38528442 0 417432053.38528442 -356512709.89434814 0 0 0 0 -251660516.51584339 332234837.07565308 0 332234837.07565308 -362424517.24723816 0 0 0 0 -257030660.25383186 190537024.62162781 0 190537024.62162781 -216581294.50205231 0 0 0 0 -236279464.02885914 280702649.54203796 0 280702649.54203796 -379009590.32492065 0 0 0 0 -328438177.11585474 208920962.30480576 0 208920962.30480576 -61954785.975616455 0 0 0 0 -224696293.13506937 316286194.3796463 0 316286194.3796463 -567928016.87805939 0 0 0 0 -290919944.76244807 140079546.42444324 0 140079546.42444324 -619430386.78390503 0 0 0 0 -165368050.53329408 292188077.73359299 0 292188077.73359299 -527309509.84283447 0 0 0 0 4943562.8377666473 -182866478.48214722 0 -182866478.48214722 166454158.27282429 0 0 0 0 1669803.9391235351 16306.738915711641 0 16306.738915711641 -2163713.0716910139 0 0 0 0 12378905.887099624 -18441831.237194061 0 -18441831.237194061 66914207.21206665 0 0 0 0 -14331682.299363375 -285276203.40007782 0 -285276203.40007782 -96381023.715843201 0 0 0 0 32782643.452272087 -64639523.757076263 0 -64639523.757076263 -476487735.60566711 0 0 0 0 -213829796.80156964 69356540.37959671 0 69356540.37959671 -437047465.81156921 0 0 0 0 -146952458.98067385 142377701.22190857 0 142377701.22190857 -377826695.82675171 0 0 0 0 -260263311.22428632 355869430.38829041 0 355869430.38829041 -518896484.46964836 0 0 0 0 -284370174.50238955 302798476.58504105 0 302798476.58504105 -615499191.82398987 0 0 0 0 -261887733.83317059 176812677.41934204 0 176812677.41934204 -650071940.77868271 0 0 0 0 -286191924.20664358 138691626.75697708 0 138691626.75697708 -706971618.60264587 0 0 0 0 -490256850.06414604 242996790.48125458 0 242996790.48125458 -587045945.74782562 0 0 0 0 -340781879.7297368 384553657.45895386 0 384553657.45895386 -682765942.62212944 0 0 0 0 -462806777.69973373 280223461.80216217 0 280223461.80216217 -796758765.83644831 0 0 0 0 -550098924.06439829 131265301.97833633 0 131265301.97833633 -793575257.95803833 0 0 0 0 -308708726.7986269 979531484.98088455 0 979531484.98088455 -913290772.74052429 0 0 0 0 -194240006.92727637 774851973.62244797 0 774851973.62244797 -1283833660.2385635 0 0 0 0 -372298765.73410535 228249051.04006577 0 228249051.04006577 -1064695809.0141449 0 0 0 0 -277549384.87312263 706532974.70969963 0 706532974.70969963 -789880537.29459381 0 0 0 0 -410772173.0261575 652683799.44054413 0 652683799.44054413 -668456428.03392887 0 0 0 0 -306388128.2125392 470099718.32632446 0 470099718.32632446 -406352767.97068787 0 0 0 0 -559400673.58074188 712463980.16979218 0 712463980.16979218 -523482288.5647049 0 0 0 0 -761195568.85552788 666038674.36765075 0 666038674.36765075 -482671242.40426636 0 0 0 0 -234439595.824049 1103311595.8660583 0 1103311595.8660583 -1023215934.0541763 0 0 0 0 -714431723.06716228 1102700611.2492499 0 1102700611.2492499 -690465787.12718201 0 0 0 0 -282922521.77186823 948129798.45422363 0 948129798.45422363 -729609517.6328373 0 0 0 0 -371593715.21470833 867389742.90747452 0 867389742.90747452 -691815792.41265869 0 0 0 0 437220917.75095558 598201790.46459198 0 598201790.46459198 -788766430.71694946 0 0 0 0 -43049646.714525223 367601862.73535156 0 367601862.73535156 -308649070.23945808 0 0 0 0 106232668.06578636 171718003.57169342 0 171718003.57169342 -274449625.81342697 0 0 0 0 -89368579.295097828 268622805.68780899 0 268622805.68780899 -155762840.0124054 0 0 0 0 92932170.817592621 -3133978.0720748901 0 -3133978.0720748901 -96282830.54901123 0 0 0 0 -90471186.518268585 219133612.45900726 0 219133612.45900726 -297918972.96481323 0 0 0 0 -303270650.27635479 471984013.862854 0 471984013.862854 -405737433.15436745 0 0 0 0 -354509343.67203903 429103902.84443665 0 429103902.84443665 -268143703.19826412 0 0 0 0 -640695277.46323156 728007028.81365585 0 728007028.81365585 -470346605.03310204 0 0 0 0 -368095293.3150053 398601661.2842598 0 398601661.2842598 -325692476.05835724 0 0 0 0 -560407644.64220715 724328881.5718956 0 724328881.5718956 -777393897.90670013 0 0 0 0 -862898072.12337399 659108535.50875854 0 659108535.50875854 -230739637.57203674 0 0 0 0 -471901718.23130941 430388112.25999069 0 430388112.25999069 -107393873.89698029 0 0 0 0 -569791593.35183907 226943072.40179443 0 226943072.40179443 -14729934.419635773 0 0 0 0 -236728456.59705555 94089666.45506382 0 94089666.45506382 -164714005.12059784 0 0 0 0 -200566550.09650803 404296143.40051651 0 404296143.40051651 -388627760.22470856 0 0 0 0 -233773334.1441803 52983561.225231171 0 52983561.225231171 -24511123.80255127 0 0 0 0 -242461247.32202911 90612703.745422363 0 90612703.745422363 -160151582.66938019 0 0 0 0 -216179848.59573555 227726149.09458542 0 227726149.09458542 27955301.496406555 0 0 0 0 -287651633.42782784 -3785465.6484031677 0 -3785465.6484031677 52550780.810913086 0 0 0 0 -72503991.6076653 408928590.60149217 0 408928590.60149217 157882759.37415314 0 0 0 0 -27123749.309186935 61685605.855278015 0 61685605.855278015 -206053357.19912338 0 0 0 0 -778944344.89982796 -133259054.86146545 0 -133259054.86146545 51038594.204685211 0 0 0 0 -588402463.85068512 237681616.28044128 0 237681616.28044128 121913572.98166656 0 0 0 0 -1377645073.7866144 466033097.15860367 0 466033097.15860367 78724596.803863525 0 0 0 0 -1161822899.8862629 766677537.62266541 0 766677537.62266541 109503564.2523613 0 0 0 0 -1278586599.9042323 1329396576.1146464 0 1329396576.1146464 137951326.59243011 0 0 0 0 -2298554046.9411402 917075030.28168488 0 917075030.28168488 268117762.18591881 0 0 0 0 -1187324668.1487339 704146773.54453278 0 704146773.54453278 231972955.23847198 0 0 0 0 -2815964610.4458652 1666116588.4295845 0 1666116588.4295845 -656385304.58667755 0 0 0 0 -994186375.90669584 1106624202.1350689 0 1106624202.1350689 -1435290413.187851 0 0 0 0 -1537470654.5284107 -123935635.01689529 0 -123935635.01689529 -2752148654.2469435 0 0 0 0 -1560429491.9086185 1877722759.0760536 0 1877722759.0760536 -2264600195.0920448 0 0 0 0 -1301423988.1522398 2058890731.6155853 0 2058890731.6155853 -2658553499.9903593 0 0 0 0 168884069.9086504 92394979.529258728 0 92394979.529258728 -2774083446.5362425 0 0 0 0 -422832332.40239668 72632167.823722839 0 72632167.823722839 -5818863.3539276123 0 0 0 0 -2472402866.9930696 -284658905.66802979 0 -284658905.66802979 317449208.71229553 0 0 0 0 -5318072.7949966965 2777781.7232023887 0 2777781.7232023887 -2078752.0322387815 0 0 0 0 793157109.39474106 36680028.178665161 0 36680028.178665161 -86412602.508270264 0 0 0 0 454385271.50648022 -57734811.808467865 0 -57734811.808467865 -182422547.30643082 0 0 0 0 144411586.1292671 258483245.79805565 0 258483245.79805565 179890110.04029846 0 0 0 0 -3041987.3970860522 3630598.4973582849 0 3630598.4973582849 -537523.08477380872 0 0 0 0 745067493.29515648 448614901.19216919 0 448614901.19216919 180625107.64489824 0 0 0 0 -20016427.66600132 224700991.20796585 0 224700991.20796585 816246129.27093506 0 0 0 0 -2317551.8943606992 2274782.7303743381 0 2274782.7303743381 159251.37040154636 0 0 0 0 -725297724.74262214 1586622154.2817497 0 1586622154.2817497 383702234.61418915 0 0 0 0 702616526.05628538 318467462.85870743 0 318467462.85870743 -1008158585.9949918 0 0 0 0 -692606250.64575315 1541697417.7709732 0 1541697417.7709732 -567378157.25378036 0 0 0 0 -444466456.17472911 1016572368.5925522 0 1016572368.5925522 -382840201.60153198 0 0 0 0 -1040365291.2430338 1121171621.1967702 0 1121171621.1967702 -314917983.22853088 0 0 0 0 -476727531.85219318 429489978.04785538 0 429489978.04785538 -1588413626.8718414 0 0 0 0 505813091.6546309 133991598.18651199 0 133991598.18651199 -1628395901.0927582 0 0 0 0 517325739.82503486 598899220.55146027 0 598899220.55146027 -979984564.31785583 0 0 0 0 1366975851.5242536 1212999771.3932343 0 1212999771.3932343 -439712421.69563293 0 0 0 0 974393099.61178064 241905.06826782227 0 241905.06826782227 -234866373.07053137 0 0 0 0 1754527112.2732821 368603638.02267838 0 368603638.02267838 193542232.27305603 0 0 0 0 -1366579.2558163651 1638658.9559285007 0 1638658.9559285007 -38165.456156790257 0 0 0 0 915403545.13224363 -233189338.11807632 0 -233189338.11807632 -1155706632.3020325 0 0 0 0 590944408.86740828 250170984.71372414 0 250170984.71372414 276576848.126297 0 0 0 0 807847940.77263832 391335215.64392853 0 391335215.64392853 339756356.81907654 0 0 0 0 -208805365.99085486 -85873015.001678467 0 -85873015.001678467 -75476499.015963554 0 0 0 0 3288877.1245062402 138239.6585617736 0 138239.6585617736 -5082436.8277523043 0 0 0 0 2865604476.3076277 -344307785.67168427 0 -344307785.67168427 -1172206155.6623802 0 0 0 0 823040125.27995133 405922288.92733192 0 405922288.92733192 -190338249.52880859 0 0 0 0 2454712685.155674 -1461986475.0204315 0 -1461986475.0204315 1223784521.2025375 0 0 0 0 2008922842.3940833 526679952.42841864 0 526679952.42841864 -322057045.9578476 0 0 0 0 934509189.14661598 68282183.483322144 0 68282183.483322144 -510402309.90844727 0 0 0 0 1003499722.642184 -1754825523.2982292 0 -1754825523.2982292 -52282683.997766495 0 0 0 0 527944077.35816455 -1076406494.9679489 0 -1076406494.9679489 -1755854772.7776966 0 0 0 0 487403681.67009509 -243632707.26029205 0 -243632707.26029205 -1397692197.3554268 0 0 0 0 676726144.92283249 -390211662.76844406 0 -390211662.76844406 -1287652702.4128342 0 0 0 0 283084015.92029333 -596946667.98564529 0 -596946667.98564529 -2004210301.1649551 0 0 0 0 -27731905.513088346 -349317715.38519001 0 -349317715.38519001 -2670705531.8981857 0 0 0 0 1109051320.0763955 142851000.52364159 0 142851000.52364159 -2557087244.2784958 0 0 0 0 1340470086.3648632 -200926602.5216713 0 -200926602.5216713 -4726520565.1937561 0 0 0 0 1396352206.7026236 -874645237.09149551 0 -874645237.09149551 -3251396019.4008617 0 0 0 0 976752761.21412909 -881951571.19481659 0 -881951571.19481659 -3236142484.5731812 0 0 0 0 -322082408.72691357 -725301787.99477768 0 -725301787.99477768 -4723926901.6525469 0 0 0 0 1510155947.7114906 -102756562.06489229 0 -102756562.06489229 -5035550206.9886856 0 0 0 0 1791405942.1672256 -1769984771.8838234 0 -1769984771.8838234 -3746744321.5081787 0 0 0 0 -613362846.00107217 1464618492.5308857 0 1464618492.5308857 -2748418813.4970627 0 0 0 0 -1040415865.7213888 1373517497.8428574 0 1373517497.8428574 -1874754109.3209989 0 0 0 0 -1616791119.2286365 1708634627.141922 0 1708634627.141922 -1846657224.7832899 0 0 0 0 -882217493.76110852 1925162961.8474808 0 1925162961.8474808 -2173051130.0554199 0 0 0 0 -1367355098.8149824 1982524323.4094801 0 1982524323.4094801 -2091423224.2851334 0 0 0 0 -423804084.70815718 1557292715.1798534 0 1557292715.1798534 -2511788326.9610825 0 0 0 0 -2696880812.3614249 599961507.83136368 0 599961507.83136368 -2635555059.9397163 0 0 0 0 -625794379.43692613 820546597.02894402 0 820546597.02894402 -2484989768.0096817 0 0 0 0 74968639.445732951 -94634064.756511688 0 -94634064.756511688 -3156119000.8443527 0 0 0 0 186384752.12129688 -1450190200.3713131 0 -1450190200.3713131 -1992419435.0715446 0 0 0 0 -424616440.66751051 1963755276.8953056 0 1963755276.8953056 -1999894847.8354111 0 0 0 0 1424.487051249434 728994.68248983612 0 728994.68248983612 -3574284.2747934535 0 0 0 0 -1203606494.7806828 1535666107.4488163 0 1535666107.4488163 -488597883.94316101 0 0 0 0 -126553300.67856582 -434623652.33700895 0 -434623652.33700895 -633045987.39996338 0 0 0 0 -301361647.9411872 1858062554.3145199 0 1858062554.3145199 -1994563114.7900372 0 0 0 0 889470687.77806389 903352279.12593555 0 903352279.12593555 -4715559462.5049438 0 0 0 0 15830.026718804147 1262155.932503148 0 1262155.932503148 -3606223.123101294 0 0 0 0 316117374.37035751 -1314195371.0521591 0 -1314195371.0521591 -1582149441.4333115 0 0 0 0 40504603.728162497 350979010.61888313 0 350979010.61888313 -4713016757.1022472 0 0 0 0 -1097566858.4682879 1628551362.0291195 0 1628551362.0291195 -2574721728.4942322 0 0 0 0 -135568129.09490496 1451438654.0134792 0 1451438654.0134792 -4725336976.5333977 0 0 0 0 8667365.7896751128 455356695.931674 0 455356695.931674 -2451784361.1882248 0 0 0 0 -177293636.58637646 1612857368.9715977 0 1612857368.9715977 -3122492978.3343887 0 0 0 0 -1048469865.7228622 2540524772.6164083 0 2540524772.6164083 -2843613014.0011673 0 0 0 0 -289149582.66876644 2291509340.0858183 0 2291509340.0858183 -4726901726.3708954 0 0 0 0 -816975019.18119955 1719650431.0330753 0 1719650431.0330753 -2347092329.9334488 0 0 0 0 -817833396.15624154 2055493333.3974247 0 2055493333.3974247 -2730197085.9360428 0 0 0 0 -3190450.0553649147 2760285.7420000271 0 2760285.7420000271 -8246066.8821203262 0 0 0 0 -1296812002.2018785 3260720569.9670448 0 3260720569.9670448 -4713448244.5622663 0 0 0 0 -4319449435.7035856 2979753147.0958719 0 2979753147.0958719 -1350847370.1290741 0 0 0 0 -1950266.9420888175 4400832.963396864 0 4400832.963396864 -20766302.375206552 0 0 0 0 -37696115.890914917 802877633.72841263 0 802877633.72841263 -539107409.72072983 0 0 0 0 -1172464150.8569412 384181804.0853653 0 384181804.0853653 -150733045.25339413 0 0 0 0 -48350505.297122955 -229905638.40940857 0 -229905638.40940857 -139416497.84762096 0 0 0 0 -831417352.58456612 1710900098.0402603 0 1710900098.0402603 -2161098153.119194 0 0 0 0 -839775617.59474206 1680669161.7008173 0 1680669161.7008173 -2192506249.3691101 0 0 0 0 -920226261.5089401 1114133977.026413 0 1114133977.026413 -736231150.35916519 0 0 0 0 -1248757537.259999 1904379911.1309371 0 1904379911.1309371 -1808490807.484169 0 0 0 0 -264888511.25399542 461214632.69890213 0 461214632.69890213 -988097035.33092403 0 0 0 0 -449441761.24355513 907307279.19497299 0 907307279.19497299 -1307383113.8212051 0 0 0 0 -617836240.82475829 885388405.20799828 0 885388405.20799828 -1172538939.3777237 0 0 0 0 -25005399.12704134 166065092.46632004 0 166065092.46632004 -1138641659.5554886 0 0 0 0 -10042929.057155371 -264899313.2297554 0 -264899313.2297554 -452825651.46486664 0 0 0 0 -1865526.7699730056 321018.04595330358 0 321018.04595330358 582575.19494822994 0 0 0 0 -272607928.39598656 199313942.84632111 0 199313942.84632111 85004142.515853882 0 0 0 0 1112907.4705467224 155926484.97624207 0 155926484.97624207 -13610598.530220032 0 0 0 0 -374834770.02499866 4627981.0478496552 0 4627981.0478496552 -95768572.888450623 0 0 0 0 -253549205.29660797 -132583694.20241547 0 -132583694.20241547 -6321019.5801811218 0 0 0 0 -359927569.13469982 2898582.6847820282 0 2898582.6847820282 73204996.093933105 0 0 0 0 -524876903.39673448 422665087.88950348 0 422665087.88950348 -390969242.0566597 0 0 0 0 -156119371.41371965 -185602795.08603287 0 -185602795.08603287 -231842480.41278267 0 0 0 0 683680675.16640186 114535440.97332382 0 114535440.97332382 -320736004.8964119 0 0 0 0 -956275.39600608416 4896903.9772980548 0 4896903.9772980548 -26341965.900852881 0 0 0 0 68712782.340184212 -151010327.57657337 0 -151010327.57657337 70467881.113739014 0 0 0 0 -7847361.7558951378 -15913453.114256859 0 -15913453.114256859 -50109155.937294006 0 0 0 0 -139175950.21122217 -85158915.374916077 0 -85158915.374916077 34587877.758033752 0 0 0 0 29132289.339519501 -185105856.02841187 0 -185105856.02841187 -241425.11319351196 0 0 0 0 446370324.23662949 -108087960.35005951 0 -108087960.35005951 -96184819.638450623 0 0 0 0 153218795.29573154 3636661.3575277328 0 3636661.3575277328 -8381201.3617782593 0 0 0 0 55926404.315275192 -83562286.352514267 0 -83562286.352514267 11520184.859977722 0 0 0 0 -111903906.85792828 -106077066.22826004 0 -106077066.22826004 31338576.11579895 0 0 0 0 30543929.182310581 -33378728.654827118 0 -33378728.654827118 -85321425.264312744 0 0 0 0 -117055822.87236691 -90638144.054481506 0 -90638144.054481506 10170755.208305359 0 0 0 0 -6548965.1865852214 1534840.2399653196 0 1534840.2399653196 -4122365.3838412464 0 0 0 0 -10895973.968536377 1127226.1396789551 0 1127226.1396789551 -12379608.131820679 0 0 0 0 -6637068.2722839881 2744628.4463895131 0 2744628.4463895131 255935.47707665712 0 0 0 0 455661397.5896492 292148243.48324585 0 292148243.48324585 54102337.435823441 0 0 0 0 78561796.408542633 77365982.103504181 0 77365982.103504181 106667012.17578888 0 0 0 0 -3489744.9416389465 29681745.756866455 0 29681745.756866455 155707936.58944702 0 0 0 0 -9320876.5129956901 8412997.4097200539 0 8412997.4097200539 -5973097.6927343234 0 0 0 0 11637116.82334137 11999617.511047363 0 11999617.511047363 6774422.2510375977 0 0 0 0 -9446918.6416344643 170935470.29271317 0 170935470.29271317 7771497.3265075684 0 0 0 0 -110266062.92288971 -34567351.06980896 0 -34567351.06980896 2382173.9854736328 0 0 0 0 -6806805.2998545133 1822409.2487560865 0 1822409.2487560865 2978484.2983717397 0 0 0 0 -22420070.231638432 37942791.095638275 0 37942791.095638275 45944498.307525635 0 0 0 0 -11316362.13626612 7293434.3334396109 0 7293434.3334396109 -7584853.5901486501 0 0 0 0 -156173124.53638983 34377948.650680542 0 34377948.650680542 139376709.67534637 0 0 0 0 -2884201.67013379 2022834.1239089649 0 2022834.1239089649 -9351137.8735692501 0 0 0 0 -3469116.5294443285 1660633.8692784347 0 1660633.8692784347 2097866.5557284206 0 0 0 0 -130582598.44837284 -63878493.185552597 0 -63878493.185552597 8831490.6208267212 0 0 0 0 -35276810.154095769 17101271.903321266 0 17101271.903321266 37942859.668212891 0 0 0 0 -134865544.57974243 -67901758.229049683 0 -67901758.229049683 28767838.025726318 0 0 0 0 198611975.73688173 -206687304.41615641 0 -206687304.41615641 83240360.15159893 0 0 0 0 160583362.49536562 -165605997.97244048 0 -165605997.97244048 159129314.85263062 0 0 0 0 -771045.30301003461 -2152167.2195981918 0 -2152167.2195981918 -6814469.3277960327 0 0 0 0 -546105710.91701984 233623280.70772982 0 233623280.70772982 -146371998.59150219 0 0 0 0 -298579152.68571186 96429574.536108017 0 96429574.536108017 -86608458.221581459 0 0 0 0 -195416948.99085259 140111849.10073495 0 140111849.10073495 -313360831.19308662 0 0 0 0 -71696449.812846661 43452153.519221306 0 43452153.519221306 -469471332.7340498 0 0 0 0 -239972025.45074201 138868015.39222145 0 138868015.39222145 -305319974.52572441 0 0 0 0 -784052921.16941786 235806919.28969669 0 235806919.28969669 -51674845.161821365 0 0 0 0 -546145825.33779776 239429529.62890095 0 239429529.62890095 -148160837.79701996 0 0 0 0 -390128980.74068117 570801513.60917091 0 570801513.60917091 -908871253.72743416 0 0 0 0 -334300726.73298693 370479516.61255836 0 370479516.61255836 -694473655.91310501 0 0 0 0 197190419.2328482 -188461942.60869178 0 -188461942.60869178 4115304.4549350739 0 0 0 0 -2393807077.7274475 1387203144.2213936 0 1387203144.2213936 102376477.22756672 0 0 0 0 103146665.42972279 -8182786.426363945 0 -8182786.426363945 -20032767.972442627 0 0 0 0 179622671.08115768 -80383930.079437256 0 -80383930.079437256 -93298733.031028748 0 0 0 0 189209193.37863445 -146310569.44652796 0 -146310569.44652796 -84829484.414318025 0 0 0 0 175442437.51201248 -179905317.11384916 0 -179905317.11384916 24152219.632196426 0 0 0 0 128892309.15854454 -91658387.460840702 0 -91658387.460840702 -23231503.836587906 0 0 0 0 155162968.69379401 -155786732.19589341 0 -155786732.19589341 91074434.899850845 0 0 0 0 274915726.66357887 -267913383.96784306 0 -267913383.96784306 110856327.11614132 0 0 0 0 193818833.94340181 -162851009.87946463 0 -162851009.87946463 39215828.119085789 0 0 0 0 189994602.08135819 -210616127.14976978 0 -210616127.14976978 69681658.386416197 0 0 0 0 267832570.98242903 -202407292.48138142 0 -202407292.48138142 36701499.723181725 0 0 0 0 181210261.59353781 -200024167.45512915 0 -200024167.45512915 60076269.061212063 0 0 0 0 195053504.94736379 -182815243.82089114 0 -182815243.82089114 5362261.6922798157 0 0 0 0 -2742880.1777251107 13057498.58390351 0 13057498.58390351 -313569.87964263558 0 0 0 0 626195892.08557224 -200195930.81414878 0 -200195930.81414878 -10932169.261916161 0 0 0 0 173766804.75566101 -58997684.301429749 0 -58997684.301429749 -71926602.327148438 0 0 0 0 457205.27636542002 4447213.9560875678 0 4447213.9560875678 -31207473.230416402 0 0 0 0 498345295.455091 -100744821.79196811 0 -100744821.79196811 -25721217.0657897 0 0 0 0 297065571.26806402 -65526520.142081261 0 -65526520.142081261 -5996622.6760296822 0 0 0 0 89192856.584237516 -40534697.962276936 0 -40534697.962276936 24155494.058641911 0 0 0 0 -2352875.378972875 12879812.464526175 0 12879812.464526175 434809.67000233708 0 0 0 0 148484335.27483881 35318486.706163406 0 35318486.706163406 -117917078.08647919 0 0 0 0 -520733.22410967702 4820387.835255689 0 4820387.835255689 -29100136.700157329 0 0 0 0 137187057.99746788 -32858303.559715033 0 -32858303.559715033 -3029355.0022335052 0 0 0 0 125378354.07224637 -44315707.331797004 0 -44315707.331797004 1904511.2879247665 0 0 0 0 182446682.60826635 -183078840.80831623 0 -183078840.80831623 85866709.171131611 0 0 0 0 239302442.25158775 -122397052.88026905 0 -122397052.88026905 35785211.074786425 0 0 0 0 179470248.1670869 -169537012.42042315 0 -169537012.42042315 24482767.797387123 0 0 0 0 98796346.338350654 -67936462.130796432 0 -67936462.130796432 23701214.619203329 0 0 0 0 155532289.31300855 -142877836.22891521 0 -142877836.22891521 60092294.560579062 0 0 0 0 158955286.35687605 -135148969.40781569 0 -135148969.40781569 74918494.999238014 0 0 0 0 67451677.739863634 -51070435.170723438 0 -51070435.170723438 63481006.27465713 0 0 0 0 94147806.342194974 -27249862.861331224 0 -27249862.861331224 -1618378.7582321167 0 0 0 0 146520178.07593143 -119942036.39850545 0 -119942036.39850545 90452827.520158768 0 0 0 0 10728014.792137742 -7892191.9275822639 0 -7892191.9275822639 -17587782.093370438 0 0 0 0 -609488.91231702303 2916673.8691855757 0 2916673.8691855757 39869.610762360971 0 0 0 0 155768834.22663641 -63000349.831840515 0 -63000349.831840515 497871449.39350128 0 0 0 0 37025598.862308145 14870638.721850395 0 14870638.721850395 185467.73747825623 0 0 0 0 46875665.095056623 25543144.931923866 0 25543144.931923866 23807601.666708469 0 0 0 0 193109949.88515896 258137409.74487472 0 258137409.74487472 -27097144.338464737 0 0 0 0 290521436.37298024 132142488.51218319 0 132142488.51218319 -389585282.95788574 0 0 0 0 75121077.722673774 133956479.36166096 0 133956479.36166096 -131612420.88411486 0 0 0 0 47253085.315517426 39867779.578878403 0 39867779.578878403 -143648843.75850296 0 0 0 0 53267425.689956337 156281157.06155062 0 156281157.06155062 14321333.970825195 0 0 0 0 -3761589.0394132137 -7193033.1945459843 0 -7193033.1945459843 79307044.858766556 0 0 0 0 27096599.487749517 760150.85402441025 0 760150.85402441025 35299440.757909775 0 0 0 0 -14584197.4430601 94238071.494771004 0 94238071.494771004 -39823517.189064026 0 0 0 0 -92517818.8963027 90435106.330365658 0 90435106.330365658 -17324884.580362797 0 0 0 0 -100648385.04879558 -54622656.531559944 0 -54622656.531559944 51327244.829459548 0 0 0 0 162904549.58637047 -180335771.99913311 0 -180335771.99913311 57166794.738735199 0 0 0 0 55212085.641789317 -118718815.51241636 0 -118718815.51241636 169406330.25705242 0 0 0 0 105392698.24396181 -76224035.514769077 0 -76224035.514769077 38794947.368481636 0 0 0 0 354103486.02979493 -190473336.63371873 0 -190473336.63371873 78154850.882480621 0 0 0 0 185208221.40162611 -74164740.780348778 0 -74164740.780348778 119695047.20848393 0 0 0 0 -264848765.45551634 209975465.46463203 0 209975465.46463203 -88082055.301562309 0 0 0 0 -863999.27185570984 -2873385.8862301977 0 -2873385.8862301977 -9371686.9421246573 0 0 0 0 -747639810.65205288 394382653.24794292 0 394382653.24794292 251385382.52135468 0 0 0 0 347561712.02485359 -366356079.59337169 0 -366356079.59337169 183775386.78297043 0 0 0 0 -708838983.42911386 252728796.41684723 0 252728796.41684723 -272397812.91819 0 0 0 0 88625381.351947546 -4872081.4207663536 0 -4872081.4207663536 188718215.93015385 0 0 0 0 110572219.623209 -209852944.56540298 0 -209852944.56540298 360615741.64439869 0 0 0 0 103027439.69970202 63521210.534566879 0 63521210.534566879 59034403.180135638 0 0 0 0 483096042.70589864 -397521372.67673802 0 -397521372.67673802 -309292079.49039984 0 0 0 0 122726063.7983709 -32988806.90912199 0 -32988806.90912199 -294438710.86050606 0 0 0 0 -109677706.29561377 -79032179.189108849 0 -79032179.189108849 -301264496.62656188 0 0 0 0 212017857.34638083 238552566.81390643 0 238552566.81390643 -1880775868.8338842 0 0 0 0 -41302896.193309829 132895800.44646907 0 132895800.44646907 -50858574.199015617 0 0 0 0 -228086677.61456937 9180637.2722182274 0 9180637.2722182274 110058644.6804812 0 0 0 0 -4096710.2004698515 240871428.98428154 0 240871428.98428154 125236321.29951668 0 0 0 0 -126293611.87660918 107117491.98168087 0 107117491.98168087 39299198.972998619 0 0 0 0 -218508426.31368983 -190696714.7565999 0 -190696714.7565999 -136836616.72296023 0 0 0 0 -63239633.777515352 38092047.850389838 0 38092047.850389838 -155655887.02210045 0 0 0 0 -2448608.3676658869 29355072.832575798 0 29355072.832575798 -860025620.82774973 0 0 0 0 288775779.74448866 -164125840.33964252 0 -164125840.33964252 -676316889.77647591 0 0 0 0 -118544571.50210369 -23528162.399113178 0 -23528162.399113178 -708910360.9564724 0 0 0 0 -436259276.89617932 -843554600.49658859 0 -843554600.49658859 -1400089303.5085373 0 0 0 0 798793099.918154 -1213043478.0237503 0 -1213043478.0237503 -4725681437.7118721 0 0 0 0 -1567311375.3142018 -2339489345.7764606 0 -2339489345.7764606 -2038432275.8340931 0 0 0 0 798045536.27757013 -1208933969.7932234 0 -1208933969.7932234 -4714939943.4111013 0 0 0 0 647349366.35697186 -89186143.069108009 0 -89186143.069108009 -2890377469.1731162 0 0 0 0 679883727.02865541 88516809.760334969 0 88516809.760334969 -1972090427.4677126 0 0 0 0 690350374.50424409 920275017.17859793 0 920275017.17859793 -4724890827.192152 0 0 0 0 42800012.350456238 814836736.88201475 0 814836736.88201475 -1494011677.8056769 0 0 0 0 296799.77684129559 678642.37722762022 0 678642.37722762022 -6229531.9148078226 0 0 0 0 -856415036.16407895 2524859994.6088305 0 2524859994.6088305 -4716655850.795537 0 0 0 0 -92834522.052414477 -1006111859.8617382 0 -1006111859.8617382 -982536133.75312042 0 0 0 0 399296035.9476974 -606889897.53501511 0 -606889897.53501511 -4714786490.0074148 0 0 0 0 269449699.49580765 1062492602.8941693 0 1062492602.8941693 -4715785070.3817577 0 0 0 0 325773291.01607597 224754880.64780903 0 224754880.64780903 -1623531716.3983421 0 0 0 0 -289826908.40231383 192447924.30736256 0 192447924.30736256 -1624659709.1066704 0 0 0 0 -647751583.90497541 388309061.14874411 0 388309061.14874411 -387832609.30250359 0 0 0 0 -296788879.9385705 425449428.94408321 0 425449428.94408321 67719173.32943821 0 0 0 0 -553251620.29795349 10314980.326717377 0 10314980.326717377 -369907926.92510414 0 0 0 0 -133736946.86899692 239640146.55202103 0 239640146.55202103 35342839.750989914 0 0 0 0 -585124137.04994392 349853249.13951588 0 349853249.13951588 9488229.2481918335 0 0 0 0 -92338939.960606217 -88151014.409399986 0 -88151014.409399986 55257956.741348267 0 0 0 0 -606394694.77368474 -110339667.10476348 0 -110339667.10476348 125249967.74913597 0 0 0 0 -379737463.49536467 76344621.042094231 0 76344621.042094231 4618487.3939971924 0 0 0 0 -7299966.3831628561 3155581.8170051575 0 3155581.8170051575 1448236.472058028 0 0 0 0 -120762887.74959499 252823737.05089188 0 252823737.05089188 -97591009.420749664 0 0 0 0 -48093384.281435251 140563809.36507225 0 140563809.36507225 -130505989.22640133 0 0 0 0 -137824060.93532616 230303662.66992521 0 230303662.66992521 -116827054.87710571 0 0 0 0 -603879.79778493452 -2882904.4513703906 0 -2882904.4513703906 -11043717.300446939 0 0 0 0 -230038826.95562553 281559490.96759415 0 281559490.96759415 -145261000.74394608 0 0 0 0 -232082302.98761827 304522583.55164433 0 304522583.55164433 -328465115.927742 0 0 0 0 314498414.69997132 227078947.72916079 0 227078947.72916079 -1588336629.8432374 0 0 0 0 -181039.9220023684 -1768653.2542866925 0 -1768653.2542866925 -10596991.537647914 0 0 0 0 293586896.02990568 183573366.51527786 0 183573366.51527786 -211986803.84763813 0 0 0 0 3627342.5232396126 -57694978.852905273 0 -57694978.852905273 -101206347.30705643 0 0 0 0 -230779896.08403105 229166328.63903904 0 229166328.63903904 -132886070.63688087 0 0 0 0 -4330207.2916137408 -3197171.3455683459 0 -3197171.3455683459 -5310950.4381291568 0 0 0 0 -530092.30011461175 532280.24289766653 0 532280.24289766653 -2004589.6137997769 0 0 0 0 -54534111.7648855 996626331.06162071 0 996626331.06162071 -2315625191.8219566 0 0 0 0 426320600.34120905 -679351322.87176704 0 -679351322.87176704 -4674537815.9574337 0 0 0 0 -855781333.91240597 -160774268.34534645 0 -160774268.34534645 479163767.39339828 0 0 0 0 -72867527.960293248 -66174930.330688477 0 -66174930.330688477 486052849.13701439 0 0 0 0 852976399.37449753 83757475.304069519 0 83757475.304069519 -4705414838.1151218 0 0 0 0 -1353602.6596683438 406620.24582098075 0 406620.24582098075 -3583584.8756259363 0 0 0 0 -211925329.92985809 -915810833.55595589 0 -915810833.55595589 -2687293061.0294151 0 0 0 0 -674447588.24382758 1288777000.6491361 0 1288777000.6491361 -1180898673.7921619 0 0 0 0 -375668202.31021941 -270506522.41303444 0 -270506522.41303444 339372790.94922256 0 0 0 0 545436910.67192376 -25214390.912552834 0 -25214390.912552834 -201929599.05264854 0 0 0 0 -80544712.101133525 -54175027.050659776 0 -54175027.050659776 95456216.312381744 0 0 0 0 22235302.646902919 -172481609.53095341 0 -172481609.53095341 34950010.535616398 0 0 0 0 8698803.2157380562 -10436017.391225815 0 -10436017.391225815 -84101303.347854137 0 0 0 0 -170834.12861971947 -4013034.1651629256 0 -4013034.1651629256 -10521540.019748673 0 0 0 0 -1384252.8935808942 381524.89880386996 0 381524.89880386996 -7693477.1422111597 0 0 0 0 -16944960.185467646 13526733.327739716 0 13526733.327739716 310220154.02575684 0 0 0 0 51388758.606462061 34304054.000117302 0 34304054.000117302 -72454905.704036713 0 0 0 0 -86586211.127357751 -50603813.709550858 0 -50603813.709550858 -23953106.372398376 0 0 0 0 -997959.76678336214 -339033.95023781131 0 -339033.95023781131 -3357514.8990365937 0 0 0 0 46385450.002895407 -86380234.597650528 0 -86380234.597650528 265806896.75219345 0 0 0 0 -2102747.320137898 -3421290.8939004564 0 -3421290.8939004564 -2153130.0498217177 0 0 0 0 -13638022.912039459 -16202014.432008743 0 -16202014.432008743 1985853.0306587219 0 0 0 0 -4665880.4686276913 -11688464.501850128 0 -11688464.501850128 -7599792.3571205139 0 0 0 0 9550653.904977655 -7194588.4842868894 0 -7194588.4842868894 -33099959.819259644 0 0 0 0 9513206.4746084213 -3155963.3997306824 0 -3155963.3997306824 -29352520.073989868 0 0 0 0 5389660.4301156402 -6193487.5470509529 0 -6193487.5470509529 -22714789.083740234 0 0 0 0 5801620.5032202601 -5023336.2104644775 0 -5023336.2104644775 -28122366.676185608 0 0 0 0 -1172320.3101291871 -5950741.7844789047 0 -5950741.7844789047 -18259877.021641333 0 0 0 0 612102.18608662311 -495196.73031668365 0 -495196.73031668365 -15399942.30352449 0 0 0 0 3810178.6746897101 -1032629.5538563728 0 -1032629.5538563728 -2261685.734954834 0 0 0 0 3128088.8201496601 -4539084.3698158264 0 -4539084.3698158264 -28071393.750621796 0 0 0 0 443350.95024076931 -517674.35500814649 0 -517674.35500814649 -14983001.555634722 0 0 0 0 -509870.10726706451 -1173250.8410579825 0 -1173250.8410579825 -13152506.352196751 0 0 0 0 115349168.15781653 -31909917.56934166 0 -31909917.56934166 -22719409.073783875 0 0 0 0 94423926.330976725 -19666283.052970886 0 -19666283.052970886 -21234558.231180191 0 0 0 0 -31873262.115227103 -39717396.820548058 0 -39717396.820548058 19963159.993652344 0 0 0 0 -5510281.5692677498 -43158103.510829926 0 -43158103.510829926 20347891.344149113 0 0 0 0 7201535.3658573627 -92689321.5788908 0 -92689321.5788908 26860952.695419312 0 0 0 0 30078882.444059372 -107789976.75542831 0 -107789976.75542831 32638577.61441803 0 0 0 0 138644760.86340809 -184174658.64726353 0 -184174658.64726353 41954838.430931091 0 0 0 0 261145523.86177349 -201879030.80766106 0 -201879030.80766106 65715815.781547546 0 0 0 0 213319699.09965837 136819639.41628695 0 136819639.41628695 -193769009.08477783 0 0 0 0 -16602912.488233682 -14752837.398015976 0 -14752837.398015976 -3781312.9775695801 0 0 0 0 361085.61636430339 -137616.75874753902 0 -137616.75874753902 -816629.37193391193 0 0 0 0 328373740.3143816 140254949.22990417 0 140254949.22990417 -122423103.16706848 0 0 0 0 -159540091.18549091 -78939955.479301691 0 -78939955.479301691 111591369.97883606 0 0 0 0 -65700132.130655289 -146374715.55516052 0 -146374715.55516052 110639881.80475235 0 0 0 0 -110767468.42524624 49280974.468301773 0 49280974.468301773 5292028.7981338501 0 0 0 0 -48066070.796329975 41258810.494318008 0 41258810.494318008 -38993838.489246368 0 0 0 0 -70872318.724755108 -74288285.879628181 0 -74288285.879628181 -65342772.39745903 0 0 0 0 -692557.49988208641 146714.41886104643 0 146714.41886104643 6789.3417913565645 0 0 0 0 -173156485.92751604 1168972.3787746429 0 1168972.3787746429 69399362.088527679 0 0 0 0 -44547363.362341881 4016920.1951332092 0 4016920.1951332092 21896344.566851616 0 0 0 0 -60042551.512358546 -8058651.2782258987 0 -8058651.2782258987 21897000.394592285 0 0 0 0 -49120983.423872471 -45357715.576196671 0 -45357715.576196671 52131494.392964363 0 0 0 0 -32738022.004417419 -16937054.960596085 0 -16937054.960596085 24718429.426555634 0 0 0 0 -38397921.441890478 -1349468.9922523499 0 -1349468.9922523499 14701949.567733765 0 0 0 0 -34834128.231677771 -5407525.4342563152 0 -5407525.4342563152 4344241.6904907227 0 0 0 0 -20535493.003976583 -11911466.39153862 0 -11911466.39153862 5888088.367275238 0 0 0 0 -23324516.711927697 -30383673.570132807 0 -30383673.570132807 15708953.223770142 0 0 0 0 -19090864.134387732 -17601798.878419876 0 -17601798.878419876 3321629.0319633484 0 0 0 0 -23424971.446260452 -18378926.344463348 0 -18378926.344463348 8003290.3468971252 0 0 0 0 -12093852.375206709 -8971408.5973339081 0 -8971408.5973339081 -14014465.943946838 0 0 0 0 -2503221.8919830322 -9871530.4380073547 0 -9871530.4380073547 -22934839.918441772 0 0 0 0 42502531.120234013 60524365.029113293 0 60524365.029113293 -10804179.503917694 0 0 0 0 35621290.91821751 41123486.306016713 0 41123486.306016713 -11699334.348274231 0 0 0 0 32998453.030691147 24494980.642019272 0 24494980.642019272 45493.403687477112 0 0 0 0 36089863.715572387 49334281.139272958 0 49334281.139272958 19342680.88227272 0 0 0 0 412910.62064422201 -405724.49133465299 0 -405724.49133465299 -2471682.8264519745 0 0 0 0 39180741.050630093 65057946.163251162 0 65057946.163251162 15925389.80446434 0 0 0 0 103513243.01424217 -222453920.77944756 0 -222453920.77944756 80487277.604437828 0 0 0 0 1717381.189904213 -13963623.548015594 0 -13963623.548015594 -19436837.522006989 0 0 0 0 5103718.0617895126 -14625846.945835114 0 -14625846.945835114 -24936639.23531723 0 0 0 0 -2791632.7875062777 108922.96212873515 0 108922.96212873515 -10024633.243360389 0 0 0 0 -449889.22550094128 -16490973.500631332 0 -16490973.500631332 -22866353.18806076 0 0 0 0 -58742992.909698486 -42915380.938972473 0 -42915380.938972473 -111307510.60597992 0 0 0 0 2437644.7491752147 -827382.42185425921 0 -827382.42185425921 -9041860.6012174264 0 0 0 0 -8784400.1961323023 -12264040.272247314 0 -12264040.272247314 -18881711.646663666 0 0 0 0 -2956577.904264003 -3400790.3105831146 0 -3400790.3105831146 -16051207.454376221 0 0 0 0 3029252.8250629902 -13269544.028051376 0 -13269544.028051376 -20972547.866558075 0 0 0 0 13072232.115664482 -9494181.2651538849 0 -9494181.2651538849 -19162199.471787572 0 0 0 0 7551497.4309718609 -18023591.233678818 0 -18023591.233678818 -17086150.795814514 0 0 0 0 5297137.6877548695 -25850282.590452194 0 -25850282.590452194 -6744848.8281059265 0 0 0 0 -5125791.4193882942 -16439607.385005951 0 -16439607.385005951 -8403049.7617530823 0 0 0 0 23143655.213582516 -39659506.036453247 0 -39659506.036453247 -1237651.0495910645 0 0 0 0 12101791.335160136 -9731014.6731338501 0 -9731014.6731338501 -17235299.432804108 0 0 0 0 26253446.478597403 -10822158.551914215 0 -10822158.551914215 -21176405.670974731 0 0 0 0 27837116.547371387 4661967.4633560181 0 4661967.4633560181 -7956439.3344268799 0 0 0 0 2359743.6161158625 -2406368.7285290295 0 -2406368.7285290295 -16650792.41717241 0 0 0 0 19253912.547755361 -4309697.5660181046 0 -4309697.5660181046 -19505411.637710571 0 0 0 0 -2185354.3319282746 4225076.8398920037 0 4225076.8398920037 -12627850.803950012 0 0 0 0 8814208.8872454166 -2289842.2138748169 0 -2289842.2138748169 -27375641.887832642 0 0 0 0 -3213641.6820965065 250067.64730012283 0 250067.64730012283 -11728006.961827135 0 0 0 0 16105550.774925232 5860135.2495212555 0 5860135.2495212555 -4506015.9584541321 0 0 0 0 -6217434.9297737479 -6590053.6453523636 0 -6590053.6453523636 -17996495.105514526 0 0 0 0 -16137825.571492195 4033468.4762935638 0 4033468.4762935638 -9398321.5020141602 0 0 0 0 13871979.527326107 749829.53767776489 0 749829.53767776489 -30985210.045440674 0 0 0 0 7743881.9428789616 4686887.3005256653 0 4686887.3005256653 -21793688.242073059 0 0 0 0 10990243.411371708 2652417.731918335 0 2652417.731918335 -20664468.148521423 0 0 0 0 11635078.293809891 -2070939.008518219 0 -2070939.008518219 -29417332.008155823 0 0 0 0 10701570.308718145 -3901909.9962568283 0 -3901909.9962568283 -30250734.181365967 0 0 0 0 -22140637.270570755 86677423.390698433 0 86677423.390698433 353452829.23837471 0 0 0 0 65206205.672142982 56406567.261644363 0 56406567.261644363 200982364.5679369 0 0 0 0 41765777.335429192 85270524.981257439 0 85270524.981257439 64178733.295314312 0 0 0 0 18346882.822032928 155243577.77101326 0 155243577.77101326 117949836.97807503 0 0 0 0 28745905.522595584 72876453.432743788 0 72876453.432743788 177739587.92286682 0 0 0 0 5297952.6491398811 174104573.26010513 0 174104573.26010513 38980531.39466095 0 0 0 0 -324220627.05647755 -31807058.82420063 0 -31807058.82420063 676992977.31963348 0 0 0 0 -198200599.25732088 56583268.881192207 0 56583268.881192207 232874101.42182291 0 0 0 0 102057962.27198887 -10112588.658237457 0 -10112588.658237457 227795889.01273561 0 0 0 0 44394702.713896751 152063268.81758308 0 152063268.81758308 240502514.99414635 0 0 0 0 -174590294.2946974 229404786.48621631 0 229404786.48621631 -317156592.99359131 0 0 0 0 -552141.95792563341 -143687.21405219752 0 -143687.21405219752 -251036.42332598264 0 0 0 0 -363847180.83914858 967736431.54812717 0 967736431.54812717 -1023957934.2839661 0 0 0 0 -189784467.20251989 158911664.51198483 0 158911664.51198483 -476225241.09907246 0 0 0 0 -1486222.8132013995 -342263.54001059011 0 -342263.54001059011 -718778.08139538288 0 0 0 0 -69677844.130633354 160135618.49374771 0 160135618.49374771 -392030017.80355072 0 0 0 0 -82866545.37253952 183564754.38343048 0 183564754.38343048 -300395337.99370193 0 0 0 0 96962073.079798579 113000258.30421638 0 113000258.30421638 -343429936.62236023 0 0 0 0 -224221.32105478598 -95316.397439422552 0 -95316.397439422552 123281.9152205335 0 0 0 0 -90095233.711554587 176244968.2428236 0 176244968.2428236 -156503863.22812271 0 0 0 0 -69253279.296016157 50680228.598315716 0 50680228.598315716 -34880535.222269058 0 0 0 0 -1886853.2788771002 376156.44100828096 0 376156.44100828096 15642.554072629195 0 0 0 0 -129783634.84504294 118573705.8376379 0 118573705.8376379 -73366006.593592644 0 0 0 0 4252045.3497297764 7729318.2912473679 0 7729318.2912473679 -17986384.972411156 0 0 0 0 -35597040.167409897 3789705.744884491 0 3789705.744884491 1404101.4881210327 0 0 0 0 55677.379832744598 -1698342.5554075241 0 -1698342.5554075241 1093810.5343310833 0 0 0 0 -1824187.3387526094 126670.94751745672 0 126670.94751745672 -2045705.1635408085 0 0 0 0 37213706.897044182 118576882.17384243 0 118576882.17384243 124401369.08872986 0 0 0 0 21658568.650535583 115389044.47602463 0 115389044.47602463 126747742.8655901 0 0 0 0 83899502.351305008 26064103.40764904 0 26064103.40764904 26328707.790840149 0 0 0 0 67184425.461262703 80305116.077711105 0 80305116.077711105 -33763834.789055824 0 0 0 0 -27147781.640322208 -5756356.6677742004 0 -5756356.6677742004 3535913.2688674927 0 0 0 0 -26842903.606271744 161957471.56413364 0 161957471.56413364 -59120740.818068504 0 0 0 0 94236729.325331688 83030778.162623882 0 83030778.162623882 -15174856.074497223 0 0 0 0 -2511226.7463355381 615099.40587842651 0 615099.40587842651 -4773736.4986494873 0 0 0 0 77838403.30064106 61027774.692643642 0 61027774.692643642 -34660260.487895012 0 0 0 0 44829821.868286133 58608016.596212387 0 58608016.596212387 -16456317.382598639 0 0 0 0 53802461.278413773 32700974.966976166 0 32700974.966976166 -62627587.623345375 0 0 0 0 52208187.29888916 44957232.583110809 0 44957232.583110809 -22140060.695479393 0 0 0 0 69062388.918225288 16957167.959582806 0 16957167.959582806 -82415853.476276875 0 0 0 0 57608022.80507946 20287812.200983047 0 20287812.200983047 -80839223.151035309 0 0 0 0 46908434.643510818 -24230635.547142982 0 -24230635.547142982 -174389316.76368141 0 0 0 0 35327111.589965343 60436062.694833755 0 60436062.694833755 -109390444.37172842 0 0 0 0 62170554.282009393 32887681.77831912 0 32887681.77831912 -82500384.207502365 0 0 0 0 24598050.178926468 140428499.678936 0 140428499.678936 340576.77870464325 0 0 0 0 25018112.672477454 62605530.591824226 0 62605530.591824226 -43007986.460996628 0 0 0 0 -89800039.86207056 133027106.68899536 0 133027106.68899536 -86178644.315636635 0 0 0 0 -87558472.195069313 131359925.76628971 0 131359925.76628971 -218526315.37055206 0 0 0 0 -48308200.002686024 80807877.5024786 0 80807877.5024786 -257009009.90766954 0 0 0 0 -33688737.60878849 -61830094.765335083 0 -61830094.765335083 -209142470.05451965 0 0 0 0 11232461.157105327 6473164.0084507465 0 6473164.0084507465 -168101464.13902855 0 0 0 0 -158742047.95470381 50351307.499585629 0 50351307.499585629 -185449482.91957664 0 0 0 0 -116159899.35099244 -103149989.94939518 0 -103149989.94939518 -45451797.949022293 0 0 0 0 -18627073.195449352 -78850092.084566593 0 -78850092.084566593 -239406541.27631569 0 0 0 0 7730907.5358901024 -44467494.53080225 0 -44467494.53080225 -110001640.20129013 0 0 0 0 -13081276.744772434 -48457095.161801338 0 -48457095.161801338 -105870627.31825972 0 0 0 0 -43087445.627485752 -73892300.06695509 0 -73892300.06695509 -90426252.556824684 0 0 0 0 -72381217.418095112 -54139054.784080029 0 -54139054.784080029 -52242568.891868591 0 0 0 0 -76517712.935947418 -60050100.687473774 0 -60050100.687473774 -43923728.510343105 0 0 0 0 -50435055.36960268 -52002589.485233784 0 -52002589.485233784 -52209248.529850125 0 0 0 0 -50656346.604983807 -50319978.358613312 0 -50319978.358613312 -50351520.908315659 0 0 0 0 -8539776.542907238 -39799874.217435837 0 -39799874.217435837 -64334124.643013954 0 0 0 0 203617374.79586124 135487567.47807741 0 135487567.47807741 21073433.501781464 0 0 0 0 183338085.95913982 234297760.65076447 0 234297760.65076447 116691004.18109894 0 0 0 0 -4869514.8808803177 3345501.0569336764 0 3345501.0569336764 -5955291.0274001667 0 0 0 0 -1197484.1541604996 -25721227.193046093 0 -25721227.193046093 -43944810.289830357 0 0 0 0 -455878.68390464783 -27739976.541339397 0 -27739976.541339397 -47539474.949076176 0 0 0 0 -24662738.734767437 -29120156.626641989 0 -29120156.626641989 -45234649.242884636 0 0 0 0 -21679526.996769428 -35535777.351707458 0 -35535777.351707458 -47007304.898607731 0 0 0 0 14352594.702719688 -22211612.989038467 0 -22211612.989038467 -61068878.326543093 0 0 0 0 6483160.1915473938 -33476316.1608181 0 -33476316.1608181 -65165917.199011803 0 0 0 0 3414246.3491709232 -23354359.107824326 0 -23354359.107824326 -51875470.477435112 0 0 0 0 27425583.570158005 -12788096.819257736 0 -12788096.819257736 -56372162.612456322 0 0 0 0 13718013.391851902 -20280305.464959741 0 -20280305.464959741 -58910401.937281609 0 0 0 0 37158991.459115982 1818453.08203125 0 1818453.08203125 -59132835.034049988 0 0 0 0 29304400.444149971 -18026342.036744118 0 -18026342.036744118 -83983020.517724991 0 0 0 0 40201122.259703636 -3164362.6412014961 0 -3164362.6412014961 -67271977.238824844 0 0 0 0 26007343.845046043 -17029275.283138275 0 -17029275.283138275 -78543948.720825195 0 0 0 0 -6731195.8776741028 -42130503.378125668 0 -42130503.378125668 -75157029.101777077 0 0 0 0 43754157.143517494 -15913775.09588623 0 -15913775.09588623 -107600339.73059654 0 0 0 0 4577761.3246484995 -29240232.371627927 0 -29240232.371627927 -81605840.981174469 0 0 0 0 57359004.970546246 10039427.173977852 0 10039427.173977852 -76016921.723518372 0 0 0 0 46478570.647291183 9289859.5348129272 0 9289859.5348129272 -69941123.82524395 0 0 0 0 45412299.730854988 16198586.030518532 0 16198586.030518532 -54144157.309995651 0 0 0 0 47895311.682767868 25914045.998774529 0 25914045.998774529 -46073720.316423416 0 0 0 0 44288209.931441784 18893855.40360105 0 18893855.40360105 -40520475.374008179 0 0 0 0 44455952.988767624 12768483.665513992 0 12768483.665513992 -52353610.222553253 0 0 0 0 40716803.719011307 18644178.713977814 0 18644178.713977814 -31053478.235445023 0 0 0 0 43111117.362799644 23654191.818627357 0 23654191.818627357 -33507512.172669411 0 0 0 0 44987750.092149258 33330562.515672684 0 33330562.515672684 -16412599.53319931 0 0 0 0 33525336.301847458 20859957.122072697 0 20859957.122072697 -15636042.482730865 0 0 0 0 41286563.17114687 9651640.3368904591 0 9651640.3368904591 -29980621.974495411 0 0 0 0 34028340.650649548 19463546.164087415 0 19463546.164087415 -18587136.63902092 0 0 0 0 13487425.086772919 8704430.2925300598 0 8704430.2925300598 -22140757.912731171 0 0 0 0 40875447.608138084 12294204.314873934 0 12294204.314873934 -38393965.173147202 0 0 0 0 38647282.62822485 7976540.886310339 0 7976540.886310339 -42982620.873315811 0 0 0 0 41177019.591356277 6010058.3161878586 0 6010058.3161878586 -50989064.744392395 0 0 0 0 35173288.348042011 2130218.8618085384 0 2130218.8618085384 -50890854.939043045 0 0 0 0 18044525.342502117 12744385.587089539 0 12744385.587089539 -16398353.939304352 0 0 0 0 10674073.029236555 8106207.4620704651 0 8106207.4620704651 -18156844.311462402 0 0 0 0 9461265.8249354362 -3564407.7696247101 0 -3564407.7696247101 -50606766.701797485 0 0 0 0 19205936.740187883 6642627.429441452 0 6642627.429441452 -11251636.600067139 0 0 0 0 1536779.5528010253 2315144.6390454527 0 2315144.6390454527 -14049128.23493553 0 0 0 0 5078272.2346507739 -8030619.4149931334 0 -8030619.4149931334 -17303663.499911819 0 0 0 0 3347791.0420331117 -1881580.5792698208 0 -1881580.5792698208 -29405252.642494738 0 0 0 0 124397433.33436584 93130488.86138916 0 93130488.86138916 -14458315.051940918 0 0 0 0 -6492272.9380939007 -79652750.700449944 0 -79652750.700449944 -4532875.3905487061 0 0 0 0 520621.29484050127 -2817071.1548360116 0 -2817071.1548360116 -31102591.401570544 0 0 0 0 -35944341.460068226 10044472.58372879 0 10044472.58372879 123941305.89580536 0 0 0 0 -47444110.383185387 -101366356.69140625 0 -101366356.69140625 -157792944.15301514 0 0 0 0 4024476.03515625 621958.9873046875 0 621958.9873046875 -6578876.6623077393 0 0 0 0 246806.72027818172 -742061.57689755037 0 -742061.57689755037 -5359643.5875152573 0 0 0 0 12156584.629387856 -113584399.27276611 0 -113584399.27276611 -137150859.53089905 0 0 0 0 844092.80949159665 -943464.55436199717 0 -943464.55436199717 -3440059.940907944 0 0 0 0 6602764.2107496262 14524928.760757446 0 14524928.760757446 -32822986.44524765 0 0 0 0 -52059153.590427041 -96814357.810115814 0 -96814357.810115814 1404982.5335998535 0 0 0 0 -6839512.9958355539 -5263680.6671311855 0 -5263680.6671311855 -27435437.6951828 0 0 0 0 72942848.869709015 46845277.225925446 0 46845277.225925446 -1080667.8973999023 0 0 0 0 -1590997.8843015837 2375981.6759673059 0 2375981.6759673059 -22219953.400375366 0 0 0 0 563975.11514917389 436682.72581585497 0 436682.72581585497 -2489487.8749109861 0 0 0 0 41535023.940248489 7304085.5702285767 0 7304085.5702285767 -36606494.466316223 0 0 0 0 -1611950.6433675364 1109432.7356044054 0 1109432.7356044054 -28536878.512298584 0 0 0 0 54726289.413966179 -22979818.746948242 0 -22979818.746948242 -80851504.404556274 0 0 0 0 63643705.57529068 -10481068.613067627 0 -10481068.613067627 -66296533.960906982 0 0 0 0 199281464.15332794 -16500685.559272766 0 -16500685.559272766 -84918640.075531006 0 0 0 0 180142893.73985338 -165503304.53874683 0 -165503304.53874683 -83409192.34274292 0 0 0 0 40377640.573453903 -124660533.72967529 0 -124660533.72967529 -45529855.363677979 0 0 0 0 2105706.0430565602 -2051850.9098815178 0 -2051850.9098815178 -34663628.936338648 0 0 0 0 -19758729.449197769 -42414518.92950058 0 -42414518.92950058 -40503065.073822021 0 0 0 0 27612000.783665657 5723156.7489547729 0 5723156.7489547729 -70783689.788421631 0 0 0 0 53166492.889052868 -17279549.980827332 0 -17279549.980827332 -83497685.106643677 0 0 0 0 -4169412.9035687447 -29612480.974105835 0 -29612480.974105835 -66424851.442329407 0 0 0 0 47588808.944191217 -27566827.687438965 0 -27566827.687438965 -102304450.48374939 0 0 0 0 74055009.312642097 -4657145.231048584 0 -4657145.231048584 -97654834.36712265 0 0 0 0 29039963.03374958 -13268719.553505898 0 -13268719.553505898 -53869548.623479843 0 0 0 0 26871073.973133087 -8523397.7751221657 0 -8523397.7751221657 -43419877.227706909 0 0 0 0 30659714.520750999 -6526224.3410525322 0 -6526224.3410525322 -33068107.599234104 0 0 0 0 51760222.53022337 -4443363.755821228 0 -4443363.755821228 -48921895.938634396 0 0 0 0 21261374.868413925 -10237558.213666916 0 -10237558.213666916 -44307073.180435181 0 0 0 0 12145918.867189765 -11628826.576841712 0 -11628826.576841712 -36899695.761398792 0 0 0 0 7175277.8325259686 -26417022.988691926 0 -26417022.988691926 -51062016.200925827 0 0 0 0 26447908.616313457 -15658669.712480307 0 -15658669.712480307 -55432578.685462475 0 0 0 0 7176394.0201829895 -3638564.8246355178 0 -3638564.8246355178 -23058289.328664739 0 0 0 0 -29634276.718058348 24546608.169471741 0 24546608.169471741 -27978157.377494812 0 0 0 0 10727585.703162432 15691975.312122345 0 15691975.312122345 -18231386.986419678 0 0 0 0 -28963076.141640887 -23893829.554689407 0 -23893829.554689407 4892587.9328727722 0 0 0 0 512417.15760615433 2000325.3870718442 0 2000325.3870718442 -5860466.8026707061 0 0 0 0 26131515.681575775 -16602546.571792603 0 -16602546.571792603 3622329.0011444092 0 0 0 0 5229106.692553944 -4934425.0983049739 0 -4934425.0983049739 -38311080.93006143 0 0 0 0 63306906.412751675 29133236.529126167 0 29133236.529126167 -57522491.483688354 0 0 0 0 14799891.733551085 3001083.8428883553 0 3001083.8428883553 -30286955.464477539 0 0 0 0 30287430.341836452 -9343308.4773902893 0 -9343308.4773902893 -54477864.549194336 0 0 0 0 31037539.247643113 14552680.89939785 0 14552680.89939785 -36827982.079772949 0 0 0 0 9664961.6608552933 2543091.9308013916 0 2543091.9308013916 -37966572.383910656 0 0 0 0 9468755.008980751 -3357564.7533521652 0 -3357564.7533521652 -39074957.263366699 0 0 0 0 14264158.354648262 7244220.64727211 0 7244220.64727211 -41966263.925437927 0 0 0 0 16391230.534496307 -2810475.7384796143 0 -2810475.7384796143 -37766618.52520752 0 0 0 0 10964532.460383642 -1705353.6619856469 0 -1705353.6619856469 -33422397.193375044 0 0 0 0 11517451.788942337 2306990.1830978394 0 2306990.1830978394 -29290512.786787987 0 0 0 0 8850104.7260956764 -2572044.0886516571 0 -2572044.0886516571 -30216016.628662109 0 0 0 0 21162888.28360343 -432969.69385576248 0 -432969.69385576248 -24357046.708358765 0 0 0 0 -646935.58736658096 36970578.730813384 0 36970578.730813384 -35744466.439846039 0 0 0 0 10994720.182593346 19498799.995797157 0 19498799.995797157 -20514878.054414749 0 0 0 0 5113756.8705744743 685694.42542648315 0 685694.42542648315 -10278992.922122955 0 0 0 0 -5413302.5266370773 -9553689.213344574 0 -9553689.213344574 -15007289.432912827 0 0 0 0 -157711.03907294857 1183483.2140838755 0 1183483.2140838755 -78813.033612521365 0 0 0 0 6023930.8017110825 37192485.525966644 0 37192485.525966644 -98686252.253051758 0 0 0 0 158335.3836981421 990385.60559768323 0 990385.60559768323 -1147353.3076998405 0 0 0 0 -46256746.534056187 58670892.123165131 0 58670892.123165131 -37637808.730010986 0 0 0 0 5217202.5732874302 -2352416.2419413673 0 -2352416.2419413673 -27246840.639207184 0 0 0 0 35060858.58891964 -6794385.6889362335 0 -6794385.6889362335 -36623036.368000031 0 0 0 0 22176896.624099731 -19454675.73090744 0 -19454675.73090744 -48595006.612350464 0 0 0 0 10108523.334385395 -8303735.5589065552 0 -8303735.5589065552 -22155887.375057459 0 0 0 0 -2864882.9393117428 -17916110.051054955 0 -17916110.051054955 -21667532.041992188 0 0 0 0 13955657.829693794 -5796533.8817863464 0 -5796533.8817863464 -13030223.267974854 0 0 0 0 16829355.738973618 84570.445999145508 0 84570.445999145508 -17528492.163173676 0 0 0 0 15004465.401949883 940709.00481033325 0 940709.00481033325 -7176274.6192331314 0 0 0 0 13495984.304721832 -3325855.7656116486 0 -3325855.7656116486 -20530971.033390045 0 0 0 0 8556082.7077695169 -6871244.0661774967 0 -6871244.0661774967 -19009769.450201977 0 0 0 0 8654709.5547568798 1907520.0489463806 0 1907520.0489463806 -15190444.494979858 0 0 0 0 20825738.416231155 -1489167.1915521622 0 -1489167.1915521622 -5999053.2212944031 0 0 0 0 5149613.5913459035 -1384199.1526361294 0 -1384199.1526361294 -9563380.1485983413 0 0 0 0 -1805701.8933601121 9683572.0871724524 0 9683572.0871724524 -591551.65974621195 0 0 0 0 10445406.220436716 -9567794.3124802597 0 -9567794.3124802597 -20452940.469925482 0 0 0 0 40545854.274147034 11083646.05967617 0 11083646.05967617 -36126007.665777445 0 0 0 0 5211444.8441589866 5768319.9264097074 0 5768319.9264097074 -22928457.922224313 0 0 0 0 53851010.20016861 15620086.550935745 0 15620086.550935745 -35455065.953503847 0 0 0 0 1438592.3869944206 10285909.989161188 0 10285909.989161188 -23965999.825958855 0 0 0 0 55460327.871767521 16538163.060626507 0 16538163.060626507 -49517068.845027924 0 0 0 0 120124976.42639351 62253616.407746315 0 62253616.407746315 -24351164.204463005 0 0 0 0 79809148.434715271 7287040.0483751297 0 7287040.0483751297 -47912620.935178757 0 0 0 0 51191548.848083496 -1337721.5360898972 0 -1337721.5360898972 -46399393.565202713 0 0 0 0 35077212.288266182 -19228409.77413559 0 -19228409.77413559 -51408997.597358704 0 0 0 0 81411260.70492059 -24080937.947720647 0 -24080937.947720647 -79063288.768901825 0 0 0 0 -42861946.48856163 -3756057.6608271599 0 -3756057.6608271599 -27140472.326148987 0 0 0 0 4276261.786198616 -55908030.445052147 0 -55908030.445052147 -66462981.137595177 0 0 0 0 56140681.395828247 -36343281.311065674 0 -36343281.311065674 -82687670.186285973 0 0 0 0 -107695456.01774311 -132033464.16395354 0 -132033464.16395354 -111426301.64471245 0 0 0 0 54174046.986676216 -23569595.459630966 0 -23569595.459630966 -70911097.720942497 0 0 0 0 121395296.88111115 -22896360.304891586 0 -22896360.304891586 -113380210.73110771 0 0 0 0 230651497.61099243 56622121.107542038 0 56622121.107542038 -93782603.52324295 0 0 0 0 95116028.255830765 34057512.784853935 0 34057512.784853935 18619110.800569534 0 0 0 0 123603023.48346519 36439065.607406616 0 36439065.607406616 -266192283.34955359 0 0 0 0 -158768583.25848532 58784294.197934151 0 58784294.197934151 -12629254.457609177 0 0 0 0 118791766.30063629 22390290.495070457 0 22390290.495070457 -42139502.177576065 0 0 0 0 60779533.321495056 121124970.22350883 0 121124970.22350883 124589825.28352845 0 0 0 0 225316345.8161211 141558265.25335383 0 141558265.25335383 -53157573.387508392 0 0 0 0 -22945511.588011265 -32957265.419173717 0 -32957265.419173717 -43994736.704670787 0 0 0 0 244880088.05856323 104572070.2289362 0 104572070.2289362 5640999.8276672363 0 0 0 0 -3869523.9916228438 2284967.5763502573 0 2284967.5763502573 -11762733.934727572 0 0 0 0 -22761904.443874359 -26679343.435277939 0 -26679343.435277939 -44603639.213917971 0 0 0 0 6744487.807888031 -769980.60917472839 0 -769980.60917472839 -16189005.755857468 0 0 0 0 -75427.633814171888 -2725732.3469142527 0 -2725732.3469142527 -14789717.004757963 0 0 0 0 -617012.20086929202 8289614.3420550637 0 8289614.3420550637 -15263818.075520134 0 0 0 0 -2303100.274733305 -20201270.285026789 0 -20201270.285026789 -47905662.573508263 0 0 0 0 84905619.4165802 65080759.753348351 0 65080759.753348351 -22485235.822972298 0 0 0 0 167536568.89822578 171110787.65174103 0 171110787.65174103 113477453.31732178 0 0 0 0 613240.89547619503 887544.78960100701 0 887544.78960100701 -2817841.6400691327 0 0 0 0 -25131012.361198425 68487183.625671387 0 68487183.625671387 48963948.826576233 0 0 0 0 78445432.85410881 24138135.656852722 0 24138135.656852722 -118334002.69927216 0 0 0 0 -44803918.071292877 -29737251.730888367 0 -29737251.730888367 215818631.05024719 0 0 0 0 -48023666.41129303 -11047128.297904968 0 -11047128.297904968 118225999.1112442 0 0 0 0 53526380.619503975 -67152217.011932373 0 -67152217.011932373 -152041203.78135681 0 0 0 0 -37102617.331922531 -106511396.37534332 0 -106511396.37534332 -3146020.2858276367 0 0 0 0 29606735.186316013 33342459.756736755 0 33342459.756736755 -64961548.691040039 0 0 0 0 2691511.4970231769 1072022.3638760224 0 1072022.3638760224 -3035689.7302513793 0 0 0 0 121120219.81372833 15231201.908569336 0 15231201.908569336 -120278235.75397205 0 0 0 0 812714.18326814193 683564.7878302969 0 683564.7878302969 -916372.06384506822 0 0 0 0 -50619222.73000145 91953569.99684906 0 91953569.99684906 -93912889.581268311 0 0 0 0 -264396200.40125084 95421606.698257446 0 95421606.698257446 58744954.902694702 0 0 0 0 29847016.307957649 -123034621.0254097 0 -123034621.0254097 -178146811.51754761 0 0 0 0 -77457509.311124802 -158216754.37833405 0 -158216754.37833405 -123462171.42100525 0 0 0 0 824650.58334752545 1278810.1493302286 0 1278810.1493302286 635335.09582726657 0 0 0 0 138930649.67974091 -174141124.26506805 0 -174141124.26506805 -111858461.36998749 0 0 0 0 184192394.73328972 98660442.846633911 0 98660442.846633911 -227096766.73373413 0 0 0 0 10376624.1431306 948721.61307629198 0 948721.61307629198 -16067993.061316319 0 0 0 0 -51107730.971704006 504435.36295509338 0 504435.36295509338 82479229.010894775 0 0 0 0 140113596.73262978 33093436.674110413 0 33093436.674110413 -9648239.2124481201 0 0 0 0 -66936988.192033768 8584048.3711929321 0 8584048.3711929321 -11994098.783821106 0 0 0 0 83720998.444425583 -142797500.25932312 0 -142797500.25932312 35331066.429840088 0 0 0 0 114798501.44964504 -95201320.805202484 0 -95201320.805202484 -188740477.70827484 0 0 0 0 -49275438.757816315 -51083128.103523254 0 -51083128.103523254 -14034832.215911865 0 0 0 0 -3113593.477596283 17182079.917629242 0 17182079.917629242 -93831566.449935913 0 0 0 0 2817109.7662815154 -17053620.23763182 0 -17053620.23763182 -286518.63996686973 0 0 0 0 -737083.04975891113 -72412846.625335693 0 -72412846.625335693 -42533432.577865601 0 0 0 0 -391965.66446495056 -72592839.522407532 0 -72592839.522407532 -95776788.530181885 0 0 0 0 7625749.206411453 -15982023.840887688 0 -15982023.840887688 1050364.0595148001 0 0 0 0 24089560.580032349 -84039411.316467285 0 -84039411.316467285 -127250606.9489212 0 0 0 0 70358816.656333923 -16008453.11730957 0 -16008453.11730957 -167416702.29225159 0 0 0 0 -3010227.904592514 -54379778.133014679 0 -54379778.133014679 -98882220.267715454 0 0 0 0 11451298.167692874 -16105449.737369988 0 -16105449.737369988 -164888.90318797342 0 0 0 0 70269482.250854492 -52650956.727630615 0 -52650956.727630615 -101914027.89858627 0 0 0 0 57555760.418327332 -33096116.604873657 0 -33096116.604873657 -85942624.148971558 0 0 0 0 115115374.31362534 -71988383.569442749 0 -71988383.569442749 -87049817.678527832 0 0 0 0 87036498.470451355 -21387266.389678955 0 -21387266.389678955 -99053676.352966309 0 0 0 0 89048376.884477615 -36428740.378990173 0 -36428740.378990173 -35188093.662658691 0 0 0 0 94670364.0415802 -84258693.608833313 0 -84258693.608833313 -19750053.551460266 0 0 0 0 114595059.31624985 -64504844.792037964 0 -64504844.792037964 -114265140.54550934 0 0 0 0 -85263246.242412567 90963520.805198669 0 90963520.805198669 -73985389.692504883 0 0 0 0 -81419333.936101437 42072705.106043816 0 42072705.106043816 -40920027.709472656 0 0 0 0 -87523.85854158178 1846384.942503389 0 1846384.942503389 -4035879.1127700806 0 0 0 0 -16178463.235977173 -18064420.836486816 0 -18064420.836486816 -79535751.778106689 0 0 0 0 -33949986.863733292 130374555.94190979 0 130374555.94190979 -206206471.33227539 0 0 0 0 2785694.3524246216 36162789.260955811 0 36162789.260955811 -136559181.65591431 0 0 0 0 40882475.028953552 -20934913.442337036 0 -20934913.442337036 -230126719.15086555 0 0 0 0 24505989.479553223 -29022697.990997314 0 -29022697.990997314 -171032934.16336823 0 0 0 0 4026511.1749820709 -1228704.5250930786 0 -1228704.5250930786 -32062935.954921722 0 0 0 0 8059045.5043834513 -1034689.1767938221 0 -1034689.1767938221 -20763777.435408883 0 0 0 0 25359518.617477417 985980.52059173584 0 985980.52059173584 -8465493.638053894 0 0 0 0 97269680.406661987 22069907.392837524 0 22069907.392837524 -90979340.724243164 0 0 0 0 7935707.6955838073 -8452657.8567403797 0 -8452657.8567403797 -24467334.563705832 0 0 0 0 3037065.9143295288 -11037375.74786377 0 -11037375.74786377 -62711568.585195541 0 0 0 0 89205811.876853943 12744932.882087708 0 12744932.882087708 -90590908.155517578 0 0 0 0 83276057.294036865 -40438131.210830688 0 -40438131.210830688 -83442714.046524048 0 0 0 0 29946904.063421249 -6461715.019159317 0 -6461715.019159317 -10835683.420196533 0 0 0 0 8302564.7984948456 12943262.454548616 0 12943262.454548616 -30899197.012578577 0 0 0 0 31076744.319490433 -1882402.5708999634 0 -1882402.5708999634 775111.16120147705 0 0 0 0 36080424.949424744 -10175214.61605835 0 -10175214.61605835 -77161192.766075134 0 0 0 0 68943364.453544617 38491403.809295654 0 38491403.809295654 -45155109.062652588 0 0 0 0 4344670.2007446289 51595469.691040039 0 51595469.691040039 -98123986.541046143 0 0 0 0 18911009.914672852 2685635.7640686035 0 2685635.7640686035 -69163265.821716309 0 0 0 0 29378746.402830124 -23368503.537124634 0 -23368503.537124634 -23531256.352722168 0 0 0 0 10525375.260324564 -260706.57685047761 0 -260706.57685047761 -32939633.585947476 0 0 0 0 9865010.4584423639 3503794.5470498241 0 3503794.5470498241 -41442607.091100693 0 0 0 0 9284017.6148845814 -934586.95011630841 0 -934586.95011630841 -22577515.751335047 0 0 0 0 7497765.7232298255 6437341.5722885132 0 6437341.5722885132 -29842069.046264648 0 0 0 0 57832787.0952425 23353362.552726746 0 23353362.552726746 -45375702.500244141 0 0 0 0 25743309.250547409 15901511.377567291 0 15901511.377567291 -4992401.3766479492 0 0 0 0 259437.77162983769 -1645440.2271824894 0 -1645440.2271824894 368275.40096379071 0 0 0 0 -31701178.624959946 24432722.070007324 0 24432722.070007324 -26543404.299789429 0 0 0 0 230404.16865778342 587546.71802926809 0 587546.71802926809 -642394.81456436589 0 0 0 0 -117420589.09194469 -42500725.434614182 0 -42500725.434614182 -47335080.904067993 0 0 0 0 7419349.2022755546 129983.32228672132 0 129983.32228672132 -12473274.099614808 0 0 0 0 -148568167.64546967 2274562.4034423828 0 2274562.4034423828 -28029200.278137207 0 0 0 0 6602318.5433301926 -9194110.6584625244 0 -9194110.6584625244 -44596969.101739883 0 0 0 0 116123029.33830643 -99309871.191986084 0 -99309871.191986084 -59922127.230056763 0 0 0 0 -2886643.5319953263 -8683350.9987373352 0 -8683350.9987373352 -35925230.948028564 0 0 0 0 29548949.282175064 58859708.658073425 0 58859708.658073425 -63629312.39630127 0 0 0 0 10741360.322816256 -2508744.664491117 0 -2508744.664491117 -36614137.358657837 0 0 0 0 4633962.5745851016 -5285002.0233113123 0 -5285002.0233113123 -22989839.461274534 0 0 0 0 35595094.274864197 37911130.216506958 0 37911130.216506958 -64027970.069564819 0 0 0 0 -45714619.999956131 -54104289.458515167 0 -54104289.458515167 25507178.355987549 0 0 0 0 29266755.71072197 -6728187.3603668213 0 -6728187.3603668213 -76758031.361251831 0 0 0 0 15894781.940230792 -13340827.047248363 0 -13340827.047248363 -6279243.3120985255 0 0 0 0 49327312.266483307 -57139782.545913696 0 -57139782.545913696 -86324423.696868896 0 0 0 0 72401790.490240097 23974319.00819397 0 23974319.00819397 -21018391.41375351 0 0 0 0 -11722592.580062866 -69917205.374526978 0 -69917205.374526978 -43093598.653808594 0 0 0 0 4950170.4625593284 705048.01027326658 0 705048.01027326658 -6368800.7692401176 0 0 0 0 22660253.146121979 -10295242.604446411 0 -10295242.604446411 -90897252.921211243 0 0 0 0 -31905890.565490723 -11575815.376663208 0 -11575815.376663208 57580284.82144165 0 0 0 0 -2463750.5757374763 810668.46227264404 0 810668.46227264404 -61890736.344894409 0 0 0 0 5732042.2461072803 -13862591.21468544 0 -13862591.21468544 -58658943.499557495 0 0 0 0 18514402.096419334 -19925791.280136108 0 -19925791.280136108 -77435732.005218506 0 0 0 0 20739373.238334656 18848155.065635681 0 18848155.065635681 -81498767.497528076 0 0 0 0 2206205.2097785473 -25577052.737983704 0 -25577052.737983704 1525631.8075408936 0 0 0 0 51378149.51712361 -30880782.141673565 0 -30880782.141673565 -56915859.289978027 0 0 0 0 -114266.36592590809 -11112296.875556946 0 -11112296.875556946 -32613238.407109141 0 0 0 0 3115855.0082564354 -18974048.559951782 0 -18974048.559951782 -32723962.109436035 0 0 0 0 31306111.2548244 -16738129.765882492 0 -16738129.765882492 -27690589.213165283 0 0 0 0 24465788.518657923 -2936850.2552261353 0 -2936850.2552261353 -54496425.171173096 0 0 0 0 546592.65228857938 756798.93783324584 0 756798.93783324584 -3463937.1212233286 0 0 0 0 41487681.815745741 -20536963.170658112 0 -20536963.170658112 -55673606.123703003 0 0 0 0 3252103.9481296539 -13914500.989593506 0 -13914500.989593506 -24554119.409011841 0 0 0 0 8116063.96325773 39691464.320957184 0 39691464.320957184 -45905742.151416779 0 0 0 0 2422234.3538685422 1750239.648469625 0 1750239.648469625 -4722459.9711220153 0 0 0 0 -943960.36859631538 -16660394.822501183 0 -16660394.822501183 -26053205.426147461 0 0 0 0 1932420.0281009674 -10844002.318252563 0 -10844002.318252563 -22671034.462844849 0 0 0 0 1943796.2564249039 -9837728.4942169189 0 -9837728.4942169189 -36893815.936584473 0 0 0 0 4711887.9737358093 3225261.0402832031 0 3225261.0402832031 -39850274.59564209 0 0 0 0 -364389.72685909271 -13197383.137710571 0 -13197383.137710571 -21506016.233085632 0 0 0 0 923752.86693320004 414463.47553725168 0 414463.47553725168 -11276465.345006192 0 0 0 0 3540452.3237832133 -5649598.6416538367 0 -5649598.6416538367 -22550192.433916911 0 0 0 0 19275415.479799353 -2145326.0887240171 0 -2145326.0887240171 -22207887.846801758 0 0 0 0 -47978616.931482315 10196621.960144043 0 10196621.960144043 71987158.003818512 0 0 0 0 1583942.1294663907 796169.30438472331 0 796169.30438472331 -7770306.9380102791 0 0 0 0 2550765.7244861722 -2254248.5010199547 0 -2254248.5010199547 -1221046.2769775391 0 0 0 0 1113793.6562681929 -3358576.7507110573 0 -3358576.7507110573 -9810873.9411136806 0 0 0 0 1256886.812729554 -4726258.9358593673 0 -4726258.9358593673 -12796286.645114057 0 0 0 0 2158230.6019529058 1171332.5339499563 0 1171332.5339499563 -18609734.242902018 0 0 0 0 44914205.353052616 -45731514.95236969 0 -45731514.95236969 57525584.505722046 0 0 0 0 5052029.5478756428 -10185037.698265076 0 -10185037.698265076 -30691342.62342453 0 0 0 0 33089804.473660946 -79941072.383888245 0 -79941072.383888245 -193069469.63961792 0 0 0 0 -64308.817572141867 -3420217.1167744445 0 -3420217.1167744445 213218.16617198288 0 0 0 0 -77529981.137142181 78324763.123413086 0 78324763.123413086 126883163.19927979 0 0 0 0 235333457.94256401 -304792832.84883881 0 -304792832.84883881 -358841334.0390625 0 0 0 0 30599460.665081978 39749260.526245117 0 39749260.526245117 -19815334.833229065 0 0 0 0 58377974.117188215 30367581.391082764 0 30367581.391082764 -10246600.795166016 0 0 0 0 48053500.759204388 -9035312.8987960815 0 -9035312.8987960815 -24704128.002929688 0 0 0 0 -954040.31769732269 -7089870.8339758981 0 -7089870.8339758981 -17269664.397792682 0 0 0 0 9554671.1747325938 -21588820.471552595 0 -21588820.471552595 -20869125.821632385 0 0 0 0 21979234.803910732 -12656384.543983459 0 -12656384.543983459 -24636281.868699431 0 0 0 0 21176479.042826176 4788510.6453208923 0 4788510.6453208923 -28924719.811332703 0 0 0 0 23146970.468295574 8406725.9312057495 0 8406725.9312057495 -24455017.872318268 0 0 0 0 22285223.849090099 6566589.5405578613 0 6566589.5405578613 -22955401.090827942 0 0 0 0 248905.75743061304 4103967.4608001709 0 4103967.4608001709 -25976454.363327026 0 0 0 0 18268980.70696044 -5102879.4269657135 0 -5102879.4269657135 -31782661.055053711 0 0 0 0 10777316.88354063 -7946274.5140037537 0 -7946274.5140037537 -13259658.924026489 0 0 0 0 18594826.355289936 -2755266.8765258789 0 -2755266.8765258789 -13051783.584423304 0 0 0 0 -459650.06185531616 -14567243.925743103 0 -14567243.925743103 -18950555.624313354 0 0 0 0 45609453.059530258 -5600569.7131271362 0 -5600569.7131271362 -33170111.598937988 0 0 0 0 36783295.052581787 8101915.6142883301 0 8101915.6142883301 -13648128.508071899 0 0 0 0 1439888.5656938581 235815.77584733069 0 235815.77584733069 -1403250.0445630401 0 0 0 0 -53621104.494739532 -51707695.412410736 0 -51707695.412410736 -37952153.104034424 0 0 0 0 -38201128.753404617 -66307103.321807861 0 -66307103.321807861 -61060972.965099335 0 0 0 0 17825896.529033661 -16196404.587158203 0 -16196404.587158203 -25577009.724777222 0 0 0 0 12514717.927501678 -2322335.2495269775 0 -2322335.2495269775 -11947809.051422119 0 0 0 0 -6114353.7762680054 -8728456.9525146484 0 -8728456.9525146484 -11508009.049026489 0 0 0 0 35332243.728900909 -10612752.118164062 0 -10612752.118164062 -25300378.299865723 0 0 0 0 8880235.6040566601 -4788851.1134296544 0 -4788851.1134296544 -16910629.507179216 0 0 0 0 35833014.231359482 -9045361.1480865479 0 -9045361.1480865479 -25918980.921295166 0 0 0 0 -13300730.780203819 -38101740.862686157 0 -38101740.862686157 -23409951.221725464 0 0 0 0 9930053.4271535277 -3107186.9126958102 0 -3107186.9126958102 -15076505.684709467 0 0 0 0 28528718.632365227 23937331.929252625 0 23937331.929252625 -25978240.144197702 0 0 0 0 24331007.243206739 15121543.173299789 0 15121543.173299789 5305482.736328125 0 0 0 0 -442061.0448176004 -749933.85512284562 0 -749933.85512284562 -1017676.1177112535 0 0 0 0 -34481483.613578081 -31706831.137363434 0 -31706831.137363434 -98148302.741867065 0 0 0 0 -11013274.673521996 -44759128.787963867 0 -44759128.787963867 -116001298.26049709 0 0 0 0 -15818280.38272953 -11154081.188980103 0 -11154081.188980103 -16758732.936859131 0 0 0 0 18212747.588356972 5973643.2111740112 0 5973643.2111740112 -61937119.620330811 0 0 0 0 47843591.985741079 14909446.638109446 0 14909446.638109446 -61325895.927474976 0 0 0 0 3993137.51394499 1184136.3432978429 0 1184136.3432978429 -1381288.0492970943 0 0 0 0 10504090.595324278 5782693.5716934204 0 5782693.5716934204 -52631122.721908569 0 0 0 0 13733372.719263077 8389708.8774414062 0 8389708.8774414062 3320026.9588317871 0 0 0 0 11220633.472705804 1120457.6364495829 0 1120457.6364495829 -15142900.484702773 0 0 0 0 12818571.826601028 5714094.0915222168 0 5714094.0915222168 1772160.3122558594 0 0 0 0 1790426.0316220112 286412.80029374361 0 286412.80029374361 -1071983.383845374 0 0 0 0 -4096222.287940979 -27848829.907226562 0 -27848829.907226562 -55610666.510848999 0 0 0 0 1438238.3405711409 258242.97173277289 0 258242.97173277289 -1427126.4979090244 0 0 0 0 -24251413.082186222 -53979885.688285828 0 -53979885.688285828 -49052686.966018677 0 0 0 0 38315446.135646343 20263210.046447754 0 20263210.046447754 -25533615.798446655 0 0 0 0 25408398.025084496 91490286.174346924 0 91490286.174346924 -41445031.76260376 0 0 0 0 22878027.532942772 -25143746.203605652 0 -25143746.203605652 -98197994.34173584 0 0 0 0 166125397.2104702 -82194827.606704712 0 -82194827.606704712 -76974483.019767761 0 0 0 0 65674114.481880188 77842167.954677582 0 77842167.954677582 -101211421.33045959 0 0 0 0 2445549.9089240637 408639.32037388906 0 408639.32037388906 -2398877.0374238938 0 0 0 0 47674167.536785126 -76818066.568878174 0 -76818066.568878174 -56439013.215835571 0 0 0 0 -7507709.9725726843 -16784868.935332298 0 -16784868.935332298 -57892473.351699829 0 0 0 0 9874863.9751501083 -56637924.546028137 0 -56637924.546028137 19664919.92326355 0 0 0 0 -17429827.473678589 -8417423.2412033081 0 -8417423.2412033081 -64240645.250689507 0 0 0 0 1549040.1362077389 -5494.5038868710399 0 -5494.5038868710399 -2638634.2884750441 0 0 0 0 -43867529.39705658 8562053.7706680298 0 8562053.7706680298 -108148689.21713257 0 0 0 0 123185944.52625179 -168700876.90655136 0 -168700876.90655136 -392733238.41192627 0 0 0 0 -490561930.15666151 -236481702.43833923 0 -236481702.43833923 -218228998.57217407 0 0 0 0 -1175967631.2979536 -470063578.49454498 0 -470063578.49454498 137131037.97767639 0 0 0 0 -629054507.50133765 -1032390998.4983826 0 -1032390998.4983826 -965643605.3260498 0 0 0 0 -66857140.038053513 -134734066.4704628 0 -134734066.4704628 -336511285.87268066 0 0 0 0 -26361827.903152466 -15123487.647720337 0 -15123487.647720337 43808945.712371826 0 0 0 0 -17429310.907338142 -109568057.65308762 0 -109568057.65308762 4581366.8838500977 0 0 0 0 -41369431.729286194 -186850409.19271088 0 -186850409.19271088 -230062854.43322754 0 0 0 0 62180067.731277466 -113737682.65133667 0 -113737682.65133667 -301017570.07208252 0 0 0 0 3140972.7213125871 -1456236.7511273213 0 -1456236.7511273213 -7049064.4019850865 0 0 0 0 -33822814.480316162 -35891347.792114258 0 -35891347.792114258 -36879175.597381592 0 0 0 0 -200919155.29042435 -30978581.886001587 0 -30978581.886001587 -103153705.04998779 0 0 0 0 63440950.654509664 -95681192.177857876 0 -95681192.177857876 -245757803.31919861 0 0 0 0 16672032.645687103 -305420800.94451904 0 -305420800.94451904 -310716588.85523987 0 0 0 0 5321588.1077728271 -26963241.229400635 0 -26963241.229400635 -55541371.219270706 0 0 0 0 3673427.38047098 -4885434.3863121718 0 -4885434.3863121718 -12777558.76875421 0 0 0 0 2889714.3590545654 -19182962.13861084 0 -19182962.13861084 -44208236.728515625 0 0 0 0 22400127.585952759 -15516223.592071533 0 -15516223.592071533 -54846402.247253418 0 0 0 0 20252339.728086472 -6962698.4424953461 0 -6962698.4424953461 -41738221.79977417 0 0 0 0 -8288460.8529510498 -47233184.857559204 0 -47233184.857559204 -59593527.695157051 0 0 0 0 22109037.827820778 -12920727.728250504 0 -12920727.728250504 -51515164.527709961 0 0 0 0 -23036442.269508362 -38498948.74168396 0 -38498948.74168396 -96070611.126586914 0 0 0 0 -47176912.863571167 -87361362.083587646 0 -87361362.083587646 -124635208.77972388 0 0 0 0 -6830589.8801193237 -32193701.616699219 0 -32193701.616699219 -124703203.1578064 0 0 0 0 73503759.989303589 -125961685.40724945 0 -125961685.40724945 -242941847.97094727 0 0 0 0 -188205462.12117386 -140573179.55059814 0 -140573179.55059814 -98724103.574188232 0 0 0 0 -86883944.802455902 -76223823.796592712 0 -76223823.796592712 -80989294.02166748 0 0 0 0 -171329524.7972908 -48728632.153762817 0 -48728632.153762817 -36750260.014923096 0 0 0 0 -80911738.569534302 -93345997.685646057 0 -93345997.685646057 -91588003.278442383 0 0 0 0 -65140672.483985901 -75835025.462142944 0 -75835025.462142944 -73989321.27154541 0 0 0 0 -25763730.500579834 -65812952.024459839 0 -65812952.024459839 -103599656.19592285 0 0 0 0 -362406.21066772868 -2852651.566983691 0 -2852651.566983691 -1436205.2013035193 0 0 0 0 57409216.117450714 -18293531.555477142 0 -18293531.555477142 -39775061.488754272 0 0 0 0 -308159149.51093674 -265391283.43461609 0 -265391283.43461609 -88991038.1978302 0 0 0 0 43361317.526367188 -86046175.97933197 0 -86046175.97933197 -245399334.89469433 0 0 0 0 -234647816.44431496 -82689376.938522339 0 -82689376.938522339 -34623124.801361084 0 0 0 0 -6516508.281375885 -23364925.294868469 0 -23364925.294868469 -11930588.254455566 0 0 0 0 -1790865.2753841868 -7794780.402142874 0 -7794780.402142874 -3987352.0323070288 0 0 0 0 -25211579.343343735 -19528826.468083382 0 -19528826.468083382 7736892.2359313965 0 0 0 0 1460448.3967834786 -3809755.6840138808 0 -3809755.6840138808 -5798489.4639015943 0 0 0 0 -47203758.900808334 -37613437.710105896 0 -37613437.710105896 -32633608.822113037 0 0 0 0 -72252610.609200716 -63677010.915613413 0 -63677010.915613413 -39947099.278961182 0 0 0 0 -37354820.219665527 -63013042.679519653 0 -63013042.679519653 -69755035.826599121 0 0 0 0 -71129647.827980042 -25329761.00970459 0 -25329761.00970459 -34111037.809785843 0 0 0 0 -38188414.538986206 -45191830.839447021 0 -45191830.839447021 -34046099.50289917 0 0 0 0 -3653319.6013627206 -5521142.040229708 0 -5521142.040229708 -3587703.1915881708 0 0 0 0 -34759281.213157654 -18841515.56653595 0 -18841515.56653595 -9317710.2805614471 0 0 0 0 -60043699.93976593 -40633872.886802673 0 -40633872.886802673 -11539936.622573853 0 0 0 0 -23513108.268260956 -15925097.084911346 0 -15925097.084911346 -9707037.0906562805 0 0 0 0 -20920228.600236893 -32482877.931777954 0 -32482877.931777954 -21208921.710899353 0 0 0 0 -1670226712.9793167 -1729307222.5235977 0 -1729307222.5235977 -1526165877.8701224 0 0 0 0 -142570.53462771513 -302128.98761456832 0 -302128.98761456832 -3853303.3696388975 0 0 0 0 -1806408459.9759238 -1461999339.0818472 0 -1461999339.0818472 -1310607452.7814789 0 0 0 0 -1202423097.4991722 -1243558382.0152473 0 -1243558382.0152473 -1381859179.3424454 0 0 0 0 -28999637.965183258 6956058.9189453125 0 6956058.9189453125 -10027755.085998535 0 0 0 0 -10779474.670529366 -15161263.159503937 0 -15161263.159503937 -31431113.431732178 0 0 0 0 -56414871.692667007 -14041655.116142273 0 -14041655.116142273 -7690330.7233428955 0 0 0 0 1189136.2223024499 -1219005.7511917278 0 -1219005.7511917278 -2475898.6846865192 0 0 0 0 -50873321.785133362 -42275543.730102539 0 -42275543.730102539 -38782886.598800659 0 0 0 0 13010409.214893579 -7240024.7034645081 0 -7240024.7034645081 -39005998.573677063 0 0 0 0 13736278.444409132 -4586779.7233390808 0 -4586779.7233390808 -31656556.740356445 0 0 0 0 19612767.885675311 -3720437.232673645 0 -3720437.232673645 -34353599.84022522 0 0 0 0 13675017.322454929 1839192.0625 0 1839192.0625 -28239493.112266541 0 0 0 0 3615540.567902565 -4927664.090221405 0 -4927664.090221405 -25468839.765136719 0 0 0 0 7600618.7113027573 -3798958.2602157593 0 -3798958.2602157593 -32873582.28295517 0 0 0 0 8946115.2017552853 -4110856.1803798676 0 -4110856.1803798676 -38840667.955169678 0 0 0 0 371342.89096593857 -2670455.0701675415 0 -2670455.0701675415 -39049824.327713013 0 0 0 0 -2489267.5107440948 -6596963.3993301392 0 -6596963.3993301392 -34602188.811309814 0 0 0 0 6003007.0471180603 -628517.00953959674 0 -628517.00953959674 -18962187.65280854 0 0 0 0 685312.60949659348 -8575875.3220214844 0 -8575875.3220214844 -38643986.975196838 0 0 0 0 -105593.06173267751 -840774.24898280576 0 -840774.24898280576 -2888986.8527496234 0 0 0 0 571113.99184322357 -9105325.4168109894 0 -9105325.4168109894 -32718681.587608337 0 0 0 0 4719923.3767846022 -3861550.043026628 0 -3861550.043026628 -20321790.238708191 0 0 0 0 3492895.9162116647 -3882237.9584498405 0 -3882237.9584498405 -32348163.671302795 0 0 0 0 -371162.97725105286 -14324464.893127441 0 -14324464.893127441 -34053620.347381592 0 0 0 0 10102778.812342146 -8411183.6311111934 0 -8411183.6311111934 -21394663.271546662 0 0 0 0 -13136634.239593506 -16061800.515258789 0 -16061800.515258789 -35211195.789615631 0 0 0 0 -11944678.741065979 -20655192.537887573 0 -20655192.537887573 -38071106.742950439 0 0 0 0 -7500362.5350189209 -11758779.447479248 0 -11758779.447479248 -34544592.955200195 0 0 0 0 4383499.5334281921 -17498242.499435425 0 -17498242.499435425 -46373912.678039551 0 0 0 0 5380602.1401834488 -2474852.6506767273 0 -2474852.6506767273 -8233405.8462219238 0 0 0 0 -4427076.6246337891 -56834053.359619141 0 -56834053.359619141 -105244632.47027588 0 0 0 0 -4427076.6247711182 -56834053.359466553 0 -56834053.359466553 -105244632.47020721 0 0 0 0 -4427076.6247558594 -56834053.35949707 0 -56834053.35949707 -105244632.47027588 0 0 0 0 5560454.6095578521 -8412905.5997717455 0 -8412905.5997717455 -17469439.308992609 0 0 0 0 -5872920.1088562012 -31294051.775741577 0 -31294051.775741577 -59579999.215881348 0 0 0 0 9886946.8497271538 -2391258.8077868037 0 -2391258.8077868037 -18964199.247714795 0 0 0 0 -12836386.114868164 -48274090.050842285 0 -48274090.050842285 -75792642.486381531 0 0 0 0 5775861.9267997742 -45090477.480789185 0 -45090477.480789185 -93736474.231933594 0 0 0 0 -27785369.240879059 -62257998.880470276 0 -62257998.880470276 -88442998.058898926 0 0 0 0 -40722783.058732033 -52564436.060359001 0 -52564436.060359001 -37933210.562149048 0 0 0 0 -21239915.993560791 -45207166.053356171 0 -45207166.053356171 -49999380.028419495 0 0 0 0 -37164821.151412964 -63791143.558746338 0 -63791143.558746338 -71346581.958148956 0 0 0 0 -29203187.932986259 -35621754.056194305 0 -35621754.056194305 -25901854.383094788 0 0 0 0 -28138186.764633179 -37004917.395248413 0 -37004917.395248413 -32364605.57784462 0 0 0 0 -26756472.220684052 -36593726.079109192 0 -36593726.079109192 -47548911.288829803 0 0 0 0 -720697.09288668633 -10844021.442245483 0 -10844021.442245483 -40475384.317375183 0 0 0 0 9475181.0243246388 -7477282.7668723939 0 -7477282.7668723939 -27754013.995884009 0 0 0 0 -20959776.144507408 -39724492.825878143 0 -39724492.825878143 -46465598.160690308 0 0 0 0 -21215686.797481537 -42425706.115653992 0 -42425706.115653992 -63680631.222129822 0 0 0 0 2893794.0366590023 -17959593.331220627 0 -17959593.331220627 -32621936.138122559 0 0 0 0 2322461.3708853722 -20121020.993625641 0 -20121020.993625641 -39667653.296962738 0 0 0 0 9256422.4615621567 -9334750.8516769409 0 -9334750.8516769409 -51064114.322502136 0 0 0 0 10181220.314739823 -5677150.5117683411 0 -5677150.5117683411 -36669136.27722168 0 0 0 0 10084407.753089428 -7820987.0975151062 0 -7820987.0975151062 -22492884.386476517 0 0 0 0 7597911.3878991604 -8622979.4662094116 0 -8622979.4662094116 -21893625.694179535 0 0 0 0 7749906.8163506985 -11568750.064231873 0 -11568750.064231873 -29461436.578006744 0 0 0 0 41988619.529065609 -9968025.2457771301 0 -9968025.2457771301 -45481212.31414032 0 0 0 0 -3937404.8137210258 -6709406.5377340643 0 -6709406.5377340643 -13104819.552534454 0 0 0 0 -982794.25308224559 80861871.632694244 0 80861871.632694244 75661149.255493164 0 0 0 0 7519615.1955723763 -11050439.52456665 0 -11050439.52456665 -18276464.902053833 0 0 0 0 268576.5298589766 -31372385.092087984 0 -31372385.092087984 -23375387.668708801 0 0 0 0 2221629.233594629 -7528042.7288150713 0 -7528042.7288150713 -20641562.650146604 0 0 0 0 -31487025.747859955 -33117263.640052795 0 -33117263.640052795 -30316796.023071289 0 0 0 0 7258861.3177252822 -13598181.327686233 0 -13598181.327686233 -26681702.649270069 0 0 0 0 -17444832.996169046 -18290493.943839163 0 -18290493.943839163 -14779942.891990524 0 0 0 0 -17060323.266461961 -57880931.398525238 0 -57880931.398525238 8100178.4070262909 0 0 0 0 -26965824.732807159 -31414194.488090515 0 -31414194.488090515 -31955995.504989624 0 0 0 0 -24450047.646224499 -22305110.492907524 0 -22305110.492907524 -22045733.933990479 0 0 0 0 -6046064.8846371491 -7153629.4693091474 0 -7153629.4693091474 -8070433.0078666508 0 0 0 0 27119404.368244171 20194372.529413223 0 20194372.529413223 17055453.830532074 0 0 0 0 -6890028.6192674637 -6977730.4287891388 0 -6977730.4287891388 -10592814.651000977 0 0 0 0 -4036118.1221733093 -10414226.727233887 0 -10414226.727233887 -16367371.761062622 0 0 0 0 -12818092.105096392 -5805812.9396945424 0 -5805812.9396945424 -926605.38397737965 0 0 0 0 -671833.71302719309 1016084.5278515778 0 1016084.5278515778 923851.74858937226 0 0 0 0 171157977.0667547 -342586274.95965195 0 -342586274.95965195 -3045674111.9428406 0 0 0 0 -609740300.33154821 -20555986.343574524 0 -20555986.343574524 1660629364.0186081 0 0 0 0 -259819151.34951925 -249890177.3372879 0 -249890177.3372879 -3040290687.3360748 0 0 0 0 -998529261.29424417 -1623435722.3231163 0 -1623435722.3231163 -4726112001.2959824 0 0 0 0 120658322.6386423 -1507107146.7684593 0 -1507107146.7684593 -5291630154.9967728 0 0 0 0 654155798.37782097 -1669820251.7625504 0 -1669820251.7625504 -6854811870.8606415 0 0 0 0 -471306713.98458183 -1755899656.6317844 0 -1755899656.6317844 -2491740244.5618286 0 0 0 0 -200429758.02789578 362368587.28326035 0 362368587.28326035 -2360124166.6923676 0 0 0 0 -8068301.9871459901 -14817432.831800461 0 -14817432.831800461 -24298472.662546158 0 0 0 0 87393961.926042467 -122801349.59231186 0 -122801349.59231186 12896872.498214722 0 0 0 0 -4193365.0220069424 -2207323.0045094993 0 -2207323.0045094993 -12364286.153645113 0 0 0 0 -793854.55475614138 -2735949.915498998 0 -2735949.915498998 -4171662.8436931297 0 0 0 0 115265777.66753481 -95448240.2213974 0 -95448240.2213974 18535895.088806152 0 0 0 0 102597859.19119391 -158447505.49836731 0 -158447505.49836731 -120603646.03097916 0 0 0 0 -302072318.80653095 -200955031.27155685 0 -200955031.27155685 44537321.848751068 0 0 0 0 400885851.0711602 413471753.02178574 0 413471753.02178574 -196877774.23390198 0 0 0 0 -628246376.78748417 -2418024792.6404524 0 -2418024792.6404524 -4721592178.7556686 0 0 0 0 -1502019.003776537 -2442801.9556705747 0 -2442801.9556705747 -9455033.1904088818 0 0 0 0 344294666.17136675 928926499.35095978 0 928926499.35095978 -4697832172.4831467 0 0 0 0 -466604802.5643388 -1087791903.6101418 0 -1087791903.6101418 -1944179852.7486 0 0 0 0 -431649881.97682172 143134454.57803535 0 143134454.57803535 75381612.835823059 0 0 0 0 -1532640361.3069077 -1726309623.7870524 0 -1726309623.7870524 -1925057838.7914429 0 0 0 0 -1493480799.5358872 -2113707467.1896896 0 -2113707467.1896896 -2267494680.7197952 0 0 0 0 -1147499197.3450418 -1597999440.0824652 0 -1597999440.0824652 -1749997506.5879669 0 0 0 0 -1614840639.1089292 -1628650386.2469177 0 -1628650386.2469177 -1683883368.8226547 0 0 0 0 -1129923649.1383572 -1624884369.2901964 0 -1624884369.2901964 -2112791618.9289093 0 0 0 0 -1638334035.3341742 -1660264649.3628006 0 -1660264649.3628006 -1529211338.460463 0 0 0 0 -1243763086.9190018 -1000245847.443573 0 -1000245847.443573 -1066864347.6228027 0 0 0 0 -2728463.7215720667 -1746926.6203587055 0 -1746926.6203587055 -9352468.6863316521 0 0 0 0 -2771715.7970809937 -13861918.352722168 0 -13861918.352722168 -17317857.727272034 0 0 0 0 -1517255.4217460384 -12088996.011471497 0 -12088996.011471497 -12567758.229871497 0 0 0 0 -3850620.8130899481 -9870051.2401471827 0 -9870051.2401471827 -9004910.8656055629 0 0 0 0 95876.326572478283 -4272675.5021865964 0 -4272675.5021865964 -18549465.466227453 0 0 0 0 -25500590.746055603 -25851849.438034058 0 -25851849.438034058 277624877.80741882 0 0 0 0 -1189822756.3487329 -1000468728.951746 0 -1000468728.951746 -1082369497.4517822 0 0 0 0 -2345189911.3556786 -1784262983.9516068 0 -1784262983.9516068 -1055205295.3298641 0 0 0 0 -2199734239.6130881 -2432317377.043869 0 -2432317377.043869 -2071109509.5845423 0 0 0 0 -2370846215.7923565 -3011456451.5327072 0 -3011456451.5327072 -3887543643.1419525 0 0 0 0 -2690266022.3567209 -2579933248.1720428 0 -2579933248.1720428 -3715144800.9983253 0 0 0 0 -5623756627.3305521 -4328616842.3333817 0 -4328616842.3333817 -3553742716.3708115 0 0 0 0 257972595.15062046 677253786.37229538 0 677253786.37229538 -2990398392.4477386 0 0 0 0 -191572.21886788053 -1442160.8868211012 0 -1442160.8868211012 -6914414.8025302663 0 0 0 0 -429403687.09361792 -734118245.65657902 0 -734118245.65657902 633859577.34609985 0 0 0 0 -3977903478.6174135 -2125008532.4068909 0 -2125008532.4068909 -614906169.49828148 0 0 0 0 -2752231541.1334262 -3017396807.1085434 0 -3017396807.1085434 -6550130502.4770126 0 0 0 0 -4041844343.0522218 -3127141725.5275078 0 -3127141725.5275078 -4882207752.7686119 0 0 0 0 -3988750643.0724072 -1146361971.1914849 0 -1146361971.1914849 -5496875202.422287 0 0 0 0 -2759067626.9177675 -2130798393.3719406 0 -2130798393.3719406 -4723940853.2200813 0 0 0 0 -1403543767.441617 -2026913423.2910385 0 -2026913423.2910385 -5327627895.0843201 0 0 0 0 -466408898.92532754 -2009673566.5398769 0 -2009673566.5398769 -4727503040.0520325 0 0 0 0 -1379114562.1950595 -1812014373.2362165 0 -1812014373.2362165 -3802866066.1911926 0 0 0 0 -922433048.57203674 -1792237486.6861801 0 -1792237486.6861801 -2545751427.6728935 0 0 0 0 -1273137701.0458574 -2513275294.1785126 0 -2513275294.1785126 -3805716971.447876 0 0 0 0 -733370502.32639086 -1931174578.8652058 0 -1931174578.8652058 -3072158021.060173 0 0 0 0 65915055.351195633 -1187154225.6751328 0 -1187154225.6751328 -3469736800.8755341 0 0 0 0 527991682.62732333 -1319156376.18367 0 -1319156376.18367 -4714313983.9592791 0 0 0 0 1154147933.4233041 -239890314.14352608 0 -239890314.14352608 -2856597688.9030304 0 0 0 0 477609905.31118441 -1296728423.558075 0 -1296728423.558075 -3015967994.8247252 0 0 0 0 -296207264.61520219 -1426687585.5360832 0 -1426687585.5360832 -2544099067.5249939 0 0 0 0 -305224896.73671532 -1280375218.7293777 0 -1280375218.7293777 -2470806882.6262817 0 0 0 0 18383393.456475914 -1025852806.0197897 0 -1025852806.0197897 -2307411559.4192352 0 0 0 0 -680712239.88682866 -1284628921.2271004 0 -1284628921.2271004 -1873686438.252121 0 0 0 0 -673857107.71595526 -1220493880.8069077 0 -1220493880.8069077 -1899128308.4148178 0 0 0 0 388057796.74264145 -370009783.17116547 0 -370009783.17116547 -2572248692.420723 0 0 0 0 280444523.92831802 -19356146.199032903 0 -19356146.199032903 -1698791367.0988007 0 0 0 0 62748653.220095754 -836373039.41767693 0 -836373039.41767693 -2138200898.4249115 0 0 0 0 -192228839.68722391 -748564476.36747742 0 -748564476.36747742 -2078239821.3362198 0 0 0 0 639750611.91597962 -699336947.43275642 0 -699336947.43275642 -2724142206.5381927 0 0 0 0 233874577.16779137 -628291328.09624863 0 -628291328.09624863 -2636077257.036293 0 0 0 0 148636895.25345874 -799959467.29328537 0 -799959467.29328537 -2691341913.3758316 0 0 0 0 -523735775.44600677 -621556959.07107544 0 -621556959.07107544 -2588013978.0491409 0 0 0 0 4152740.366168845 40664.092746973038 0 40664.092746973038 -7177367.0072505772 0 0 0 0 -1004709069.7545885 -2433496324.3764343 0 -2433496324.3764343 -4723433329.432518 0 0 0 0 115171296.50981578 -850495842.61629987 0 -850495842.61629987 -2822505328.8396683 0 0 0 0 111919186.8050189 -804385844.47392654 0 -804385844.47392654 -2326897988.4540863 0 0 0 0 701816451.8471489 452905169.72792053 0 452905169.72792053 -918247736.16722107 0 0 0 0 3503348.3969580717 -92872.573328237981 0 -92872.573328237981 -7829703.0154124759 0 0 0 0 103386143.09512818 -1161678154.5587234 0 -1161678154.5587234 -3264018596.6922455 0 0 0 0 1761381238.2940578 -630166255.7640419 0 -630166255.7640419 -4724051380.1516228 0 0 0 0 42556799.005599141 -1195524305.2011414 0 -1195524305.2011414 -2476548422.056015 0 0 0 0 857311236.17565382 -747735814.1433506 0 -747735814.1433506 -2932138717.5941772 0 0 0 0 585544818.70543253 -79118480.387359619 0 -79118480.387359619 -4492732258.2880859 0 0 0 0 -110399373.60787773 93883352.240329742 0 93883352.240329742 -3534678842.5393677 0 0 0 0 942122106.41896105 1064957166.8210144 0 1064957166.8210144 -4953285615.2943726 0 0 0 0 2167606429.6979356 -705346244.57783508 0 -705346244.57783508 -3218261611.3739777 0 0 0 0 1049309.7915555993 -1224108.4033464678 0 -1224108.4033464678 -2458563.9136420172 0 0 0 0 250759382.25223351 -51737051.13344574 0 -51737051.13344574 -2376111409.9829063 0 0 0 0 1070159783.8779278 204535851.97067261 0 204535851.97067261 -3870778246.26651 0 0 0 0 1464839683.5988789 -54001197.145507812 0 -54001197.145507812 -3808013645.5638123 0 0 0 0 168857380.44382477 666436304.16368866 0 666436304.16368866 -2831493925.8538208 0 0 0 0 269872214.11598969 194512613.24921417 0 194512613.24921417 -1885082188.1105347 0 0 0 0 -815437833.13029981 989269790.47132492 0 989269790.47132492 -2838768930.3570709 0 0 0 0 -664261968.5086174 -2156474148.4197769 0 -2156474148.4197769 -4159090711.4542999 0 0 0 0 477725704.6685667 -2614883342.3120651 0 -2614883342.3120651 -5568505049.8971558 0 0 0 0 2132614.9179625716 -43325.516005743295 0 -43325.516005743295 -3249108.275802657 0 0 0 0 235953894.52483749 -1745937458.214325 0 -1745937458.214325 -4364278704.9593201 0 0 0 0 2246290100.0031261 -980162576.45539856 0 -980162576.45539856 -2555864267.75 0 0 0 0 2011757581.6604366 1076710413.3315811 0 1076710413.3315811 -1875413105.0530224 0 0 0 0 1826224223.4640312 -360013937.97782898 0 -360013937.97782898 -4114782184.7002563 0 0 0 0 1725357600.442524 -20144791.586425781 0 -20144791.586425781 -3422118764.6409607 0 0 0 0 1680536384.6842804 -950745050.4616394 0 -950745050.4616394 -5615798528.1694927 0 0 0 0 1488519957.2818222 -871283608.21563721 0 -871283608.21563721 -4677137160.2559223 0 0 0 0 1709282405.9567304 -252873458.1050663 0 -252873458.1050663 -4641990468.0927124 0 0 0 0 744505403.28725576 -834310875.99897194 0 -834310875.99897194 -3073125097.4958801 0 0 0 0 869278495.68929958 -1184421698.1138268 0 -1184421698.1138268 -3991664110.9557495 0 0 0 0 1673135921.5193596 -440859808.41647339 0 -440859808.41647339 -3898135000.7242432 0 0 0 0 1136509009.9333496 -557679150.81838989 0 -557679150.81838989 -3817031434.4906006 0 0 0 0 1125845228.2211819 -713851013.21762085 0 -713851013.21762085 -3170169581.3952637 0 0 0 0 1302712248.9568214 -174010184.0246582 0 -174010184.0246582 -3262695701.8175049 0 0 0 0 900580544.85617828 -402094417.6726532 0 -402094417.6726532 -3048803125.1057129 0 0 0 0 884248981.20188522 -530801750.49452209 0 -530801750.49452209 -3205000978.4629364 0 0 0 0 662953545.25050354 -641091742.14781189 0 -641091742.14781189 -2184498151.5567627 0 0 0 0 699529324.08696842 -846072707.12109375 0 -846072707.12109375 -3072941463.4559631 0 0 0 0 284311176.12627316 -449218242.17747879 0 -449218242.17747879 -1623421163.9196625 0 0 0 0 259219547.58876622 -845198249.69938898 0 -845198249.69938898 -2673269236.3183594 0 0 0 0 289433168.53924847 -870571195.75249481 0 -870571195.75249481 -2659238859.3770065 0 0 0 0 408002873.90805244 -842958374.91159439 0 -842958374.91159439 -33002265.125762939 0 0 0 0 1001210693.5597582 -656548286.97032928 0 -656548286.97032928 -1698398349.316576 0 0 0 0 562829602.92574883 -323520580.34531403 0 -323520580.34531403 -2126667825.9664001 0 0 0 0 427918318.15066624 -562507594.85240173 0 -562507594.85240173 -1571375439.0634613 0 0 0 0 53195480.892065048 3473256.7434921265 0 3473256.7434921265 -114220293.87194824 0 0 0 0 2095295.9388227277 -1900534.8682604432 0 -1900534.8682604432 -3622794.2379010078 0 0 0 0 -134965239.70291328 25087332.400606155 0 25087332.400606155 893041790.52711487 0 0 0 0 193181231.60707831 -300222258.48915291 0 -300222258.48915291 -223207739.79727173 0 0 0 0 -215235311.58688471 -327871054.98465014 0 -327871054.98465014 -261713026.83520508 0 0 0 0 -228510999.65467697 863699169.08314514 0 863699169.08314514 -1307123337.1979523 0 0 0 0 -154064314.12328434 269765940.88271332 0 269765940.88271332 -543329751.28608704 0 0 0 0 -287049290.12352943 44866828.246185303 0 44866828.246185303 346777651.47090149 0 0 0 0 5644697.0305449842 -8140697.0720549226 0 -8140697.0720549226 -11720804.685047161 0 0 0 0 185658319.99810791 24825656.493041992 0 24825656.493041992 -25241289.46913147 0 0 0 0 -4308894.3536309926 -15670367.848647706 0 -15670367.848647706 -20970686.36790929 0 0 0 0 174078786.66758144 -146321191.5166893 0 -146321191.5166893 -197248727.83448792 0 0 0 0 -13081739.304823875 -13763678.162565231 0 -13763678.162565231 -3970641.5772094727 0 0 0 0 1276248.0840182565 -5637369.2316717654 0 -5637369.2316717654 -11140164.174344707 0 0 0 0 -15855503.98725009 -31227286.927574158 0 -31227286.927574158 -17721482.781555176 0 0 0 0 -7374808.9930305481 -16235022.331222534 0 -16235022.331222534 -12580191.037994385 0 0 0 0 -5388301.0687713623 -25982841.89342308 0 -25982841.89342308 -39847139.323684692 0 0 0 0 -6227962.6593788899 -18823298.027316704 0 -18823298.027316704 -21147643.163284235 0 0 0 0 7015472.9064121246 -59822690.5883255 0 -59822690.5883255 -44990336.69178772 0 0 0 0 8714478.4851489756 2839022.5744850859 0 2839022.5744850859 -12061806.062304776 0 0 0 0 -488448009.10358047 -913176953.41768646 0 -913176953.41768646 -1592265506.8901215 0 0 0 0 -8413829.458032608 -43673752.273361206 0 -43673752.273361206 -52988727.716529846 0 0 0 0 -267715563.72032142 -661331967.25009537 0 -661331967.25009537 -1535527786.9022522 0 0 0 0 259469.24030279322 127126.35245355591 0 127126.35245355591 -532952.89824800193 0 0 0 0 178373754.05931091 -698707156.33880615 0 -698707156.33880615 -2770644446.2341309 0 0 0 0 141705480.73667717 -80431419.906720161 0 -80431419.906720161 -38195164.674087524 0 0 0 0 -15119737.550312042 -21079605.985275269 0 -21079605.985275269 6660921.2089004517 0 0 0 0 -4382716.5579690263 -2631635.2221801504 0 -2631635.2221801504 -7720895.9775937833 0 0 0 0 -475262643.24744892 -790640560.53665924 0 -790640560.53665924 -2084620743.4747086 0 0 0 0 -418137727.52024078 -1031518398.2269897 0 -1031518398.2269897 -2561208539.7408447 0 0 0 0 -373085992.73918724 -1212837834.5340271 0 -1212837834.5340271 -2421509712.1218109 0 0 0 0 -695053277.97461987 -993666500.73639297 0 -993666500.73639297 -1877365579.6487274 0 0 0 0 240735112.22087789 -581578760.3849659 0 -581578760.3849659 815433138.09286499 0 0 0 0 -379902257.163697 -1571634751.5890388 0 -1571634751.5890388 -3590675379.9143753 0 0 0 0 -811040.70276812045 -511102.3780980669 0 -511102.3780980669 -2724302.2688731402 0 0 0 0 -688634619.00712824 -1115471138.2492218 0 -1115471138.2492218 -949916229.69032288 0 0 0 0 -443219462.28778529 -662727905.8602829 0 -662727905.8602829 -817388493.32395935 0 0 0 0 -991907893.5281446 -1525334345.7907906 0 -1525334345.7907906 -1373755849.5344696 0 0 0 0 -399585903.19730139 -979680382.50385284 0 -979680382.50385284 -1797485110.8125458 0 0 0 0 -513888429.03485358 -1065802513.8663635 0 -1065802513.8663635 -1135412812.0922165 0 0 0 0 -401718307.85987496 -686878711.72973633 0 -686878711.72973633 -591484824.50240326 0 0 0 0 -308511476.97106743 -685257298.64151001 0 -685257298.64151001 -640150191.52230835 0 0 0 0 -787003065.03954577 -1102733881.278595 0 -1102733881.278595 -735659934.84602356 0 0 0 0 -626474814.31194139 -1203152167.7566223 0 -1203152167.7566223 -986885257.50518417 0 0 0 0 -608424060.24148893 -1058892746.2799325 0 -1058892746.2799325 -951660663.03419495 0 0 0 0 -897294234.11475468 -918707873.7347641 0 -918707873.7347641 -1011640157.160984 0 0 0 0 -915080169.05611897 -1227768370.5486145 0 -1227768370.5486145 -1027942773.6389084 0 0 0 0 -625830186.9607904 -1264296348.8218079 0 -1264296348.8218079 -1276099567.681633 0 0 0 0 -395294736.85790277 -803064402.88043594 0 -803064402.88043594 -1373972144.50383 0 0 0 0 -158641575.45832443 -616053212.286623 0 -616053212.286623 -1568555061.6161652 0 0 0 0 666514422.98875654 378060012.06997681 0 378060012.06997681 -270836187.04129028 0 0 0 0 58430052.736997604 -180152839.07026672 0 -180152839.07026672 -1067892480.2453308 0 0 0 0 66637460.615951538 -570573763.32905579 0 -570573763.32905579 -1627421588.8555517 0 0 0 0 -566051400.19474983 -1060699912.417366 0 -1060699912.417366 550150155.73576355 0 0 0 0 -550834523.2452836 -1134176895.2445831 0 -1134176895.2445831 -1092236489.4886627 0 0 0 0 -569709564.81132746 -1224748676.6545219 0 -1224748676.6545219 -441670959.89294434 0 0 0 0 428557100.9366582 324457766.91710281 0 324457766.91710281 -4721889337.3850136 0 0 0 0 69691.123451609368 14176033.214073181 0 14176033.214073181 -2823390524.7642822 0 0 0 0 18816687.824380454 -165885217.16818428 0 -165885217.16818428 -1206282715.5130997 0 0 0 0 -14441165.982516686 -7099337.8106477261 0 -7099337.8106477261 -582764786.81796265 0 0 0 0 -96228814.554583147 -564779489.73082161 0 -564779489.73082161 -5502031109.724617 0 0 0 0 -276817213.38079679 1849399910.4925385 0 1849399910.4925385 -5425535391.1960068 0 0 0 0 105382.69465325374 -1161465.5375195444 0 -1161465.5375195444 -2558046.9231538624 0 0 0 0 1407992141.446033 465906750.13869095 0 465906750.13869095 -4127812461.1070709 0 0 0 0 -770473.36077618436 -2565682.9884923622 0 -2565682.9884923622 -4337757.7692931741 0 0 0 0 566440441.32164145 59114129.334472656 0 59114129.334472656 -2546722569.6516342 0 0 0 0 -15732022.618892575 -58556040.470255494 0 -58556040.470255494 -1619407357.0303802 0 0 0 0 9443323.1140775681 -27345797.231842041 0 -27345797.231842041 -1671281073.3471756 0 0 0 0 -21796988.976040304 519498976.17205048 0 519498976.17205048 -2666419807.537262 0 0 0 0 -1049773.3609494306 -1226951.6864207089 0 -1226951.6864207089 -1826357.6683642864 0 0 0 0 315624496.75878346 -57083924.023849487 0 -57083924.023849487 -5210009407.3278046 0 0 0 0 -141426405.86651134 -2729849507.6683197 0 -2729849507.6683197 -138265353.94872284 0 0 0 0 -287375469.5356251 -1302168683.3238373 0 -1302168683.3238373 -2158720579.3251648 0 0 0 0 -1087745734.7538166 -1677097253.2843323 0 -1677097253.2843323 -1285410933.8648071 0 0 0 0 -219654267.30365753 232875863.77415466 0 232875863.77415466 -1075372872.4995136 0 0 0 0 -189160156.13914871 -2396610090.321167 0 -2396610090.321167 -3515055812.4226532 0 0 0 0 -1193966523.9299326 321649807.3998909 0 321649807.3998909 -4473265718.6985321 0 0 0 0 160748753.33301353 -1018976895.4201889 0 -1018976895.4201889 -4326724835.4909821 0 0 0 0 -91293185.041378379 -196787496.50187683 0 -196787496.50187683 -1127572749.8875694 0 0 0 0 -1105740202.3865876 -629484230.28992438 0 -629484230.28992438 -5531335050.7736511 0 0 0 0 137561155.37693107 -49675278.482769012 0 -49675278.482769012 -4303596269.005209 0 0 0 0 -1231264500.7739508 1301693437.6407776 0 1301693437.6407776 -4812040842.6382751 0 0 0 0 -88670789.165154174 343798305.61481094 0 343798305.61481094 -4725256958.3402042 0 0 0 0 -1549133.1988934316 -1169175.7815669253 0 -1169175.7815669253 -2278078.5625484902 0 0 0 0 448538213.86079216 814207776.48165894 0 814207776.48165894 -4391105400.0404358 0 0 0 0 99224199.118297577 1034491835.689621 0 1034491835.689621 -3338529566.0938416 0 0 0 0 -415653.66475622088 -2608073.3244311064 0 -2608073.3244311064 -4543304.7951099556 0 0 0 0 -4956180888.776063 -568556827.03796387 0 -568556827.03796387 -2468773709.8956985 0 0 0 0 59680436.163854599 3626409481.6480408 0 3626409481.6480408 -6047671699.7865715 0 0 0 0 -1775349.9241971932 -3743437.9840366803 0 -3743437.9840366803 -6119070.1593448743 0 0 0 0 -596688475.41669655 -751637162.73493958 0 -751637162.73493958 248371518.38360596 0 0 0 0 -927389520.823071 -2214507267.3996315 0 -2214507267.3996315 -831660200.02888489 0 0 0 0 223040437.55903858 51851000.910705566 0 51851000.910705566 -1962746713.9565425 0 0 0 0 -325137786.56373405 571235906.34803009 0 571235906.34803009 -1966899402.1318665 0 0 0 0 796431720.73258018 -282149269.96717072 0 -282149269.96717072 -111078765.26649475 0 0 0 0 -3668795.4078313564 -10377895.549269691 0 -10377895.549269691 -15790305.944017962 0 0 0 0 267499814.57263184 726849891.82865906 0 726849891.82865906 -293921957.13044357 0 0 0 0 -756066035.19698381 142024487.02206421 0 142024487.02206421 138934091.04420471 0 0 0 0 39501680.773548126 391555619.71617126 0 391555619.71617126 -196564804.60394287 0 0 0 0 91291538.794128537 -22805226.668043137 0 -22805226.668043137 -246302404.92340088 0 0 0 0 141755945.77976036 107183353.94474792 0 107183353.94474792 -102470527.02069092 0 0 0 0 117869257.95819855 107808863.58157349 0 107808863.58157349 -90947738.656830788 0 0 0 0 -107045287.9329834 -318997147.75683594 0 -318997147.75683594 -926154479.25183105 0 0 0 0 2294227.356672287 -69103148.510848999 0 -69103148.510848999 -102971121.49949646 0 0 0 0 9150903.4828374125 6655635.9266526699 0 6655635.9266526699 -10366763.681129046 0 0 0 0 24775091.663254738 -26344868.880828857 0 -26344868.880828857 -76831322.405960083 0 0 0 0 4840014.5558543019 7399524.8279292881 0 7399524.8279292881 -2093975.9632049873 0 0 0 0 288540794.43757915 -241244141.33668518 0 -241244141.33668518 -239923703.84915161 0 0 0 0 1979766.1329535618 3498096.3584403992 0 3498096.3584403992 -3500395.3092041016 0 0 0 0 65666997.203062057 101050752.9556427 0 101050752.9556427 -334159690.88206482 0 0 0 0 -65461889.885299683 -22581241.305465698 0 -22581241.305465698 122912192.63398743 0 0 0 0 -10445121.070417404 237661153.76222992 0 237661153.76222992 338452564.06231689 0 0 0 0 959715.08674140181 -669975.13127426803 0 -669975.13127426803 -3709753.3716750368 0 0 0 0 2471068.3349455143 2296946.9201555178 0 2296946.9201555178 514798.29104761779 0 0 0 0 -238908519.44120407 -134840339.42298889 0 -134840339.42298889 620244470.29592896 0 0 0 0 227462998.59463882 219701261.76672745 0 219701261.76672745 161376504.42205811 0 0 0 0 4103776.2761128047 7979725.2049998455 0 7979725.2049998455 -1335135.7049787492 0 0 0 0 106197431.51454353 26231296.978996277 0 26231296.978996277 -64684106.809677124 0 0 0 0 227498947.18621826 -130248256.77115631 0 -130248256.77115631 43885119.224586487 0 0 0 0 258824090.82252192 -104036690.38008118 0 -104036690.38008118 -370416309.20565796 0 0 0 0 5238338.3125267504 4808041.6257356405 0 4808041.6257356405 -800808.89992358536 0 0 0 0 40704979.000470832 90135765.976776123 0 90135765.976776123 331022533.23251343 0 0 0 0 -297663892.33164263 160146280.87202454 0 160146280.87202454 319525663.48357391 0 0 0 0 68731880.546288222 -103457023.39535522 0 -103457023.39535522 -96045778.741241455 0 0 0 0 -420065650.65207428 -574571283.00277996 0 -574571283.00277996 -358031165.58078003 0 0 0 0 83332789.778058529 291746171.94582367 0 291746171.94582367 172513893.20362854 0 0 0 0 -478620883.23490715 119858205.25390625 0 119858205.25390625 264387980.31134033 0 0 0 0 613058370.20926666 -9539959.9260578156 0 -9539959.9260578156 -1247387231.6465454 0 0 0 0 1053390.014996741 -1047510.5927409716 0 -1047510.5927409716 -455559.19438165426 0 0 0 0 -197086098.89354879 -491452540.76061249 0 -491452540.76061249 -360532924.25228882 0 0 0 0 -903775168.28630662 -1206482035.1985779 0 -1206482035.1985779 -1872628326.986908 0 0 0 0 -1353332380.557344 -1252177591.056694 0 -1252177591.056694 -1804519950.622467 0 0 0 0 42017309.672015667 -44159085.607650757 0 -44159085.607650757 -1354680011.1871872 0 0 0 0 107429915.00302762 -117175589.67102051 0 -117175589.67102051 -1123183916.7617035 0 0 0 0 -128209557.89984497 -553080131.25261688 0 -553080131.25261688 -1712213459.3546753 0 0 0 0 228253022.34477448 -460788073.3213501 0 -460788073.3213501 -2053230254.5274811 0 0 0 0 540071215.95586371 -625132537.89852905 0 -625132537.89852905 -1979802448.992218 0 0 0 0 914983891.34336472 -463146879.89576721 0 -463146879.89576721 -1738121915.3648682 0 0 0 0 73478111.740946651 -772557707.89825439 0 -772557707.89825439 -1498666926.3375244 0 0 0 0 313776924.00003588 383334935.83460236 0 383334935.83460236 423364295.7449646 0 0 0 0 -148427194.515668 -451518581.29038239 0 -451518581.29038239 -1029409941.8908997 0 0 0 0 447415373.31874931 459508006.55438805 0 459508006.55438805 -319901976.0682373 0 0 0 0 -194800058.69278181 -354521513.31564331 0 -354521513.31564331 370650891.64427185 0 0 0 0 -9775497.5496501923 -78740295.931915283 0 -78740295.931915283 303822639.48101044 0 0 0 0 -215903413.41026497 -335240302.1913147 0 -335240302.1913147 436614949.04693604 0 0 0 0 1792172.1629143478 1145048.5153321102 0 1145048.5153321102 -387784.04692583531 0 0 0 0 -374302022.13065863 -642778871.0296936 0 -642778871.0296936 -490553134.43746948 0 0 0 0 260554799.26719475 107125509.29945374 0 107125509.29945374 -920370638.58512878 0 0 0 0 257644198.4626503 149345035.0296936 0 149345035.0296936 -100461965.4359436 0 0 0 0 1354776727.4321616 104574175.00164032 0 104574175.00164032 -1512139035.2497559 0 0 0 0 -735641855.97931838 171820141.78878593 0 171820141.78878593 291978208.1882019 0 0 0 0 379637.37424789596 -556595.42886661727 0 -556595.42886661727 -3874419.5573301464 0 0 0 0 429904692.61748534 334729043.97841644 0 334729043.97841644 305111007.94543457 0 0 0 0 145757.25155118285 -21888.707279964699 0 -21888.707279964699 -1774929.6181474179 0 0 0 0 -247081366.24309057 -653072335.6914047 0 -653072335.6914047 -495836665.49961853 0 0 0 0 195402714.04861516 -128200558.1931839 0 -128200558.1931839 -323490367.45307159 0 0 0 0 -44557656.457671478 -200439373.40331554 0 -200439373.40331554 -1006690461.6367722 0 0 0 0 -312950.79472748667 -148138986.08202744 0 -148138986.08202744 -1447316.7124328613 0 0 0 0 150549877.59505293 23431915.710540771 0 23431915.710540771 -533630192.10752869 0 0 0 0 156756094.44710189 -295135583.6940918 0 -295135583.6940918 -364019422.72930908 0 0 0 0 571588704.58630764 96498948.694488525 0 96498948.694488525 -156594765.09093094 0 0 0 0 103563155.82339147 -16660238.458389282 0 -16660238.458389282 -60432527.476760864 0 0 0 0 307616348.38462204 -213196339.69003296 0 -213196339.69003296 -40724970.643989563 0 0 0 0 137950497.47415304 -331903357.71656811 0 -331903357.71656811 59304872.121902466 0 0 0 0 210758640.97002721 65256994.488433838 0 65256994.488433838 -161431528.23880005 0 0 0 0 -533195240.94680756 -509397831.7611618 0 -509397831.7611618 444213016.63045502 0 0 0 0 279331.83578788303 -1085683.9409099713 0 -1085683.9409099713 -3025090.8269679248 0 0 0 0 412639450.60246968 1014949064.6150398 0 1014949064.6150398 -634512505.93945312 0 0 0 0 277211.72952610662 -479760.20337689156 0 -479760.20337689156 -3922608.1230126172 0 0 0 0 -27472547.954489708 385929932.32841492 0 385929932.32841492 -272352540.95217896 0 0 0 0 829529454.66713476 488336365.7088089 0 488336365.7088089 -714924574.46517944 0 0 0 0 -177085217.01777935 151642960.6036377 0 151642960.6036377 813114103.01400757 0 0 0 0 392074131.01680851 449070498.36978149 0 449070498.36978149 -57864763.986438751 0 0 0 0 961045338.307585 -581333267.07162857 0 -581333267.07162857 -454009896.32797241 0 0 0 0 1769412153.8783362 -377014080.1391716 0 -377014080.1391716 -770255917.18228149 0 0 0 0 471358.67130499601 -1918661.8043258749 0 -1918661.8043258749 -8608115.4893988669 0 0 0 0 65978.673187372668 -512174.68467455497 0 -512174.68467455497 -925039.07214717567 0 0 0 0 -988309572.76465249 -411705992.73358917 0 -411705992.73358917 290803783.10783386 0 0 0 0 -5050830.2246985435 -963032136.61460114 0 -963032136.61460114 64747977.287185669 0 0 0 0 -23897547.183592796 53797853.568271637 0 53797853.568271637 -995013012.45922852 0 0 0 0 45360386.875101089 453968637.33248901 0 453968637.33248901 215374496.32314301 0 0 0 0 -1180198021.7617826 -1488248454.2902222 0 -1488248454.2902222 -15594426.798797607 0 0 0 0 -1178973810.9357929 -998759777.89533997 0 -998759777.89533997 540935783.36915588 0 0 0 0 -860891075.72366333 -1476998378.2871857 0 -1476998378.2871857 -907347671.38562775 0 0 0 0 -782620403.26217651 -1275988331.0551224 0 -1275988331.0551224 -415265985.64300537 0 0 0 0 -1057470621.0252552 -1986244058.2464294 0 -1986244058.2464294 -1203832276.2795105 0 0 0 0 -946999126.04684138 -1321216126.5093231 0 -1321216126.5093231 -1149528784.7706299 0 0 0 0 -752285921.87901306 -984630925.0680542 0 -984630925.0680542 -1382562445.8283005 0 0 0 0 -595375752.5103991 -1090482421.9835777 0 -1090482421.9835777 -1316458727.6022339 0 0 0 0 -948230650.34614468 -717007464.56719971 0 -717007464.56719971 -1214906482.5204315 0 0 0 0 -1547034340.4432888 -995873150.3543396 0 -995873150.3543396 -571421007.76845551 0 0 0 0 -1414316812.0012035 -302835553.39189911 0 -302835553.39189911 -1566996270.9388733 0 0 0 0 -644380522.09901428 -371415035.24253845 0 -371415035.24253845 -1836594331.2255249 0 0 0 0 -129010571.50415611 -843665826.8165741 0 -843665826.8165741 -1668407253.5902863 0 0 0 0 -324943276.58996201 629479664.51783752 0 629479664.51783752 -748153738.84658813 0 0 0 0 12675963.168890953 372217338.11313248 0 372217338.11313248 -592300298.47003174 0 0 0 0 92040795.277563572 165143683.58287811 0 165143683.58287811 125782710.03056335 0 0 0 0 -412142978.57473946 387351392.06448364 0 387351392.06448364 -385887851.67599487 0 0 0 0 -175218.67313469481 2049625.0727806538 0 2049625.0727806538 -647675.76815117151 0 0 0 0 -587565704.31341076 511215807.8504715 0 511215807.8504715 -420192190.61491394 0 0 0 0 -619397509.64609981 -824895067.28475189 0 -824895067.28475189 -1284635596.348114 0 0 0 0 1257198.3433644476 2235612.7643606495 0 2235612.7643606495 -3230436.1900489926 0 0 0 0 -677200752.84690905 -747281782.20783234 0 -747281782.20783234 -641856173.13052368 0 0 0 0 -244967740.69776058 -691417957.92391968 0 -691417957.92391968 -1533402572.4871616 0 0 0 0 -471976357.4961586 -844181595.90643311 0 -844181595.90643311 -1485880369.3325043 0 0 0 0 -298148270.38346624 -883697012.15463638 0 -883697012.15463638 -1478434523.8621216 0 0 0 0 -603868837.06614304 -343684983.18782806 0 -343684983.18782806 -110521631.68084717 0 0 0 0 4226900.997845266 5179313.6401781216 0 5179313.6401781216 -3257649.8044537902 0 0 0 0 -231950958.58693123 76583774.071777344 0 76583774.071777344 -92345284.451266289 0 0 0 0 -54166098.594808102 -648810705.69283295 0 -648810705.69283295 -1123304024.8756104 0 0 0 0 -315369233.20191765 -488698501.26098633 0 -488698501.26098633 -779586106.72489929 0 0 0 0 -114059906.62588501 -674634503.95819092 0 -674634503.95819092 -974791824.86169434 0 0 0 0 150315912.74096775 -350558324.11062622 0 -350558324.11062622 -791766015.78552246 0 0 0 0 261388691.30186653 -629064597.71987915 0 -629064597.71987915 -208311133.13598633 0 0 0 0 403798.82720985357 -218049.33407492191 0 -218049.33407492191 -594138.45888978988 0 0 0 0 -232276893.97620773 -649875554.60327148 0 -649875554.60327148 -863785259.108284 0 0 0 0 -156147321.2133007 -775339068.34025574 0 -775339068.34025574 -1122269659.5307617 0 0 0 0 -308279209.76474571 -739170836.58013916 0 -739170836.58013916 -921573923.71940613 0 0 0 0 -325572140.06238794 -682729103.63945007 0 -682729103.63945007 -1048902083.7286072 0 0 0 0 -218741330.03881359 -667907832.64962769 0 -667907832.64962769 -1211500497.338501 0 0 0 0 -261296240.27418381 -915827190.79977798 0 -915827190.79977798 -1382899264.2533264 0 0 0 0 -325797242.23024845 -633042964.55761719 0 -633042964.55761719 -1108731250.5207138 0 0 0 0 -306387169.45217705 -790021922.37670898 0 -790021922.37670898 -1524000343.3710022 0 0 0 0 -606170566.18047643 -938669598.23400879 0 -938669598.23400879 -1571500556.0249023 0 0 0 0 -311104029.2924509 -779891271.94377899 0 -779891271.94377899 -1846062344.9945221 0 0 0 0 -540186247.31276512 -972958724.37088013 0 -972958724.37088013 -1916219057.3373413 0 0 0 0 -847202139.84559584 -647704596.32601929 0 -647704596.32601929 -1729233852.8651657 0 0 0 0 -485850974.88843131 -744036587.89208984 0 -744036587.89208984 -1706990674.4559937 0 0 0 0 -465953319.46753597 -651695260.35037231 0 -651695260.35037231 -1538194935.1453304 0 0 0 0 -1341577023.059516 -1185131328.6581879 0 -1185131328.6581879 -1704826145.3481598 0 0 0 0 -541090058.39664745 -853809963.21585083 0 -853809963.21585083 -1581008696.5344849 0 0 0 0 357665.32787854597 -30899.291914433241 0 -30899.291914433241 -1635741.8441137746 0 0 0 0 -345511857.3839004 34662621.688858032 0 34662621.688858032 947603165.16710663 0 0 0 0 -124399961.73497987 -1257692563.8649063 0 -1257692563.8649063 -3307984924.995224 0 0 0 0 -1263222.7195133059 -267319.59094521403 0 -267319.59094521403 -457633.99341950566 0 0 0 0 2297063.5809753537 -55946087.452606201 0 -55946087.452606201 -359888704.17657471 0 0 0 0 -681718977.80932093 -718112211.00172424 0 -718112211.00172424 253312358.3372345 0 0 0 0 -612246465.55789328 -1128840574.0799103 0 -1128840574.0799103 -1220890514.6702881 0 0 0 0 -652771841.46844053 -957306212.79528809 0 -957306212.79528809 -740145705.60903931 0 0 0 0 287036.62505682249 1044623.8718686476 0 1044623.8718686476 -1345884.466962561 0 0 0 0 12372374.68350029 -255168038.93751526 0 -255168038.93751526 -778014263.18991089 0 0 0 0 -310916488.64398003 -184152677.81009293 0 -184152677.81009293 -338658598.4205246 0 0 0 0 -26503892.768988118 -103722909.20133495 0 -103722909.20133495 -138586478.43440247 0 0 0 0 -2745411.1063602269 32625960.655612946 0 32625960.655612946 -116195633.32963562 0 0 0 0 55965942.161095321 100484948.26383209 0 100484948.26383209 58123012.237045288 0 0 0 0 280388734.95638603 -30452704.167549133 0 -30452704.167549133 -167868974.83563614 0 0 0 0 73694945.904183984 -136360481.807724 0 -136360481.807724 -293575285.81385803 0 0 0 0 -215597036.09726143 24626666.277153015 0 24626666.277153015 -36346317.205490112 0 0 0 0 -104106165.48505211 -176593173.12885666 0 -176593173.12885666 53511569.845901489 0 0 0 0 -708627165.2574482 91606570.340606689 0 91606570.340606689 93748589.346511841 0 0 0 0 -665659598.63684654 23828016.088912964 0 23828016.088912964 -394083556.45684814 0 0 0 0 -222105.561992459 493075.34780824929 0 493075.34780824929 -584570.76841119677 0 0 0 0 -256490676.90859103 35319519.437000275 0 35319519.437000275 -200043890.36602783 0 0 0 0 -478954308.12912369 99465137.305404663 0 99465137.305404663 -1003385970.888916 0 0 0 0 -556001358.42603874 -107450915.53292847 0 -107450915.53292847 -842760806.61480713 0 0 0 0 -209358009.03178787 -159981970.19081116 0 -159981970.19081116 -2217609086.2371864 0 0 0 0 -255506676.44287109 -787552650.76702881 0 -787552650.76702881 -3006623240.7186279 0 0 0 0 -880115302.35511827 -1095967642.7721558 0 -1095967642.7721558 -2396044067.4139709 0 0 0 0 -306331682.87108612 -965970505.34010315 0 -965970505.34010315 -1632278840.1501617 0 0 0 0 -353778915.23335361 -267747783.08837128 0 -267747783.08837128 -1947471584.2410278 0 0 0 0 -329772127.53126812 -671217352.12266541 0 -671217352.12266541 -633303038.27446747 0 0 0 0 71504816.408588886 -778614832.64492035 0 -778614832.64492035 -1395932683.162262 0 0 0 0 -280063359.67929113 -911688403.40960026 0 -911688403.40960026 -1098520907.4215698 0 0 0 0 -577510101.09598351 -1294546826.3054047 0 -1294546826.3054047 -1359511036.404007 0 0 0 0 -365049470.60752916 -1003313573.7874832 0 -1003313573.7874832 -1289719294.2622375 0 0 0 0 -524440049.25987148 -1413838614.4135742 0 -1413838614.4135742 -1170269822.8583069 0 0 0 0 -619936149.74852228 -1558408586.118309 0 -1558408586.118309 -1389121402.7289734 0 0 0 0 -593782203.17524433 -1609999681.3062592 0 -1609999681.3062592 -1699525945.7370758 0 0 0 0 -693396441.71722841 -1809188072.2144136 0 -1809188072.2144136 -2031326099.6852417 0 0 0 0 -239505994.66858828 -1164320516.5453148 0 -1164320516.5453148 -2095533309.0532837 0 0 0 0 1091680572.115499 366325341.54409027 0 366325341.54409027 -1625845426.7093964 0 0 0 0 90458.561764989514 -1306531.5542426654 0 -1306531.5542426654 -4712391.9671073258 0 0 0 0 -1301015736.9038711 -1934850698.5499802 0 -1934850698.5499802 -1156557389.0075989 0 0 0 0 394244068.88595557 -527206172.73341751 0 -527206172.73341751 -2679662224.7150574 0 0 0 0 -688187093.37831712 -1639364551.3415208 0 -1639364551.3415208 -3418567899.2151489 0 0 0 0 178221406.35232216 134475999.27836227 0 134475999.27836227 -1017292914.5389557 0 0 0 0 683866137.96532774 103667815.6844635 0 103667815.6844635 -2245091105.1248474 0 0 0 0 -555210297.62132978 -1067990002.6207962 0 -1067990002.6207962 -1559318706.566864 0 0 0 0 346175267.71994805 -561491366.79193115 0 -561491366.79193115 -2241509859.0237122 0 0 0 0 21691510.993408203 -529117766.58813477 0 -529117766.58813477 -2054644974.5321617 0 0 0 0 -508300227.97356606 -1157276460.4677734 0 -1157276460.4677734 -2400355353.3717356 0 0 0 0 -264949988.74786806 -1321190728.2190285 0 -1321190728.2190285 -2996249849.828949 0 0 0 0 -2774619088.0331383 -843984902.25094604 0 -843984902.25094604 -2413415303.1607666 0 0 0 0 -2242645391.0686264 -132773230.51843262 0 -132773230.51843262 -2974996897.4534988 0 0 0 0 -45183.552449354203 -357805.93889196031 0 -357805.93889196031 -1915082.8203582913 0 0 0 0 -470111377.1980148 206312330.73251438 0 206312330.73251438 -92882793.930206299 0 0 0 0 -1370208293.9229536 -1381256841.5440369 0 -1381256841.5440369 -1315103126.2563477 0 0 0 0 -101119691.11305118 212759753.86171341 0 212759753.86171341 -956190081.31396484 0 0 0 0 -656596323.75887299 -257369774.45440674 0 -257369774.45440674 432698522.10762024 0 0 0 0 157589297.58766234 -23173893.782272339 0 -23173893.782272339 -140740764.16932869 0 0 0 0 -1002012298.4979072 -745815979.32644653 0 -745815979.32644653 -311591715.00666046 0 0 0 0 -309800072.768417 -1016618232.3301773 0 -1016618232.3301773 -1548630285.9633026 0 0 0 0 -70794041.030395001 -699104197.94902611 0 -699104197.94902611 -1029254624.1126709 0 0 0 0 -110595621.05006647 -568844073.54915619 0 -568844073.54915619 -549595530.23718262 0 0 0 0 739495.62968291307 -301718284.20526403 0 -301718284.20526403 -1031813352.0231628 0 0 0 0 149503030.62288845 -368038169.43218994 0 -368038169.43218994 -1308754419.8611603 0 0 0 0 155357886.45866582 -423638822.16315842 0 -423638822.16315842 -1664782752.3091431 0 0 0 0 -40838670.485201597 -53365340.729904175 0 -53365340.729904175 193688021.25737762 0 0 0 0 -159080.86589818751 -651108.73325049877 0 -651108.73325049877 -351534.2778035216 0 0 0 0 -6922711.3457842497 -1885793.95293089 0 -1885793.95293089 35590.952915072441 0 0 0 0 -506449821.62468958 -302347282.85797119 0 -302347282.85797119 -331063028.29050446 0 0 0 0 -10094771.364707947 -559043.28680419922 0 -559043.28680419922 -16055536.808265686 0 0 0 0 -15037581.630978584 6378879.0946121216 0 6378879.0946121216 -8108132.4856643677 0 0 0 0 -16337554.556542397 2111038.8488006592 0 2111038.8488006592 9328434.4592285156 0 0 0 0 -15753959.063638687 1419670.0816764832 0 1419670.0816764832 -3925916.4265441895 0 0 0 0 -12806679.491930008 -1775839.7415161133 0 -1775839.7415161133 -8347637.8923950195 0 0 0 0 -1255613.6590018335 -6940526.0047783721 0 -6940526.0047783721 -6686879.1366247088 0 0 0 0 23966358.350005478 -13300466.501438141 0 -13300466.501438141 -10408457.735351562 0 0 0 0 -5241359.2377967834 -2166438.9892730713 0 -2166438.9892730713 766850.02079772949 0 0 0 0 -11108931.426199436 -16033219.824417114 0 -16033219.824417114 -11131094.611022949 0 0 0 0 -14349762.537689328 -17574528.063552856 0 -17574528.063552856 825839.66925048828 0 0 0 0 -5749958.4281816483 -10729991.727325439 0 -10729991.727325439 1992165.6165771484 0 0 0 0 -15950649.625060558 -14599288.967941284 0 -14599288.967941284 7314380.9954528809 0 0 0 0 1433823.9482992068 -21373131.680145264 0 -21373131.680145264 1324020.6500244141 0 0 0 0 18805503.57623601 -5172869.9674682617 0 -5172869.9674682617 -5645135.0222167969 0 0 0 0 -14339558.610597372 -2935596.8280258179 0 -2935596.8280258179 973981.419921875 0 0 0 0 -7315572.0060396194 -10578502.481170654 0 -10578502.481170654 -3622923.6159362793 0 0 0 0 -20808213.763539314 -4449383.8293609619 0 -4449383.8293609619 -5809832.6416625977 0 0 0 0 42873523.386619568 9073978.3409805298 0 9073978.3409805298 -23160415.113357544 0 0 0 0 -25647055.964891911 51606545.289825439 0 51606545.289825439 -44424067.094390869 0 0 0 0 -92930734.826453209 41350675.923553467 0 41350675.923553467 -44589210.779328108 0 0 0 0 40058031.920385003 -52697050.945632935 0 -52697050.945632935 -4910967.1924133301 0 0 0 0 51165526.12306881 2711019.7731323242 0 2711019.7731323242 -10640773.18762207 0 0 0 0 -13084300.249352694 -26950527.623184204 0 -26950527.623184204 -818536.33084106445 0 0 0 0 -11789229.434679985 -19589631.109619141 0 -19589631.109619141 9887339.1105957031 0 0 0 0 -55997638.252722263 -18903577.989273071 0 -18903577.989273071 26736584.895996094 0 0 0 0 -38657013.105708122 11911165.951751709 0 11911165.951751709 -158305138.30706787 0 0 0 0 -71429959.058844984 53040985.258230209 0 53040985.258230209 -39831190.017150879 0 0 0 0 -63005535.77297572 -20428755.906959534 0 -20428755.906959534 122753222.30334473 0 0 0 0 23100850.598050833 140043922.49014282 0 140043922.49014282 -145736960.75323486 0 0 0 0 -125195631.01884925 -107247213.40460205 0 -107247213.40460205 -340185895.37535095 0 0 0 0 -95076579.397729158 56891426.911301613 0 56891426.911301613 -177132332.16674805 0 0 0 0 96819420.655663252 -146704533.07522583 0 -146704533.07522583 -744890228.65524292 0 0 0 0 14098729.392719507 75863454.241844177 0 75863454.241844177 -148270811.25408936 0 0 0 0 -43421828.461305618 -76911732.414634705 0 -76911732.414634705 -468649357.22160339 0 0 0 0 -97552241.214726925 -7001659.368522644 0 -7001659.368522644 -91626126.737457275 0 0 0 0 -137284898.09329033 -297111669.60610199 0 -297111669.60610199 -529650743.92625809 0 0 0 0 -210111422.43570042 -308306081.63610077 0 -308306081.63610077 -44926747.105285645 0 0 0 0 -270926719.58302724 -318835776.5755043 0 -318835776.5755043 -323216684.78800964 0 0 0 0 -169297429.18271112 -521878280.99108505 0 -521878280.99108505 -1010240882.4885864 0 0 0 0 -347250326.05228341 -645142564.0286026 0 -645142564.0286026 -1112390945.0261841 0 0 0 0 -329295420.71910715 -336043427.64385986 0 -336043427.64385986 -628263607.26724243 0 0 0 0 -1732720.213009157 -2459265.8367360737 0 -2459265.8367360737 734592.58840277791 0 0 0 0 -9004592.2244362831 63527708.695327759 0 63527708.695327759 -337759712.88095093 0 0 0 0 -176274099.27573681 -426997122.83340454 0 -426997122.83340454 -467713299.35990906 0 0 0 0 -339925765.96073818 -700997071.84155512 0 -700997071.84155512 -1221931962.1778259 0 0 0 0 -270585370.69475651 -241821723.18078613 0 -241821723.18078613 -711415261.77050781 0 0 0 0 -515520376.82465696 -490388164.53064728 0 -490388164.53064728 -1235561514.1216507 0 0 0 0 -766526743.54466093 -950430188.81101799 0 -950430188.81101799 -1211002289.5582123 0 0 0 0 -360673552.91075659 -791417863.43144989 0 -791417863.43144989 -1877974320.4017255 0 0 0 0 -425115498.11774069 -1161880740.8060827 0 -1161880740.8060827 -1590694989.2448883 0 0 0 0 302501.8667200515 -376840.19234733284 0 -376840.19234733284 -1120796.1392989755 0 0 0 0 -181724371.54453659 -861068995.38957214 0 -861068995.38957214 -1592690384.1295929 0 0 0 0 -593039439.8883872 -953681684.06965637 0 -953681684.06965637 -1362117588.4966049 0 0 0 0 -30244905.806483984 -292221538.73070908 0 -292221538.73070908 -809824785.30902863 0 0 0 0 -374211428.06004596 -744902982.0056839 0 -744902982.0056839 -1202874494.0918732 0 0 0 0 -331491484.53508472 -770628310.45297241 0 -770628310.45297241 -1591350764.3191986 0 0 0 0 -338907060.16435862 -920714320.41293335 0 -920714320.41293335 -1363233485.4303398 0 0 0 0 -146103935.41400528 -483022040.75733948 0 -483022040.75733948 -1219910174.8388824 0 0 0 0 -584283049.08275652 -947131990.70936584 0 -947131990.70936584 -1439906698.7178898 0 0 0 0 -372076841.40440369 -797394211.72602081 0 -797394211.72602081 -1477211871.7927094 0 0 0 0 -420773705.76659608 -784152122.50401306 0 -784152122.50401306 -1520804356.2696381 0 0 0 0 -361701948.29790211 -1073768118.5994263 0 -1073768118.5994263 -1748547352.8193035 0 0 0 0 -433668492.29376841 -780477904.5062561 0 -780477904.5062561 -1767722369.241087 0 0 0 0 432658.79964194773 -502301.73318237066 0 -502301.73318237066 -2294556.7290171832 0 0 0 0 -451746054.78595543 -1151220558.0715485 0 -1151220558.0715485 -1738120906.1329041 0 0 0 0 -442632972.61484861 -873535572.46737671 0 -873535572.46737671 -1779859085.8537598 0 0 0 0 -501081238.56182051 -719436443.21242714 0 -719436443.21242714 -1499765132.6050415 0 0 0 0 -407037596.44553232 -783402401.71311188 0 -783402401.71311188 -1787315021.2743225 0 0 0 0 -3908458.0785092963 -1315078.4062656611 0 -1315078.4062656611 -379983.55461462215 0 0 0 0 -129410724.13486099 -71977967.378707886 0 -71977967.378707886 350461297.54081726 0 0 0 0 -5844120.8594612461 -1708193.6362082958 0 -1708193.6362082958 -102536.31691546738 0 0 0 0 -281222013.55604076 -367969721.77237701 0 -367969721.77237701 -859575910.06825256 0 0 0 0 -51825850.980830193 -631555227.99093628 0 -631555227.99093628 -1722861537.336319 0 0 0 0 -24441550.98720789 -56718162.319770813 0 -56718162.319770813 234124723.95941162 0 0 0 0 112401597.91334629 -50313150.050506592 0 -50313150.050506592 -13560075.830554962 0 0 0 0 -21339705.514167786 9874971.3766975403 0 9874971.3766975403 62900500.22505188 0 0 0 0 17490473.826939583 -71981341.597900391 0 -71981341.597900391 56854954.560745239 0 0 0 0 113601823.70291781 -67868714.398855209 0 -67868714.398855209 -58114789.97744751 0 0 0 0 129212440.76759833 -91226490.962422371 0 -91226490.962422371 -258158833.77320862 0 0 0 0 929841.47112053493 496377.80489444733 0 496377.80489444733 -702494.65107194707 0 0 0 0 214432799.73389339 -87419695.394126892 0 -87419695.394126892 -87633950.347137451 0 0 0 0 33009183.44324398 -3840107.4903106689 0 -3840107.4903106689 -87808701.846916199 0 0 0 0 149966169.6724658 70995077.845481873 0 70995077.845481873 -40999562.491516113 0 0 0 0 79941663.408946395 -214441685.96985626 0 -214441685.96985626 -168301987.378479 0 0 0 0 181518159.41005921 76004913.515571594 0 76004913.515571594 -9233336.6592559814 0 0 0 0 -115629726.34399748 -114305302.99517822 0 -114305302.99517822 320981438.40631866 0 0 0 0 -84250439.304010391 -153581048.4993515 0 -153581048.4993515 197707918.09354401 0 0 0 0 -76575664.823635578 -60577155.374282837 0 -60577155.374282837 -24225800.049942017 0 0 0 0 43130525.360108852 27956740.763626099 0 27956740.763626099 -164494767.1109848 0 0 0 0 -21884875.532248974 -98933386.731811523 0 -98933386.731811523 -285578154.98319244 0 0 0 0 1306958.3978690575 907085.35808252543 0 907085.35808252543 -1341739.5681654997 0 0 0 0 -25169619.441428185 20803962.372741699 0 20803962.372741699 -96454236.829238892 0 0 0 0 -19515323.253676891 -20577552.201843262 0 -20577552.201843262 177525665.06735229 0 0 0 0 34506336.872630715 89287983.620914459 0 89287983.620914459 -179270405.76643372 0 0 0 0 4457468.780137402 -1358266.0925561637 0 -1358266.0925561637 -182921.85051811114 0 0 0 0 -14274968.603812695 723429.92254638672 0 723429.92254638672 -67678351.798240662 0 0 0 0 -22668432.941674709 62157229.58392334 0 62157229.58392334 -43626250.401359558 0 0 0 0 726798.51171628479 -110847.50598700345 0 -110847.50598700345 -911597.3227103129 0 0 0 0 -27079793.184123993 35556156.224853516 0 35556156.224853516 72637503.999023438 0 0 0 0 42941775.822412491 176691057.50326538 0 176691057.50326538 7986607.9976806641 0 0 0 0 176772128.88817489 -163207543.31569672 0 -163207543.31569672 -239754016.58595276 0 0 0 0 -34353102.96590519 24076518.795257568 0 24076518.795257568 292710953.8064537 0 0 0 0 7367094.4014418973 -2684908.5944035947 0 -2684908.5944035947 -717628.50198095292 0 0 0 0 27183707.28132534 -68047209.88609314 0 -68047209.88609314 -150403511.21592712 0 0 0 0 -43376702.504825592 1446504.8386535645 0 1446504.8386535645 224392364.25505447 0 0 0 0 9841639.5436859652 -4298272.1329334304 0 -4298272.1329334304 -2070107.0613122396 0 0 0 0 10695380.960439682 -23783191.653907776 0 -23783191.653907776 144991050.27780151 0 0 0 0 12083943.978034019 -34178387.688720703 0 -34178387.688720703 -68428225.709838867 0 0 0 0 7179452.2398705482 -27643158.56608963 0 -27643158.56608963 -57238056.8699646 0 0 0 0 -11990273.306877136 -44504202.41468811 0 -44504202.41468811 -22938004.250213623 0 0 0 0 11094518.855704308 -26721496.549190521 0 -26721496.549190521 -57114206.950073242 0 0 0 0 7588683.5339107513 -25121473.734466553 0 -25121473.734466553 -27364348.007202148 0 0 0 0 -69739129.543738365 -94082962.332481384 0 -94082962.332481384 -12696288.659423828 0 0 0 0 -13021393.361971855 11758351.496520996 0 11758351.496520996 48268421.691619873 0 0 0 0 1614659.5783216031 -1079584.0518349633 0 -1079584.0518349633 -2451365.8263682425 0 0 0 0 36372231.577880025 -42230931.776300907 0 -42230931.776300907 -54069760.555831909 0 0 0 0 -10675083.128079414 -23027453.691886902 0 -23027453.691886902 -23836302.90637207 0 0 0 0 -12528155.374120712 -7072658.1583404541 0 -7072658.1583404541 22902089.698806763 0 0 0 0 1567207.9446535558 -3367650.0255092829 0 -3367650.0255092829 -3975878.4770463817 0 0 0 0 4170058.5574970245 -3730310.1876831055 0 -3730310.1876831055 -22136834.248718262 0 0 0 0 -13252195.591694832 -11593274.670143127 0 -11593274.670143127 -5999348.5181732178 0 0 0 0 -19339589.833852768 -9767932.5726928711 0 -9767932.5726928711 1558706.6134262085 0 0 0 0 -19890567.122780323 -8712425.9319114685 0 -8712425.9319114685 16084824.525054932 0 0 0 0 -13925750.784389496 -24241704.812068939 0 -24241704.812068939 539718.28955078125 0 0 0 0 -10005542.406711578 -22441442.77658844 0 -22441442.77658844 -23831637.58946228 0 0 0 0 -4263150.5035078526 2981809.0322952271 0 2981809.0322952271 4001706.8357009888 0 0 0 0 2392475.807258009 -1625937.8302194178 0 -1625937.8302194178 -9298703.0820795968 0 0 0 0 -10063035.291911416 -3093684.4226264954 0 -3093684.4226264954 2828389.8187866211 0 0 0 0 -485409.84783180815 -1001199.7174683865 0 -1001199.7174683865 532647.70560625196 0 0 0 0 7335137.6400821209 -5939740.5452728271 0 -5939740.5452728271 -7638298.2984771729 0 0 0 0 -314770.65980531526 -6487938.1845174516 0 -6487938.1845174516 -6070589.6811008453 0 0 0 0 153092.43262954801 -16911357.58731842 0 -16911357.58731842 -8449629.105594635 0 0 0 0 7044380.195039344 -3662527.9530646075 0 -3662527.9530646075 -9090228.4316295236 0 0 0 0 -5478857.0627389876 -6902358.7438783273 0 -6902358.7438783273 -6526804.5144084133 0 0 0 0 6704993.5837965012 -8772381.2666854858 0 -8772381.2666854858 -34606638.299316406 0 0 0 0 -22201836.686564445 -2737814.8617401123 0 -2737814.8617401123 -15128483.350189209 0 0 0 0 -4090875.2810192108 -4603788.2252960205 0 -4603788.2252960205 -24044221.445732117 0 0 0 0 -1585587.7635306239 -3013683.1069870554 0 -3013683.1069870554 848724.76311060786 0 0 0 0 -275613.44747286197 -1305131.8150676638 0 -1305131.8150676638 -1944544.725175947 0 0 0 0 8823504.7950748634 263376.68958046287 0 263376.68958046287 -14571422.47721754 0 0 0 0 3686472.4431226254 -511785.79690551758 0 -511785.79690551758 -5740542.9147567749 0 0 0 0 -59686141.474554539 -30301321.829835892 0 -30301321.829835892 -24376706.761779785 0 0 0 0 11476249.060443345 -17332709.722999685 0 -17332709.722999685 -18326403.410797745 0 0 0 0 -19502561.47479248 -2581078.7301635742 0 -2581078.7301635742 -28809086.617271423 0 0 0 0 -55134553.237621307 -18346841.827178955 0 -18346841.827178955 -57492979.119010925 0 0 0 0 5406184.6020269394 -44128730.895439148 0 -44128730.895439148 27645125.396362305 0 0 0 0 11741470.835492419 -7368416.5475508869 0 -7368416.5475508869 -4976571.2875422239 0 0 0 0 -45587963.189271927 -26187262.11138916 0 -26187262.11138916 155889499.04223633 0 0 0 0 11025655.918572426 -20554526.766189575 0 -20554526.766189575 -67477141.957397461 0 0 0 0 23916328.885910034 -194143523.43041992 0 -194143523.43041992 -163985850.28448486 0 0 0 0 4274705.4436531067 -47108990.928878784 0 -47108990.928878784 84012298.10471344 0 0 0 0 2854157.7556330706 -4860795.4773265487 0 -4860795.4773265487 2383601.5569508523 0 0 0 0 62739029.303677082 -94457372.836139679 0 -94457372.836139679 112774504.00947571 0 0 0 0 -91947588.436216354 -63836865.945709229 0 -63836865.945709229 -12760776.695877075 0 0 0 0 -29883597.653749466 -82365050.43737793 0 -82365050.43737793 126998453.6618042 0 0 0 0 -45736584.054931641 -78278768.498420715 0 -78278768.498420715 89432789.324005127 0 0 0 0 -27572840.910936356 -58706026.804878235 0 -58706026.804878235 107148904.21231842 0 0 0 0 318929645.27313328 -358658640.59279633 0 -358658640.59279633 119704945.96905518 0 0 0 0 -404761192.79510212 -218091654.57561493 0 -218091654.57561493 185026641.99801636 0 0 0 0 -237687510.30102539 111066472.48875427 0 111066472.48875427 -40780997.091537476 0 0 0 0 -217188973.93529224 46669995.222946167 0 46669995.222946167 85040400.98600769 0 0 0 0 -207938749.41513824 95076825.808708191 0 95076825.808708191 -63229527.724479675 0 0 0 0 -242020631.5433197 -306658895.66213226 0 -306658895.66213226 185025587.02565002 0 0 0 0 -639757024.5727272 -26941090.401039124 0 -26941090.401039124 156692533.52184772 0 0 0 0 28606123.499974251 124165971.23723602 0 124165971.23723602 -228306263.81027222 0 0 0 0 -266516643.23771286 180477319.78907013 0 180477319.78907013 -113849199.05199623 0 0 0 0 -96411046.510704041 290817707.50626373 0 290817707.50626373 -412832099.19717407 0 0 0 0 -136969129.4920578 118049953.10348511 0 118049953.10348511 -51952436.922073364 0 0 0 0 -100518127.09943008 72508707.403625488 0 72508707.403625488 -91678937.809074402 0 0 0 0 29642530.627425313 115040450.56862116 0 115040450.56862116 -303628223.40376282 0 0 0 0 -54151463.015287399 -15760296.474449158 0 -15760296.474449158 74586725.3019104 0 0 0 0 -17863468.611350775 52896711.783006668 0 52896711.783006668 -67777855.538085938 0 0 0 0 -63878619.45410347 32854975.102661133 0 32854975.102661133 -39130503.128322601 0 0 0 0 -109660605.49982357 -40484639.881736755 0 -40484639.881736755 109991919.63287354 0 0 0 0 -59602165.389415741 -47129934.87727356 0 -47129934.87727356 144097931.45387268 0 0 0 0 -27141360.901192963 -46314751.260530949 0 -46314751.260530949 106953513.49465942 0 0 0 0 -22008419.449771404 10486736.65952301 0 10486736.65952301 84015456.653076172 0 0 0 0 -6604992.2626266479 -40806476.555473328 0 -40806476.555473328 157498889.05351257 0 0 0 0 23528980.253508568 45531620.10984993 0 45531620.10984993 128980393.07913208 0 0 0 0 38971396.825127125 -26552037.564117432 0 -26552037.564117432 103639151.26940918 0 0 0 0 14485750.878435731 49742926.474247932 0 49742926.474247932 35478238.058425903 0 0 0 0 8140039.8756523132 -50981766.512863159 0 -50981766.512863159 -31011612.982002258 0 0 0 0 -13042142.89256382 -33461749.265640259 0 -33461749.265640259 95486965.63741684 0 0 0 0 45538921.033723354 -84572583.170463562 0 -84572583.170463562 18547946.713088989 0 0 0 0 -20570378.3606143 26387287.836090088 0 26387287.836090088 316450149.57722855 0 0 0 0 90834337.916840971 138611363.94449615 0 138611363.94449615 -377800903.26538086 0 0 0 0 9652719.8800988197 -33740608.35521698 0 -33740608.35521698 11485129.32115078 0 0 0 0 83454910.863431931 -11368339.078315735 0 -11368339.078315735 -159883933.33616638 0 0 0 0 42500098.813432693 -61523133.222633362 0 -61523133.222633362 -138793187.90105438 0 0 0 0 -57832009.989792824 130078482.00526428 0 130078482.00526428 -999442412.59854126 0 0 0 0 597014.19634563266 -436858.04134823382 0 -436858.04134823382 -903911.01063523442 0 0 0 0 -5950597.0914604664 291125702.62453079 0 291125702.62453079 -949865380.03709412 0 0 0 0 24556940.445573986 52698616.556402206 0 52698616.556402206 -189993468.54342651 0 0 0 0 17238113.154642105 -17301471.271751404 0 -17301471.271751404 -129355332.83940125 0 0 0 0 77676760.323171139 -96480658.558372498 0 -96480658.558372498 -384681857.74542236 0 0 0 0 110845658.15318584 130900494.6784668 0 130900494.6784668 -611125896.97465515 0 0 0 0 111563414.94244766 76371116.829681396 0 76371116.829681396 -401296799.31945801 0 0 0 0 39812472.481054306 119554014.77789307 0 119554014.77789307 -381569391.21530151 0 0 0 0 -4012720.9316263199 229302053.34545898 0 229302053.34545898 -477180509.43121338 0 0 0 0 3016715.1875927742 186317.40762981027 0 186317.40762981027 -618177.15108734369 0 0 0 0 187425894.2708919 313287911.79911423 0 313287911.79911423 -328903000.65332031 0 0 0 0 57330491.730431318 94064331.712049484 0 94064331.712049484 -488444814.83984375 0 0 0 0 -82183714.881315231 -7206095.3898162842 0 -7206095.3898162842 120572800.24147034 0 0 0 0 152901355.33285308 229935765.23059464 0 229935765.23059464 -79223653.427993774 0 0 0 0 1085860.995394289 782255.99461007118 0 782255.99461007118 -882896.06271818653 0 0 0 0 94713740.149488926 177337796.15602875 0 177337796.15602875 -1249016582.8136444 0 0 0 0 -345501398.27163696 -63437439.156295776 0 -63437439.156295776 434447326.34541321 0 0 0 0 368057.29018948041 5165.7775695547462 0 5165.7775695547462 -401686.56672810949 0 0 0 0 85997795.581250072 238778188.23674011 0 238778188.23674011 -1238773405.7900085 0 0 0 0 10101047.978136063 -124619767.65284729 0 -124619767.65284729 -181473170.05510712 0 0 0 0 2731577.4392619003 154502.67643437535 0 154502.67643437535 -513618.54870380461 0 0 0 0 42002560.525921822 5859768.2604522705 0 5859768.2604522705 -278289714.5541687 0 0 0 0 -28193456.824015141 -68027482.113986969 0 -68027482.113986969 24602427.928100586 0 0 0 0 -7665207.0846586227 -146463423.5874176 0 -146463423.5874176 4943987.8793945312 0 0 0 0 -30541951.139949799 5471248.0167770386 0 5471248.0167770386 112897851.06258011 0 0 0 0 -41196.835473502055 -796303.91628940403 0 -796303.91628940403 192687.86190811545 0 0 0 0 246475301.76840973 36045942.043270111 0 36045942.043270111 -14165641.134109497 0 0 0 0 976838.14930924773 -15451017.022035599 0 -15451017.022035599 6503624.2594604492 0 0 0 0 -18819045.917825699 -28288323.065559387 0 -28288323.065559387 7491889.8199729919 0 0 0 0 -13339981.879240513 -22469916.954372406 0 -22469916.954372406 3168587.3730163574 0 0 0 0 -113635533.11361688 224361663.88906813 0 224361663.88906813 -48774935.531402588 0 0 0 0 1357687.3352031801 -16758.184998169541 0 -16758.184998169541 -356954.61154070497 0 0 0 0 -79509602.113506317 2770513.1814804077 0 2770513.1814804077 77135633.888946533 0 0 0 0 251445018.1289072 226953689.96103668 0 226953689.96103668 -383993271.2051239 0 0 0 0 70017264.266886234 76254996.54523468 0 76254996.54523468 -105268205.89537048 0 0 0 0 221641676.36600018 -85381688.807899475 0 -85381688.807899475 -3450997.0742301941 0 0 0 0 76844864.922012329 112833251.42047882 0 112833251.42047882 5155045.1337203979 0 0 0 0 142997967.98342514 -234390694.30796814 0 -234390694.30796814 -305473252.21318054 0 0 0 0 160767911.17271847 114392378.68737984 0 114392378.68737984 -151010778.04371643 0 0 0 0 -113147318.27283478 130309169.48258209 0 130309169.48258209 -206246774.37170219 0 0 0 0 -172509611.96342182 -311665307.31728363 0 -311665307.31728363 -174562273.95545959 0 0 0 0 -348088107.05755424 -201352206.33213806 0 -201352206.33213806 -150132490.52510071 0 0 0 0 -380376649.95568848 -337036912.39220428 0 -337036912.39220428 -158820556.78745079 0 0 0 0 125669228.97306252 -3455201.6611595154 0 -3455201.6611595154 -203868383.54593658 0 0 0 0 -376615623.80239105 -340299134.95941925 0 -340299134.95941925 -216793097.65606689 0 0 0 0 -8043148.0223053666 7565011.4270284548 0 7565011.4270284548 -5703361.30922921 0 0 0 0 3577688.5923421523 -445757.92915967107 0 -445757.92915967107 -3739354.3347956911 0 0 0 0 -328187022.8334465 -200660638.55619812 0 -200660638.55619812 244095943.83323669 0 0 0 0 -1527625558.0388079 228704964.82062531 0 228704964.82062531 132955405.13545227 0 0 0 0 -780347448.91458511 -349099824.52890396 0 -349099824.52890396 -46187746.707168579 0 0 0 0 -3826145.5966188647 2847568.865002647 0 2847568.865002647 -1173250.5872321427 0 0 0 0 -545352037.83331966 -587338391.15948486 0 -587338391.15948486 -817938503.98552704 0 0 0 0 -346359046.44356346 -211316738.58712769 0 -211316738.58712769 -300925119.86999512 0 0 0 0 -134162894.25919914 -27162220.3201828 0 -27162220.3201828 -1379898932.5610504 0 0 0 0 -653312019.32163143 773426231.50704575 0 773426231.50704575 -1096987065.1921997 0 0 0 0 -1776136208.0418043 331117398.67234802 0 331117398.67234802 -128613506.26306152 0 0 0 0 -539236720.91499329 -84121976.622209549 0 -84121976.622209549 -53124520.501342773 0 0 0 0 -753376798.75405049 441261060.01377678 0 441261060.01377678 -255856728.55105591 0 0 0 0 -93284391.087516785 224475474.12108612 0 224475474.12108612 -602239168.78295898 0 0 0 0 -78863916.070382118 320721172.09519196 0 320721172.09519196 -538586136.7403717 0 0 0 0 123120266.04540825 137697157.25701904 0 137697157.25701904 -459507472.55123901 0 0 0 0 128302859.35544586 197252121.85437012 0 197252121.85437012 -469701328.06834412 0 0 0 0 296501523.98640639 218324086.46472627 0 218324086.46472627 -623802754.58052063 0 0 0 0 290363351.97359371 -62085304.546272278 0 -62085304.546272278 -384713158.36706924 0 0 0 0 -538877.06408416911 -290269031.43850219 0 -290269031.43850219 -609845473.36755371 0 0 0 0 -84173.831754568557 -900526.85739770532 0 -900526.85739770532 -2515959.5303318836 0 0 0 0 -57511840.370391712 -34789887.589828491 0 -34789887.589828491 212629738.2678833 0 0 0 0 135015625.0065009 -174503754.9481647 0 -174503754.9481647 -1126502665.3824921 0 0 0 0 132290726.58695346 -21713251.478569031 0 -21713251.478569031 -1488091446.8974171 0 0 0 0 -129471372.201047 -427025436.0625 0 -427025436.0625 -637108241.86585999 0 0 0 0 -167417218.79684216 -295118376.65931797 0 -295118376.65931797 12745888.285797119 0 0 0 0 438754148.6002723 305952302.07099152 0 305952302.07099152 -415631000.46961975 0 0 0 0 34172.755041915167 -187960.25540398061 0 -187960.25540398061 -1636097.4674951881 0 0 0 0 -128251225.92877066 -564874005.32795334 0 -564874005.32795334 -543416388.99460602 0 0 0 0 -219741059.9996171 -239512632.96761703 0 -239512632.96761703 52528069.699264526 0 0 0 0 92954.64744386205 -503826.03393020108 0 -503826.03393020108 -3537718.1180042028 0 0 0 0 -378298471.36186433 -122147996.40241241 0 -122147996.40241241 -5487793.0180358887 0 0 0 0 -499789768.28988254 -257172142.60841751 0 -257172142.60841751 -181174837.54707336 0 0 0 0 -379937659.29854393 -48092021.567382812 0 -48092021.567382812 -58056240.119171143 0 0 0 0 -124312110.0628562 3270195.8306274414 0 3270195.8306274414 -768336887.31417847 0 0 0 0 -54071812.768005848 8559419.2718505859 0 8559419.2718505859 -975416417.6421814 0 0 0 0 -120762984.84133625 -41137350.232086182 0 -41137350.232086182 -856626149.32208252 0 0 0 0 -122027645.6958122 -113676497.25650406 0 -113676497.25650406 -1066639423.2449341 0 0 0 0 62913466.475891113 -128027134.60913086 0 -128027134.60913086 -1508221581.690033 0 0 0 0 -670609825.72064638 -594949826.49438095 0 -594949826.49438095 -828447683.9619751 0 0 0 0 -181020232.79555702 -129184855.9675293 0 -129184855.9675293 -1087154079.5557404 0 0 0 0 -633767.54594747 -1209282.6503151655 0 -1209282.6503151655 -3028542.6898007654 0 0 0 0 -5877805.8441505432 -21676771.526428223 0 -21676771.526428223 138659957.02160645 0 0 0 0 63307276.434569836 247578247.34249878 0 247578247.34249878 -1245952913.1902466 0 0 0 0 260497.28755092621 -26015957.393249512 0 -26015957.393249512 141528436.34289551 0 0 0 0 289845.78372484073 -26534484.905883312 0 -26534484.905883312 47280412.093139648 0 0 0 0 -110788452.58202505 115335166.66142273 0 115335166.66142273 -723311829.51271057 0 0 0 0 -658225.88865303597 -1249442.8907940239 0 -1249442.8907940239 -4208234.7635538578 0 0 0 0 11384938.802595139 -33423928.912124634 0 -33423928.912124634 31534572.103775024 0 0 0 0 5324787.3698444366 71581117.971618652 0 71581117.971618652 -845264114.84747314 0 0 0 0 160504080.05184555 30022817.323364258 0 30022817.323364258 -916607377.11950684 0 0 0 0 -44942619.06703949 105121101.78942871 0 105121101.78942871 -837437731.51501465 0 0 0 0 -45372046.599946976 141179039.62701416 0 141179039.62701416 -873919546.33734131 0 0 0 0 -8430803.4164252281 134971486.69088745 0 134971486.69088745 -932531410.14331055 0 0 0 0 15041010.123303413 123310648.61889648 0 123310648.61889648 -889098783.31933594 0 0 0 0 -44919390.731357574 106889527.13421631 0 106889527.13421631 -1137390276.6081085 0 0 0 0 -70530928.233488321 271161072.60223389 0 271161072.60223389 -815141190.0486145 0 0 0 0 8891792.7803592682 190042232.74888611 0 190042232.74888611 -962123186.26799011 0 0 0 0 879639.90301883465 1727153.858445771 0 1727153.858445771 -2247979.0316857547 0 0 0 0 -5286424.3082871437 179593110.92462158 0 179593110.92462158 -851200604.11798096 0 0 0 0 -13190697.64354229 127398824.98883057 0 127398824.98883057 -833620820.02697754 0 0 0 0 -9101025.2018356323 148011692.94729614 0 148011692.94729614 -869245691.04495239 0 0 0 0 -35703355.820471764 150928227.9052124 0 150928227.9052124 -835921816.50509644 0 0 0 0 -37120502.53414917 111507620.29345703 0 111507620.29345703 -891131998.20431519 0 0 0 0 -32567283.109637856 134493504.51356125 0 134493504.51356125 -861517559.05725098 0 0 0 0 -40254687.244690895 156101280.82852173 0 156101280.82852173 -881602376.81344604 0 0 0 0 -35858727.996770859 133628537.31918335 0 133628537.31918335 -873769737.44007874 0 0 0 0 -40724953.98635149 144037616.30639648 0 144037616.30639648 -931418036.78839111 0 0 0 0 -21264297.478078842 133907988.65716553 0 133907988.65716553 -892098975.36120605 0 0 0 0 99550616.453022003 107637439.28753662 0 107637439.28753662 -937286039.08166504 0 0 0 0 -19929864.694047928 152566954.51885986 0 152566954.51885986 -911188480.34985352 0 0 0 0 -137561046.45820236 208277492.13244629 0 208277492.13244629 -961323077.42913818 0 0 0 0 11636109.332448959 229646312.58969116 0 229646312.58969116 -1025800351.4995117 0 0 0 0 -79718223.1159935 132249703.55627441 0 132249703.55627441 -917789115.99676514 0 0 0 0 20495.765624891967 38049.393635839224 0 38049.393635839224 -57783.371398389339 0 0 0 0 -191871853.57207489 356276724.17974854 0 356276724.17974854 -1079300160.0662231 0 0 0 0 1433965.8998732567 150807244.23126221 0 150807244.23126221 -931911394.88775635 0 0 0 0 -38515760.917845249 225306155.30682373 0 225306155.30682373 -915136202.9026947 0 0 0 0 14202262.744764328 178988654.93814087 0 178988654.93814087 -906621128.66127777 0 0 0 0 -117787214.98370457 75287038.080215454 0 75287038.080215454 -886984124.66973877 0 0 0 0 -88184452.315463305 214374562.73757935 0 214374562.73757935 -865755908.40101624 0 0 0 0 -70049437.214062691 138802996.30718231 0 138802996.30718231 -613444003.27218628 0 0 0 0 -45588197.313825369 181732575.103302 0 181732575.103302 -743830508.71270752 0 0 0 0 -56285282.614292145 176066138.0975647 0 176066138.0975647 -830707051.9367981 0 0 0 0 17789490.180605412 180984131.78869629 0 180984131.78869629 -831365685.5166626 0 0 0 0 43479179.849325866 132343640.7714386 0 132343640.7714386 -733494642.25714111 0 0 0 0 22613092.386236638 11065203.337673187 0 11065203.337673187 -610499277.24240112 0 0 0 0 -69723380.742351294 138420001.75535583 0 138420001.75535583 -597743740.36791992 0 0 0 0 -160094510.56021976 -100441468.25372314 0 -100441468.25372314 -478003663.51900482 0 0 0 0 -53834986.510649681 46440754.957519531 0 46440754.957519531 -861097237.70880127 0 0 0 0 -76140553.855202198 75132657.552932739 0 75132657.552932739 -800470912.91377258 0 0 0 0 -157163097.02065516 -123699145.98171997 0 -123699145.98171997 -776791008.4502821 0 0 0 0 -364325043.72899097 -133716502.55437088 0 -133716502.55437088 -8304446.1193084717 0 0 0 0 -392099610.18658352 -71163302.944046021 0 -71163302.944046021 155471002.63646698 0 0 0 0 -312700499.82015181 -90038182.667663574 0 -90038182.667663574 20820723.502502441 0 0 0 0 -87931934.16878581 117104739.5839386 0 117104739.5839386 -237879589.44250488 0 0 0 0 210174746.16586614 416126513.7796936 0 416126513.7796936 -407007881.97517395 0 0 0 0 40041354.811990887 -186442227.33172989 0 -186442227.33172989 -137780712.82455444 0 0 0 0 314792.59687961056 -144957.9020498246 0 -144957.9020498246 -446179.40919229388 0 0 0 0 -72028865.136805832 -233021584.4556427 0 -233021584.4556427 403353702.90393066 0 0 0 0 1442770.5450621091 -356548.68212365359 0 -356548.68212365359 -2783.4447016008198 0 0 0 0 -36257598.948743537 32284306.121276855 0 32284306.121276855 535288337.49560547 0 0 0 0 70582465.058921814 -280830721.61303711 0 -280830721.61303711 16784486.531860352 0 0 0 0 -12261380.913124084 -57035407.565826416 0 -57035407.565826416 -347806350.77966309 0 0 0 0 833464.43110331241 -544793.10109266639 0 -544793.10109266639 -1231810.6799347848 0 0 0 0 -118307915.75603151 183532537.9467926 0 183532537.9467926 -244800388.49689102 0 0 0 0 94468762.832179785 218241991.90570831 0 218241991.90570831 -637983970.57888794 0 0 0 0 -31420757.505056024 102111171.39034271 0 102111171.39034271 -699877503.36572266 0 0 0 0 -19857987.62178278 219669325.49667358 0 219669325.49667358 -783032370.09515381 0 0 0 0 35162818.442387819 155496625.26607513 0 155496625.26607513 -942912050.4977417 0 0 0 0 -11798477.182642937 42693811.087417603 0 42693811.087417603 -1011608401.3909454 0 0 0 0 -114211467.04482651 272745186.1361618 0 272745186.1361618 -591443544.20950317 0 0 0 0 -56349313.408798456 34742195.833229065 0 34742195.833229065 -918098449.54646301 0 0 0 0 -70709700.700918913 290242023.50314331 0 290242023.50314331 -933250680.09156799 0 0 0 0 1087636.5610471978 -68432.890579864383 0 -68432.890579864383 -260768.00442035124 0 0 0 0 -151949097.40062904 -56240386.404800415 0 -56240386.404800415 95842981.361282349 0 0 0 0 157661362.35297775 -94465939.852981567 0 -94465939.852981567 -12253101.612106323 0 0 0 0 87585958.103695631 199324117.04690552 0 199324117.04690552 -1142740721.8421936 0 0 0 0 1499134.9404213522 1610483.6205110475 0 1610483.6205110475 -1322015.7002007253 0 0 0 0 588252193.94001579 131840196.1807251 0 131840196.1807251 86117548.438047409 0 0 0 0 375923517.99601269 24682801.805274963 0 24682801.805274963 -90985180.831665039 0 0 0 0 185496187.66573668 429199176.09536743 0 429199176.09536743 146021456.01275635 0 0 0 0 92857908.056302071 23753116.017410278 0 23753116.017410278 -88956984.63992691 0 0 0 0 53887828.998620987 9554309.5827713013 0 9554309.5827713013 -63929284.860595703 0 0 0 0 128306326.29217482 -29609191.588817596 0 -29609191.588817596 -83597770.83190918 0 0 0 0 18323171.895853996 -62847515.984863281 0 -62847515.984863281 -18596241.480888367 0 0 0 0 -24066961.437053204 8199586.4286804199 0 8199586.4286804199 -94283668.738464355 0 0 0 0 -2365220.1083965302 -83903263.678245544 0 -83903263.678245544 -85714535.266296387 0 0 0 0 25787744.176623821 -43565470.350280762 0 -43565470.350280762 -28024185.662078857 0 0 0 0 7497353.3476037979 -36521813.045700073 0 -36521813.045700073 -28724662.231196404 0 0 0 0 41170865.90103054 -44067201.276504517 0 -44067201.276504517 -84356521.283604622 0 0 0 0 26972790.271817684 -16761960.929862976 0 -16761960.929862976 -10964613.480636597 0 0 0 0 738473.1431427002 -20373587.807876587 0 -20373587.807876587 2434385.2707214355 0 0 0 0 28594470.310072899 -17690400.688171387 0 -17690400.688171387 -34550325.638754845 0 0 0 0 17465280.271173835 -6497909.928273201 0 -6497909.928273201 -10717004.946044922 0 0 0 0 2455074.1133092516 -1970534.4331130311 0 -1970534.4331130311 -10331207.528220251 0 0 0 0 61335668.891258955 -8592903.6609802246 0 -8592903.6609802246 -34061002.327285767 0 0 0 0 16944924.166720867 -2348471.1496963501 0 -2348471.1496963501 -36997235.161819458 0 0 0 0 -3573158.7743542194 -8410232.8346328735 0 -8410232.8346328735 -17875914.849639893 0 0 0 0 -6325937.6890769005 -8061086.5814208984 0 -8061086.5814208984 -1785503.9815979004 0 0 0 0 6716299.4024538994 -12958836.159057617 0 -12958836.159057617 -4516485.5111808777 0 0 0 0 1496066.876736355 -2692587.23306356 0 -2692587.23306356 -2743886.5536213666 0 0 0 0 60004390.573300958 -1032193.8653259277 0 -1032193.8653259277 -16180034.836914062 0 0 0 0 33085797.25143981 -10071247.073684692 0 -10071247.073684692 -12310744.930419922 0 0 0 0 14886448.851144433 125349575.33259201 0 125349575.33259201 -7150372.695098877 0 0 0 0 2583111.8252353491 -1816847.2535728961 0 -1816847.2535728961 -10347236.566224799 0 0 0 0 -25363045.311100483 21789946.179664612 0 21789946.179664612 -18495898.592102051 0 0 0 0 1075289.80899953 -718274.38691170514 0 -718274.38691170514 -2054542.0392487869 0 0 0 0 -223047176.88202953 -92016386.619888306 0 -92016386.619888306 -52291099.100875854 0 0 0 0 -226401327.69194603 -33678216.875564575 0 -33678216.875564575 -4005624.7680168152 0 0 0 0 -221182247.85308075 77509260.403900146 0 77509260.403900146 15071421.85786438 0 0 0 0 77820449.724192619 230590157.49789429 0 230590157.49789429 28001959.273193359 0 0 0 0 -182662955.53058243 219352454.60946655 0 219352454.60946655 296891445.46455383 0 0 0 0 -361528484.83347511 25768299.050170898 0 25768299.050170898 195576346.49847412 0 0 0 0 1227567.2968501025 -2771980.8280342482 0 -2771980.8280342482 -7840647.4601613879 0 0 0 0 2366942.4985995293 -4655370.7281112671 0 -4655370.7281112671 -20026964.7109375 0 0 0 0 12019242.509878874 -5763061.0434112549 0 -5763061.0434112549 -408502.8166809082 0 0 0 0 14569436.398175538 -21964514.341392517 0 -21964514.341392517 14753196.908752441 0 0 0 0 27731967.357735157 -38318455.052368164 0 -38318455.052368164 -1941628.2920227051 0 0 0 0 44679084.728109837 -48458160.62097168 0 -48458160.62097168 -10017092.279159546 0 0 0 0 43998317.896204233 -42517726.9453125 0 -42517726.9453125 -6481510.1888275146 0 0 0 0 41841698.390093088 -26404041.315032959 0 -26404041.315032959 -8592295.8971633911 0 0 0 0 24320589.487659454 -24504319.298278809 0 -24504319.298278809 -8769434.1597137451 0 0 0 0 14290221.344249964 -23783035.132385254 0 -23783035.132385254 20885779.925170898 0 0 0 0 15238803.477571011 -33875370.376586914 0 -33875370.376586914 31584879.86781311 0 0 0 0 28809451.743494034 -34455878.636550903 0 -34455878.636550903 11862292.700500488 0 0 0 0 12756867.105175018 -42035320.709960938 0 -42035320.709960938 18430487.221099854 0 0 0 0 31457900.675104856 -49770168.321243286 0 -49770168.321243286 18703809.944396973 0 0 0 0 24172561.910924673 -81588608.372589111 0 -81588608.372589111 56396577.622650146 0 0 0 0 19228964.238894463 -62611164.97845459 0 -62611164.97845459 48488688.099239349 0 0 0 0 19221507.406115405 -59263397.741724014 0 -59263397.741724014 -3891039.2712097168 0 0 0 0 27681296.398300409 -66299468.784088135 0 -66299468.784088135 12355001.179382324 0 0 0 0 27700672.314803123 -55736265.436096191 0 -55736265.436096191 3779951.5498352051 0 0 0 0 30996926.519892931 -58810805.162734985 0 -58810805.162734985 -6785812.9187011719 0 0 0 0 21341397.979307652 -69740463.432540894 0 -69740463.432540894 -9125623.8450469971 0 0 0 0 39685629.676055431 -61269689.790481567 0 -61269689.790481567 -33867021.225036621 0 0 0 0 10195922.938639581 -65114637.923538208 0 -65114637.923538208 -26242883.216629028 0 0 0 0 56661878.648815155 -44267100.867980957 0 -44267100.867980957 -33189910.928222656 0 0 0 0 54042095.614051342 -15290442.70652771 0 -15290442.70652771 -43693856.118766785 0 0 0 0 56861400.50524158 -30540824.500690341 0 -30540824.500690341 -24319894.511535645 0 0 0 0 40642681.056297064 -30500750.408554077 0 -30500750.408554077 -20982568.325271606 0 0 0 0 156217896.89701772 59048665.27230072 0 59048665.27230072 -4928554.5812530518 0 0 0 0 -240093.39019855694 -1009789.2361097112 0 -1009789.2361097112 -440385.62331742048 0 0 0 0 3310090.4512586594 -48839716.396430969 0 -48839716.396430969 -227001634.87197876 0 0 0 0 -41239387.907772064 -20158202.278060913 0 -20158202.278060913 -21474563.312446594 0 0 0 0 -349413.11876096477 -187374.20054041594 0 -187374.20054041594 64940.406658604741 0 0 0 0 62987409.552286625 311401933.88676453 0 311401933.88676453 -5133696.1302108765 0 0 0 0 12752973.553001285 -5475012.6951599121 0 -5475012.6951599121 30013972.224655151 0 0 0 0 131867620.5090456 -41109199.602046967 0 -41109199.602046967 -102432250.53848267 0 0 0 0 -111613434.43376018 -50214932.866729736 0 -50214932.866729736 -98545261.510162354 0 0 0 0 18613178.806949198 30418040.803852081 0 30418040.803852081 -279235138.04608154 0 0 0 0 -250685128.93432441 189099981.57478333 0 189099981.57478333 -180302927.08565903 0 0 0 0 -280448571.81591749 468084400.47106171 0 468084400.47106171 -563373189.41758156 0 0 0 0 233523.39795856024 239898.98309317976 0 239898.98309317976 -1511537.944569096 0 0 0 0 -47377163.473520674 86875699.654224396 0 86875699.654224396 -459968330.59817505 0 0 0 0 -1795999.1124764381 -71921746.515327454 0 -71921746.515327454 -154823379.39703369 0 0 0 0 -69195253.917286098 46894136.555297852 0 46894136.555297852 -158818217.58129215 0 0 0 0 -69482.124293315122 -60593718.61655426 0 -60593718.61655426 -58390030.355514526 0 0 0 0 -135525.84567562296 -80677.009968340397 0 -80677.009968340397 112998.58618833125 0 0 0 0 -43843634.682837933 -61762351.089874268 0 -61762351.089874268 -16940136.657394409 0 0 0 0 8701722.9194560535 -34023320.004351139 0 -34023320.004351139 -103834449.3631134 0 0 0 0 -102995.36832664054 -56938.622547253966 0 -56938.622547253966 124646.56966879219 0 0 0 0 9902274.5305337012 -45050053.055095673 0 -45050053.055095673 -14260610.305419922 0 0 0 0 -18328680.241955191 -82267279.299438477 0 -82267279.299438477 104271879.16572952 0 0 0 0 -37556332.162814394 19595613.179428101 0 19595613.179428101 98540762.532806396 0 0 0 0 73109.810102871023 -53362391.665077209 0 -53362391.665077209 88436617.540756226 0 0 0 0 13945315.289088048 12839793.109161377 0 12839793.109161377 -29169619.12689209 0 0 0 0 -833932.59435025603 67298950.211486816 0 67298950.211486816 -77781518.688652039 0 0 0 0 -169126.81966596592 386320.06680641323 0 386320.06680641323 -1038452.5696095601 0 0 0 0 -27532863.854179204 29360074.064285278 0 29360074.064285278 -71653606.987945557 0 0 0 0 -1736544.2739858329 7959946.4371185303 0 7959946.4371185303 -20180936.964946747 0 0 0 0 6353373.9069852531 4666937.5016326904 0 4666937.5016326904 -21559635.699684143 0 0 0 0 38216.229654910087 -718.8774120695889 0 -718.8774120695889 -78325.821152105927 0 0 0 0 3446117.0766158253 -1446721.2551956177 0 -1446721.2551956177 -10684007.80847168 0 0 0 0 6264994.6624904275 3196722.1547737122 0 3196722.1547737122 -3072899.3512268066 0 0 0 0 -6046565.1510839164 26511781.043968201 0 26511781.043968201 -38573281.378875732 0 0 0 0 59473.849129286093 6750.7758271843195 0 6750.7758271843195 -109352.85359872878 0 0 0 0 -100196.8687527655 -26068648.243911743 0 -26068648.243911743 -32238959.160442352 0 0 0 0 9434441.2315410227 -5315871.2049255371 0 -5315871.2049255371 14219614.78603363 0 0 0 0 -41911.608640463208 -27056606.224170763 0 -27056606.224170763 -19717327.43270874 0 0 0 0 32975.691183222574 -21406351.549108438 0 -21406351.549108438 21967984.930541992 0 0 0 0 10657835.456794728 -32988174.414975166 0 -32988174.414975166 16250979.889221191 0 0 0 0 143413.93746626255 -271255.12460041791 0 -271255.12460041791 -2509613.9113633633 0 0 0 0 -149644571.00287488 156994566.17502487 0 156994566.17502487 -300569604.65332031 0 0 0 0 -144525482.48417199 412792498.2970047 0 412792498.2970047 -418605318.23335266 0 0 0 0 19726965.346600294 153420886.5560379 0 153420886.5560379 -387566874.95565796 0 0 0 0 -91335302.395544529 186371222.74154663 0 186371222.74154663 -287161780.04866409 0 0 0 0 -94009920.756430864 166041611.93159485 0 166041611.93159485 -322733252.36383057 0 0 0 0 -343420.81051428855 -900734.9061525315 0 -900734.9061525315 -3823806.5721134767 0 0 0 0 19033479.423299581 -2735702.6556472778 0 -2735702.6556472778 -10067284.946716309 0 0 0 0 18442059.130431116 -24154896.299377441 0 -24154896.299377441 5808033.07421875 0 0 0 0 -876483.96741592884 1171780.1278610229 0 1171780.1278610229 -7501947.3561096191 0 0 0 0 10950204.164256275 3237444.8954544067 0 3237444.8954544067 -23847117.138336182 0 0 0 0 354956.57550007105 -6413040.0048980713 0 -6413040.0048980713 -30331312.659667969 0 0 0 0 -1887855.8772785068 -2386975.8513031006 0 -2386975.8513031006 432897.48890304565 0 0 0 0 15990986.810629368 -11270949.024356842 0 -11270949.024356842 -15544190.517608643 0 0 0 0 -16589903.837920189 96722741.142410278 0 96722741.142410278 -219550771.02033997 0 0 0 0 -1199491.3908383606 -1228789.0985526629 0 -1228789.0985526629 -5351215.0777980313 0 0 0 0 -29924062.26995945 110531612.02519608 0 110531612.02519608 -181469593.62350464 0 0 0 0 -71215596.612032413 117858364.3950882 0 117858364.3950882 -223661365.83120346 0 0 0 0 64050.882747218478 -460257.65021897107 0 -460257.65021897107 -763935.0127055347 0 0 0 0 -80684983.707571268 215984178.96172619 0 215984178.96172619 -463826029.23979187 0 0 0 0 -32186867.038902998 42018612.583797455 0 42018612.583797455 59907449.001419067 0 0 0 0 15190839.406743526 7093376.2777633667 0 7093376.2777633667 -64261630.263656616 0 0 0 0 15627145.687789321 12581414.952217102 0 12581414.952217102 -13694377.009765625 0 0 0 0 35967.255251195282 -890884.91324946284 0 -890884.91324946284 -2298185.4444359727 0 0 0 0 6386447.1142110825 11822283.675804138 0 11822283.675804138 -3228884.1432800293 0 0 0 0 -14990517.907891273 167451146.89027405 0 167451146.89027405 -306718252.61231995 0 0 0 0 4438731.952419281 578240.26094055176 0 578240.26094055176 -11665656.78137207 0 0 0 0 -145946704.89337921 63643799.476234436 0 63643799.476234436 -40877087.271314621 0 0 0 0 -216618.02562746778 -1251924.6147040799 0 -1251924.6147040799 -4416938.4028325714 0 0 0 0 -25209.247625350952 2917899.1551818848 0 2917899.1551818848 -12889844.724243164 0 0 0 0 5909995.0751342773 2016797.7047729492 0 2016797.7047729492 -15232171.891693115 0 0 0 0 5374182.5887680054 -17290396.947761536 0 -17290396.947761536 3565562.1012954712 0 0 0 0 4899877.3906106949 -295457.35907745361 0 -295457.35907745361 -13104576.152191162 0 0 0 0 2496273.5925287353 -2375048.4447613545 0 -2375048.4447613545 -10010145.043343142 0 0 0 0 4813071.4867104292 -13300355.142235756 0 -13300355.142235756 5741814.9778900146 0 0 0 0 -16206651.598657608 3851026.0436859131 0 3851026.0436859131 -3931498.570892334 0 0 0 0 133635538.05717659 -70853490.610031128 0 -70853490.610031128 552751706.02526855 0 0 0 0 5710941.8965896741 -981329.78663436323 0 -981329.78663436323 -11435985.882976249 0 0 0 0 205738318.90725684 -167164245.75969315 0 -167164245.75969315 -211187748.50187683 0 0 0 0 348891.22257142561 -812581.93717780709 0 -812581.93717780709 -1331070.7086111903 0 0 0 0 98601907.862207532 256014228.1546402 0 256014228.1546402 -97172306.271179199 0 0 0 0 -460063569.64178264 -335822605.77684784 0 -335822605.77684784 -179409144.9241333 0 0 0 0 -113206169.2272256 -313838495.13957596 0 -313838495.13957596 -202579418.63742065 0 0 0 0 59585014.935748219 152948939.13715744 0 152948939.13715744 -751564754.8092041 0 0 0 0 -575176763.47854042 390719013.83493042 0 390719013.83493042 -168469640.61332703 0 0 0 0 -90660150.837016165 377279548.38753462 0 377279548.38753462 -174467038.90585327 0 0 0 0 -14275284.198279858 157247023.57683563 0 157247023.57683563 -278846556.30213928 0 0 0 0 39035512.85580349 126772839.53944397 0 126772839.53944397 -280628445.18329906 0 0 0 0 57904227.064402103 161944992.72027969 0 161944992.72027969 -399772607.57977295 0 0 0 0 -16189694.104595184 -138610837.36213684 0 -138610837.36213684 -281054296.85810089 0 0 0 0 -1643010.1392706947 684392.62447279319 0 684392.62447279319 -105999.7568731904 0 0 0 0 -398942102.3139534 263805807.82714844 0 263805807.82714844 -90469694.586334229 0 0 0 0 -13890931.147115707 -145444563.92234802 0 -145444563.92234802 -597811648.50577545 0 0 0 0 -87127383.056243896 -47676584.9324646 0 -47676584.9324646 25670576.409393311 0 0 0 0 -12714757.856940269 534834.34548950195 0 534834.34548950195 -57667978.786331177 0 0 0 0 -41911525.164890289 -28567762.491409302 0 -28567762.491409302 -82773920.70539856 0 0 0 0 -13337959.183066845 24348034.94493866 0 24348034.94493866 -44031161.218780518 0 0 0 0 -9778584.453871727 14770909.146957397 0 14770909.146957397 -7647009.1285400391 0 0 0 0 -4139115.3478800431 1577889.1977269761 0 1577889.1977269761 -826383.20228768885 0 0 0 0 -2380239.8928026175 4548518.1367198713 0 4548518.1367198713 -10215877.094911717 0 0 0 0 -1582746.1510331631 4037696.5757751465 0 4037696.5757751465 -15238240.576400757 0 0 0 0 -28757446.722467899 26099938.96049881 0 26099938.96049881 43177586.059295654 0 0 0 0 -36316757.106592178 -1301717.7079925537 0 -1301717.7079925537 -9435079.0842256546 0 0 0 0 1067183.0628265142 4776606.5743331909 0 4776606.5743331909 -23815289.274002075 0 0 0 0 429193.71456933022 5099944.7312927246 0 5099944.7312927246 -23855986.620849609 0 0 0 0 481087.30678230326 -3584016.1535810381 0 -3584016.1535810381 -22105017.480062485 0 0 0 0 467123.89516431093 899453.2964553833 0 899453.2964553833 -43581608.205188751 0 0 0 0 4043015.2296336293 -25644.315773010254 0 -25644.315773010254 -37084261.476837158 0 0 0 0 -1282943.2768624425 -1585950.7577362061 0 -1585950.7577362061 -25859749.946022034 0 0 0 0 -2744893.4777565002 7686807.2027702332 0 7686807.2027702332 -17584824.089767456 0 0 0 0 -4427437.4917526245 5641646.2392044067 0 5641646.2392044067 -15265878.874649048 0 0 0 0 651282.77432822855 -2266685.8926762342 0 -2266685.8926762342 -15186910.90505489 0 0 0 0 2597027.0743342638 -7835119.9942626953 0 -7835119.9942626953 -34668628.435684204 0 0 0 0 -1465382.8975315988 -18415286.677135468 0 -18415286.677135468 -51984077.101348877 0 0 0 0 4799226.1917744875 11056063.080688477 0 11056063.080688477 -42892781.233795166 0 0 0 0 750824.7599611826 865079.46144519001 0 865079.46144519001 -6653748.7217056751 0 0 0 0 6704442.7993880808 -4634312.5993347168 0 -4634312.5993347168 -18262457.439300537 0 0 0 0 -4899442.6263110042 11727454.490005493 0 11727454.490005493 -23783121.412658691 0 0 0 0 1643168.4972361191 -1427011.1849972382 0 -1427011.1849972382 -2863296.0205313563 0 0 0 0 2488411.207096383 6512435.4354782104 0 6512435.4354782104 -19139090.884490967 0 0 0 0 -2217563.9135547876 6273248.4944610596 0 6273248.4944610596 -17799734.082260132 0 0 0 0 -1662233.2211692983 3931045.2488713637 0 3931045.2488713637 -11182852.05176992 0 0 0 0 -1067336.6107751131 6219606.2986974716 0 6219606.2986974716 -17052780.666870117 0 0 0 0 1183930.611795783 4003369.996963501 0 4003369.996963501 -15970865.637954712 0 0 0 0 -24218233.395071983 -25008725.575012207 0 -25008725.575012207 -73792757.010612488 0 0 0 0 -1840031.5402542911 -873478.17464657873 0 -873478.17464657873 -8083174.9161826298 0 0 0 0 7047714.5455364585 -2264149.1722183228 0 -2264149.1722183228 -14293406.5831604 0 0 0 0 6715917.5971353613 4316757.0961327553 0 4316757.0961327553 -21498123.726654053 0 0 0 0 -1772700.6473993063 3781919.0729675293 0 3781919.0729675293 -15214680.169728041 0 0 0 0 6499652.0783971846 532492.5237197876 0 532492.5237197876 -29372494.308395386 0 0 0 0 -9543246.4639507458 27345123.818618774 0 27345123.818618774 -56509071.635803223 0 0 0 0 9062568.7562408727 2576045.3999347687 0 2576045.3999347687 -30227395.528656006 0 0 0 0 -188134.28802744031 733245.08173087984 0 733245.08173087984 -2993538.4648595899 0 0 0 0 -2086431.917132616 16443005.706634521 0 16443005.706634521 -34650221.639678955 0 0 0 0 5690708.7030604184 -11166774.341163635 0 -11166774.341163635 -8292155.6357879639 0 0 0 0 4981377.5204346217 7253961.0204401016 0 7253961.0204401016 -34020449.106109619 0 0 0 0 9480841.6824476421 2752390.5897979736 0 2752390.5897979736 -51069742.023071289 0 0 0 0 6115576.5147823989 3394477.0940666199 0 3394477.0940666199 -35465350.399261475 0 0 0 0 -12244.192412381788 -103627.44256652147 0 -103627.44256652147 -110986.09287223965 0 0 0 0 9886948.6581652462 6571968.8009662628 0 6571968.8009662628 -60090529.137832642 0 0 0 0 -1997331.9790727757 -1983959.3847579956 0 -1983959.3847579956 -32102789.820098877 0 0 0 0 4973574.060316395 16284860.537025452 0 16284860.537025452 -84416698.247093201 0 0 0 0 -7882.1327185756354 215934.31060028076 0 215934.31060028076 -22647359.662780762 0 0 0 0 -7284667.7894061208 -4019403.1046905518 0 -4019403.1046905518 -6744272.9610900879 0 0 0 0 337.67843203570919 -38776.814229883254 0 -38776.814229883254 -48409.806051339954 0 0 0 0 10134857.914668236 -7418616.9146728516 0 -7418616.9146728516 -48203704.165771484 0 0 0 0 -7848.2447066490276 9693468.6880950928 0 9693468.6880950928 -70089535.932235718 0 0 0 0 -3200081.8652924513 -13408148.039166451 0 -13408148.039166451 -29545266.712890625 0 0 0 0 2798165.5439901166 4299521.3883666992 0 4299521.3883666992 -14461566.080696106 0 0 0 0 -71376.922329641879 -15984832.930870056 0 -15984832.930870056 8159721.2959594727 0 0 0 0 -3204354.374889195 21193229.630889893 0 21193229.630889893 -74487578.775817871 0 0 0 0 -236200.24913067307 481756.81701605022 0 481756.81701605022 -1581237.8583955467 0 0 0 0 -5978.0042607117639 -12169051.53153553 0 -12169051.53153553 15257751.86781311 0 0 0 0 113751549.82859421 39789154.537330627 0 39789154.537330627 -94176379.722803116 0 0 0 0 -39941725.056089878 5323041.1930999756 0 5323041.1930999756 21335420.172035217 0 0 0 0 117327279.42387968 145226998.17669904 0 145226998.17669904 -8163412.3798522949 0 0 0 0 -11505734.832906436 15895966.65781993 0 15895966.65781993 -16665848.727451198 0 0 0 0 -11210150.306243896 -15970417.067726135 0 -15970417.067726135 12557472.751274109 0 0 0 0 52605290.462076187 -47493763.068580627 0 -47493763.068580627 -157758045.40348053 0 0 0 0 54710671.25387001 -31688928.064476013 0 -31688928.064476013 -183891611.26037598 0 0 0 0 1619470.0436592102 -27120090.335678101 0 -27120090.335678101 -60335765.330535889 0 0 0 0 -15768578.904930592 13388653.02620697 0 13388653.02620697 -124947956.17575073 0 0 0 0 -1534462.3657717805 -2559536.1596138105 0 -2559536.1596138105 -96633.745055761188 0 0 0 0 -22302126.666951597 -34947977.593356371 0 -34947977.593356371 -262501067.74578857 0 0 0 0 -227586501.5030899 42745205.97977829 0 42745205.97977829 2020729.7761535645 0 0 0 0 -99357553.077737629 107860627.71320343 0 107860627.71320343 -155591572.04120255 0 0 0 0 -92264853.352608919 -43824744.697834015 0 -43824744.697834015 29499425.389389038 0 0 0 0 -214845993.60014153 88052525.835716248 0 88052525.835716248 -1145307.8914656639 0 0 0 0 -315621158.01137221 306051366.82170296 0 306051366.82170296 -168495862.54985046 0 0 0 0 -188846937.17271996 85712692.035087585 0 85712692.035087585 -51605346.668945312 0 0 0 0 -345797218.42231864 138426825.6877737 0 138426825.6877737 89417046.156295776 0 0 0 0 -234475372.0244236 -92420946.473308563 0 -92420946.473308563 -143097834.69032288 0 0 0 0 -288627780.98058701 -278254261.2651825 0 -278254261.2651825 -213607196.53863525 0 0 0 0 -10023657.089321053 11598508.824545994 0 11598508.824545994 -11223863.417892531 0 0 0 0 77358971.446947575 139853522.33106422 0 139853522.33106422 23302848.683586121 0 0 0 0 -230246052.08386374 -164293.68402385712 0 -164293.68402385712 -45178483.430969238 0 0 0 0 47365338.290128708 -58514383.278762817 0 -58514383.278762817 -216404746.12507629 0 0 0 0 61384586.604811549 14117612.278133392 0 14117612.278133392 -51757557.940795898 0 0 0 0 343384817.04023743 20419066.036819458 0 20419066.036819458 -104045270.91579437 0 0 0 0 -105265564.47336769 -127773596.59797668 0 -127773596.59797668 257045801.14884949 0 0 0 0 -40610632.426685333 -118074981.12799072 0 -118074981.12799072 -198614503.19044495 0 0 0 0 1669447.2738002366 -3098435.6694360785 0 -3098435.6694360785 -1857767.9484661892 0 0 0 0 44658315.417924881 -7689453.9043579102 0 -7689453.9043579102 -8261662.2412414551 0 0 0 0 48042467.448747635 -12100992.792327881 0 -12100992.792327881 -22329031.764419556 0 0 0 0 39544112.413648605 -21470402.59967804 0 -21470402.59967804 -16251102.589263916 0 0 0 0 187611567.43168211 -152739097.8791008 0 -152739097.8791008 77077251.57989502 0 0 0 0 821276.55228523538 38544.58761446178 0 38544.58761446178 -839430.06290815026 0 0 0 0 2620926.4926999863 -1013576.1382237598 0 -1013576.1382237598 -3204561.702540582 0 0 0 0 41080725.807977676 -15556761.959823608 0 -15556761.959823608 -4649400.6302108765 0 0 0 0 36308141.421876907 4488489.0498733521 0 4488489.0498733521 -10589775.314994812 0 0 0 0 34002.023012771271 -3245144.8307334557 0 -3245144.8307334557 -6271422.0204414576 0 0 0 0 29413414.197040558 69419899.735534668 0 69419899.735534668 92406808.216567993 0 0 0 0 -5454807.9698028564 20517671.964920044 0 20517671.964920044 32046099.744789124 0 0 0 0 4200331.4780464172 26707383.700397491 0 26707383.700397491 27744515.307937622 0 0 0 0 -39510010.364915848 -111710669.05482483 0 -111710669.05482483 -85748167.327789307 0 0 0 0 167570646.13023376 -68013101.595367432 0 -68013101.595367432 -188825918.91519165 0 0 0 0 -9869833.886507988 -190739661.77090454 0 -190739661.77090454 -179718076.0413208 0 0 0 0 -29046641.768632889 -263224917.35654449 0 -263224917.35654449 -367868676.70932007 0 0 0 0 42886.416787587572 -1063472.116816055 0 -1063472.116816055 -2494086.1849126518 0 0 0 0 -33008098.396726608 412278538.26544189 0 412278538.26544189 -440008649.45161057 0 0 0 0 -70113002.123375893 504277872.62968063 0 504277872.62968063 -634688652.18862915 0 0 0 0 -358232449.52945518 -288799841.36392212 0 -288799841.36392212 -31380511.459136963 0 0 0 0 557738213.43393135 -32486690.2501297 0 -32486690.2501297 -141762916.60725403 0 0 0 0 98017109.054283142 -98538504.433746338 0 -98538504.433746338 -128287239.75035286 0 0 0 0 88019227.939066887 -142477863.33378601 0 -142477863.33378601 -255279713.35809708 0 0 0 0 198007056.01261139 -92879673.885894775 0 -92879673.885894775 -489098720.40808105 0 0 0 0 -13413580.913486812 21380007.302218903 0 21380007.302218903 -20705273.915663138 0 0 0 0 174577209.40504169 -79408685.997619629 0 -79408685.997619629 -261538961.70541382 0 0 0 0 7552267.157039973 1420355.9466589987 0 1420355.9466589987 -12296763.335995995 0 0 0 0 66682912.657148361 46321513.911338806 0 46321513.911338806 -3294179.3772583008 0 0 0 0 76461625.834008217 43416951.261177063 0 43416951.261177063 -80404603.681045532 0 0 0 0 -7056229.4856189108 14246106.415786736 0 14246106.415786736 -10394284.918054115 0 0 0 0 147615731.91283131 -50428852.641174316 0 -50428852.641174316 -235403635.96066284 0 0 0 0 96681503.667900085 50056886.58416748 0 50056886.58416748 -44051884.970306396 0 0 0 0 -1152976.3158233166 4381565.2970657349 0 4381565.2970657349 -819509.1350402832 0 0 0 0 -17201404.76025486 9157238.5010108948 0 9157238.5010108948 -18954257.281524658 0 0 0 0 267056.07779649738 4749225.6090392657 0 4749225.6090392657 -14386820.028487999 0 0 0 0 -5790767.2959938049 20237101.499946594 0 20237101.499946594 -33451371.414543152 0 0 0 0 -5561678.5273629986 6457357.4141756874 0 6457357.4141756874 -11676393.667894199 0 0 0 0 20827033.596944809 43313456.115249634 0 43313456.115249634 -31775201.048969269 0 0 0 0 75780396.380765915 -36421168.103208542 0 -36421168.103208542 -46947834.611846924 0 0 0 0 333279987.84767914 4644467.9328918457 0 4644467.9328918457 -891704869.73110962 0 0 0 0 80333607.632329941 -28104409.750488281 0 -28104409.750488281 -101566248.09448242 0 0 0 0 -143077002.17307663 114275356.83719635 0 114275356.83719635 -140037664.04156494 0 0 0 0 -284750256.94814491 158456801.15557861 0 158456801.15557861 728373930.7598114 0 0 0 0 -234126838.84043884 622771534.8694458 0 622771534.8694458 69545722.290252686 0 0 0 0 -460514932.4645462 -765298551.85968018 0 -765298551.85968018 -93873966.153106451 0 0 0 0 991842236.17356873 63270911.076507568 0 63270911.076507568 -166352822.80773926 0 0 0 0 237269713.30141449 -293860343.93800354 0 -293860343.93800354 1687368604.170105 0 0 0 0 224828.67926714942 291074.55676864088 0 291074.55676864088 -1041483.0294232368 0 0 0 0 -1967251.7230224609 -786327613.86984253 0 -786327613.86984253 -93983826.988240957 0 0 0 0 -1726453804.3288498 258489754.28897095 0 258489754.28897095 -176160036.46490479 0 0 0 0 226417584.26860046 45275148.908187866 0 45275148.908187866 -1629277706.4553223 0 0 0 0 213994790.5943718 106250703.15507507 0 106250703.15507507 -262700427.99047852 0 0 0 0 75429897.914113998 254662790.32609558 0 254662790.32609558 612427593.78178406 0 0 0 0 2569868.520470445 2354148.363089174 0 2354148.363089174 -17771636.907661438 0 0 0 0 3923880.0141868591 5846397.1002807617 0 5846397.1002807617 -42464303.644866943 0 0 0 0 8438833.6747093201 39598546.665390015 0 39598546.665390015 -47909499.129806519 0 0 0 0 -7839355.2096939087 40081805.954345703 0 40081805.954345703 -42009371.489746094 0 0 0 0 -9093231.207575582 16975106.21640281 0 16975106.21640281 -28895452.304337636 0 0 0 0 12696042.518007278 42570255.147445679 0 42570255.147445679 -92700088.901306152 0 0 0 0 2491518.1687684059 -2051936.1531219482 0 -2051936.1531219482 -81972660.986877441 0 0 0 0 -20897746.351411819 58301007.039550781 0 58301007.039550781 -34830756.741088867 0 0 0 0 22797193.217261314 10438598.63483429 0 10438598.63483429 -167264861.3671875 0 0 0 0 2255818.8844264774 3365183.7950884923 0 3365183.7950884923 -7454617.6686781496 0 0 0 0 -9590151.1876926422 69289640.785491943 0 69289640.785491943 -110430995.87257385 0 0 0 0 -10101866.211136818 30867885.559570312 0 30867885.559570312 -54749230.972747803 0 0 0 0 -4048501.3970622132 5994115.8936514184 0 5994115.8936514184 -13352677.138501741 0 0 0 0 -12386290.747486115 19355359.527450562 0 19355359.527450562 -19958413.117950439 0 0 0 0 -18945640.1366539 25881070.692047119 0 25881070.692047119 -15964228.27381897 0 0 0 0 702298.78770327568 4117034.4834060669 0 4117034.4834060669 -23294147.55305481 0 0 0 0 -17585563.033071518 46474797.549087524 0 46474797.549087524 -51115207.442329407 0 0 0 0 -8662225.7557277679 27415643.885574341 0 27415643.885574341 -32908930.222652435 0 0 0 0 1224494.2638645533 9617980.4913441539 0 9617980.4913441539 -22058536.725940272 0 0 0 0 1070036.574713707 14091219.626317978 0 14091219.626317978 -30670458.478485107 0 0 0 0 -4486992.9726568498 5460817.0041069631 0 5460817.0041069631 -22794088.949763492 0 0 0 0 16002704.203113556 20911300.83114624 0 20911300.83114624 -31671531.220550537 0 0 0 0 526412.04338102043 3461667.1683099307 0 3461667.1683099307 -2848359.368148461 0 0 0 0 56517.545135110151 10522242.682999961 0 10522242.682999961 -24257730.101706713 0 0 0 0 3482487.7433478832 10506070.034898758 0 10506070.034898758 -17201214.393417358 0 0 0 0 8104096.3533859253 3490184.9250602722 0 3490184.9250602722 -19079075.125640869 0 0 0 0 -405610.87058019638 4443543.4659576416 0 4443543.4659576416 -23173835.684616089 0 0 0 0 211930.17007923126 10323579.484321594 0 10323579.484321594 -33799278.349891663 0 0 0 0 -2903017.6347366758 645254.13094946742 0 645254.13094946742 -23684217.662361041 0 0 0 0 685690.60274498723 2064398.0504515395 0 2064398.0504515395 -7383149.5212682597 0 0 0 0 -10505800.106044292 28364756.139621735 0 28364756.139621735 -47008748.944290161 0 0 0 0 -14225609.4413414 26050395.504364014 0 26050395.504364014 -35963506.906570435 0 0 0 0 -7112467.3005313873 17162998.233772278 0 17162998.233772278 -31735548.299770355 0 0 0 0 -3427458.7227668762 19949282.116333008 0 19949282.116333008 -32324798.669464111 0 0 0 0 -6908831.304233551 18410184.044670105 0 18410184.044670105 -31185263.437026978 0 0 0 0 -1635294.009979248 11361717.827636719 0 11361717.827636719 -24748517.146202087 0 0 0 0 6748939.7316865921 6852306.5992279053 0 6852306.5992279053 -29317562.998046875 0 0 0 0 -6004273.0693044662 18245875.629718781 0 18245875.629718781 -29954217.828170776 0 0 0 0 -13239841.071138859 22692787.204368591 0 22692787.204368591 -33536038.813262939 0 0 0 0 -6720386.0755882263 15989992.727584839 0 15989992.727584839 -35570559.957122803 0 0 0 0 -5780649.0268201828 39753690.44952774 0 39753690.44952774 -52658531.131210327 0 0 0 0 -16505836.253939629 18555642.575202942 0 18555642.575202942 -38074874.950042725 0 0 0 0 93793637.019943237 14087917.852088928 0 14087917.852088928 -52215746.644836426 0 0 0 0 534540.63746146439 433445.27669773251 0 433445.27669773251 -2508625.9991943091 0 0 0 0 60136591.401910782 -75855239.335533142 0 -75855239.335533142 16614234.369407654 0 0 0 0 58674006.493204117 -44136483.979942322 0 -44136483.979942322 -40529962.338554382 0 0 0 0 55655146.240250349 -50337345.060035706 0 -50337345.060035706 -45875506.047836304 0 0 0 0 65189956.191661835 -46053727.47568512 0 -46053727.47568512 -55289124.93963623 0 0 0 0 30562988.852801085 -22622652.00160408 0 -22622652.00160408 -30757106.851173401 0 0 0 0 -135699081.35612512 -10991335.91926384 0 -10991335.91926384 29840408.857078552 0 0 0 0 74877.409998857416 -3514520.3756154925 0 -3514520.3756154925 -3308959.7580041196 0 0 0 0 1565331.9878621292 1187949.3649676442 0 1187949.3649676442 -4639221.4420756996 0 0 0 0 -2216795417.3081894 717548305.227005 0 717548305.227005 -194651180.68489075 0 0 0 0 -36660775.87030077 -142043383.6048069 0 -142043383.6048069 46826504.208488464 0 0 0 0 220182239.00580215 -44981252.528717041 0 -44981252.528717041 -55677210.085617065 0 0 0 0 -183893762.06806612 30175925.480823517 0 30175925.480823517 -33288507.071807861 0 0 0 0 -225881586.53606033 -6234918.3559646606 0 -6234918.3559646606 284748242.90907288 0 0 0 0 -449685480.70210826 379468714.92692566 0 379468714.92692566 -142943239.87594604 0 0 0 0 2639583783.1312561 204374263.74939728 0 204374263.74939728 -1343957470.9185524 0 0 0 0 -138459174.31639719 19617893.528997421 0 19617893.528997421 -104783985.68397522 0 0 0 0 -133993614.457798 44349879.365825653 0 44349879.365825653 -29338528.508041382 0 0 0 0 -94593150.898052216 60118860.18674469 0 60118860.18674469 -108761491.18186188 0 0 0 0 -166945857.0353179 82910122.333329201 0 82910122.333329201 -17767403.533149719 0 0 0 0 -14212767.829652667 23222369.051042557 0 23222369.051042557 20400970.816696167 0 0 0 0 -190550898.52325988 142691110.18600845 0 142691110.18600845 -110677614.68482196 0 0 0 0 2729248.0869067642 667851.33637077175 0 667851.33637077175 -11872209.754431412 0 0 0 0 22218488.557570219 -42153053.335824966 0 -42153053.335824966 -3627068.4404296875 0 0 0 0 -82268898.533273697 73573799.570999146 0 73573799.570999146 -64139754.520244583 0 0 0 0 3962317.8228378296 138045211.17335129 0 138045211.17335129 -63967269.734321594 0 0 0 0 -34191980.12322998 135973148.88569641 0 135973148.88569641 -2013813.6176795959 0 0 0 0 -52034277.859508514 196372757.07222176 0 196372757.07222176 19639773.478927612 0 0 0 0 -20737271.369846344 156097267.61353302 0 156097267.61353302 35661488.422782898 0 0 0 0 -33181736.908823013 148164820.80657387 0 148164820.80657387 51552603.143386841 0 0 0 0 12061628.616592407 102312551.15859985 0 102312551.15859985 -7569493.1589355469 0 0 0 0 -39781482.586772919 106042202.16405106 0 106042202.16405106 18698306.805000305 0 0 0 0 -56331304.531459808 151537771.88043976 0 151537771.88043976 -9509875.3913269043 0 0 0 0 -36687506.86579895 79251940.600296021 0 79251940.600296021 -44961995.532930374 0 0 0 0 -14777375.007091522 125824730.65216064 0 125824730.65216064 99061134.169128418 0 0 0 0 109126061.29849243 84306864.947921753 0 84306864.947921753 29287294.879520416 0 0 0 0 20203619.508757591 132143847.51140022 0 132143847.51140022 15861709.429336548 0 0 0 0 136091062.42767334 112858521.37693405 0 112858521.37693405 7695145.2863769531 0 0 0 0 129076447.16338539 158517273.4809351 0 158517273.4809351 37847471.001564026 0 0 0 0 132394606.58864594 135971519.39970016 0 135971519.39970016 -34090459.383687019 0 0 0 0 70421002.113380432 134631944.67562008 0 134631944.67562008 2382610.9702377319 0 0 0 0 54394506.598911285 86687000.207416534 0 86687000.207416534 -2806098.7010192871 0 0 0 0 21186627.870500565 122003416.73730087 0 122003416.73730087 -32118276.654151917 0 0 0 0 -7316571.5486373901 72239021.321678162 0 72239021.321678162 -40835307.432380676 0 0 0 0 144566721.35448456 130586553.8329277 0 130586553.8329277 -33616496.010765076 0 0 0 0 35628160.417398453 156093468.42350578 0 156093468.42350578 17539743.162727356 0 0 0 0 -127849581.61121368 79444783.2188797 0 79444783.2188797 -56073206.345870972 0 0 0 0 -88797409.780762434 99953591.148876667 0 99953591.148876667 -28460107.577110291 0 0 0 0 -51142250.456302643 95056413.273620605 0 95056413.273620605 -7546021.6670417786 0 0 0 0 -46771971.45369339 53668408.463039398 0 53668408.463039398 -58356130.162307739 0 0 0 0 -90732158.939025879 30230395.797531128 0 30230395.797531128 -91498287.285121918 0 0 0 0 -203789274.89610195 14197447.729202271 0 14197447.729202271 -58729640.934181213 0 0 0 0 -87432632.955200195 63139440.889476776 0 63139440.889476776 -59391466.633140564 0 0 0 0 -76086410.057258606 46175882.299346924 0 46175882.299346924 -79249521.770212173 0 0 0 0 -75678190.769496918 70800175.33658123 0 70800175.33658123 -29088756.632522583 0 0 0 0 -26886172.837669373 46978760.584007263 0 46978760.584007263 -80525462.85382843 0 0 0 0 3836102.2502445206 -339618.39284464717 0 -339618.39284464717 -3736730.8793341517 0 0 0 0 -48847760.878656387 82420605.960319519 0 82420605.960319519 20974136.87739563 0 0 0 0 131010621.96725845 133821691.01109314 0 133821691.01109314 -253861781.9984436 0 0 0 0 6640435.2443579361 -542686.93409085274 0 -542686.93409085274 -6533696.3069759384 0 0 0 0 -114169961.75488877 261395809.2117486 0 261395809.2117486 -288034033.01879883 0 0 0 0 127837282.48983383 127055086.95784378 0 127055086.95784378 -260970830.08894348 0 0 0 0 -83818307.908687592 91687200.802307129 0 91687200.802307129 -178892967.52187729 0 0 0 0 127670985.88818359 21763251.422119141 0 21763251.422119141 -197049920.35025787 0 0 0 0 21451326.785549164 228181073.98820496 0 228181073.98820496 -395742135.63995361 0 0 0 0 -133877110.11572647 184881272.19561768 0 184881272.19561768 -264327769.4555397 0 0 0 0 -181779583.32155037 335926563.96456909 0 335926563.96456909 -100117189.63560486 0 0 0 0 6348161.3264098763 -643012.76374858618 0 -643012.76374858618 -6505149.1740731671 0 0 0 0 -191414100.9096818 94222551.143562317 0 94222551.143562317 -68313811.202453613 0 0 0 0 334833508.06905746 59447764.664035797 0 59447764.664035797 -115310917.52423096 0 0 0 0 398556067.83739471 -84119919.385360718 0 -84119919.385360718 -52261805.527476311 0 0 0 0 -2332127.2789630666 6275114.3135458883 0 6275114.3135458883 -7993819.288542971 0 0 0 0 -89412850.61164856 79170254.955200195 0 79170254.955200195 -81122828.150695801 0 0 0 0 5123510.5055046082 11970913.884410858 0 11970913.884410858 -21363411.739868164 0 0 0 0 -10615032.763959754 29743329.343689594 0 29743329.343689594 -31687397.307409413 0 0 0 0 12642125.917419434 10253745.474029541 0 10253745.474029541 -7366944.6695556641 0 0 0 0 20605496.310060799 16089786.884610683 0 16089786.884610683 -26789625.195877075 0 0 0 0 -41445192.729476929 117341775.1386261 0 117341775.1386261 -143085784.95471191 0 0 0 0 -7067511.7397865048 33172221.528750505 0 33172221.528750505 -26835847.93538665 0 0 0 0 4019127.7775593176 -1701202.9654152542 0 -1701202.9654152542 -3230165.4055970982 0 0 0 0 48203235.524749756 100832255.82162094 0 100832255.82162094 -38559997.13130188 0 0 0 0 25183402.061508179 20675613.507656097 0 20675613.507656097 -2308547.9724121094 0 0 0 0 -145772078.1049881 93149477.301181793 0 93149477.301181793 14987012.492462158 0 0 0 0 25605039.700494766 27896192.012359619 0 27896192.012359619 -18725414.435871124 0 0 0 0 1826981.2550210916 7361983.1826860681 0 7361983.1826860681 -15361363.330159321 0 0 0 0 -4816360.3030027086 22772890.850642405 0 22772890.850642405 -14290013.699214041 0 0 0 0 226245608.91834259 -11282009.93006897 0 -11282009.93006897 -28120843.628219604 0 0 0 0 246665075.95409393 -42126089.948913574 0 -42126089.948913574 -156396216.33242035 0 0 0 0 206867802.31933975 29777365.086284637 0 29777365.086284637 -181689734.66481018 0 0 0 0 223181512.49219513 63273464.862716675 0 63273464.862716675 -113364338.76137161 0 0 0 0 246644449.49861908 23778380.417385101 0 23778380.417385101 -69768062.653945923 0 0 0 0 252354655.49499512 85192806.216239929 0 85192806.216239929 -140277107.33228302 0 0 0 0 175629016.06187439 110145962.77469254 0 110145962.77469254 -77970809.931549072 0 0 0 0 139190796.02092361 189885939.35235977 0 189885939.35235977 -157739955.3649168 0 0 0 0 178063396.65981674 124087577.87372971 0 124087577.87372971 -54959433.997802734 0 0 0 0 169864077.44826508 100156854.9041214 0 100156854.9041214 -51280471.546592712 0 0 0 0 167534020.27948761 53516225.588523865 0 53516225.588523865 -35076018.726608276 0 0 0 0 244439475.32901001 5672568.7693557739 0 5672568.7693557739 -49120240.175163507 0 0 0 0 202879581.28796387 39559627.165790558 0 39559627.165790558 -69784883.842269897 0 0 0 0 12703989.795009613 8235284.7111721039 0 8235284.7111721039 -22605049.923202515 0 0 0 0 2066569.4682958694 15652118.345117768 0 15652118.345117768 -27013857.266218014 0 0 0 0 11142730.568413258 19306284.962540388 0 19306284.962540388 -27639578.071479797 0 0 0 0 -6838497.8776855469 14469994.334011078 0 14469994.334011078 -19847528.92591095 0 0 0 0 -64522.744084719568 -160476.55031105503 0 -160476.55031105503 152824.56282269675 0 0 0 0 4743649.8863792419 6224374.2342720032 0 6224374.2342720032 -16324672.898162842 0 0 0 0 17996537.445452482 15209592.748107597 0 15209592.748107597 -15092213.470787048 0 0 0 0 94715424.659835815 75652727.288471222 0 75652727.288471222 -18714271.761825562 0 0 0 0 -7561044.2930617146 24312918.415560648 0 24312918.415560648 -22848152.56377029 0 0 0 0 121160820.18876648 103200132.86136436 0 103200132.86136436 -23722092.488754272 0 0 0 0 123043598.23745728 97172135.135977745 0 97172135.135977745 -5253870.9301681519 0 0 0 0 104484678.67304993 89941368.617729187 0 89941368.617729187 -4749623.5210058689 0 0 0 0 814848792.45516551 -21200997.240864359 0 -21200997.240864359 978908379.76579332 0 0 0 0 -1621777.990547647 4519316.3733851956 0 4519316.3733851956 194404.44244500573 0 0 0 0 -182099077.39653969 -231860868.96109408 0 -231860868.96109408 890983409.75131059 0 0 0 0 135402480.35432491 564407925.40810013 0 564407925.40810013 425599479.71605575 0 0 0 0 -1485350.699203304 14398908.192865748 0 14398908.192865748 -28477541.625615723 0 0 0 0 41694607.213848114 31402247.468444645 0 31402247.468444645 263995876.05707043 0 0 0 0 147204610.00007629 129529765.07125854 0 129529765.07125854 -53842771.561942101 0 0 0 0 152526196.64711761 116665988.6692276 0 116665988.6692276 -32653189.595085144 0 0 0 0 149567364.5187912 104349112.92559814 0 104349112.92559814 -38790182.273338318 0 0 0 0 143491329.18306732 122976807.37759781 0 122976807.37759781 -30579332.788532257 0 0 0 0 137500461.66387939 123202459.17682648 0 123202459.17682648 115605.06820678711 0 0 0 0 137320705.24801636 124341861.59009933 0 124341861.59009933 -6669836.3427352905 0 0 0 0 160158005.51203918 146659449.46442413 0 146659449.46442413 -3647793.3126802444 0 0 0 0 114310851.70931625 139676936.53454399 0 139676936.53454399 66868844.752380371 0 0 0 0 102243730.97278595 108988500.68636703 0 108988500.68636703 20481413.403347015 0 0 0 0 174406481.11139488 183461349.54904938 0 183461349.54904938 65277671.576721191 0 0 0 0 -20656700.248885952 22903809.210681159 0 22903809.210681159 -20186903.262715325 0 0 0 0 902088673.32279444 735099963.91465998 0 735099963.91465998 -646224979.18498945 0 0 0 0 141322218.4180603 120351387.91598892 0 120351387.91598892 93885094.039276123 0 0 0 0 -1723299273.5938368 -200276277.26264822 0 -200276277.26264822 297198222.27169514 0 0 0 0 161491193.50372243 339783131.78806633 0 339783131.78806633 419063441.5453788 0 0 0 0 439784809.20499039 -231573597.71073687 0 -231573597.71073687 553053603.45203876 0 0 0 0 -507229982.86478186 -83610958.844877124 0 -83610958.844877124 603330080.89598584 0 0 0 0 631851392.70030451 330593280.14966297 0 330593280.14966297 322461911.55371404 0 0 0 0 -27424079.534719624 30663304.085632727 0 30663304.085632727 -23491959.309882991 0 0 0 0 -1216036691.373301 1082368932.3750179 0 1082368932.3750179 934276253.89636838 0 0 0 0 -288147401.01402092 1232475197.337086 0 1232475197.337086 805427264.76725459 0 0 0 0 805574652.05396318 -541310199.60644042 0 -541310199.60644042 -1918232748.9881029 0 0 0 0 93599741.612331867 -312559464.67237735 0 -312559464.67237735 -1483705266.4081893 0 0 0 0 15445188.853956699 17562262.390435696 0 17562262.390435696 -205926194.87087679 0 0 0 0 229557398.1021452 -106597530.4064188 0 -106597530.4064188 -293362200.9488945 0 0 0 0 -319966547.81862402 -567307971.67865574 0 -567307971.67865574 313472819.16082358 0 0 0 0 -6370985.1442890167 -90881933.963542879 0 -90881933.963542879 -20046333.188636377 0 0 0 0 10894925.10532856 -179137188.92384604 0 -179137188.92384604 287980572.19077027 0 0 0 0 -17723107.361420631 -80828348.99869284 0 -80828348.99869284 78030769.125224948 0 0 0 0 -17022276.061783791 -47135096.949551463 0 -47135096.949551463 -33554269.248706579 0 0 0 0 124367894.03068733 -45802295.11600709 0 -45802295.11600709 -252061832.89331484 0 0 0 0 10070466.282361984 -83566793.013763309 0 -83566793.013763309 -87128575.873108804 0 0 0 0 33765969.960147858 -22671670.573288202 0 -22671670.573288202 14429666.803306103 0 0 0 0 29291013.446533203 -38138034.000924349 0 -38138034.000924349 -21613085.776174784 0 0 0 0 36539208.684464455 -3175230.5091525316 0 -3175230.5091525316 -33754043.333981037 0 0 0 0 25817266.620221138 -297095.80902507901 0 -297095.80902507901 8311726.1650631428 0 0 0 0 1303387.7734556198 23460291.709969312 0 23460291.709969312 -14022951.191091299 0 0 0 0 -19730.133011484519 1608850.2385037914 0 1608850.2385037914 -2382350.8207508815 0 0 0 0 626261.69430541992 -48246696.582023621 0 -48246696.582023621 38364460.581131935 0 0 0 0 13083932.329494476 -60978646.845575243 0 -60978646.845575243 22149544.470917188 0 0 0 0 1009945.6562175751 -82695519.980140686 0 -82695519.980140686 -16204273.607430844 0 0 0 0 -72620733.581306458 -61770355.645510674 0 -61770355.645510674 -46862235.486493111 0 0 0 0 -5316509.334682703 -22754990.62686196 0 -22754990.62686196 53269471.557197571 0 0 0 0 -52230575.56750679 89296953.854280949 0 89296953.854280949 45004717.564102173 0 0 0 0 483564.53246412799 2574147.6512826686 0 2574147.6512826686 -16263076.746898325 0 0 0 0 18051319.073066711 -10086523.424956322 0 -10086523.424956322 -45017813.862999737 0 0 0 0 1601474.1708952039 -991156.33120379085 0 -991156.33120379085 -3035930.8449203116 0 0 0 0 -12893332.375249863 8982184.6943588257 0 8982184.6943588257 -13144474.348360538 0 0 0 0 -62712146.113431931 -2341193.9907455444 0 -2341193.9907455444 5065149.6610212326 0 0 0 0 27015375.844685555 38144104.406176805 0 38144104.406176805 -19023079.476723671 0 0 0 0 -11632950.05866313 19829576.488089859 0 19829576.488089859 -14130662.050733566 0 0 0 0 -25688562.975400448 3355339.7037687302 0 3355339.7037687302 7485663.7693758011 0 0 0 0 -8760525.4980574902 7535645.7318463679 0 7535645.7318463679 7147405.6841709716 0 0 0 0 19884352.120437384 11668783.521090329 0 11668783.521090329 -18672760.640136719 0 0 0 0 -81047958.644974709 25828452.368174314 0 25828452.368174314 30724042.674506664 0 0 0 0 -1485453.936605507 5492407.4800717905 0 5492407.4800717905 -7112078.1816310072 0 0 0 0 -14441131.299315453 24556920.91971612 0 24556920.91971612 6838660.1284766197 0 0 0 0 9254194.8261709213 478156.49946260452 0 478156.49946260452 3140586.1875457764 0 0 0 0 4016694.7962594032 16512914.815027833 0 16512914.815027833 -22328654.574928284 0 0 0 0 -9844550.2503122985 15857455.486588737 0 15857455.486588737 -20011228.253178518 0 0 0 0 -30237225.135298729 65233039.492421627 0 65233039.492421627 26511948.920569539 0 0 0 0 -68892220.067159653 55253295.728151083 0 55253295.728151083 29150544.495078772 0 0 0 0 -43007754.928071022 -211532402.21146709 0 -211532402.21146709 267068510.39263546 0 0 0 0 -2500198.7964100386 2029261.0394144575 0 2029261.0394144575 2105093.5679040859 0 0 0 0 32234531.702396512 81005740.568321466 0 81005740.568321466 12981472.321851015 0 0 0 0 -132994820.29186392 -197067882.73145312 0 -197067882.73145312 429474556.02917802 0 0 0 0 6914705.1014432907 75339971.266128063 0 75339971.266128063 129822657.30873466 0 0 0 0 -8085609.8911075592 29146943.369301796 0 29146943.369301796 57243648.793890953 0 0 0 0 -23573028.087364197 -13780586.278817356 0 -13780586.278817356 128705690.18722057 0 0 0 0 15765398.136312485 24083376.302480221 0 24083376.302480221 4693263.0772666931 0 0 0 0 -6007532.6051841974 23651044.10395366 0 23651044.10395366 13083180.908125877 0 0 0 0 -141063888.15460944 -18474066.725585938 0 -18474066.725585938 -28561785.2535007 0 0 0 0 -244880438.45456409 -283916283.02938652 0 -283916283.02938652 -214848186.13883591 0 0 0 0 -545891921.36892414 -248537349.20231056 0 -248537349.20231056 -60158054.069581509 0 0 0 0 -373585380.50340271 -336562119.53366661 0 -336562119.53366661 -103253390.88323402 0 0 0 0 -385217058.75191307 -173348250.98446465 0 -173348250.98446465 24766110.517629623 0 0 0 0 -50206440.741142273 25769022.784719467 0 25769022.784719467 142220979.78247452 0 0 0 0 -47095634.299095154 -56377276.8573367 0 -56377276.8573367 28738865.123104095 0 0 0 0 120089.21786967386 323107.05710994639 0 323107.05710994639 -1399247.0982468007 0 0 0 0 -314685099.9251585 -312407099.99255657 0 -312407099.99255657 -272709265.22904205 0 0 0 0 -407150984.26619768 -575520508.60626817 0 -575520508.60626817 -495687119.0144825 0 0 0 0 13883787.570114136 -19177368.468158722 0 -19177368.468158722 49241120.452196121 0 0 0 0 54893188.440384865 -44076241.797145844 0 -44076241.797145844 -2129230.1226348877 0 0 0 0 -16172.381226618774 659692.35341863055 0 659692.35341863055 -3932783.0574867148 0 0 0 0 -1129666.0139751085 1083862.6785777113 0 1083862.6785777113 -10513402.243262321 0 0 0 0 16361648.183813095 -75087135.730370522 0 -75087135.730370522 -19108226.346670151 0 0 0 0 58637398.090072632 2747815.2641410828 0 2747815.2641410828 -12174906.492991924 0 0 0 0 145824313.5605973 -11603011.26996839 0 -11603011.26996839 -96324569.748748779 0 0 0 0 71186163.517805099 -11125033.808391571 0 -11125033.808391571 -13977883.654720306 0 0 0 0 3426433.1034986973 -64370291.933386803 0 -64370291.933386803 -211989300.19921875 0 0 0 0 54866733.388687134 32935786.860028267 0 32935786.860028267 -116318876.16397476 0 0 0 0 -4278377.0488600731 -88747858.366157532 0 -88747858.366157532 -96580191.386276245 0 0 0 0 -34853804.217416763 -47218364.186808586 0 -47218364.186808586 -126880366.44213104 0 0 0 0 -181459491.41836452 -99122140.563987732 0 -99122140.563987732 -104761982.23854065 0 0 0 0 -149107396.80581355 -209744217.46801949 0 -209744217.46801949 -329577621.41820145 0 0 0 0 -440756540.16375351 -353566316.54339218 0 -353566316.54339218 -103118263.35632324 0 0 0 0 -40383739.455546379 85057362.411865234 0 85057362.411865234 -89176391.557886124 0 0 0 0 -353769218.5673008 -410655337.13542938 0 -410655337.13542938 -507197954.25007153 0 0 0 0 -33556924.274816513 28606505.973236084 0 28606505.973236084 -338101824.19133091 0 0 0 0 -812776601.75621033 -189579181.56203842 0 -189579181.56203842 -188503849.35175323 0 0 0 0 -442585172.11379337 -201256159.62673378 0 -201256159.62673378 -69351690.242658615 0 0 0 0 -504017249.43251514 -8738873.654914856 0 -8738873.654914856 -593110154.32551003 0 0 0 0 -367538943.24013662 -220084948.06116867 0 -220084948.06116867 -198575477.99068832 0 0 0 0 -11859784.188743114 -9257069.2568416595 0 -9257069.2568416595 12396535.710348129 0 0 0 0 991482.3283344208 -539551.1531277895 0 -539551.1531277895 -2525857.2921074815 0 0 0 0 -57955651.220243931 26986516.012084961 0 26986516.012084961 -70642790.580181122 0 0 0 0 -68873317.33523941 -36374408.97444725 0 -36374408.97444725 15212.305360794067 0 0 0 0 -72692992.358655572 47459541.491884947 0 47459541.491884947 3505103.8192825317 0 0 0 0 -93700103.441347599 -31602025.304798126 0 -31602025.304798126 -63955080.346916199 0 0 0 0 -32786732.005559921 11853180.558240891 0 11853180.558240891 43967621.435081482 0 0 0 0 15173973.445922375 13792516.168558121 0 13792516.168558121 12938365.455171585 0 0 0 0 18802425.670179367 35538105.923765793 0 35538105.923765793 -525543.21674013138 0 0 0 0 50887266.067504406 120600823.18000793 0 120600823.18000793 52770424.105747223 0 0 0 0 2321330.2682842445 3787856.1038880399 0 3787856.1038880399 -16060317.82907268 0 0 0 0 37252689.379981995 3572732.3548946381 0 3572732.3548946381 -3895743.1750469208 0 0 0 0 3561214.5634296639 2569160.7708587889 0 2569160.7708587889 -18540292.037269764 0 0 0 0 125291566.21393299 112114771.48196411 0 112114771.48196411 -31119339.40976572 0 0 0 0 7453928.3833236694 20505350.598877683 0 20505350.598877683 4364235.1984588504 0 0 0 0 2521813.0121927261 81258.433980226517 0 81258.433980226517 -4730401.8374525309 0 0 0 0 22665068.943235397 16321782.53178966 0 16321782.53178966 -12541348.213366985 0 0 0 0 -8452535.8603363037 8998297.7445411682 0 8998297.7445411682 -6560902.702354908 0 0 0 0 -10953030.783228874 15363520.708436459 0 15363520.708436459 -7836666.0729165077 0 0 0 0 -6593671.0466036797 2362918.4221734405 0 2362918.4221734405 -29004054.793567657 0 0 0 0 138671.88810415566 930402.99648941332 0 930402.99648941332 -2433981.1570323701 0 0 0 0 -6349435.8326911926 -181131.09036231041 0 -181131.09036231041 -36173145.440659523 0 0 0 0 5233567.0005391194 -2303158.9278030358 0 -2303158.9278030358 -11621110.755292024 0 0 0 0 -183263.3368396759 -9970782.1182136536 0 -9970782.1182136536 -26132667.163013458 0 0 0 0 22999901.206476212 -17420774.417578697 0 -17420774.417578697 -35302340.126288414 0 0 0 0 14300991.456111431 3018722.5064730644 0 3018722.5064730644 -19750613.981954575 0 0 0 0 9372562.0444118977 7616090.8674796224 0 7616090.8674796224 -621190.22946929932 0 0 0 0 10939856.535305977 13978583.158274889 0 13978583.158274889 -37986946.282894373 0 0 0 0 2199033.2735993396 4131196.4702145299 0 4131196.4702145299 -15214189.624667961 0 0 0 0 33441384.991182089 56601806.213043213 0 56601806.213043213 43351499.515468597 0 0 0 0 30572846.180183768 18735365.827349663 0 18735365.827349663 -17689522.276127338 0 0 0 0 882765.05149435997 10377791.541717529 0 10377791.541717529 -10943929.447789669 0 0 0 0 21166900.536425591 7283229.9320483208 0 7283229.9320483208 -17865313.143074036 0 0 0 0 -3032621.2882800102 12203186.500282288 0 12203186.500282288 17791133.660681248 0 0 0 0 10964295.827099204 31795197.161845207 0 31795197.161845207 15524439.372859955 0 0 0 0 -1997549.8432875383 2598971.7375427 0 2598971.7375427 1420186.0351175927 0 0 0 0 -15324454.265347481 -12516531.745153427 0 -12516531.745153427 -26512912.075218201 0 0 0 0 -13264594.297492981 -3360183.5495700836 0 -3360183.5495700836 -20695059.350963593 0 0 0 0 7170260.8488121033 -6455763.4807491302 0 -6455763.4807491302 -35129548.344142914 0 0 0 0 1229311.0288486481 15135104.316727638 0 15135104.316727638 -33696746.412956238 0 0 0 0 10287504.865585327 4813157.4407157898 0 4813157.4407157898 -25678311.469301224 0 0 0 0 -5843050.0788623355 11717465.376356851 0 11717465.376356851 -23630492.040228087 0 0 0 0 -6150781.828736905 14284455.569543246 0 14284455.569543246 -19765568.168767676 0 0 0 0 -2846569.4665794373 4724837.5269145966 0 4724837.5269145966 -24238079.240161896 0 0 0 0 -9247496.3654346466 24153641.039485455 0 24153641.039485455 -20417125.138679504 0 0 0 0 -6430948.8064651489 13039401.595890045 0 13039401.595890045 -12914045.403503418 0 0 0 0 -9076116.4019980934 19151510.702074677 0 19151510.702074677 -11771066.698437467 0 0 0 0 -2038375.7295282581 10112302.79798035 0 10112302.79798035 -7604233.1252577733 0 0 0 0 -440630.37013902329 1922141.4260559082 0 1922141.4260559082 -9740097.4649741277 0 0 0 0 -3447887.1271128654 8755818.8725237846 0 8755818.8725237846 -6141814.9419403076 0 0 0 0 8041610.2339286804 7354773.979434967 0 7354773.979434967 -2337615.6043548584 0 0 0 0 -2229818.8301200867 11134350.357810974 0 11134350.357810974 -18527617.41137135 0 0 0 0 1382563.392865181 15879968.515310287 0 15879968.515310287 -12305717.33109951 0 0 0 0 -2239187.6568470001 19501416.240722656 0 19501416.240722656 -14215473.698095083 0 0 0 0 -931354.98758645053 7417737.8649424613 0 7417737.8649424613 -4737544.1848954791 0 0 0 0 -1077596.1825389862 11695359.693738937 0 11695359.693738937 -10333254.383004189 0 0 0 0 -3706270.0337734222 8815574.0453081131 0 8815574.0453081131 -13274427.594258428 0 0 0 0 1340721.8404178619 7575621.8945150375 0 7575621.8945150375 -7351985.8359889984 0 0 0 0 6291893.6129312515 11081117.774051666 0 11081117.774051666 -5399570.3489165306 0 0 0 0 1576972.1554660797 14624362.797832489 0 14624362.797832489 -12143035.612876654 0 0 0 0 -3176951.5839078277 7073583.5294293184 0 7073583.5294293184 -12713796.358444002 0 0 0 0 -77499141.764989853 42307008.181934357 0 42307008.181934357 19186814.541358948 0 0 0 0 53471983.147075176 -5795758.4014744759 0 -5795758.4014744759 -12233008.994884491 0 0 0 0 242654098.29174042 194518222.1322403 0 194518222.1322403 -241943646.50331116 0 0 0 0 14755128.252792358 6541530.5758590698 0 6541530.5758590698 -19906951.331481934 0 0 0 0 -1513283.3866781378 4645787.8551524356 0 4645787.8551524356 -10744148.272285905 0 0 0 0 5729444.4586877823 8508759.2298631668 0 8508759.2298631668 -1917691.9549865723 0 0 0 0 -853641.01562552061 7162748.2422017679 0 7162748.2422017679 -9172360.569150582 0 0 0 0 4610089.3494643867 3840481.1496904716 0 3840481.1496904716 -26884201.380006529 0 0 0 0 327785.24476623535 9237046.6430511475 0 9237046.6430511475 -17313062.864250183 0 0 0 0 16096001.394384123 -5382540.9900243171 0 -5382540.9900243171 -40669446.930901498 0 0 0 0 409448.05583258218 -840494.7748840712 0 -840494.7748840712 -19053959.501225024 0 0 0 0 15557757.111549377 4675881.0763893127 0 4675881.0763893127 -18785825.788620472 0 0 0 0 16776812.266536713 5210225.3356971741 0 5210225.3356971741 -20148603.108036041 0 0 0 0 12864712.167094231 6790328.3993206024 0 6790328.3993206024 -19367796.023612976 0 0 0 0 2342930.3871199889 9043255.4590808004 0 9043255.4590808004 -21854494.063697018 0 0 0 0 14455282.086709023 7862355.0407061577 0 7862355.0407061577 -20511688.188312531 0 0 0 0 -14777327.601486206 6033838.4515838623 0 6033838.4515838623 -22050231.511096954 0 0 0 0 2446153.8279151917 4072667.0908241272 0 4072667.0908241272 -35620663.519432068 0 0 0 0 -4582383.4776922241 9978453.0606082752 0 9978453.0606082752 -15372421.354557518 0 0 0 0 -2352981.5596961975 -13899944.195178986 0 -13899944.195178986 -39290509.083805084 0 0 0 0 -272578247.22529602 77376697.055076599 0 77376697.055076599 -62750078.528289795 0 0 0 0 16224950.301841736 8849995.0908660889 0 8849995.0908660889 -34941405.053096771 0 0 0 0 -14298.975395482033 11291125.10271728 0 11291125.10271728 -15998241.759901134 0 0 0 0 -1662975.4541950226 15150304.766536713 0 15150304.766536713 -24065622.482658386 0 0 0 0 23110293.468126297 8867855.5218963623 0 8867855.5218963623 -26932836.878013611 0 0 0 0 49918854.906524658 31153003.930465698 0 31153003.930465698 -25335124.188644409 0 0 0 0 -2388965.2251050919 9389422.7245870419 0 9389422.7245870419 -12782506.588109337 0 0 0 0 7663519.4703025818 18074378.028629303 0 18074378.028629303 -7545886.6471977234 0 0 0 0 23260281.390781403 18452435.205505371 0 18452435.205505371 -10826492.595809937 0 0 0 0 10415828.316402435 12600607.432132721 0 12600607.432132721 -11905449.174697876 0 0 0 0 47518162.003698349 -8289113.0497303009 0 -8289113.0497303009 -130092322.05206299 0 0 0 0 15552420.817012787 51237299.705039978 0 51237299.705039978 -2730612.7065429688 0 0 0 0 19958474.382572174 31904910.907737732 0 31904910.907737732 9077403.7082901001 0 0 0 0 11073151.024504185 5685039.7599740028 0 5685039.7599740028 -33503910.359519958 0 0 0 0 15866100.311421394 5788631.5278978348 0 5788631.5278978348 -18589899.666118622 0 0 0 0 2385432.584323694 6804438.1220288835 0 6804438.1220288835 -23656457.017524678 0 0 0 0 -39152156.677776337 -2115701.9265289307 0 -2115701.9265289307 -23018213.599449158 0 0 0 0 18451210.664812088 5904519.5540618896 0 5904519.5540618896 -22073176.739393234 0 0 0 0 17025135.177791595 3741190.1177864075 0 3741190.1177864075 -16733974.668186188 0 0 0 0 1318369.5722458127 294526.84119037073 0 294526.84119037073 -22265049.7312463 0 0 0 0 33281360.769316673 3384113.2921762466 0 3384113.2921762466 -26039954.818054199 0 0 0 0 69366236.705685616 -65187453.801086664 0 -65187453.801086664 -107863227.65405655 0 0 0 0 24533678.264240265 -606860.50197219849 0 -606860.50197219849 -18723738.573339462 0 0 0 0 21981222.511829853 7792377.1006474495 0 7792377.1006474495 -25187261.154224396 0 0 0 0 250629687.78009033 437737992.78027344 0 437737992.78027344 -256103249.62516022 0 0 0 0 28050146.145629883 76261981.433597565 0 76261981.433597565 268881234.16278076 0 0 0 0 3637204.5573350252 6000431.3121180078 0 6000431.3121180078 -26164043.607696436 0 0 0 0 27859327.782241821 -26952311.698356628 0 -26952311.698356628 -7489569.1425170898 0 0 0 0 17056558.676056862 3019367.7429075241 0 3019367.7429075241 -21303188.286804199 0 0 0 0 22958840.924068451 1093742.627822876 0 1093742.627822876 -26468416.968770504 0 0 0 0 24753896.429848671 5918220.2819747925 0 5918220.2819747925 -18761557.57743454 0 0 0 0 25682106.569423676 -1966459.8407669067 0 -1966459.8407669067 -20159540.417819023 0 0 0 0 57234331.707866669 38846824.210753441 0 38846824.210753441 -44170055.494552612 0 0 0 0 3175855.6454915931 2454281.4355097059 0 2454281.4355097059 -25223442.171874177 0 0 0 0 28558288.47847271 -2834499.1556282043 0 -2834499.1556282043 -27303735.449981689 0 0 0 0 30306610.343378067 -5695866.6641187668 0 -5695866.6641187668 -22656634.891914368 0 0 0 0 40876880.614212036 -47558928.477859497 0 -47558928.477859497 -17429068.91015625 0 0 0 0 64280341.741165161 -54328882.841384888 0 -54328882.841384888 -39214727.74491787 0 0 0 0 24166003.945761204 3417236.5435848236 0 3417236.5435848236 -31659683.864189148 0 0 0 0 34125520.73380661 2540287.4789428711 0 2540287.4789428711 -31685861.187652588 0 0 0 0 24348120.709293365 -2840853.0204544067 0 -2840853.0204544067 -31749137.898520887 0 0 0 0 18240550.391082764 -29049348.277282715 0 -29049348.277282715 -52152342.276893616 0 0 0 0 8510079.5840339661 -11283457.414512634 0 -11283457.414512634 5713460.2894973755 0 0 0 0 5209557.9861373901 -27229301.56004715 0 -27229301.56004715 13473494.967697144 0 0 0 0 57390820.055913925 -29600456.558282852 0 -29600456.558282852 -52981154.781311035 0 0 0 0 10747825.73865509 24837395.226127625 0 24837395.226127625 -42622643.524124146 0 0 0 0 89142206.101455688 56150693.207046509 0 56150693.207046509 -46368616.240539551 0 0 0 0 89111095.798690796 -14460738.581459045 0 -14460738.581459045 -30022114.347915649 0 0 0 0 2665720.0333502591 -2098233.3984352611 0 -2098233.3984352611 -3093275.2084360123 0 0 0 0 -2124285.8682403564 16574473.822990417 0 16574473.822990417 -15240010.712219238 0 0 0 0 5397945.5105841178 2245584.4132052958 0 2245584.4132052958 -22741951.589081123 0 0 0 0 8353063.7419102192 12635591.335396171 0 12635591.335396171 -19716400.902740479 0 0 0 0 8581179.4821491241 9128091.429101944 0 9128091.429101944 -17426225.651687622 0 0 0 0 8159693.0298864841 8062484.7033092976 0 8062484.7033092976 -18819141.263916016 0 0 0 0 -2829178.3622378577 10231519.042190865 0 10231519.042190865 -12649504.343447477 0 0 0 0 35893702.798585892 -9951670.2064285278 0 -9951670.2064285278 -12606009.851928711 0 0 0 0 9400135.2031593323 51128009.189464569 0 51128009.189464569 154877328.88531113 0 0 0 0 1805611.8785691969 1005319.9560332876 0 1005319.9560332876 -3969266.4742653929 0 0 0 0 56608813.938028336 -10127335.694469452 0 -10127335.694469452 -13830518.612014771 0 0 0 0 -689603.85485147766 972499.28290911019 0 972499.28290911019 -7141434.102749832 0 0 0 0 -2459863.4601240158 7825156.0339851379 0 7825156.0339851379 -24192197.030899048 0 0 0 0 88303.947229393758 1977478.885898293 0 1977478.885898293 -6315339.8501055427 0 0 0 0 15732915.297935486 -9949482.3208408356 0 -9949482.3208408356 -36261928.480535746 0 0 0 0 1162046.3198635578 12741502.962128878 0 12741502.962128878 -31052544.566614151 0 0 0 0 2001561.1476038704 4147549.6335256035 0 4147549.6335256035 -14585468.876474902 0 0 0 0 18441421.070546627 2276561.3242468834 0 2276561.3242468834 -23188990.910577774 0 0 0 0 36906267.182563782 -12233872.724722862 0 -12233872.724722862 -16591019.266130924 0 0 0 0 38415438.367123604 23215549.027375221 0 23215549.027375221 -50532162.768500328 0 0 0 0 -11024243.045502186 22309006.981666565 0 22309006.981666565 -23777613.421595573 0 0 0 0 -2644419.8163280487 39540299.096056938 0 39540299.096056938 -49420653.78313446 0 0 0 0 -87464287.595326424 -46879864.34757328 0 -46879864.34757328 45422818.000124454 0 0 0 0 -1346194.336303723 1453300.3244012026 0 1453300.3244012026 -2503589.2211044752 0 0 0 0 8393642.6959409714 9866826.0516951084 0 9866826.0516951084 24339335.999990463 0 0 0 0 35107647.267034531 -17104831.826152802 0 -17104831.826152802 -64036149.7486763 0 0 0 0 -1790965.8636579514 -70437573.11094141 0 -70437573.11094141 -49728554.039693832 0 0 0 0 -11082274.508317947 -2042099.3555159569 0 -2042099.3555159569 -18845409.949741006 0 0 0 0 1225175.496599121 -667257.78763797646 0 -667257.78763797646 -3075918.9478874938 0 0 0 0 -18722701.38334465 -13080374.259486675 0 -13080374.259486675 -10612604.37761879 0 0 0 0 43668658.42023468 6822292.8556919098 0 6822292.8556919098 -16285523.473923445 0 0 0 0 47465743.362439156 -6472843.8405642509 0 -6472843.8405642509 4974597.7291917801 0 0 0 0 25225350.253151894 -15092771.282876968 0 -15092771.282876968 44062969.344583035 0 0 0 0 11665336.875352859 13155925.711074829 0 13155925.711074829 -147806477.9315176 0 0 0 0 -22137663.261125565 -7628771.5379886627 0 -7628771.5379886627 -42705297.536823273 0 0 0 0 -715818.11829787539 762902.39377453271 0 762902.39377453271 -450725.89618046256 0 0 0 0 -76680917.130032539 256329.42168712616 0 256329.42168712616 106956713.27877808 0 0 0 0 -10160444.226745605 -28260454.767765999 0 -28260454.767765999 -114879047.0975666 0 0 0 0 7001235.9740934372 20175877.806215763 0 20175877.806215763 -41433384.334552765 0 0 0 0 14972155.854178429 7692943.0089020729 0 7692943.0089020729 -22882736.552240372 0 0 0 0 10445797.317520142 -13292193.483904839 0 -13292193.483904839 -89423301.011343002 0 0 0 0 -21884009.823124886 11477893.435266495 0 11477893.435266495 -22157498.392601013 0 0 0 0 -12362077.000965357 -14558396.048015594 0 -14558396.048015594 -62080863.976383209 0 0 0 0 -7581295.6760158539 2528972.3749008179 0 2528972.3749008179 -31692859.342021942 0 0 0 0 -793582.72348865867 -28175646.100305855 0 -28175646.100305855 -21639642.735915184 0 0 0 0 -4573004.5833311081 20054433.369493484 0 20054433.369493484 -100034775.65707397 0 0 0 0 -817454.23637284175 869859.39877977408 0 869859.39877977408 -922675.63012814103 0 0 0 0 5787124.027797699 20619084.700094223 0 20619084.700094223 -103322663.73476505 0 0 0 0 -11484094.273469925 44257303.32314682 0 44257303.32314682 -89357590.584119797 0 0 0 0 -7606690.2956278324 9538369.3758606911 0 9538369.3758606911 -52084436.111814499 0 0 0 0 -5447901.6699142456 6786359.1365299225 0 6786359.1365299225 -64396323.473143578 0 0 0 0 7597818.3408522606 -14521584.856654167 0 -14521584.856654167 -51456489.629428864 0 0 0 0 -1628996.0965157747 -5956625.9909324646 0 -5956625.9909324646 -51000847.359260559 0 0 0 0 4071385.0121040344 6540961.6705417633 0 6540961.6705417633 -57657739.819264412 0 0 0 0 2701116.9053068161 3613542.6982288361 0 3613542.6982288361 -49448155.369157791 0 0 0 0 -336783.26457476616 4691528.9166154861 0 4691528.9166154861 -39181282.404866219 0 0 0 0 7281013.9956049919 5472981.3362045288 0 5472981.3362045288 -48694247.095458984 0 0 0 0 7349655.4934494495 2026988.8430333138 0 2026988.8430333138 -49386125.352424622 0 0 0 0 1253817.8958916664 10923761.258473396 0 10923761.258473396 -53757120.151426315 0 0 0 0 -22874551.600858927 24736478.734881401 0 24736478.734881401 -27556031.11530304 0 0 0 0 -1327294.9314770699 10261385.804470062 0 10261385.804470062 -36058524.338640213 0 0 0 0 -331737.90986812115 5314314.4746432304 0 5314314.4746432304 -30763978.508243561 0 0 0 0 116555590.36686707 115247380.86387253 0 115247380.86387253 -101714045.33707428 0 0 0 0 183665469.08376098 -60963161.657234192 0 -60963161.657234192 -57060570.830574036 0 0 0 0 -91242.472642660141 14149182.231985569 0 14149182.231985569 -46888637.694906235 0 0 0 0 -1845913.7248706818 4791338.0532608032 0 4791338.0532608032 -37171924.571350098 0 0 0 0 4907773.5216504391 79035.425472274423 0 79035.425472274423 -13543079.123180626 0 0 0 0 4719018.4504966382 1505676.7701005992 0 1505676.7701005992 -10965625.421522114 0 0 0 0 -4979274.6328802109 -5922245.9806804657 0 -5922245.9806804657 -34299211.935650349 0 0 0 0 14131478.256046295 -3481778.5013179779 0 -3481778.5013179779 -47326369.689783096 0 0 0 0 44222536.494586945 -56860977.641162872 0 -56860977.641162872 55030860.417167187 0 0 0 0 5991316.0624477519 -693645.50822661328 0 -693645.50822661328 -16299817.712334167 0 0 0 0 24683517.860636711 -22879460.15235281 0 -22879460.15235281 -4029915.1617431641 0 0 0 0 3293858.3544221818 1086454.3746891022 0 1086454.3746891022 -15872670.920558929 0 0 0 0 2526993.119974657 8375149.3673713934 0 8375149.3673713934 -13656259.343765857 0 0 0 0 -10234047.09557724 17764573.385969162 0 17764573.385969162 3877300.9468402863 0 0 0 0 1891155.2148345709 3551446.5516800284 0 3551446.5516800284 -15801843.32814002 0 0 0 0 9180216.3786074799 -2782746.9673787858 0 -2782746.9673787858 -14604263.959364705 0 0 0 0 19382169.319169998 18784261.584173203 0 18784261.584173203 -29195051.96610117 0 0 0 0 7676766.3451881409 10036894.991853714 0 10036894.991853714 -22688596.214711666 0 0 0 0 1882857.9924562064 3397259.4501877092 0 3397259.4501877092 -17594430.515548881 0 0 0 0 971911.34787750244 4923683.6649475098 0 4923683.6649475098 -13736251.958755016 0 0 0 0 8588624.1100316048 3273145.7211003304 0 3273145.7211003304 -18976364.614976883 0 0 0 0 4167145.911685029 3163171.0032540644 0 3163171.0032540644 -22919128.99914607 0 0 0 0 2020848.1587541476 8721834.5360948145 0 8721834.5360948145 -15027795.565576097 0 0 0 0 6381518.727729857 19575212.302010536 0 19575212.302010536 -9064620.9277648926 0 0 0 0 3535222.9110625088 264633.91159105301 0 264633.91159105301 -14094342.168380737 0 0 0 0 8538782.2262151241 1806894.6087524891 0 1806894.6087524891 -10189982.776332855 0 0 0 0 8682710.1174817085 -2301960.1126008034 0 -2301960.1126008034 -13033465.627726555 0 0 0 0 5141325.0299728047 1864486.5597525097 0 1864486.5597525097 -18788229.076830275 0 0 0 0 54138982.861976624 -19695493.089500427 0 -19695493.089500427 -31575517.306545258 0 0 0 0 53029962.857931137 -16054997.075249672 0 -16054997.075249672 -41635351.246623993 0 0 0 0 46296922.233510494 -28154523.507718086 0 -28154523.507718086 -4339766.8010807037 0 0 0 0 45612915.177296638 -20286635.945288658 0 -20286635.945288658 -30807488.165691376 0 0 0 0 59009183.527464926 -10459500.378534555 0 -10459500.378534555 -46794947.220977783 0 0 0 0 55889297.234272003 -39442276.633102417 0 -39442276.633102417 -34438627.033584595 0 0 0 0 49638719.638997078 -22681377.155334473 0 -22681377.155334473 -53076350.282823563 0 0 0 0 15333623.108259201 11689569.768571854 0 11689569.768571854 -22130966.121835709 0 0 0 0 3359742.6395263672 -10869859.589688301 0 -10869859.589688301 -38356214.884922028 0 0 0 0 45157012.413156509 -5058991.0045623779 0 -5058991.0045623779 -47889295.053801537 0 0 0 0 77177856.201808929 50129278.623550415 0 50129278.623550415 -40399888.92375946 0 0 0 0 8208647.4978563059 2841964.5631700307 0 2841964.5631700307 -34443696.993793786 0 0 0 0 8716826.7138623148 -291181.46756965294 0 -291181.46756965294 -22406994.543105796 0 0 0 0 9468368.5265321732 3129920.4595890045 0 3129920.4595890045 -15537240.227338791 0 0 0 0 20144303.170310974 2051402.8498840332 0 2051402.8498840332 -31732093.628051758 0 0 0 0 -13559382.498899698 17225612.281557798 0 17225612.281557798 -36459603.857971191 0 0 0 0 3424433.4108007802 13491674.890240401 0 13491674.890240401 -28313794.601591915 0 0 0 0 -24877550.278705597 15452719.655532837 0 15452719.655532837 -27093081.639225006 0 0 0 0 71716.782979954034 42709.021781679243 0 42709.021781679243 -2054857.6909739878 0 0 0 0 12475721.651061893 -66325343.642487526 0 -66325343.642487526 -29374855.062240601 0 0 0 0 1931073.350060001 -794086.82646569237 0 -794086.82646569237 -2695457.7815544531 0 0 0 0 14761053.53052783 29594840.608334899 0 29594840.608334899 -82141336.407943726 0 0 0 0 2434552.9222183228 -10086167.248252869 0 -10086167.248252869 -120943185.51200867 0 0 0 0 17672118.468025208 -10076266.089004517 0 -10076266.089004517 20252305.094726562 0 0 0 0 35103760.060569763 384248.9094619751 0 384248.9094619751 -119147409.54954529 0 0 0 0 9966503.3826942444 28942234.865398884 0 28942234.865398884 -119757576.521698 0 0 0 0 475249.96970389411 -1250849.3665014077 0 -1250849.3665014077 1919156.0819084309 0 0 0 0 10588271.303121567 11062702.617824554 0 11062702.617824554 -17350001.557628632 0 0 0 0 15854352.725605011 18767025.194843292 0 18767025.194843292 -98951943.669250488 0 0 0 0 6605563.5924416194 3109425.871781609 0 3109425.871781609 -29275199.514646731 0 0 0 0 4607678.740190506 2835520.1830425262 0 2835520.1830425262 -17828665.852573395 0 0 0 0 4999310.1076532975 8983252.0504323263 0 8983252.0504323263 -35644818.772042319 0 0 0 0 23221385.616266251 13124275.098838806 0 13124275.098838806 -32099986.143314362 0 0 0 0 -9075006.8803024292 14052889.07352066 0 14052889.07352066 -13014685.271038055 0 0 0 0 1005528.7662373669 2018975.1663852707 0 2018975.1663852707 -3133046.6499769762 0 0 0 0 2029284.0101227493 14953826.447898883 0 14953826.447898883 -12532804.118486676 0 0 0 0 5176266.4181589242 1251114.4553596303 0 1251114.4553596303 -15920495.41629873 0 0 0 0 16533514.586069703 6130522.0957984924 0 6130522.0957984924 -20315646.008361816 0 0 0 0 13268847.937743664 -125410.96312475204 0 -125410.96312475204 -17308243.272937775 0 0 0 0 11142717.99516201 2310081.6765232086 0 2310081.6765232086 -21031191.532988548 0 0 0 0 4752169.3251824379 5054731.7547569275 0 5054731.7547569275 -15595123.740898132 0 0 0 0 2500296.7716843062 2289926.938234116 0 2289926.938234116 -14236223.097011633 0 0 0 0 8633342.6284455061 7322725.9339389801 0 7322725.9339389801 -16102046.46786499 0 0 0 0 18636892.122192383 -346429.16386795044 0 -346429.16386795044 -15065466.007768631 0 0 0 0 3722776.048151697 138613.9408388311 0 138613.9408388311 -11639309.544795824 0 0 0 0 24549072.462798446 -1547735.5439816713 0 -1547735.5439816713 -21556978.317214966 0 0 0 0 3785013.1101265396 1281113.8952870816 0 1281113.8952870816 -22884407.289221089 0 0 0 0 13934311.366950989 -7325232.7552375793 0 -7325232.7552375793 -18688061.663859844 0 0 0 0 26383907.979636341 -2405264.3895831108 0 -2405264.3895831108 -19937079.464622498 0 0 0 0 7951589.6514692195 -5421194.2419270016 0 -5421194.2419270016 -21215117.314778034 0 0 0 0 17068023.172952026 2004105.1596930027 0 2004105.1596930027 -32426929.257537842 0 0 0 0 19902011.121471405 5310711.2490081787 0 5310711.2490081787 -31706012.58026123 0 0 0 0 16822702.322425842 4992093.2283287048 0 4992093.2283287048 -30468555.285797119 0 0 0 0 15013695.010536194 1200497.424118042 0 1200497.424118042 -31336397.552965164 0 0 0 0 16358004.429089546 1678450.0518283844 0 1678450.0518283844 -40464165.213256836 0 0 0 0 10029405.846614838 -3154563.8691482544 0 -3154563.8691482544 -31541687.83839798 0 0 0 0 50442025.319713593 -19320324.701171875 0 -19320324.701171875 -13564910.487422943 0 0 0 0 8608261.7777271271 -4807700.6280860901 0 -4807700.6280860901 -33068692.048698425 0 0 0 0 8319337.6797973989 -8860593.573000934 0 -8860593.573000934 -22494007.55770766 0 0 0 0 46520053.23118782 -9704558.5967102051 0 -9704558.5967102051 -7206308.91796875 0 0 0 0 6437436.5172053417 2349383.3446506718 0 2349383.3446506718 -22624762.431999549 0 0 0 0 -1007921.8113647141 7016398.164140489 0 7016398.164140489 -14600396.496558964 0 0 0 0 25770021.460575104 14599281.917007446 0 14599281.917007446 -42589768.257675171 0 0 0 0 -9121996.5408821106 53070697.184394836 0 53070697.184394836 -56109805.548926353 0 0 0 0 9095587.8953094482 46779971.210639954 0 46779971.210639954 -81825636.465942383 0 0 0 0 -15104518.349388123 19209621.292160034 0 19209621.292160034 -42173675.857223511 0 0 0 0 -48746510.131713867 29095900.402854919 0 29095900.402854919 -43989342.781860352 0 0 0 0 1757927.3176041008 -8389774.8513840586 0 -8389774.8513840586 2031782.8374260962 0 0 0 0 8225064.5282987906 3649750.8590502841 0 3649750.8590502841 -36693540.682486489 0 0 0 0 116392614.67193604 -12321109.972366333 0 -12321109.972366333 -42663925.814849854 0 0 0 0 30100578.658700943 29524115.606704712 0 29524115.606704712 -38689646.583282471 0 0 0 0 -72843341.325656891 57029824.83316803 0 57029824.83316803 -62828079.153533936 0 0 0 0 6361084.8040107898 18389770.403291114 0 18389770.403291114 -59141111.035327621 0 0 0 0 1651363.8175271768 13378951.063309906 0 13378951.063309906 -34220531.723152444 0 0 0 0 64355182.832687378 -88975628.712432861 0 -88975628.712432861 718712524.13476562 0 0 0 0 73424070.37430954 -5597527.5672645569 0 -5597527.5672645569 -57508198.176549911 0 0 0 0 -15739884.36510396 42635772.074337482 0 42635772.074337482 -37991496.813278198 0 0 0 0 41590154.595424652 151714479.58753967 0 151714479.58753967 -1158460118.7304688 0 0 0 0 20700723.720256805 23255390.933876038 0 23255390.933876038 -84013543.418075562 0 0 0 0 -16726910.840538025 60379744.590126038 0 60379744.590126038 -120802911.65344238 0 0 0 0 26530439.228538513 -65802641.674423218 0 -65802641.674423218 -136462782.64015007 0 0 0 0 1859040.3473347425 -17720359.532791615 0 -17720359.532791615 -31991117.678497314 0 0 0 0 3660493.9824714046 2201432.9352921434 0 2201432.9352921434 -10340249.692138642 0 0 0 0 8460368.5374727249 45992957.590602875 0 45992957.590602875 -71881629.050323486 0 0 0 0 8281149.9109886093 4773749.4288452435 0 4773749.4288452435 -38434807.953022912 0 0 0 0 28786426.790039062 53154065.424476624 0 53154065.424476624 28964773.597518921 0 0 0 0 2008896.987018466 -20454656.198976755 0 -20454656.198976755 -55222814.016113281 0 0 0 0 14159462.209262848 -13106999.331665039 0 -13106999.331665039 -51144584.833831787 0 0 0 0 49950627.541519165 46015476.82093811 0 46015476.82093811 -84264195.436889648 0 0 0 0 86062799.494962692 29309130.10111618 0 29309130.10111618 -86350846.893554688 0 0 0 0 85001141.630826712 37320199.551714897 0 37320199.551714897 -77058051.693115234 0 0 0 0 127180230.55889893 44832807.642463684 0 44832807.642463684 -86119581.207168579 0 0 0 0 41601577.705047607 39007795.174072266 0 39007795.174072266 -71635200.019470215 0 0 0 0 80152974.879890442 26268771.807312012 0 26268771.807312012 -67670461.705535889 0 0 0 0 45980604.55381012 32627384.207885742 0 32627384.207885742 -77904154.144241333 0 0 0 0 30335067.031500816 29188533.569974899 0 29188533.569974899 -46808055.979125977 0 0 0 0 64602368.624252319 -11265526.865188599 0 -11265526.865188599 879812.62003707886 0 0 0 0 81542642.984731674 25649779.210083008 0 25649779.210083008 -82866554.579925537 0 0 0 0 78120370.294605255 820872.10475158691 0 820872.10475158691 -72855268.213226318 0 0 0 0 95565312.334499359 7534837.9536590576 0 7534837.9536590576 -72141905.617980957 0 0 0 0 101901072.15689945 -10641673.546787262 0 -10641673.546787262 -102915038.24758911 0 0 0 0 106091491.75883865 -10925952.992523193 0 -10925952.992523193 -106427435.11962891 0 0 0 0 116471882.20612717 -57862954.423995972 0 -57862954.423995972 -131664276.79902649 0 0 0 0 40864923.365867615 -66523676.223960876 0 -66523676.223960876 -104440384.08482361 0 0 0 0 42352973.200957656 -103407515.2572062 0 -103407515.2572062 -75237588.397277832 0 0 0 0 277679883.64914322 -126161956.52075195 0 -126161956.52075195 -157597035.43498993 0 0 0 0 172198190.2221899 -42399432.243156433 0 -42399432.243156433 -130738702.74383545 0 0 0 0 126326964.88056946 -150546365.55963135 0 -150546365.55963135 -157529309.53015137 0 0 0 0 145278496.41172791 -20369720.266021729 0 -20369720.266021729 -145228769.66751194 0 0 0 0 160022401.65372276 -236741.71118164062 0 -236741.71118164062 -117775487.2046814 0 0 0 0 -18633358.081905365 -128454650.29891968 0 -128454650.29891968 -23423046.473796844 0 0 0 0 -52505853.771463394 -90984727.020244598 0 -90984727.020244598 -44083250.585510254 0 0 0 0 -19374532.84091568 -136007739.96702576 0 -136007739.96702576 -92454729.813713074 0 0 0 0 -464109340.48432541 -184301476.82359314 0 -184301476.82359314 36700438.853874207 0 0 0 0 1427560.1734264195 -160660.06020761561 0 -160660.06020761561 -39341.064017668366 0 0 0 0 -289928977.45034027 -437874713.13542175 0 -437874713.13542175 374292461.16204834 0 0 0 0 52881256.030693054 -359074854.13800812 0 -359074854.13800812 15499551.111755371 0 0 0 0 302411684.46334839 -485060027.08073425 0 -485060027.08073425 -9300067.1161422729 0 0 0 0 256408969.06917572 -127166811.04293823 0 -127166811.04293823 268656086.75072861 0 0 0 0 296937996.509552 -383591663.86867523 0 -383591663.86867523 -360400009.22836304 0 0 0 0 153395161.48371887 80720725.71836853 0 80720725.71836853 -60701181.626113892 0 0 0 0 293442341.01504135 8289597.8159942627 0 8289597.8159942627 -144655094.60689616 0 0 0 0 218771538.57484818 -77398779.351791382 0 -77398779.351791382 -197872706.63349915 0 0 0 0 707650163.29222107 2187414.6177520752 0 2187414.6177520752 -186486456.8998642 0 0 0 0 800747494.45881271 327824659.59851074 0 327824659.59851074 -33663610.920753479 0 0 0 0 1172663067.0344086 -197019706.48550415 0 -197019706.48550415 -337924149.77570343 0 0 0 0 212151900.33037567 130229855.22066498 0 130229855.22066498 -99171165.496673584 0 0 0 0 155872445.63291168 71791533.680084229 0 71791533.680084229 -61171056.508169174 0 0 0 0 433103098.85722351 -879659200.2960968 0 -879659200.2960968 1028114280.7997818 0 0 0 0 140498905.9066 229115567.97046852 0 229115567.97046852 154893286.72845459 0 0 0 0 4497283.147533739 -1278912.7061315179 0 -1278912.7061315179 -2206557.6374835335 0 0 0 0 1111683693.6414266 -1386008016.4836702 0 -1386008016.4836702 -1176459121.5211182 0 0 0 0 558277472.90759277 -140711494.57331085 0 -140711494.57331085 106263105.10982513 0 0 0 0 4024011.4891847521 3869081.5693165185 0 3869081.5693165185 -3625269.7209251821 0 0 0 0 1086410876.2222404 -133793790.02891922 0 -133793790.02891922 -472069247.57485962 0 0 0 0 592084969.02771568 -184067302.98891258 0 -184067302.98891258 -13451348.011276245 0 0 0 0 207741107.12731171 -186315627.2640686 0 -186315627.2640686 198110002.09432983 0 0 0 0 -437831384.75263882 -635893844.46039391 0 -635893844.46039391 52622060.614624023 0 0 0 0 193848000.27421951 -218617326.5461731 0 -218617326.5461731 -281980698.86514282 0 0 0 0 1987023.2245994601 1843443.4516081866 0 1843443.4516081866 -1507419.2509007603 0 0 0 0 779318754.46107674 -685645242.87594986 0 -685645242.87594986 -111712121.6925354 0 0 0 0 810783009.85399628 335355725.49714661 0 335355725.49714661 2109149794.2836914 0 0 0 0 96512924.407672882 -493860283.03619385 0 -493860283.03619385 380302857.51629639 0 0 0 0 188229935.06847763 -11616530.116821289 0 -11616530.116821289 -173884704.60818481 0 0 0 0 802197154.83607674 238178326.47630692 0 238178326.47630692 -225768549.41442871 0 0 0 0 -815682250.77971363 -743269924.97729111 0 -743269924.97729111 -539685716.27813721 0 0 0 0 185282897.02052307 197474514.46417236 0 197474514.46417236 -1450247370.3746643 0 0 0 0 -766881573.85151005 1060357615.8399734 0 1060357615.8399734 -768469922.21638489 0 0 0 0 13166155.566034317 479214027.55015564 0 479214027.55015564 -336185286.08190918 0 0 0 0 -30520775.055271149 428198580.99809837 0 428198580.99809837 -170220374.41792297 0 0 0 0 753854240.78717041 -206986880.78572083 0 -206986880.78572083 -345201724.84335327 0 0 0 0 -404597847.93919134 496527684.07766795 0 496527684.07766795 -185457493.35656738 0 0 0 0 497556864.19630051 -282920610.94375992 0 -282920610.94375992 20985474.031204224 0 0 0 0 2505121.1448965846 2522012.4481199896 0 2522012.4481199896 -2551950.6527263373 0 0 0 0 164117456.78745651 357041105.25143433 0 357041105.25143433 -370631939.06614685 0 0 0 0 236110452.68386841 10598930.683868408 0 10598930.683868408 -243400348.70510864 0 0 0 0 380116166.48577881 -122944573.52078247 0 -122944573.52078247 -159292263.02961731 0 0 0 0 230288270.01729584 -187529801.32344437 0 -187529801.32344437 35769410.821350098 0 0 0 0 274733959.27817345 -102629342.43354988 0 -102629342.43354988 -82074386.275680542 0 0 0 0 146256135.14949799 -93211731.791641235 0 -93211731.791641235 -62891405.901245117 0 0 0 0 158033951.8677783 -16303715.854670525 0 -16303715.854670525 -59441510.944717407 0 0 0 0 217495024.65058899 -27430103.574184418 0 -27430103.574184418 -57907718.31678772 0 0 0 0 20884071.284469604 11067264.640350342 0 11067264.640350342 -14511177.116096497 0 0 0 0 1897924.6995307372 17406153.740871798 0 17406153.740871798 -18795669.5980075 0 0 0 0 17285937.474945068 13848164.890918732 0 13848164.890918732 -13995310.450881958 0 0 0 0 49408573.253540039 -5704337.2829208374 0 -5704337.2829208374 -6724973.217590332 0 0 0 0 15812307.291284308 4490130.0595536828 0 4490130.0595536828 -11843461.425936155 0 0 0 0 89781956.538063049 -5552628.8678359985 0 -5552628.8678359985 -23466360.010322571 0 0 0 0 21022705.258094788 -1516418.1165771484 0 -1516418.1165771484 -19735975.1199646 0 0 0 0 19424144.388633728 8955720.0668106079 0 8955720.0668106079 -18795949.122894287 0 0 0 0 22576040.157161713 16296329.588470459 0 16296329.588470459 -25419641.90045166 0 0 0 0 -115051.20922683924 366768.38904540613 0 366768.38904540613 -1046353.994158078 0 0 0 0 8579697.3147087097 -1204332.9020618312 0 -1204332.9020618312 -23280589.735032059 0 0 0 0 8104125.8634426165 4054215.0497121289 0 4054215.0497121289 -29299522.320347019 0 0 0 0 16671959.907848358 1571416.4176445007 0 1571416.4176445007 -21558244.203109741 0 0 0 0 5492956.2530441284 -3047003.4212188721 0 -3047003.4212188721 -48165742.574142456 0 0 0 0 12643469.996025085 4399852.4672851562 0 4399852.4672851562 -40855067.714883804 0 0 0 0 -863802.88092422485 8173310.7605056763 0 8173310.7605056763 -60272648.469467163 0 0 0 0 42320173.633846283 7333010.0815124512 0 7333010.0815124512 -135485837.53662872 0 0 0 0 11484590.091614559 -583565.92671062797 0 -583565.92671062797 -6282782.0507783853 0 0 0 0 -34480448.859527588 -59255873.934474945 0 -59255873.934474945 -42979468.123382568 0 0 0 0 232827152.534935 -141274398.94665527 0 -141274398.94665527 77682380.88772583 0 0 0 0 49972064.248725891 -73692321.969581604 0 -73692321.969581604 78268505.281845093 0 0 0 0 
</DataArray>
<DataArray type="Float64" Name="cross_section_updated" format="ascii">
1 1 0.048954260697056606 1 1 1 1 0.048956490618696322 1 1 1 1 1 1 1 1 1 1 1 1 0.046046131319347483 1 1 1 1 0.046038646371991204 1 1 1 1 1 1 1 0.045922501242286931 1 1 1 1 1 1 1 1 0.041288786629842034 1 1 1 1 1 1 1 1 1 1 1 0.040393397789373175 0.051332335221664319 1 1 1 1 1 1 1 1 0.031901800619137166 1 1 1 1 1 1 1 1 1 1 1 1 1 1 1 1 1 1 1 1 1 1 0.036761993740716051 1 1 1 1 1 1 1 1 1 1 1 0.046122205735133689 1 1 1 0.048403454961476536 1 1 1 1 1 1 1 1 1 1 1 1 1 1 1 1 1 1 1 1 1 1 1 1 1 1 1 1 1 1 1 1 1 1 1 1 1 1 1 1 1 1 1 1 1 0.050207554180761532 1 0.045946598156068205 1 1 1 1 1 1 1 1 1 1 1 1 1 1 1 1 1 1 1 1 1 1 1 1 1 1 0.047658333289982556 1 1 0.049588181562415755 1 0.048707540232658039 1 1 1 1 1 1 1 1 1 1 1 1 1 1 0.053241368724569166 1 0.04025358923007092 1 1 1 1 1 1 1 0.04350120284707281 1 0.039593048153530319 1 1 1 1 1 1 0.051440760314261327 1 1 0.036693854065948911 1 1 1 1 1 1 0.03402916370788877 0.023064789087519785 1 1 0.050257188431120044 1 0.035264771272900869 1 0.049856354566447166 0.043157368342441743 1 1 1 0.032476926634452272 1 1 1 1 1 1 1 1 1 1 1 1 1 0.015874175102135915 1 1 1 1 1 1 1 0.0088271784009992423 1 1 1 1 1 1 1 0.0031392758868553361 1 1 1 1 0.048195125185977031 1 1 1 1 1 1 0.049979993262764269 1 1 1 0.044935125188696468 1 1 1 1 1 1 1 0.042374883991824319 1 1 1 1 1 1 0.050926010626504883 1 1 1 1 1 1 0.048161826264560767 1 1 1 1 1 1 1 0.048497480298478404 1 1 1 1 1 1 1 1 1 1 1 1 1 1 1 1 1 1 1 1 1 0.046266770979740982 0.049865706856247499 1 1 1 1 1 0.055774102154573478 1 1 1 1 1 1 1 0.036520365626902959 1 0.062919986309013631 1 1 1 0.041266157363876954 1 1 1 0.049368754613111451 1 0.049969639735195914 1 1 1 1 1 1 1 0.019437156545170267 1 1 1 1 1 1 1 -2.7755575615628914e-17 1 1 1 0.049797096559708293 1 1 1 1 1 1 1 1 1 1 1 1 1 1 1 1 1 1 1 1 1 1 1 1 1 1 1 1 1 1 1 1 0.013313081604731034 1 1 1 1 1 1 1 1 1 1 1 1 1 1 1 1 1 1 1 1 1 1 1 1 1 1 1 1 1 1 1 1 0.050260764354703641 1 1 1 1 1 1 1 1 1 1 1 1 1 1 1 1 1 1 1 1 0.050176748574710946 1 1 1 1 1 1 1 0.049701944565439457 1 1 1 1 1 0.049241107959364941 1 1 0.049989919751871247 1 0.048841997244064683 1 1 1 1 0.047128771994767678 1 1 0.04539060139246566 1 1 1 1 1 1 0.045028778797751315 1 1 1 1 1 1 1 1 1 1 1 1 1 1 1 1 1 1 1 0.045572846134301431 1 1 1 1 1 1 1 1 1 1 1 0.048875123960141292 0.046647095695545364 1 1 1 1 1 1 1 1 1 1 1 1 1 1 1 1 1 1 1 1 1 0.05019180841411347 1 0.049995316039358792 0.050923228340594096 1 1 0.049239452945310555 1 1 1 1 1 1 1 1 1 1 1 1 1 0.052324633404858746 1 1 1 1 1 1 1 0.051859791742129742 0.051782264978814677 1 1 1 1 1 1 1 1 0.048980925589840199 0.049486223080001529 1 1 1 0.050668241615912261 1 1 1 1 1 1 1 1 1 1 1 1 1 1 1 1 1 1 1 1 1 1 1 1 1 1 1 1 1 1 1 1 1 1 1 0.050140743824604449 1 1 0.049948811623128545 1 1 1 1 0.049779258555526687 1 1 1 0.05008348310796016 1 1 1 0.050041451398079383 1 1 0.050042073258659003 1 1 1 1 1 1 1 1 1 1 1 1 1 1 1 1 1 1 1 1 1 0.04983576361742633 1 1 1 0.049872624285315137 1 1 1 1 1 0.049815918480993288 1 1 1 1 1 1 0.049965706011874202 1 1 1 1 1 1 1 1 1 1 1 1 1 1 1 1 1 1 0.04992884512510895 1 1 1 1 1 1 1 1 1 1 1 1 1 1 1 1 1 1 1 1 1 0.049830446932398152 1 1 1 1 1 1 1 1 1 1 1 1 1 1 1 0.049794424661100123 1 1 1 1 1 1 1 1 1 1 1 1 1 1 1 1 1 1 0.039996851931206223 1 1 1 1 1 1 1 0.049798500740866773 1 1 1 1 1 1 1 1 1 1 1 1 1 1 1 1 1 1 1 1 1 0.047811695951219188 1 1 1 1 1 1 1 1 1 0.043708039726166756 1 1 1 1 1 1 1 1 0.0076401528599968072 1 1 1 1 1 1 1 1 1 1 1 1 1 1 1 1 1 1 1 0.011191254614796167 1 1 1 1 1 0.0024809656338516551 1 1 1 0.050141479365023001 1 1 1 1 1 1 0.050788365507565485 1 1 1 1 1 1 1 1 1 1 0.048095643690216197 1 1 1 1 1 1 1 1 1 1 1 1 0.049273413971251137 1 0.043941083390263473 1 1 1 1 1 1 1 0.010525160137664599 1 0.045328231533621199 1 1 1 1 1 1 1 1 1 1 1 1 1 1 1 1 1 1 1 1 1 1 1 1 1 1 1 1 1 1 1 1 1 1 1 1 1 1 1 1 1 1 1 1 1 0.045318304365771334 0.0453102963903491 1 1 0.050151299665032928 1 1 1 1 1 1 1 1 1 1 1 1 1 1 1 1 0.051824664837366551 1 1 1 1 0.0071146194713401986 1 1 0.049481452511688506 1 1 1 1 1 1 0.01269501589496929 1 0.016454288224281841 1 1 0.050118085939172344 1 1 1 1 1 1 1 1 1 1 0.050400859157276753 1 1 1 1 1 0.045342410593150778 0.049955934213887845 1 1 1 1 0.034517512685818229 1 1 0.032988595444119119 1 0.038113086675013251 1 1 1 1 1 0.046644708093053946 1 1 0.049988146579186689 1 1 1 1 1 1 1 1 1 1 1 1 0.048184985126175528 1 1 1 1 1 1 1 1 1 1 1 1 1 1 1 0.048383611577095045 1 0.049997212736414123 1 0.046612389934304693 0.046619600694308157 1 0.04710178491223533 1 1 0.049962917817709562 1 1 1 1 1 1 0.05798125764759212 1 0.050175372613874093 1 1 0.059168325617886861 1 1 1 0.032498150559638013 1 1 0.049955723609428571 1 1 1 1 1 0.042553650050295905 1 1 0.046416334599541746 1 1 1 1 1 0.049445463054609777 1 0.035584019329320822 1 1 0.033824187001689938 1 1 0.043372151273279522 1 1 1 1 1 1 1 1 0.045364133499439088 1 1 1 1 1 1 1 1 1 1 0.047256630529860844 1 1 1 1 0.051675390786073624 1 1 0.055600837521346175 1 1 1 1 1 0.036709272212817785 1 1 1 1 1 0.050006606651797077 1 0.050253160888592927 1 1 1 1 1 1 0.049359752334456768 1 1 1 1 1 1 1 1 0.039085280108988582 0.042233745147204946 0.04902952145741183 1 1 1 1 0.040080933219663523 1 0.049827374568584291 1 1 1 0.031181477146737573 0.049967501550778212 1 1 1 0.047721795951791046 1 1 1 0.042335415660057774 1 0.050055286212776162 1 0.04789957399745351 0.035624749014110932 1 0.050000304190725861 1 1 1 1 0.041549804633128934 1 1 1 0.049497551449277574 1 0.04735796184108413 1 0.036185286583086534 1 1 1 1 1 1 1 0.049748609081272398 1 1 1 1 0.035566568826651906 1 1 1 1 1 1 1 1 0.050012260483483555 1 0.049176280710767802 0.048710194280260785 1 1 1 0.048603788851078529 1 1 1 1 0.048865520476704685 0.046693835998762194 1 1 0.035622923769903156 0.04987041164155593 1 1 1 1 1 0.049949426565016761 1 1 1 1 1 1 1 1 0.049950022849404543 1 0.049904891896997775 1 1 1 1 1 1 1 1 1 1 1 1 1 1 1 1 1 0.049956047188505652 1 1 1 1 1 1 1 1 1 1 1 1 1 1 1 1 1 1 1 1 1 1 1 1 1 0.050040356625915564 1 0.049859597988863753 1 1 1 1 1 0.050002873541293957 0.049989809723754115 1 1 1 1 0.048254683959704739 0.050466382614545627 1 0.051515787756045206 1 1 0.048372263755696032 1 1 0.049638585166719026 1 1 1 1 0.048962454799073844 0.050063705751081086 1 1 1 1 1 1 1 1 0.050003525281902349 1 1 0.050014679992212353 1 1 1 0.049967477712737005 1 1 0.049995480862246887 1 1 1 1 1 1 0.050074276290733077 1 1 1 1 1 1 0.049492251431905013 1 1 1 1 1 0.050273185052114915 1 1 0.049117760169365469 0.049258878649894741 1 1 0.048648738359907545 1 1 0.049993969527824991 1 1 1 1 1 1 1 1 1 1 1 1 0.050051891438258632 1 0.046771953919852532 1 1 0.04843339670586265 1 1 1 1 1 1 0.050007111063572487 1 1 1 0.049667777110186676 0.049368688594049463 0.049996568200367769 1 1 1 0.040002699690024873 0.051180329796425277 1 0.04745110425771757 0.04569861255692495 1 1 0.049352661368886226 1 1 0.049572447753832877 1 0.049488392635287537 1 0.05106569026338599 1 1 1 0.047717289366745824 0.049651418043539779 1 1 0.047038393733774768 0.051418651086238998 0.050393562283190425 0.050098978250925186 1 1 1 0.050781976589492475 0.048144511181195206 1 1 0.049761928186672237 0.049456396959474513 0.048329370203208974 1 0.0528050773855979 0.047970942287176604 1 1 0.043373969433930626 1 0.048981555374329952 0.046862308867113664 1 0.044537656669490736 1 1 0.050485387214962936 1 0.046995346583766008 0.049926473568779751 1 1 1 1 0.049513051880609511 0.048773689314476412 1 1 0.050032540127446901 1 1 1 0.049661854763266247 1 1 1 1 1 1 1 1 1 1 1 1 1 1 1 1 1 1 1 1 1 1 1 1 1 1 1 1 1 1 1 1 1 1 1 1 1 1 1 1 1 1 1 1 1 1 1 1 1 1 1 1 1 1 1 1 1 1 0.043130484757857315 1 0.048312550510504634 1 1 1 1 1 1 1 1 1 1 1 1 1 1 0.044891653479031401 1 1 1 1 1 1 1 1 1 1 0.047472588867362227 1 1 1 1 1 1 1 1 1 1 1 1 1 1 1 1 1 1 1 1 1 1 1 1 1 1 1 1 1 1 1 1 1 1 1 1 1 1 1 1 1 1 1 1 1 1 0.050199864280229656 1 1 1 0.050812487791402211 1 0.048934212897509495 1 1 1 1 1 0.047222982215288825 1 0.046887305285889067 1 1 1 1 1 1 1 1 1 1 1 1 1 1 1 1 1 1 1 1 1 1 1 1 1 0.048769572985868551 1 1 1 1 1 1 0.038882588939959842 1 0.046124822706439451 1 1 1 0.029114090932130347 1 1 0.032701646557373037 1 1 1 1 1 1 1 1 1 1 1 1 1 1 1 1 1 1 1 1 1 1 1 1 1 1 1 1 1 1 1 1 1 1 1 1 1 0.053379880525791783 1 0.043072745737536187 1 1 1 1 1 1 1 1 1 1 0.050109708927195594 1 1 1 1 1 1 1 1 1 1 1 1 1 1 1 1 1 0.041496962512972177 1 1 1 0.050011810865293778 0.04594530490643655 1 0.050513925746288608 1 1 1 1 1 1 1 1 0.046876961855411917 1 1 1 1 0.047608245154901377 1 1 1 1 1 1 1 0.049961512163964279 1 1 0.028381054025680023 1 0.035437892481300373 1 1 0.04980453560494584 1 1 0.060781935972261392 0.050031375969288264 1 1 1 1 1 1 1 1 1 1 1 1 1 1 1 0.027257105469888784 1 0.055059508276188968 1 1 1 0.041085189012160447 1 0.052861201785304693 1 1 1 1 1 1 1 1 1 1 1 1 0.05021226133416333 1 0.047382681240863186 1 1 1 1 1 1 1 1 0.050085206322574516 1 1 0.050246959668338163 1 1 1 0.041331803506888497 0.044339255593420099 1 1 1 1 1 1 1 1 1 1 1 1 1 1 1 1 1 1 1 1 1 0.049749630660523361 1 1 1 1 1 0.050003613961181748 1 0.050448085633103518 1 1 1 1 0.049099247246230562 1 1 0.043561280902248201 1 1 1 1 1 0.040073401005621512 1 1 1 1 0.035903815454140071 1 1 1 1 1 1 1 0.048152468968732758 1 1 1 0.045293960681531714 1 1 1 1 1 1 1 1 1 1 1 0.046784962772860893 1 1 1 1 1 1 1 1 0.049740529515766588 1 1 1 1 1 1 0.049350122374269556 1 1 1 1 1 1 0.049189245693244607 1 1 1 1 1 1 1 1 1 1 1 0.050062533662835466 1 1 1 0.050203489034614628 1 1 1 0.043315659544159668 1 0.044061317519465418 1 1 1 1 1 1 0.049579652834741639 1 1 1 1 1 1 1 1 1 1 1 1 1 1 1 0.04431024890888436 1 1 1 1 1 0.040387078079245707 1 1 1 1 1 1 1 1 0.046102398777469571 1 1 1 1 1 1 1 1 1 1 1 1 1 1 1 1 0.050935424396091389 1 1 1 1 0.04820062568527738 1 1 1 1 1 1 1 1 1 1 1 1 1 1 1 1 1 1 1 1 1 1 1 1 1 1 0.043329056822927141 1 1 1 0.050042261601445148 1 0.049009705732987914 1 1 1 1 0.046509434163858221 1 0.048596436499891045 1 1 1 1 1 0.049414429644717414 1 1 1 1 1 1 1 1 1 0.04161389577217299 1 1 1 1 1 1 1 1 1 1 1 1 1 1 1 1 1 1 1 1 1 1 1 1 0.052144941422324925 0.048254503031259936 1 1 1 1 1 0.049804694862519726 1 1 1 0.051084044558378131 1 1 1 0.052969749594388188 1 1 0.04515470017574913 1 0.05046481825953246 1 1 1 1 0.050505516569615848 1 1 1 1 0.050678113578227185 0.0500403505410945 1 1 1 1 1 1 1 1 1 1 1 1 0.050335576184968346 1 1 1 1 0.050004342662746386 1 1 1 1 1 0.048190628085279193 1 1 0.049369864229519694 1 1 1 1 1 1 1 1 1 1 1 1 1 1 1 1 0.050016515098666448 1 1 0.049592628908951705 1 1 1 0.049209234800347272 1 1 1 1 1 1 1 1 1 1 1 0.049616605891395577 1 1 1 1 1 1 1 1 1 1 1 1 1 1 1 1 0.049855719727584347 1 1 0.037557654335251822 1 0.044343158155029427 1 1 0.046551259143494464 1 0.049548068623267563 1 0.04752975267687283 1 1 1 1 1 1 1 1 1 1 1 1 1 0.048952069152010523 1 0.047361639365523477 0.050092665122518962 1 1 0.049769004814974996 0.049710305246865739 1 1 0.050000872521536344 0.049432329766563379 1 1 1 0.050421273088868422 1 0.048532673393827566 1 1 0.047710131582393248 1 1 1 1 0.048874705370368254 0.052873715957686258 1 0.042366786735210653 1 1 0.050118456665151523 0.049970461465661607 1 1 0.048841668772746892 1 1 1 0.048303119471460668 1 1 1 0.047681384455784764 0.043362360642311408 0.04856110044194778 1 1 0.04932443332226874 1 0.032752336867742808 0.049980930153459162 1 1 1 1 1 1 1 1 1 1 1 0.048986462258357073 0.048161651425892606 1 0.046351421926955724 1 0.050882332401885645 1 0.049858458626539523 1 1 1 0.04996994109741687 1 1 1 1 1 0.049295773901292042 1 1 1 1 1 1 1 1 1 1 1 1 1 1 1 1 1 1 1 1 1 1 1 1 0.047619531092863508 1 1 1 1 1 1 1 1 1 1 1 1 1 1 1 1 1 1 0.047763144667192454 1 1 1 1 1 1 1 1 1 1 1 0.047763442899030013 1 1 1 1 1 0.049942114457712308 1 1 1 1 1 1 1 1 1 1 1 1 1 1 0.048779164016063074 1 1 1 1 1 1 1 1 1 1 1 1 1 1 0.05036658949151876 1 0.044883538497138609 1 1 1 1 0.046617763512248757 1 1 1 1 1 1 1 1 1 1 1 1 0.049120686584206139 1 0.05007175896318556 1 1 1 1 0.050994054966646704 1 1 1 1 1 1 1 0.046141312141539582 1 1 1 1 1 1 1 0.049997509830686272 1 1 1 0.049403665728306428 1 0.049999364486116381 1 1 1 1 1 1 1 1 1 0.04918530956350492 1 1 1 1 1 1 1 1 1 1 1 1 1 1 1 1 1 1 1 1 1 1 1 1 1 1 1 1 1 1 1 1 1 1 1 1 1 1 1 1 1 1 1 0.049935116060308815 1 1 0.052209583954090033 1 1 1 1 1 1 1 1 1 1 0.049979362132285897 1 1 1 1 1 0.049614104122558379 1 1 0.050729276199554446 1 1 1 1 1 1 0.050524146940259633 1 1 1 1 0.049990500810147651 1 1 0.049661202964856314 1 0.050091717361226834 1 1 1 1 1 1 1 1 1 1 1 0.049940642163518095 1 0.050251452453617923 1 1 1 1 0.049955623831446569 1 1 1 1 1 1 1 1 1 1 1 1 1 1 1 1 1 1 1 1 1 0.047780637900050847 1 1 1 1 0.049150995941250206 1 1 1 1 1 1 1 0.050060988955096981 1 1 1 1 1 0.046896944604484507 1 1 1 0.046137589166303269 1 1 1 0.048130166924131051 1 1 0.049128487007127568 1 1 1 0.048548281634528914 1 1 0.04949480289944598 1 1 1 1 1 1 1 1 1 1 1 1 1 1 1 1 1 1 1 1 1 1 1 1 1 1 1 1 1 1 1 0.048861185918866699 1 1 1 1 1 1 1 1 1 1 1 0.047578960743156741 1 1 1 1 1 1 1 1 1 1 1 1 1 1 1 0.042925421773574446 0.047903323572778406 1 1 1 0.048072404929289825 1 1 1 1 0.0460475668521984 1 1 0.047883557809401921 1 1 1 1 1 1 1 1 1 1 1 1 1 0.044850285886015882 0.048068397752874345 1 1 1 1 1 1 1 1 1 1 1 0.037043658715517375 1 1 0.043861048054079171 1 1 1 1 1 1 1 1 1 1 1 1 1 1 1 1 1 1 1 0.040402104656503277 1 1 1 0.049853874646187943 1 1 1 1 1 0.05245710630469487 1 1 1 1 1 1 1 1 1 1 1 1 1 1 1 1 1 1 1 1 0.046209682812259588 1 1 0.048056317408025115 1 1 1 1 1 1 1 1 1 1 1 1 1 1 1 1 1 1 1 0.045246040478613643 1 1 1 1 1 1 1 1 1 1 1 1 1 1 1 1 1 1 1 1 1 1 1 1 1 1 1 1 1 1 1 1 0.049590612161117049 1 1 1 1 1 1 0.033561155996561329 1 1 1 1 1 0.034730848412999241 1 1 1 1 0.036568798322000454 1 1 1 1 1 1 1 1 1 1 1 1 1 1 1 1 1 1 1 1 1 1 0.03943142102178944 1 1 1 1 1 1 1 0.045576098133757147 1 1 0.045401202500438664 1 1 0.050444099544053538 1 1 1 1 1 1 0.047787851666890729 1 1 1 1 1 1 1 1 1 1 0.05917691722793874 1 0.03821388070292131 1 1 1 1 1 1 1 1 0.050107039643359573 1 1 0.060604441625517487 1 1 1 0.039213693269836154 1 1 1 0.041634461459452321 1 1 1 0.049840814730396539 0.048900059924195348 1 1 0.053851037571110684 1 1 0.05375454144088912 1 1 0.049780118558535626 1 1 1 1 1 1 1 1 1 0.049780175137597124 1 1 1 0.053400117579162208 1 1 1 0.053516653794032427 1 1 1 0.049980025324753069 1 0.049951388453290037 1 1 0.051805454496411878 1 1 1 1 1 1 1 1 0.052091989154705073 1 1 0.051773407797896881 1 1 1 1 1 1 1 1 1 1 1 1 1 0.052352116968591204 1 0.050020176737677814 1 1 1 0.052383884161021299 0.047423708395758483 1 0.050997764173014937 1 1 1 1 0.049968819698568347 1 0.047375258707462314 1 1 1 1 1 1 1 1 1 0.049207253546132139 1 1 1 1 1 1 1 1 1 1 1 1 1 1 1 1 1 1 1 1 1 1 1 1 1 1 1 1 0.050641729184541004 1 1 1 1 1 1 0.049051078722639717 1 1 1 1 1 1 0.049279891394280011 1 1 1 1 1 1 0.049744180621272387 1 1 1 0.049980957771279338 1 1 1 0.05004310864756057 1 1 0.054136730053480658 1 1 1 1 1 1 0.050095696815132915 1 1 1 0.05747043642866291 0.045213510665221474 1 1 1 1 1 1 1 1 1 1 1 1 1 1 1 1 1 0.046940809909566672 1 1 1 1 1 1 1 0.049902986702288529 1 1 1 1 1 0.052671693571821845 1 1 1 1 1 0.050158494608410924 1 1 0.038248492421641717 1 1 1 1 0.049949854971821771 1 1 1 1 1 1 0.020267839558611611 1 0.05312492107959095 1 0.019940719875572124 0.054562003208882853 1 0.051194966465621404 1 1 1 0.04670353879259026 1 1 1 1 1 0.042051362473466004 1 1 1 0.048279589746643078 1 1 1 1 0.045332037559040958 0.05093776898042876 0.042460291847454069 1 1 1 1 0.049815043211822695 0.048577038914244454 1 0.047102892334352081 1 1 1 1 1 1 0.049987861748483547 1 0.055985495265259137 1 1 0.050111031763427169 1 1 1 0.054049336984950916 1 1 0.045924236811670995 1 1 1 1 1 1 1 1 1 1 1 1 0.049552616516983408 1 1 1 1 0.055866417235047934 1 1 1 1 0.056415532668020144 1 1 1 1 1 1 1 1 1 0.048663433027355554 0.051692587756229202 0.039627341789208681 1 1 1 0.049999000088439174 0.049972396480666842 1 1 0.049615101151504755 1 0.052029031286896274 1 1 1 1 1 1 1 0.029660964157601267 1 1 1 1 1 1 1 1 1 1 1 1 1 1 1 1 0.049817158337763207 1 1 1 1 1 1 1 1 1 0.049460863282330209 1 1 0.05746281391947887 1 0.046759921485716144 1 0.049827727060853207 1 1 0.031198582157449556 1 1 1 0.049996218420644972 0.047630619762283589 1 1 0.050776303318180685 1 1 1 0.03025836356823388 1 1 1 1 0.050274028219635808 1 1 1 1 1 1 1 1 1 1 1 0.047257322970714444 0.049950912052125852 1 1 1 1 1 1 1 1 1 1 1 1 1 1 1 1 1 1 1 1 1 1 1 1 1 1 1 1 1 1 1 1 0.049882234341164067 1 1 1 1 1 1 1 1 1 1 1 1 1 1 1 1 1 1 1 0.038631964639870862 1 1 1 1 1 1 0.049957733862758529 0.045702088066992205 1 1 0.046991171213744756 0.047003509693001017 1 1 1 0.046354662474500333 1 1 1 1 1 1 1 1 1 1 1 1 1 1 1 1 1 1 1 1 1 1 1 0.042823617851236354 1 0.046110465700070186 1 0.047595310381553471 1 1 1 1 1 1 0.05614210086952133 1 0.047966422486013058 0.04627281690153584 1 1 0.023121963711382691 1 1 1 1 1 1 0.050037485768002682 0.018356731178092917 1 1 0.048126933445444449 0.051349173692482528 1 1 0.05524990301698552 0.050013212326029677 1 1 1 1 1 1 1 1 0.055863823117214904 1 1 1 1 1 0.053055423460953495 1 1 0.018306662080101895 1 1 1 0.05008615899855514 1 1 1 1 1 1 1 1 1 1 1 1 1 1 1 1 1 1 1 1 1 1 1 1 1 1 1 1 1 1 1 1 1 1 0.04929878404069557 1 1 0.064107028318798234 1 0.028740949146104908 0.056522721580289537 1 1 1 1 1 1 1 1 1 0.031121836161363388 1 1 1 1 1 0.033586790973349906 1 1 1 1 1 1 1 0.049469986055727083 1 1 1 1 1 1 1 1 0.048396815372488508 1 1 1 1 1 0.047385662629981236 1 1 1 1 1 1 1 1 1 1 1 1 1 1 1 1 1 1 1 1 1 1 1 1 1 1 1 1 1 1 0.049792779859052019 0.049788536308118574 1 1 1 1 1 1 1 0.048871230477955364 1 1 1 0.049469860259296575 1 0.049407691613658836 1 1 1 1 1 1 1 1 1 1 1 1 1 1 1 1 1 1 1 1 1 0.049861815447870703 1 1 1 1 1 1 0.049142227087268564 1 1 1 1 1 1 1 0.052408893854240732 1 1 0.049964095567304016 1 1 1 1 1 1 0.050022959714963129 1 1 1 0.049200935783326322 1 1 0.046617470494603831 0.050926855874405146 1 1 1 1 1 1 1 1 1 1 1 1 1 1 1 1 1 1 1 1 1 1 1 1 1 1 1 1 0.049515367949632093 1 1 1 1 1 1 1 1 1 1 1 1 1 1 1 1 1 1 1 0.061372829184595135 1 1 1 0.055914120607855763 0.04996643807000805 1 1 1 1 1 0.04998008110253889 1 1 1 0.049757635326129368 1 1 1 1 1 0.049623967650779699 1 1 1 1 1 1 1 1 1 1 1 1 1 1 1 1 1 1 1 1 1 0.04990753434239327 1 1 1 1 1 1 0.050209717973767748 1 1 1 1 1 1 1 1 1 1 1 1 0.049919883067065449 1 1 1 1 0.046738977783497331 1 0.049919760164133395 1 1 1 1 1 1 1 1 1 1 1 1 1 0.050952409958059469 1 1 1 1 1 0.053064373923008473 1 1 1 1 1 1 0.04674792108819735 1 1 1 1 1 1 1 1 1 1 1 1 0.046606496735195464 1 1 0.041037161959505936 1 1 0.051407091971833338 1 1 0.050374623317664957 1 1 1 1 1 1 1 1 1 1 0.035770182908338874 1 1 1 1 1 1 1 1 0.049947807769929492 1 1 1 0.050021020658488721 1 1 1 0.048851528968981248 1 1 0.030961795073445986 1 1 1 0.045172855262624857 1 1 1 1 1 0.03114150333459173 1 0.050002461301580529 1 1 1 1 0.050033627085903601 0.036064376928046968 1 1 1 0.050694540777816592 1 1 1 1 0.050150297790085799 1 1 1 1 1 1 1 1 1 1 1 1 1 1 1 0.049626531485072914 1 1 0.032479611078878361 0.035982702952537304 1 1 1 1 0.037842231115717197 1 1 1 1 1 1 0.04753793159727817 1 1 1 1 1 1 0.049193598058519361 1 1 1 1 1 1 1 1 0.050550164959721006 1 1 1 1 1 1 1 1 1 1 0.049439857802033638 1 1 0.050327841300826008 1 1 0.047100016433701736 1 1 1 1 1 0.042494844309922633 0.05005075991059417 1 1 0.050000293777589661 0.04842924531511391 1 0.047119091058412124 1 0.051388748320766425 1 0.049681913447837678 0.051266157860303453 1 1 0.049670272535451768 1 0.045227386201405845 1 0.051550987002076276 1 0.048849920686330046 1 0.046630830687796117 1 1 0.049971468984892631 1 0.041664565910701952 1 0.041932671263986379 1 1 1 1 1 1 0.035042559487571887 1 1 1 0.049966052715948082 1 1 1 1 1 1 1 1 1 0.047833373538197048 1 1 0.036762249896596627 1 0.049322320725611629 1 0.052206396180691839 1 1 1 0.054705450403511817 0.048710793031447257 1 1 1 1 1 1 1 1 1 1 1 0.049841982942180764 1 1 1 1 1 0.050061317578985728 1 1 1 1 1 1 1 1 1 1 1 1 1 1 1 1 1 0.050048328973883172 1 1 1 1 1 1 0.044991884337733198 1 1 1 0.045146403718103481 1 1 0.049062478740094395 1 1 1 0.05369104859711997 1 0.046121484184307532 0.04889285573662247 1 1 1 1 1 1 1 1 1 0.052833248037579682 1 1 1 1 1 1 1 0.049889194864133776 1 0.049954113861095308 1 0.049974330291702167 1 1 1 1 1 1 1 1 1 1 1 1 1 1 1 1 1 1 1 1 1 1 1 1 1 1 1 1 1 1 1 1 1 1 1 1 1 0.041571788708300396 1 1 0.04151316721243628 0.054092825029105458 1 1 1 1 0.054943086237062615 1 1 1 1 1 0.041509772787336849 1 1 0.050017733303776651 0.026423838240852732 1 1 1 1 1 1 0.040064844435686517 1 0.049990284014441527 1 1 0.054709947045595862 0.050269413023434045 1 0.042362704163273424 1 1 1 0.048999360034112663 1 1 1 1 0.048767489152815396 1 1 1 0.052531711821090517 1 1 0.040739970952118815 0.050102796442265368 1 1 1 0.047610759138460274 1 1 1 1 0.04968004637638123 1 1 0.049285334272647439 1 1 1 0.045302514972632484 1 1 0.046536666558550883 1 1 1 0.037933805092700501 1 0.037997518824141888 1 1 0.050999389491502109 1 1 0.044007720080434715 0.050027827465863525 1 1 0.042108298179305378 1 0.050055328194915732 0.04447176374035601 1 1 1 1 0.028960443517767664 1 1 1 1 0.025481181180481094 1 1 1 1 1 1 1 1 1 1 1 1 0.050936845421355556 1 1 1 1 0.050001409412905137 1 0.040830523802670562 1 1 1 1 1 0.039572418968974718 0.050002429870815893 0.049971598426401739 1 1 1 1 1 1 1 1 0.042959040142192165 1 1 1 1 1 1 0.052058141561431626 1 1 1 1 0.05460008795029965 1 1 1 1 1 1 1 1 1 1 1 1 1 1 1 1 1 1 0.048315077345547894 1 0.02218239021683531 1 1 0.052615624925205801 0.030576227915402945 1 0.038316316736855621 1 1 0.048955648985561415 1 0.050328464615829571 1 0.051009783043966112 1 0.049546177362156163 1 1 1 1 0.049864728715479895 1 1 1 0.048803427590490348 1 1 1 1 1 1 1 1 1 1 1 1 1 1 1 1 1 1 1 1 1 1 1 1 1 0.049801447620734268 1 1 1 1 1 0.040524282002592976 1 1 1 1 1 1 1 1 1 1 1 0.04955570504540463 1 1 1 1 1 0.049927424721537043 1 1 0.053625806733159073 0.03675974492388899 1 1 1 0.045864059668189502 1 1 0.049931127503600341 0.04555088915273945 1 0.038747191986481008 1 1 1 1 1 1 1 1 1 1 1 1 1 1 1 1 0.049530049369384849 1 1 1 1 0.04996217106543669 1 1 1 1 1 1 1 1 0.049754279733623445 0.049783874656697272 1 1 0.049986654342396325 1 1 1 1 1 1 1 1 1 0.049839551231683578 0.049846408642822485 1 1 0.050000253251213572 1 1 1 0.050011157338302768 1 1 1 1 1 1 1 1 1 1 1 1 1 1 1 1 1 1 1 1 1 1 1 1 1 1 0.049866193479900484 1 1 1 1 1 1 1 1 1 1 1 1 1 1 1 1 1 1 1 1 0.053071897464112526 1 1 1 0.043410294477537095 0.049999937736617039 1 1 1 0.057689168270524935 1 1 0.050327023277586092 1 1 1 1 1 0.04898537527999404 1 0.04492634589960582 1 1 1 1 1 1 1 1 0.051275361888305455 1 1 1 0.05215240177465999 1 1 0.050677622783094588 1 0.049999268975143195 1 1 1 0.046001464152698943 1 1 1 0.038806145499219749 1 1 1 1 1 1 1 1 1 1 1 1 1 1 1 1 1 0.034617719188115681 1 1 1 1 1 1 1 1 1 0.047542367136194974 1 1 1 1 1 1 1 1 0.033460079949803545 1 1 1 1 1 1 1 1 1 1 1 1 1 0.050016356561980252 1 1 1 0.051157198212424232 1 1 1 1 1 1 1 1 1 1 1 1 1 1 1 1 1 1 1 0.043370637449196281 1 1 1 0.047902111869715776 1 0.049966122666559531 1 1 1 0.052241150381145039 1 1 1 0.050021343325336129 0.039975519266318746 1 1 1 1 1 1 1 1 1 1 1 1 1 1 1 1 1 1 1 1 1 1 0.048992547288188727 1 1 1 1 0.047831064847986729 1 1 1 1 0.048838517559797998 1 1 1 1 1 1 1 0.046287786659717084 1 1 1 1 0.047551821831437767 1 1 1 1 1 1 0.049126593902999352 1 1 1 1 1 1 0.049569844223841822 1 1 1 0.049806482909274044 1 1 1 1 1 1 1 1 1 0.049181686978937059 1 1 1 1 1 1 0.047946086296701565 1 1 1 1 1 1 1 1 1 1 1 0.050004745358760941 1 1 0.055076943774500842 1 1 1 1 1 0.049675290240937614 1 1 0.046776660078257551 1 1 1 1 1 1 1 0.053721996936887492 0.036475383144383061 1 1 1 1 0.033010480637844709 1 1 1 1 1 1 0.050003387783079375 1 1 1 1 1 1 1 1 1 1 0.052680784669708242 1 1 1 1 1 1 1 1 1 1 1 1 0.052161545182901697 1 0.049899233758671238 1 1 1 0.067725925191517461 1 1 0.019044347656144461 1 1 1 1 0.066392605465490973 1 1 1 1 1 0.018080362549337634 1 1 1 1 1 1 1 1 0.020310131929207165 1 1 1 1 0.05145841189715708 1 1 1 1 1 1 1 0.050501741558387644 1 1 1 1 1 1 1 1 1 1 0.051233353949980243 1 1 1 0.049125901395828266 1 0.049144461370535394 1 1 1 1 1 1 0.051087632420348188 1 0.047154373627355223 1 0.049893455815035036 1 1 1 1 0.051454111178569656 1 1 1 1 1 1 1 1 1 1 1 1 1 1 0.048935980394686836 1 0.06913786789193016 1 1 1 1 1 1 1 0.050326015541241512 1 1 1 1 1 1 1 1 1 1 1 1 1 0.064199242689734953 1 1 1 1 0.058907785997343275 1 1 1 1 1 1 1 1 1 1 1 1 1 1 1 1 1 1 1 1 1 1 1 1 0.050400754053329902 1 1 1 1 0.027207046111817373 1 1 1 0.049984045690577975 1 1 0.049987606208850011 1 1 0.050007040548808439 1 1 1 1 1 1 1 1 1 1 1 1 1 1 1 0.049999377671997268 1 1 0.050026546073948422 1 1 1 1 1 1 1 0.052145704819689512 1 1 1 1 1 0.052616344311291002 1 1 1 0.043530006060624273 1 1 1 0.04153488626399901 1 1 1 1 1 1 1 0.04236942557234144 1 1 1 0.0505186726838944 1 0.048183268284401407 0.049898412393012084 1 1 1 1 1 0.049804516817499367 1 1 1 1 1 1 1 1 1 1 0.042697928038577311 1 1 1 1 1 1 1 1 1 1 1 1 1 1 1 1 1 1 1 1 1 1 1 1 1 1 1 1 1 1 1 1 1 1 1 1 1 0.050000103893173539 1 1 1 1 1 1 1 1 1 1 1 1 1 1 1 1 0.050008985428789371 1 1 1 1 1 1 1 1 1 0.050000111807499574 1 1 1 1 1 1 1 0.050001944879980921 1 1 1 1 1 1 1 1 1 1 1 1 1 1 1 1 1 1 1 1 1 0.046178232405452324 1 1 1 1 1 1 1 1 1 1 1 1 1 1 1 1 1 0.04564149944952324 1 1 1 1 1 1 1 1 1 1 1 1 1 1 1 1 1 1 1 1 1 1 1 1 1 1 1 1 1 1 1 1 1 1 1 1 1 1 1 1 1 1 1 1 1 1 0.04667541343628423 1 1 1 1 1 1 1 1 1 1 1 1 1 0.045403246168299057 1 0.050042039880504582 1 1 1 1 1 0.05002373701829374 1 1 1 1 1 0.049358728606749815 0.049219851724334948 1 1 1 1 1 1 1 1 1 1 1 1 1 1 1 1 1 0.05060552375052231 0.045584252193715591 1 1 1 1 1 1 0.049769477289281085 1 0.045728612493183746 1 1 1 1 1 1 1 1 1 0.046906035713838209 1 1 1 1 1 1 1 1 1 1 1 1 1 1 1 1 1 1 1 0.048596878589961673 1 1 1 1 1 0.050466414956366543 1 0.051046602750611562 1 1 1 1 1 1 1 0.051291207521512346 1 1 1 0.050580187794245023 1 1 1 0.05431517922520554 1 1 0.054524111094268551 1 1 1 0.028416122609055655 1 1 0.034411693856199355 1 0.024331279502986886 1 0.02339703284395854 1 1 0.037306500124603043 1 1 1 1 1 1 1 1 1 1 1 1 1 1 1 1 1 1 1 1 1 0.049897533431380314 1 0.023791504692755837 1 1 1 1 1 1 1 0.023869621490806788 1 1 1 1 1 1 1 1 1 1 1 1 1 1 1 1 1 1 1 0.049704016340654342 1 1 1 0.049458448701744345 1 1 1 1 1 1 1 1 1 1 0.047240718439936581 1 1 1 1 0.044111294235530313 1 1 0.048986046744670914 1 1 1 1 1 0.042892470969308615 1 1 1 1 0.051446776579385109 1 0.047794869640585477 1 1 0.026685691326032962 1 1 1 1 1 1 1 0.029045089570196171 1 1 0.047822611459204085 1 0.033216867027054939 1 1 1 1 1 1 1 1 1 1 1 1 1 1 1 1 1 1 0.047591123259115971 1 1 1 1 1 1 1 0.049994375434123994 1 1 1 1 0.047256899599020311 1 1 1 1 1 1 1 1 1 0.049527598042926571 1 1 1 1 0.044461699054709702 1 1 1 1 1 1 1 1 1 1 1 1 0.050783436722536913 1 1 1 1 1 1 1 1 1 0.03718244677595986 1 1 1 1 1 1 1 1 1 1 1 1 0.043736300688895974 1 1 0.048489367958897925 1 1 1 1 1 1 1 1 1 0.049533712469083668 0.021949252242607895 0.036886270804739926 1 1 1 0.04999611432600494 1 1 1 1 1 1 0.035980980217681653 1 1 1 0.050385441994638083 0.050217635871465188 1 1 1 1 1 1 1 1 1 1 1 1 0.031033912223311227 1 1 1 0.049814833885766879 0.056232941108600831 1 1 1 1 1 0.054270938574706648 1 1 1 1 0.044696387066233509 1 1 1 1 0.049897966890636941 1 1 1 1 1 0.025888678533940522 0.044723394299883937 0.048439234350753493 1 1 1 0.051137298313391727 0.053975684913021432 1 1 1 1 1 1 1 1 1 0.029423545237134845 0.049925641799969687 1 1 1 0.049698269620798166 0.049802290529206206 1 1 1 1 1 1 1 1 1 1 1 1 1 1 1 1 1 0.028827350315694823 1 0.028312500113565883 1 1 1 1 0.035838641329426352 1 1 1 1 1 1 1 0.03602022144809458 1 1 1 1 1 1 1 0.027732349347775659 1 1 0.047578477772590159 1 0.03734906689665194 0.047799485936463437 1 1 1 0.046513439836442703 0.049986937458989703 1 1 1 0.050142161426028807 0.046347297563389109 1 1 1 1 1 1 1 1 1 1 0.048060145634032589 1 1 1 1 1 1 1 0.042983300389139958 1 1 1 1 0.044247815594644885 1 1 1 1 1 1 0.0350118544519116 1 1 1 1 0.048579202875464966 1 0.03931207627854965 1 1 1 1 1 1 1 1 1 1 1 1 1 1 0.038172295582750912 1 1 1 1 1 1 1 0.033016008045721863 1 1 1 1 0.049930001803562711 1 1 1 0.053742464747294133 1 1 1 1 1 1 1 1 1 1 1 1 1 1 1 1 1 1 1 1 1 1 0.051982296923460271 1 0.050547827176199427 1 1 0.05019794089773616 1 1 1 0.050742017811998566 1 1 0.050905630948192726 1 1 1 1 1 1 1 1 1 1 1 1 1 1 1 1 1 1 1 1 0.049903738377263619 0.051908829238767794 0.051413311934201622 1 1 1 1 1 1 1 1 1 1 1 1 1 0.045732265087043839 1 1 1 0.047857293413839118 1 1 0.047435016816994725 1 1 1 1 0.047980368442032267 1 1 0.042134731012089491 0.051709838996628815 1 1 1 1 0.049952454764219126 1 1 0.049876267648380657 1 0.049951401902723513 1 1 1 1 1 1 1 1 1 1 1 1 0.046347164235014074 1 1 1 1 1 1 1 0.049141119591223678 1 0.050526892825213499 1 1 1 1 0.047102828479240071 1 1 1 1 1 1 1 1 1 1 1 1 1 1 1 1 1 1 1 1 1 1 1 0.048210297422319026 1 1 1 0.050636176733229121 1 0.046014674247294954 1 1 1 0.051264641550667622 1 1 1 1 1 0.050053800487665112 1 1 0.04429119189369192 1 1 1 1 1 1 1 1 0.048843332895391764 1 1 1 1 1 0.049236530827732335 1 1 1 1 1 1 1 1 1 1 1 1 1 1 0.047164094709392423 1 1 1 1 0.047190245515818477 1 1 1 1 1 1 1 1 1 1 1 1 0.049858176986243535 1 1 1 1 0.049585017880755047 1 1 1 1 1 1 1 1 1 1 1 1 1 0.04975883608497831 1 1 0.049616818721375862 1 1 1 0.04881718208896571 1 1 1 1 1 1 1 1 1 1 1 1 1 0.048858398877553673 0.045645777356143794 1 0.052803965450698598 0.047608072742393724 1 1 1 0.051926851972644392 0.040293151036605163 1 0.054578610789282965 1 0.048614559456463903 1 0.044568417679596281 1 1 1 0.053891681052276458 1 0.049743589024382945 1 1 1 1 0.045737450643703548 1 1 1 1 1 1 0.050047989691656816 1 1 1 1 1 0.039336123867384512 1 1 0.050000003731333183 1 1 0.046937056221072249 1 1 0.049982856181016694 1 1 1 1 1 0.043163345360650703 1 0.041879465093222226 1 1 1 1 1 1 1 1 1 1 1 1 1 0.049498578054153648 1 1 0.04988005937497475 1 1 1 1 1 1 1 1 1 0.048011879174500949 1 1 1 1 1 1 1 1 1 0.049597915946642493 1 1 0.04942996064928637 1 0.05198385388930344 1 1 1 1 1 1 1 0.040752299255278165 1 1 1 1 1 1 1 0.047214644519589608 1 0.039411151377474266 1 1 0.039836618775605237 1 1 1 0.049757099300063765 1 1 1 1 0.04936751475352958 1 1 1 1 1 0.050007967123364028 1 1 1 1 1 1 1 1 1 1 1 1 1 1 1 1 1 1 1 1 1 0.048640620593655787 1 1 0.048576760909391906 1 1 1 0.049250816521375931 1 1 1 1 0.049521158196491166 1 1 1 1 1 1 1 1 1 1 1 1 1 1 1 1 1 1 1 1 1 1 1 0.047351515080988379 1 1 1 1 1 1 0.042739946482720628 1 1 1 1 1 1 1 1 1 1 1 1 1 0.050044360866362249 1 0.031959977133903063 1 1 0.052839424700209553 1 1 1 1 0.048603906293836416 0.047388096189130743 1 0.048655579690676215 1 0.048427226111129408 1 1 1 1 1 0.051478328544484135 1 1 0.012727027551403744 0.011211042009431432 1 1 1 1 1 0.064816590386399503 1 1 0.049998295388320117 1 1 1 1 1 1 1 1 0.033417922629558117 0.065184735308564862 1 1 1 0.044923102013932875 1 0.050024158562413649 1 1 1 1 1 0.051933044532868428 1 0.063559364628059681 1 1 1 1 1 0.051183954021515515 0.051651720609849863 1 1 1 1 0.049946109152968557 1 1 1 1 0.050422334393289546 1 1 1 1 1 1 1 1 1 1 1 1 1 1 1 1 1 0.049093411646881788 1 1 0.049662222556176097 1 1 1 0.049849376652766897 1 1 1 1 1 1 1 1 1 1 1 1 1 1 1 1 1 1 1 0.049302023257914968 1 1 1 1 1 1 1 1 1 1 1 1 1 1 0.049931641988614051 0.050208286441663738 1 1 1 0.049897883529162468 1 1 1 1 1 0.049092546185542235 1 1 1 1 1 1 1 1 1 1 1 0.049748352216862836 1 1 0.049898975564095963 1 1 1 1 1 1 1 1 1 1 0.034350001882781048 1 1 1 0.044388399479999313 1 0.045782102016503463 1 0.047322938181970531 1 1 1 0.049992239552516117 0.043994942198208813 1 0.032916490131037687 1 1 0.049189596080878487 1 1 0.048095001965188275 0.032723846834811096 1 1 1 0.042977580377234911 1 1 0.046894874379290394 1 0.042294294206595917 1 1 1 0.044806376327353667 1 1 0.044531426039771456 0.045931521276544998 1 0.045597572636695165 1 1 0.039307951257238398 1 0.047995902048487582 1 1 1 1 1 1 1 1 1 0.049441315369831991 1 1 1 1 1 0.050818793305268631 1 1 1 1 1 1 1 1 1 1 0.041834523191304401 1 1 1 1 0.046245200526079437 0.044414499810146078 1 1 0.048924112860773028 1 0.04730784618257567 1 1 1 1 1 0.052266462259886189 1 1 0.039987855088629988 1 0.049970230009689011 1 1 1 1 1 1 1 0.039800900312169603 1 1 1 1 1 1 1 1 1 0.049887304190974965 1 0.049988827409656239 1 0.05001308362571321 1 0.040569480583362787 1 1 1 1 0.049919070061475487 1 1 1 1 1 0.049777298809881659 0.046697495781710348 1 1 1 1 1 1 0.050285370718140057 1 1 1 1 1 0.039493424904133725 1 1 1 1 0.05058254967650587 1 1 0.044379082303897532 1 0.027773115593920476 1 1 1 0.044884385837068511 1 0.049970582641613429 1 1 0.048331881666719229 0.049997677337684371 0.05064753570765574 1 1 1 1 1 1 0.049995412453010923 0.047808828552721644 0.05093169511547796 1 1 1 1 0.049107189397098031 1 0.04990222249715031 1 0.04854637731356555 1 1 1 1 1 1 0.049979825345676916 1 1 1 1 1 1 1 1 1 1 1 1 1 1 1 1 1 1 1 1 1 1 1 1 1 1 1 1 1 1 1 1 1 1 1 1 1 1 1 1 1 1 1 1 1 1 1 1 1 0.047684326623507467 1 1 1 0.042927052275902274 0.050047274268286833 1 1 1 1 1 1 1 1 1 1 1 1 1 1 1 1 1 1 1 0.051153045207245 1 1 1 1 1 1 1 0.050007235652282073 1 1 0.047979704576361165 1 1 0.046462414997776133 1 1 0.050161595922834215 1 0.044757740089399978 1 1 0.042939416874250132 1 1 1 0.049968911791180029 1 0.042822084229751381 1 0.049555652865941172 0.040981624576243866 1 1 1 0.040502268257912033 0.050077198676227022 1 1 0.041516815041482295 1 1 0.040398061916859483 1 1 1 1 1 1 1 1 1 1 1 1 0.039219669002773697 1 1 1 1 0.039369736661851201 1 1 1 1 0.041523522760174361 1 1 1 1 1 1 1 1 1 0.049903909683426395 1 0.049997342935666982 1 1 1 1 0.051552411946899225 1 1 1 0.051521632234002655 1 1 1 1 1 1 0.053519632447245211 1 1 0.049722877827477502 1 1 1 0.040863344548903377 1 1 1 1 1 1 1 0.053430729794893494 1 1 1 1 1 0.051683974412631478 1 1 1 1 1 1 1 1 1 1 1 1 1 1 1 0.055830368033893484 1 1 1 1 1 0.051069018248842649 1 1 0.048024794109842173 1 0.051486999995747226 1 1 1 1 0.050816719882883381 0.049784841619463137 1 1 0.043800502519162114 1 1 1 1 1 1 1 1 1 1 1 0.049832085052061909 1 0.048415952242979399 1 1 1 1 1 0.049519600038066519 1 1 1 0.049203730563750159 1 1 1 0.048862662991645767 1 1 1 1 1 1 1 1 1 1 1 1 1 0.030687529996547128 1 1 1 1 1 1 1 0.046328101870813418 1 0.046282782886924112 1 1 1 1 1 1 1 0.050252054100980964 0.044732328823992105 1 1 1 1 1 1 1 1 1 0.049217668057317983 1 1 1 1 1 1 0.040864172052080733 0.046298685568670811 0.050047125504456752 1 0.04465594406161711 1 1 1 1 1 1 0.039229614610476957 1 0.049783857874808171 1 0.048767379999174618 1 0.047446532578794491 1 1 1 1 1 1 0.047950960915686479 1 1 0.049938414311583419 1 1 1 1 0.049660745652578941 1 1 1 1 1 1 1 1 1 1 1 1 1 1 1 1 1 1 1 1 1 0.010172571687692242 1 0.050600760017651153 1 1 1 1 1 1 1 1 1 1 1 1 1 1 1 1 1 1 1 1 1 1 1 1 1 1 1 1 1 1 1 1 1 1 1 1 1 1 1 1 1 1 1 1 1 1 1 1 1 1 1 1 1 1 1 1 1 1 0.050246200784628901 1 1 1 1 1 1 1 1 1 1 1 1 1 1 1 1 1 1 1 1 1 1 1 0.049855802368351736 1 1 1 0.051729235119301428 1 0.049627086191975804 1 1 1 1 1 1 1 1 1 1 1 1 1 1 1 1 1 1 1 1 1 1 1 1 1 1 1 1 1 1 1 1 1 1 1 1 1 1 1 0.050872148175826776 1 0.050054419784126711 1 1 1 1 1 1 1 1 1 1 1 1 1 1 1 1 1 1 1 1 1 1 1 1 1 0.044901099952638121 1 1 1 1 1 1 1 1 1 1 1 1 1 1 1 1 1 1 1 1 1 1 1 1 1 1 1 1 1 1 1 1 1 1 1 1 1 1 1 1 1 1 1 1 1 1 1 1 1 1 1 1 1 1 1 1 1 1 1 1 1 1 1 1 1 1 1 1 1 0.039933425879658493 1 1 1 1 1 1 1 0.042176893271370045 1 1 0.050057409389599426 1 1 1 1 1 1 1 1 1 1 1 1 1 1 1 1 1 1 1 1 0.036752277504890726 1 1 1 1 1 1 1 1 1 1 1 1 1 1 1 1 1 1 1 1 1 1 1 1 1 1 1 1 1 1 1 1 0.049995231962793804 1 1 1 1 0.048591780856905728 1 0.050272794695025907 1 1 1 1 1 1 0.049857554691848036 1 1 0.049538085371767446 1 1 0.050295922048407972 0.050000657446572158 1 0.049996913467753624 1 1 1 0.049984756326192245 1 1 1 1 1 1 1 1 1 1 1 1 1 1 1 0.05038378056013991 1 1 1 1 1 1 1 1 0.050453207292038615 1 1 1 1 1 1 1 1 1 1 1 1 1 1 1 1 1 1 1 1 1 1 1 1 1 1 1 1 1 1 1 1 1 1 1 1 0.039327548871005494 1 1 1 1 1 1 1 0.056624353981282322 1 1 0.051451738591106078 1 0.03853984243115955 1 1 1 1 1 1 1 1 1 1 1 0.050000284560636696 0.050015906428036147 1 1 0.050636596570061199 1 1 0.050145974841644958 0.049950506408843867 1 1 1 1 0.04911035661280147 1 0.05132168204837384 1 1 0.048765270454496544 1 0.049828423898167246 0.050906632919540111 1 0.046275430627808534 1 0.039793045641991792 1 1 1 1 1 1 1 0.050084422623172413 1 0.049996184819488886 1 1 1 1 1 0.05004922673538776 1 1 1 0.039597582282540941 1 1 0.050496361764969869 1 0.053643377952701257 1 0.052073541386865471 0.046722029093963169 1 1 0.05010269413686598 1 1 1 1 1 1 0.04813508514078417 1 1 1 1 1 1 1 1 0.057690474330328284 0.050102787622503329 1 1 1 0.051744342084692134 1 1 1 1 0.040787378901760776 0.059478010949738931 1 0.055512627002319556 1 1 1 0.051790919066789926 1 1 1 1 1 1 1 1 1 1 1 1 1 1 1 1 0.059927042908565577 1 1 1 1 1 1 0.047880130758837021 1 0.043814274631121496 1 1 1 0.04818644219512342 0.040778195964256872 1 1 0.050033843534879011 1 0.049789950079691593 1 1 1 1 1 1 1 1 1 1 1 1 0.049932573583775161 0.050008951032245674 1 1 1 1 1 0.053466573076146676 1 1 1 1 1 1 1 0.05093026941866706 1 1 1 0.049997750721471425 1 0.044873488378350319 1 1 0.050015227452826903 1 1 1 1 1 1 1 1 1 0.056571961927290734 1 1 0.052408538785678076 1 1 1 1 1 1 1 1 1 1 1 0.048811600305663963 1 1 1 1 1 1 1 1 1 1 1 1 1 1 1 1 1 1 1 1 1 1 0.045171399218686251 1 1 1 1 1 1 1 1 1 1 1 0.036065354361317088 1 1 1 1 0.027624988568227898 1 1 1 1 1 1 1 1 1 1 1 0.049340172538885459 1 1 1 1 1 0.047885820373294703 1 0.050159147446791646 1 1 1 1 1 1 1 1 1 0.019576655055027731 1 1 0.012216634539108456 1 1 0.066402612400625755 1 1 1 1 0.045428493832716361 1 1 1 1 1 1 1 1 1 1 1 1 1 1 1 1 1 1 1 1 1 0.063828630161160443 1 1 0.036649798681285206 1 0.054868846232151332 1 1 1 1 1 1 1 1 1 0.039660971491217188 1 1 0.054997965124919904 0.043425448912739396 0.047537882310998585 1 1 1 0.047284291793792205 1 1 1 1 1 1 0.048847549908136167 0.049648911078506767 1 0.057814899172800208 1 1 0.057234374932728545 1 1 0.03975800265884176 1 1 1 1 0.040099790771586083 1 1 1 1 0.044690495450450826 1 1 1 1 1 1 1 1 1 1 1 0.047022430329476221 1 1 0.050400708449510612 1 0.043840257468547923 0.050205783024441036 1 1 0.050010103845485564 0.046429005050069444 0.052623803201616789 1 1 1 1 1 1 1 1 1 1 0.048384127474590574 1 1 1 1 1 1 1 1 1 0.037776368417476294 1 1 1 1 1 0.045587014157617956 1 1 1 1 1 1 1 1 1 1 0.04922944499094413 1 1 1 1 1 1 1 1 1 1 1 1 1 1 1 1 1 1 1 1 1 1 1 1 0.039489590562648093 0.050786971319607202 1 1 1 1 1 1 1 1 0.045715178292425621 1 1 1 1 1 1 1 1 1 1 1 1 1 1 1 1 0.049243003796016142 1 1 1 1 0.049572919847113442 1 1 1 0.048078457488503132 0.04910592993015922 1 1 1 1 1 1 0.049096196664098354 1 0.048568937985846689 1 1 1 0.046887397964033253 1 1 1 1 1 1 1 1 0.050774831876147244 1 0.050227367527006947 0.045760518378224493 1 1 1 1 1 1 1 1 1 1 1 1 0.048974216837387646 1 1 0.048289383529402222 1 0.049566231929353506 1 1 1 1 1 1 1 1 1 1 1 1 1 1 1 1 1 1 1 1 1 1 1 0.049407567130572122 1 1 1 1 1 0.01715878266835355 1 1 1 1 1 1 1 1 1 1 0.048565814636451071 1 1 1 0.049614395480838971 1 1 1 1 1 1 1 1 1 1 1 0.050258242394510905 0.024903291299295478 1 1 1 1 1 0.032296896254774915 1 1 1 0.051331118153200198 1 1 1 1 1 1 1 1 1 1 0.047632806802319821 1 1 1 1 1 1 1 0.049643482359196481 0.058091729034781082 1 0.022831392922433639 1 1 1 1 0.048024519004264112 1 1 1 1 1 0.044983442593004887 1 1 1 1 1 1 1 1 1 1 0.050022085310522366 1 1 1 1 1 1 1 1 1 1 0.039604364491650057 1 1 1 1 1 1 1 0.046690423066523788 1 1 1 1 1 1 1 1 1 1 1 1 1 1 1 1 1 1 1 1 0.049528240147453807 1 1 1 0.048980030392929655 1 1 1 1 1 1 1 1 1 1 1 1 1 0.050315234481106523 1 0.049803626577559955 0.043731675388166948 1 0.051782937286498118 0.036301059594915169 1 1 1 1 1 0.050006875079813037 1 1 1 1 1 1 1 0.046184258535744649 1 1 0.037003301023583901 1 1 0.05108092032537892 1 1 0.040851470227125417 1 1 0.049935897054991844 0.044073075175220376 0.051400928393493341 0.050359358155261623 1 1 0.047303847329842136 0.044811379621497213 1 1 0.034898860294229041 1 1 0.051699412402624448 1 1 1 1 0.043941689686553709 0.034987862784440327 0.050142133250517945 0.028613375550107671 1 1 1 0.050059728654678948 1 0.047229455771068504 1 0.03782011475041782 1 0.050277677689222061 0.034744720987197511 1 1 1 1 1 1 1 0.046985441465501501 1 1 0.010054848897562779 1 0.050292441882149416 1 1 0.033360103955271281 0.065015333291900221 1 1 1 1 1 1 1 1 1 1 1 1 1 1 1 1 1 0.050797372462582042 1 1 1 1 1 1 1 1 1 1 1 1 1 1 1 1 1 0.052241160630660713 1 1 1 1 1 1 1 1 1 1 1 1 1 1 0.048626326989562513 0.052065246625107739 1 1 1 1 0.050007975737374671 1 0.050942575083392491 1 1 1 0.04872288225409311 0.047511453608371765 1 0.049328466811896281 1 1 1 1 1 1 1 1 1 1 1 1 1 1 1 1 1 1 1 0.050183578334530347 1 0.050213142541185266 1 1 1 1 0.049773213621889849 1 1 1 1 1 1 1 1 1 1 1 1 1 1 1 1 1 1 1 1 0.050232989022171111 1 1 1 1 1 1 1 1 1 1 1 1 1 1 0.049604703551098875 1 1 1 1 1 1 1 1 1 1 1 1 1 1 1 1 1 1 1 1 1 1 1 1 1 1 1 1 1 1 1 1 1 1 1 1 1 1 1 1 1 1 1 1 1 1 1 1 1 1 1 1 1 1 1 1 1 1 1 1 1 1 0.044730965810187442 1 1 1 0.046309778025564699 1 1 0.047861173404627456 1 1 1 1 1 1 1 1 1 1 1 0.048448604620937252 1 1 1 1 0.052424774163283699 1 1 1 1 1 1 1 1 1 1 1 1 1 1 1 1 1 1 1 1 1 1 1 1 1 1 1 1 1 0.047189094221810501 1 1 1 1 0.047181717371449231 1 1 1 1 1 1 1 1 1 1 0.042962005812583873 1 1 0.032873913753241592 1 1 1 1 1 1 1 1 1 1 1 1 0.05008006808569887 1 1 1 1 1 1 1 1 0.028434784805074588 1 1 1 1 1 1 1 1 1 1 0.044447750675031199 1 0.048199713497417071 1 1 1 0.039665076027004281 1 1 1 0.05056423811626197 1 0.036582374084306278 1 0.043834417769691644 0.050097691548859208 1 1 1 1 1 0.044228778700165436 1 1 1 1 1 1 1 1 1 1 1 1 1 1 1 1 1 1 1 1 1 1 1 0.048723167452825129 1 1 0.024747378809332043 1 1 1 0.049330348968014207 1 0.026303426293086844 1 1 1 1 1 1 1 1 1 1 1 1 0.049801816876150699 1 1 1 1 1 1 1 1 1 1 1 1 1 1 1 1 1 1 1 0.042153861142385916 1 1 1 1 1 1 1 1 1 1 1 1 1 1 1 1 1 1 1 1 1 1 1 1 1 1 1 0.046634548897045706 1 1 1 1 1 1 1 1 1 1 1 1 1 1 1 1 1 1 0.041156116855383305 1 1 1 0.042237725143004251 1 1 1 0.048047951211027534 0.048436219863545918 1 1 1 1 1 0.047121186247524732 1 1 1 1 1 1 1 0.04400675819769051 0.04412405970309112 1 1 1 0.047320494890292518 1 0.048123762604644599 1 1 1 1 1 1 0.042897099567489959 0.047832193460020093 1 1 0.038095043603567004 0.040849393944731908 1 1 1 1 1 1 1 1 1 1 0.0500290533553127 1 1 1 1 1 1 0.049484137141904555 1 1 1 1 1 1 1 1 1 1 1 1 1 1 1 1 1 0.049936877250158981 1 1 1 1 0.045629264489669238 1 1 0.049806899834442038 1 1 1 1 1 1 1 1 1 1 1 0.038995739897089723 1 0.040192562883313979 1 0.040710726791525993 1 1 1 1 1 1 1 1 1 1 1 1 1 1 1 1 1 1 1 0.049538972813159235 1 1 0.048766625400890766 1 1 1 0.049994264092912202 1 1 0.048590260193539972 1 1 1 1 0.048392204012557893 1 1 1 1 1 1 1 0.046889875864273733 1 1 1 1 1 1 1 1 1 1 1 1 1 1 1 1 1 1 1 1 1 1 1 1 1 1 1 1 1 0.043017757158314768 1 1 1 1 1 1 1 1 1 1 1 1 1 1 1 1 1 1 1 1 1 1 1 1 1 1 1 1 1 1 1 1 1 1 1 1 1 0.038832225086920941 0.05467339035263237 0.044708279059322786 1 1 0.02520141528128585 1 1 1 0.049402459469565951 1 0.049917211097120384 1 1 1 1 1 0.050228732755149282 1 1 1 1 1 1 1 0.022416532262432638 1 1 1 1 1 1 1 1 1 1 1 1 1 1 0.055818877340102928 1 1 1 0.050139480831393447 1 0.019385765940788398 1 1 1 1 1 1 1 1 0.057693102616004605 1 1 1 1 1 1 1 0.050002891678841282 1 0.049958837861824992 1 0.028284910713302198 1 1 1 1 1 1 1 1 0.048908474056718582 1 1 0.042347607337155889 0.055641678312037195 0.050903465653249581 1 0.040376907374854928 1 0.030977369495788179 1 1 1 1 1 1 1 1 1 1 1 1 1 1 1 1 1 1 1 1 1 0.041370949240631928 1 1 0.050312655795033925 0.036053222837027284 1 1 1 0.050075133002718396 1 1 1 1 1 1 1 0.051982510276444613 1 0.050555722775218553 1 1 1 1 0.049699482022976409 1 1 0.055268345134488361 1 1 1 1 1 1 1 0.05683920432533697 1 1 0.060276591874800535 1 1 1 0.063223255685651722 1 1 1 1 1 1 1 1 1 0.049926442099361007 1 1 1 1 1 1 0.033512564580630733 1 1 0.029200975216959274 1 1 1 1 0.029059262184935125 1 1 1 1 1 1 0.056904364410730414 0.0548715053189094 0.03207402407917604 1 1 1 0.049917455390419363 1 0.050000285014662471 1 0.055783287327933903 1 1 1 1 1 1 0.031709170314452431 1 1 1 0.065732883879384113 1 1 1 0.053793668402040723 1 1 1 1 1 1 1 1 1 1 1 1 0.05009171646751482 1 1 1 0.049867267920525205 1 1 1 1 1 0.050255178998612662 0.032054916713033364 1 1 0.050748038652598054 1 0.043053184726740842 0.039803791757490367 0.050760427281180159 1 1 1 0.050139721862379444 1 1 1 1 1 0.035936600134025186 1 1 1 1 1 1 1 1 1 1 1 1 0.050048368653688967 1 1 1 1 1 1 0.044167243476776474 1 1 0.044386254295843773 1 1 0.049979470696327508 1 1 1 1 1 0.049913479749179812 1 1 0.055857792130450862 1 0.049959174506237575 1 0.050022473571309942 1 1 1 1 1 1 0.050070842224998899 1 1 1 1 0.050528541774228913 1 1 1 1 1 1 1 1 1 1 0.051723420265730166 1 1 1 1 1 0.053317392071762455 1 1 1 1 1 1 1 1 1 1 1 1 1 1 1 0.049662433283306107 1 1 1 1 1 0.049009884381023779 1 0.051213827417345502 1 1 1 1 1 0.051507225699296638 1 1 1 1 1 0.048931912982586118 1 1 1 1 1 0.050412495227525347 1 1 1 1 1 1 1 1 1 1 0.039672070927470195 1 0.049993413861714658 1 0.038777061831930346 1 1 0.043965735579389612 1 1 1 1 1 1 1 1 0.036869838203505527 1 0.054544894094810628 1 1 1 1 1 1 1 1 1 1 0.039296557638918414 1 1 1 1 1 1 1 1 1 1 0.045575640565067202 1 1 1 0.04377181977672074 1 0.043588166515861768 0.025277061849179057 1 1 1 0.050048858038467703 1 1 1 0.037994118278663253 0.050326845900405787 1 1 1 1 1 1 1 1 1 1 0.04577034638888057 0.050159488074728358 1 1 1 1 1 0.048159655319865623 1 1 1 1 1 1 1 1 1 1 0.047070544470849365 1 0.043581919206863176 0.052978770702841599 0.036889855226631754 1 1 1 1 1 1 1 1 0.045066687541350257 1 1 1 1 1 1 1 1 1 1 1 1 1 1 1 1 1 1 1 1 1 1 1 1 1 1 1 1 1 0.05051721825428817 1 1 1 1 0.05009876527341104 1 1 1 1 1 1 1 1 0.050304461573848158 1 1 1 1 1 1 1 1 0.050418539504784997 1 1 1 1 1 1 1 1 1 1 1 1 1 1 1 1 1 1 1 1 1 1 1 1 1 1 0.052101650589202943 1 1 1 1 1 1 0.056672599430811196 1 0.026305372580200978 1 1 0.052514114401839174 1 1 1 0.023211419652611323 1 0.054526688122314641 1 1 1 0.049913672094990501 1 1 1 0.047417277880149294 1 1 1 1 1 1 0.049456402916716637 1 1 1 1 1 1 1 1 1 1 1 1 1 1 1 1 1 1 1 1 1 1 1 1 1 1 1 0.04886353375701831 1 0.047093005857896435 1 1 1 1 0.048229472100878149 1 1 1 1 1 1 1 1 1 1 1 1 1 0.048359611734775529 1 1 0.048664073308623615 1 1 0.043568644842460841 1 1 1 1 1 0.033125730102351487 1 1 1 1 1 1 1 1 0.053364962742653024 1 0.057427231207835633 1 1 1 1 1 0.050799609855224574 0.050010103074817139 1 1 0.047541632053881747 1 1 1 0.0562481966522827 1 1 1 1 1 1 1 0.049845707586184257 1 1 1 1 1 1 1 1 1 1 1 1 1 1 1 1 0.051804557490533296 1 1 1 1 1 0.046931649335056738 1 0.048591657889763898 1 1 1 1 1 1 1 1 1 1 1 1 0.047611771303910824 1 0.046844032296066221 1 1 1 1 1 1 0.042929069561803965 0.049271779858617984 1 1 1 1 1 1 1 1 1 1 1 1 1 1 1 1 1 1 1 1 1 0.048983998688387931 1 1 0.04707582009049649 1 1 1 1 1 0.050771395815257921 1 1 1 1 1 1 0.050027218247733811 1 1 1 1 1 1 1 1 1 1 1 1 1 1 1 1 0.049960898847937044 1 1 0.049112763308374385 1 1 1 1 0.04947813247776392 1 1 1 1 1 1 1 1 1 1 1 0.049514475076111758 1 1 1 1 1 1 1 1 1 1 1 1 1 1 1 1 1 1 1 0.046085037265737774 1 1 1 1 1 1 1 1 1 1 1 1 0.048668939957808424 1 1 1 1 1 1 1 1 1 1 1 1 1 0.050079214020213841 0.045363951272481759 1 1 1 1 1 1 0.042964400791603533 1 1 1 1 1 1 1 1 1 1 1 1 1 1 1 1 1 1 1 1 1 1 1 1 1 1 1 1 1 1 1 1 1 1 1 0.049868802881180369 1 1 1 1 1 1 1 1 0.050241580095046506 1 1 1 1 1 1 1 1 1 1 1 1 0.050202478942983561 1 1 1 1 0.047450157862433173 1 0.046119504445351345 1 1 1 1 1 1 1 1 0.050288183069864746 1 1 1 1 1 1 1 1 1 1 0.050251840471516887 1 1 1 0.053796814340420746 1 1 0.050479924419213992 1 1 1 1 0.056385773162811313 1 1 0.05869873873852232 1 1 1 1 1 1 1 1 0.051453271652110097 1 1 1 0.052449592478578409 1 1 1 1 1 1 1 0.051635223407381005 1 0.049983605972416488 1 0.043581957787713108 1 0.042181160399269113 0.049090595514235155 1 1 1 0.049812020676129706 0.050092819329073106 0.046697759587991813 1 1 0.030246099651618327 1 1 1 0.060931345378030445 1 1 1 1 0.050032919193579717 1 1 1 1 1 1 1 1 1 1 1 1 1 1 1 1 1 1 1 1 1 1 1 1 1 1 1 1 1 1 1 1 1 1 1 1 1 1 0.049894922477703954 1 1 1 1 1 1 1 1 0.052166705517648723 1 1 1 1 0.050995267141088457 1 1 0.050282873215370824 1 1 0.051958891991347955 1 1 1 1 0.050697379605614143 1 1 1 1 1 0.050918012145827016 1 1 1 1 1 1 1 1 1 1 1 1 1 0.039139195543950511 0.049979603959473033 1 1 1 0.04620280762510548 1 1 1 1 1 1 1 1 1 1 1 1 1 1 0.049716730752282029 1 1 1 1 1 1 0.048826154029170246 1 1 0.047495093986978654 1 1 1 1 1 1 1 1 1 1 0.049217969631445591 1 1 1 1 1 0.049174909877966182 1 1 1 1 1 1 1 1 1 1 0.051009123404075644 1 1 1 1 1 1 1 1 1 1 1 1 1 1 1 0.049997792381566306 1 1 1 1 1 1 1 1 1 1 1 1 1 1 1 1 1 1 1 1 1 1 1 0.05000806864510407 1 0.051207515529120368 1 1 1 0.049902991122808014 1 1 1 1 1 1 1 1 1 0.050710198619526227 1 1 1 0.051481050845902092 1 1 1 1 1 1 1 1 1 1 1 1 1 1 1 1 0.043157835474007505 1 1 1 1 1 0.051208953459525947 1 1 1 0.043284455322542791 1 0.04988772125435529 1 1 1 1 1 1 0.043770460274895867 1 1 1 1 1 1 1 1 1 1 1 1 1 1 1 1 1 1 1 1 1 1 1 1 1 1 1 0.05049301777395078 1 1 0.050068976063113113 1 1 1 1 1 1 1 0.049741644436677043 1 1 1 1 0.050043912582052208 1 1 0.050043623763141039 1 1 1 1 1 1 0.049960317628743797 1 1 1 0.049978887989952411 1 1 1 0.049978833578827486 1 1 1 1 1 0.048936372350351837 1 1 1 1 1 0.047751930149313233 1 1 1 1 1 1 1 1 0.046569427243588826 1 1 0.049950687377558187 1 1 1 1 0.049825748039301523 1 1 1 1 0.049710926737497399 1 1 1 1 0.043067231756167404 1 1 1 0.043915506612764735 1 0.050098550354833071 1 1 1 1 1 1 1 1 1 1 0.049005637447131253 1 1 1 1 1 1 1 0.047305680451701401 0.048863640200352908 1 1 1 1 1 0.043533477207425599 1 1 1 1 1 0.045883014355008425 1 1 1 0.049744339239683834 1 1 0.049964372086327882 1 1 0.040673979769337482 1 1 1 0.045582917780277329 1 1 1 1 1 1 0.049805049907656274 1 1 1 1 1 0.049932600721664666 1 1 1 1 1 0.049977731674071463 1 1 1 1 1 1 0.049879604434343333 1 1 1 1 0.026202199177041557 1 1 1 1 1 0.049771641685052492 1 1 1 1 1 1 1 1 1 1 0.032681882119260618 1 1 1 1 1 1 1 0.052030246115119159 1 1 1 1 0.05063902273964923 0.051810583666654565 1 1 0.044088622059302772 1 1 1 1 1 1 1 0.047815568852736322 1 1 1 1 1 1 1 0.019444886655039163 1 0.054612384598796755 1 1 0.039096353913963225 1 1 1 1 0.050542750950511653 1 0.037531165600681864 1 1 1 1 1 1 1 1 1 1 0.050124620542257761 1 1 1 1 1 0.049571997447780958 1 1 1 0.019663381181711133 1 1 1 1 0.050147737073904519 1 1 0.048149712660270447 1 1 1 1 1 0.040320619522884654 1 0.032772418732667438 1 0.050007049330737699 0.049540202923783555 1 1 1 1 0.036365793152901671 0.05034609575614514 1 1 1 1 1 1 1 1 1 1 1 1 1 0.050111189295609621 1 1 1 1 1 1 0.051183963519913653 0.047522028627269911 1 1 1 1 1 1 1 1 1 1 1 1 1 0.042313219593337434 1 1 1 1 1 1 1 1 1 1 1 1 1 1 1 1 1 1 1 1 1 1 1 1 1 1 1 1 1 1 1 1 1 0.050180430169864197 1 1 0.050325489929249928 1 1 1 1 1 1 1 0.050124663718858806 1 1 1 0.050182034718420157 1 1 0.054057576020622986 1 1 1 0.028988213837883331 0.0499819005965947 1 1 1 1 0.03610180469182326 0.038855310968798899 1 1 1 1 1 1 1 1 1 1 1 1 1 1 0.028696079512098946 1 1 0.049999867115998443 1 1 1 0.032076553033375588 1 1 1 1 0.050193216595885812 1 1 0.027059322632878427 1 1 1 1 1 1 1 1 1 1 1 0.015619012751358947 1 1 1 1 1 1 1 0.0054198747198391135 1 1 1 1 1 1 1 1 1 1 1 1 1 1 1 1 1 1 0.050055622580949345 1 1 1 1 1 1 0.03725148869354987 1 0.04982138341973337 1 1 1 1 1 0.050894163049605486 1 1 0.050268980717876811 1 1 1 0.025714157297365169 1 1 1 0.050359078096766978 1 1 1 1 1 1 1 1 1 1 1 1 1 1 0.049632942463153036 1 1 1 1 0.048907282415713134 0.041725103013742319 1 1 1 1 1 1 1 1 1 1 1 1 1 1 1 1 1 1 1 0.048814030986914253 1 1 1 1 1 1 1 1 0.040103442152903235 1 0.040253683841312067 1 1 1 1 1 1 1 0.04998742143824346 1 0.049523257405337168 1 1 1 1 1 0.040203206644686601 1 1 1 1 1 1 0.049639152544721121 1 1 1 1 1 0.045595285308023425 0.049387223833042435 1 1 1 0.056203925279673869 0.03963464146183597 0.044562986281754494 1 1 1 1 1 0.046654371345009146 1 1 1 1 1 0.03821435822498831 1 1 1 1 0.041577624035355962 1 0.043124921211692917 0.052007058872851009 1 0.045296555081899725 0.034850092770612025 1 1 1 0.03311602555748426 1 1 1 0.042930567466212752 1 1 1 0.046376941439712716 1 1 1 0.035468475402318719 1 1 1 1 1 1 1 1 0.031577718804186944 1 1 1 0.032368425887947486 1 1 1 1 1 1 0.029551060801757321 1 1 1 1 1 1 0.030144714923542884 1 1 1 1 1 1 1 1 1 1 1 1 1 1 0.050074588300166568 1 0.046702646681743801 1 1 1 0.034892024210543299 1 1 0.050303464756748177 1 0.049355354422697992 1 0.049942884278143689 1 1 0.040429184363857361 1 1 1 1 1 1 0.049562422734704036 1 1 1 1 0.049853826714758652 1 1 1 1 1 1 0.049842889442302946 1 1 1 1 1 1 1 1 1 1 0.049964348484955394 1 1 1 1 1 1 1 1 1 1 1 1 1 1 1 1 1 1 1 0.053492630040601001 0.052739970090892041 1 1 1 0.040421409150875859 1 1 0.053861851526090292 1 1 0.040659178715980251 1 1 0.049758670702521227 1 1 0.053526996466466532 0.048250854729215545 1 1 1 1 0.040395774677056108 1 1 1 1 1 1 1 1 1 1 1 0.056523575255654608 0.042222376667867476 1 1 1 0.051615505032293944 1 0.049982103496456154 1 0.049930909228592113 1 1 1 1 1 0.049922768498679257 1 1 0.026944991547738658 1 0.05542437512011613 1 1 0.05001544229776328 0.040895253517526563 0.037454339871418788 1 1 1 1 0.038826121752574091 1 1 0.040784975086396148 1 0.03192061250680997 1 1 0.046535594251808796 1 1 1 1 1 1 1 1 0.032071930213939115 1 0.033056958891844443 0.049708776486163335 1 1 1 1 1 0.049706006250584508 0.020910666093934466 1 1 1 0.045285192877831205 0.048583728191327981 1 1 1 1 1 1 1 1 0.049981932920653331 1 0.01953844223904673 1 1 1 1 1 1 1 1 1 1 1 1 1 1 1 1 1 1 1 1 1 1 1 1 1 1 1 1 1 0.04998057006708316 1 1 1 1 1 1 1 1 1 1 1 1 1 1 1 0.052766217514053401 1 1 0.049867754543364812 1 1 1 1 1 0.05009700039069695 1 1 1 1 1 1 1 1 1 1 1 1 1 0.049770754152667865 1 1 1 1 1 1 1 1 1 0.035233379216826302 1 1 0.062923462507626343 1 1 1 1 0.050002664137540405 0.031513702815594749 0.04719184858623815 1 1 1 1 1 0.058045707080040913 1 1 1 
</DataArray>
</CellData>
</Piece>
</UnstructuredGrid>
</VTKFile>
